77
Properties=species:S:1:pos:R:3 Coordinates=T from=T ORCA-job=T ./CoPor=T E=T -2369.803340232490=T pbc="F F F"
Co       0.00213612       0.13787848       0.09524498
N       -1.98277208       0.27020450       0.12851130
N        1.98698421       0.00559604       0.06164614
N        0.13337154       2.12219088       0.03510295
N       -0.12911804      -1.84635142       0.15548049
C       -2.88845897      -0.76359753       0.17543220
H       -5.13244254      -0.88651031       0.22059519
C       -2.74447649       1.41499025       0.10918090
C       -4.15126504       1.09686010       0.14451062
H       -4.95253607       1.83443491       0.13782295
C       -4.24109246      -0.26170451       0.18579335
C       -2.24965136       2.70894874       0.06230173
C        1.27802652       2.88308906      -0.00850144
C        0.95904831       4.28968904      -0.04360884
H        1.69636618       5.09036142      -0.08085817
C       -0.39990775       4.38022203      -0.02080383
H       -1.02538144       5.27166657      -0.03519997
C       -0.90118557       3.02819900       0.02798516
C       -2.56834625      -2.11188080       0.20906685
H        1.02960706      -4.99581576       0.22656209
C        0.40414276      -4.10437090       0.21200056
C        0.90542573      -2.75237790       0.16263305
H       -1.69213381      -4.81447120       0.27263218
C       -1.27378045      -2.60722756       0.19946839
C       -0.95480627      -4.01381857       0.23501181
C        2.57258107       2.38771270      -0.01842927
H        4.95673549      -1.55866098       0.05083505
C        4.15546561      -0.82107541       0.04461107
C        4.24528105       0.53749658       0.00355315
H        5.13661938       1.16230354      -0.03148740
C        2.89266143       1.03940517       0.01458137
C        2.74869036      -1.13919981       0.08047596
C        2.25388287      -2.43315432       0.12767337
C        3.71575540       3.38821053      -0.06899159
C       -3.71149433      -3.11240155       0.25976898
C       -3.25098859       3.85241238       0.04764989
C        3.25521060      -3.57662914       0.14209905
C        4.73453112       3.23633318      -1.00991311
C        5.78396342       4.15393125      -1.05608908
C        5.81416705       5.22467398      -0.16174198
C        4.79530742       5.37671545       0.77861738
C        3.74621283       4.45823024       0.82530221
H        4.71061339       2.39225527      -1.71430548
H        6.58731102       4.03383281      -1.79725684
H        6.64163650       5.94797866      -0.19833571
H        4.81890419       6.22047093       1.48360391
H        2.94326458       4.57815836       1.56692986
C       -3.70719424      -4.12858464       1.21562328
C       -4.75574957      -5.04717763       1.26193994
C       -5.80980636      -4.94896581       0.35277675
C       -5.81426512      -3.93266979      -0.60251891
C       -4.76486865      -3.01453580      -0.64932733
H       -2.87624787      -4.20590826       1.93169407
H       -4.75201509      -5.84853662       2.01488780
H       -6.63637406      -5.67329504       0.38948446
H       -6.64484208      -3.85507913      -1.31918321
H       -4.76848123      -2.21360174      -1.40272748
C       -3.14358217       4.86143674      -0.90976209
C       -4.06194037       5.91113633      -0.92301330
C       -5.08898996       5.95135567       0.02081430
C       -5.19658704       4.94224183       0.97767344
C       -4.27731841       3.89288435       0.99138734
H       -2.33391811       4.82962994      -1.65316011
H       -3.97687206       6.70680229      -1.67720141
H       -5.81290298       6.77903382       0.01017153
H       -6.00590093       4.97373346       1.72165288
H       -4.36219459       3.09762225       1.74602263
C        3.11305618      -4.63959584      -0.75020019
C        4.03141375      -5.68929314      -0.73672610
C        5.09319681      -5.67558946       0.16864008
C        5.23552093      -4.61256584       1.06037543
C        4.31627131      -3.56318212       1.04741701
H        2.27603494      -4.65026050      -1.46328496
H        3.91897439      -6.52744954      -1.43955744
H        5.81710220      -6.50327689       0.17907806
H        6.07221372      -4.60155230       1.77403501
H        4.42853589      -2.72540263       1.75072519
