31
Properties=species:S:1:pos:R:3 pbc="F F F"
Zr      -1.51900000       0.14080000       0.14070000
C       -0.58580302       1.46081537      -2.14549834
C       -0.10488398      -1.98439677       1.22326159
C        0.45868400      -1.78517252      -0.11909603
C       -0.57089337      -2.14913354      -1.10245525
C       -1.77070466      -2.57327314      -0.36781600
C       -1.48270112      -2.47146238       1.06960569
H        0.40608400      -1.80376690       2.16205899
H        1.45843775      -1.43175430      -0.34442690
H       -0.46399338      -2.11134383      -2.18055412
H       -2.70439232      -2.90333665      -0.80876754
H       -2.16663518      -2.71323667       1.87518958
C        0.37397187       0.66127569       2.09873155
C       -0.83776423       0.25855355       2.82587226
C       -1.85102189       1.30561447       2.63491440
C       -1.26547814       2.35538743       1.78978033
C        0.10968972       1.95716536       1.45838160
H        1.30022161       0.10078386       2.04426750
H       -0.96236045      -0.65123115       3.40202638
H       -2.85431446       1.30384487       3.04546736
H       -1.76093283       3.26407833       1.46735462
H        0.80678347       2.52052061       0.84856428
H        0.00862514       0.78826392      -2.72802358
H       -1.41809952       1.79715614      -2.72787569
H        0.00867068       2.30144750      -1.85422761
C       -3.38109525       0.47235032      -1.58956883
C       -2.87375716       1.69044728      -1.38716809
H       -3.26446947       2.35066109      -0.62020939
H       -2.04963593       2.07082967      -1.98121984
H       -4.20521648       0.09196792      -0.99551709
H       -2.99038294      -0.18786350      -2.35652754
