31
 energy: -37.634324076552 gnorm: 0.000287792233 xtb: 6.5.1 (b24c23e)
Zr          -1.18510220523661        0.04124187849658        0.28236561354893
C           -0.03294523314696        1.27439131991710       -1.74791738092082
C            0.00871758970279       -2.04496601731041        0.74414154634891
C            0.14708001661445       -1.80206438719851       -0.64418585385486
C           -1.13816516818405       -1.87778233157020       -1.23351331302217
C           -2.07681544966214       -2.16620125010943       -0.20701905553819
C           -1.36621576822470       -2.27394476281642        1.01457278663796
H            0.82612514583117       -2.19798498366365        1.44074977382145
H            1.08703719044373       -1.74309781730145       -1.18233640771072
H           -1.34876203488154       -1.86875786046072       -2.29638609889175
H           -3.11474469976099       -2.44335188443270       -0.35683962379108
H           -1.77786095622882       -2.63396750168341        1.95166544995972
C            0.17575006471132        1.09869953004759        2.00609123429404
C           -0.74681650408671        0.26068284308379        2.68076597379896
C           -2.05331313953300        0.75644236875326        2.44121710318864
C           -1.93143553274576        1.93495964440972        1.65869492444290
C           -0.55883477672626        2.14286295960609        1.38602324249407
H            1.25624932279322        1.05829640520547        2.10705553466522
H           -0.48921915143295       -0.52899143935638        3.37711558021661
H           -2.95986381316043        0.41218920857282        2.92977744651303
H           -2.72715187371825        2.64194415205198        1.45590718468440
H           -0.13373859875050        3.02856940989953        0.92768153770924
H            0.71526260222673        1.01233320251092       -0.96342163131570
H            0.07065270315216        0.61914010143900       -2.60964616631560
H            0.11714106873958        2.30442335518273       -2.04621313201368
C           -3.14409401179652        0.65250710365569       -1.03711071112249
C           -2.16086203408794        1.50538387047273       -1.57060639098673
H           -2.11976101887225        2.51335737631577       -1.15136031023890
H           -2.12347668763797        1.53048018516819       -2.65825321080037
H           -3.78376276144892        1.01134265945311       -0.22671777323026
H           -3.58344182491980       -0.09214530833177       -1.69507358259142
