      -----------------------------------------------------------      
     |                   =====================                   |     
     |                           x T B                           |     
     |                   =====================                   |     
     |                         S. Grimme                         |     
     |          Mulliken Center for Theoretical Chemistry        |     
     |                    University of Bonn                     |     
      -----------------------------------------------------------      

   * xtb version 6.5.1 (b24c23e) compiled by 'conda@728c89f4b128' on 2022-07-12

   xtb is free software: you can redistribute it and/or modify it under
   the terms of the GNU Lesser General Public License as published by
   the Free Software Foundation, either version 3 of the License, or
   (at your option) any later version.
   
   xtb is distributed in the hope that it will be useful,
   but WITHOUT ANY WARRANTY; without even the implied warranty of
   MERCHANTABILITY or FITNESS FOR A PARTICULAR PURPOSE.  See the
   GNU Lesser General Public License for more details.
   
   Cite this work as:
   * C. Bannwarth, E. Caldeweyher, S. Ehlert, A. Hansen, P. Pracht,
     J. Seibert, S. Spicher, S. Grimme, WIREs Comput. Mol. Sci., 2020, 11,
     e01493. DOI: 10.1002/wcms.1493
   
   for GFN2-xTB:
   * C. Bannwarth, S. Ehlert and S. Grimme., J. Chem. Theory Comput., 2019,
     15, 1652-1671. DOI: 10.1021/acs.jctc.8b01176
   for GFN1-xTB:
   * S. Grimme, C. Bannwarth, P. Shushkov, J. Chem. Theory Comput., 2017,
     13, 1989-2009. DOI: 10.1021/acs.jctc.7b00118
   for GFN0-xTB:
   * P. Pracht, E. Caldeweyher, S. Ehlert, S. Grimme, ChemRxiv, 2019, preprint.
     DOI: 10.26434/chemrxiv.8326202.v1
   for GFN-FF:
   * S. Spicher and S. Grimme, Angew. Chem. Int. Ed., 2020, 59, 15665-15673.
     DOI: 10.1002/anie.202004239
   
   for ALPB and GBSA implicit solvation:
   * S. Ehlert, M. Stahn, S. Spicher, S. Grimme, J. Chem. Theory Comput.,
     2021, 17, 4250-4261. DOI: 10.1021/acs.jctc.1c00471
   
   for DFT-D4:
   * E. Caldeweyher, C. Bannwarth and S. Grimme, J. Chem. Phys., 2017,
     147, 034112. DOI: 10.1063/1.4993215
   * E. Caldeweyher, S. Ehlert, A. Hansen, H. Neugebauer, S. Spicher,
     C. Bannwarth and S. Grimme, J. Chem. Phys., 2019, 150, 154122.
     DOI: 10.1063/1.5090222
   * E. Caldeweyher, J.-M. Mewes, S. Ehlert and S. Grimme, Phys. Chem. Chem. Phys.
     2020, 22, 8499-8512. DOI: 10.1039/D0CP00502A
   
   for sTDA-xTB:
   * S. Grimme and C. Bannwarth, J. Chem. Phys., 2016, 145, 054103.
     DOI: 10.1063/1.4959605
   
   in the mass-spec context:
   * V. Asgeirsson, C. Bauer and S. Grimme, Chem. Sci., 2017, 8, 4879.
     DOI: 10.1039/c7sc00601b
   * J. Koopman and S. Grimme, ACS Omega 2019, 4, 12, 15120-15133.
     DOI: 10.1021/acsomega.9b02011
   
   for metadynamics refer to:
   * S. Grimme, J. Chem. Theory Comput., 2019, 155, 2847-2862
     DOI: 10.1021/acs.jctc.9b00143
   
   for SPH calculations refer to:
   * S. Spicher and S. Grimme, J. Chem. Theory Comput., 2021, 17, 1701-1714
     DOI: 10.1021/acs.jctc.0c01306
   
   with help from (in alphabetical order)
   P. Atkinson, C. Bannwarth, F. Bohle, G. Brandenburg, E. Caldeweyher
   M. Checinski, S. Dohm, S. Ehlert, S. Ehrlich, I. Gerasimov, C. Hölzer
   A. Katbashev, J. Koopman, C. Lavigne, S. Lehtola, F. März, M. Müller,
   F. Musil, H. Neugebauer, J. Pisarek, C. Plett, P. Pracht, F. Pultar,
   J. Seibert, P. Shushkov, S. Spicher, M. Stahn, M. Steiner, T. Strunk,
   J. Stückrath, T. Rose, and J. Unsleber
   
 * started run on 2026/08/18 at 18:29:27.886     

           -------------------------------------------------
          |                Calculation Setup                |
           -------------------------------------------------

          program call               : /h/332/chchoi/miniconda3/envs/el-agente/bin/xtb ts_guess2.xyz --opt --gfn 2 -P 4 --chrg 1 --uhf 0 --input detailed_input.inp
          coordinate file            : ts_guess2.xyz
          omp threads                :                     4

   ID    Z sym.   atoms
    1   40 Zr     1
    2    6 C      2-7, 13-17, 26, 27
    3    1 H      8-12, 18-25, 28-31
constraining bond 2 27 to    2.1500000 Å, actual value:    2.4212664 Å
constraining bond 1 2 to    2.6500000 Å, actual value:    2.8000003 Å
constraining bond 1 26 to    2.4500000 Å, actual value:    2.5634266 Å
constraining bond 26 27 to    1.4000000 Å, actual value:    1.3349601 Å
constraining bond 1 27 to    2.5500000 Å, actual value:    2.5634266 Å

molecular fragmentation (1/2 indicates fragments):
1111111111111111111111111222222
# atoms in fragment 1/2:    25     6
 fragment masses (1/2) :      236.44       28.05
CMA distance (Bohr)    :   5.987
constraining FC (au)   :  0.7000

           -------------------------------------------------
          |                 G F N 2 - x T B                 |
           -------------------------------------------------

        Reference                      10.1021/acs.jctc.8b01176
      * Hamiltonian:
        H0-scaling (s, p, d)           1.850000    2.230000    2.230000
        zeta-weighting                 0.500000
      * Dispersion:
        s8                             2.700000
        a1                             0.520000
        a2                             5.000000
        s9                             5.000000
      * Repulsion:
        kExp                           1.500000    1.000000
        rExp                           1.000000
      * Coulomb:
        alpha                          2.000000
        third order                    shell-resolved
        anisotropic                    true
        a3                             3.000000
        a5                             4.000000
        cn-shift                       1.200000
        cn-exp                         4.000000
        max-rad                        5.000000


          ...................................................
          :                      SETUP                      :
          :.................................................:
          :  # basis functions                  79          :
          :  # atomic orbitals                  78          :
          :  # shells                           46          :
          :  # electrons                        72          :
          :  max. iterations                   250          :
          :  Hamiltonian                  GFN2-xTB          :
          :  restarted?                      false          :
          :  GBSA solvation                  false          :
          :  PC potential                    false          :
          :  electronic temp.          300.0000000     K    :
          :  accuracy                    1.0000000          :
          :  -> integral cutoff          0.2500000E+02      :
          :  -> integral neglect         0.1000000E-07      :
          :  -> SCF convergence          0.1000000E-05 Eh   :
          :  -> wf. convergence          0.1000000E-03 e    :
          :  Broyden damping             0.4000000          :
          ...................................................

 iter      E             dE          RMSdq      gap      omega  full diag
   1    -37.7547835 -0.377548E+02  0.722E+00    0.39       0.0  T
   2    -37.8469751 -0.921916E-01  0.480E+00    2.08       1.0  T
   3    -37.8013993  0.455758E-01  0.466E+00    0.30       1.0  T
   4    -37.9507959 -0.149397E+00  0.266E+00    0.67       1.0  T
   5    -37.9990594 -0.482635E-01  0.892E-01    1.13       1.0  T
   6    -38.0076903 -0.863091E-02  0.429E-01    0.94       1.0  T
   7    -38.0085844 -0.894113E-03  0.404E-01    0.85       1.0  T
   8    -38.0084871  0.973214E-04  0.352E-01    0.83       1.0  T
   9    -38.0089638 -0.476721E-03  0.892E-02    0.87       1.0  T
  10    -38.0089900 -0.261679E-04  0.338E-02    0.88       1.0  T
  11    -38.0089865  0.340942E-05  0.237E-02    0.88       1.0  T
  12    -38.0089941 -0.758678E-05  0.775E-03    0.87       2.3  T
  13    -38.0089944 -0.221817E-06  0.398E-03    0.87       4.5  T
  14    -38.0089944 -0.254939E-07  0.189E-03    0.87       9.5  T
  15    -38.0089944 -0.308215E-07  0.101E-03    0.87      17.8  T
  16    -38.0089944 -0.698854E-08  0.594E-04    0.87      30.2  T
  17    -38.0089944 -0.360173E-08  0.192E-04    0.87      93.6  T

   *** convergence criteria satisfied after 17 iterations ***

         #    Occupation            Energy/Eh            Energy/eV
      -------------------------------------------------------------
         1        2.0000           -0.8488182             -23.0975
       ...           ...                  ...                  ...
        30        2.0000           -0.5720405             -15.5660
        31        2.0000           -0.5380303             -14.6405
        32        2.0000           -0.5073196             -13.8049
        33        2.0000           -0.5069623             -13.7951
        34        2.0000           -0.4944061             -13.4535
        35        2.0000           -0.4871253             -13.2554
        36        2.0000           -0.4790545             -13.0357 (HOMO)
        37                         -0.4469441             -12.1620 (LUMO)
        38                         -0.4405677             -11.9885
        39                         -0.4349085             -11.8345
        40                         -0.4328549             -11.7786
        41                         -0.4306705             -11.7191
       ...                                ...                  ...
        78                          1.9033256              51.7921
      -------------------------------------------------------------
                  HL-Gap            0.0321104 Eh            0.8738 eV
             Fermi-level           -0.4629998 Eh          -12.5989 eV

 SCC (total)                   0 d,  0 h,  0 min,  3.126 sec
 SCC setup                      ...        0 min,  0.000 sec (  0.010%)
 Dispersion                     ...        0 min,  0.051 sec (  1.645%)
 classical contributions        ...        0 min,  0.036 sec (  1.154%)
 integral evaluation            ...        0 min,  0.096 sec (  3.057%)
 iterations                     ...        0 min,  2.564 sec ( 82.041%)
 molecular gradient             ...        0 min,  0.378 sec ( 12.085%)
 printout                       ...        0 min,  0.000 sec (  0.007%)

         :::::::::::::::::::::::::::::::::::::::::::::::::::::
         ::                     SUMMARY                     ::
         :::::::::::::::::::::::::::::::::::::::::::::::::::::
         :: total energy             -37.157418093864 Eh    ::
         :: gradient norm              1.425359994341 Eh/a0 ::
         :: HOMO-LUMO gap              0.873768125327 eV    ::
         ::.................................................::
         :: SCC energy               -38.008994419761 Eh    ::
         :: -> isotropic ES            0.096308708120 Eh    ::
         :: -> anisotropic ES         -0.004159897699 Eh    ::
         :: -> anisotropic XC          0.018655723301 Eh    ::
         :: -> dispersion             -0.026899570874 Eh    ::
         :: repulsion energy           0.567400542813 Eh    ::
         :: add. restraining           0.283374998195 Eh    ::
         :: total charge               0.999999999907 e     ::
         :::::::::::::::::::::::::::::::::::::::::::::::::::::

      ----------------------------------------------------------- 
     |                   =====================                   |
     |                        A N C O P T                        |
     |                   =====================                   |
     |               Approximate Normal Coordinate               |
     |                Rational Function Optimizer                |
      ----------------------------------------------------------- 

          ...................................................
          :                      SETUP                      :
          :.................................................:
          :   optimization level            normal          :
          :   max. optcycles                   200          :
          :   ANC micro-cycles                  20          :
          :   degrees of freedom                87          :
          :.................................................:
          :   RF solver                   davidson          :
          :   write xtbopt.log                true          :
          :   linear?                        false          :
          :   energy convergence         0.5000000E-05 Eh   :
          :   grad. convergence          0.1000000E-02 Eh/α :
          :   maximium RF displ.         1.0000000          :
          :   Hlow (freq-cutoff)         0.1000000E-01      :
          :   Hmax (freq-cutoff)         5.0000000          :
          :   S6 in model hess.         20.0000000          :
          ...................................................

generating ANC from model Hessian ...
Using Lindh-Hessian (1995)
 Shifting diagonal of input Hessian by    1.1331307245935361E-002
 Lowest  eigenvalues of input Hessian
    0.010000    0.010590    0.011188    0.000000    0.000000    0.000000
    0.000000    0.000000    0.000000    0.011663    0.011726    0.011805
    0.011871    0.012048    0.012200    0.012565    0.016044    0.017648
 Highest eigenvalues
    1.492720    1.711495    2.420846    3.292099    4.746411    5.301549


........................................................................
.............................. CYCLE    1 ..............................
........................................................................
   1    -38.0089944 -0.380090E+02  0.140E-04    0.87       0.0  T
   2    -38.0089944  0.473634E-09  0.243E-04    0.87      74.0  T
   3    -38.0089944 -0.684260E-09  0.503E-05    0.87     356.9  T
     SCC iter.                  ...        0 min,  0.515 sec
     gradient                   ...        0 min,  0.303 sec
 * total energy  :   -37.1574181 Eh     change       -0.2120331E-09 Eh
   gradient norm :     1.4253604 Eh/α   predicted     0.0000000E+00 (-100.00%)
   displ. norm   :     0.4197297 α      lambda       -0.4676186E+00
   maximum displ.:     0.2440047 α      in ANC's #86, #83, #54, ...

........................................................................
.............................. CYCLE    2 ..............................
........................................................................
   1    -38.0285296 -0.380285E+02  0.757E-01    1.01       0.0  T
   2    -38.0283562  0.173392E-03  0.664E-01    1.00       1.0  T
   3    -38.0322192 -0.386299E-02  0.365E-01    0.97       1.0  T
   4    -38.0316765  0.542697E-03  0.306E-01    1.05       1.0  T
   5    -38.0327236 -0.104709E-02  0.684E-02    0.99       1.0  T
   6    -38.0327305 -0.693987E-05  0.616E-02    1.00       1.0  T
   7    -38.0327484 -0.178289E-04  0.161E-02    0.99       1.1  T
   8    -38.0327526 -0.419638E-05  0.793E-03    0.99       2.3  T
   9    -38.0327533 -0.704531E-06  0.380E-03    0.99       4.7  T
  10    -38.0327534 -0.913862E-07  0.274E-03    0.99       6.6  T
  11    -38.0327534 -0.280949E-07  0.176E-03    0.99      10.2  T
  12    -38.0327534 -0.231383E-08  0.690E-04    0.99      26.0  T
  13    -38.0327534 -0.697336E-08  0.275E-04    0.99      65.3  T
     SCC iter.                  ...        0 min,  2.322 sec
     gradient                   ...        0 min,  0.232 sec
 * total energy  :   -37.4405279 Eh     change       -0.2831098E+00 Eh
   gradient norm :     0.2569097 Eh/α   predicted    -0.2750097E+00 (  -2.86%)
   displ. norm   :     0.6785535 α      lambda       -0.9909065E-01
   maximum displ.:     0.3617471 α      in ANC's #20, #43, #49, ...

........................................................................
.............................. CYCLE    3 ..............................
........................................................................
   1    -38.0992498 -0.380992E+02  0.883E-01    1.08       0.0  T
   2    -38.0969907  0.225916E-02  0.720E-01    1.16       1.0  T
   3    -38.1024192 -0.542849E-02  0.495E-01    1.01       1.0  T
   4    -38.1038624 -0.144324E-02  0.235E-01    1.13       1.0  T
   5    -38.1045965 -0.734075E-03  0.732E-02    1.05       1.0  T
   6    -38.1046188 -0.223010E-04  0.464E-02    1.07       1.0  T
   7    -38.1046329 -0.140995E-04  0.230E-02    1.07       1.0  T
   8    -38.1046321  0.770752E-06  0.962E-03    1.07       1.9  T
   9    -38.1046337 -0.157534E-05  0.393E-03    1.07       4.6  T
  10    -38.1046338 -0.771759E-07  0.278E-03    1.07       6.5  T
  11    -38.1046337  0.799912E-08  0.194E-03    1.07       9.3  T
  12    -38.1046338 -0.268550E-07  0.606E-04    1.07      29.6  T
  13    -38.1046338 -0.133207E-08  0.318E-04    1.07      56.5  T
     SCC iter.                  ...        0 min,  2.285 sec
     gradient                   ...        0 min,  0.372 sec
 * total energy  :   -37.5132675 Eh     change       -0.7273953E-01 Eh
   gradient norm :     0.0917344 Eh/α   predicted    -0.7235777E-01 (  -0.52%)
   displ. norm   :     0.6988334 α      lambda       -0.4825469E-01
   maximum displ.:     0.3022517 α      in ANC's #20, #22, #3, ...

........................................................................
.............................. CYCLE    4 ..............................
........................................................................
   1    -38.1510757 -0.381511E+02  0.829E-01    1.16       0.0  T
   2    -38.1465319  0.454380E-02  0.747E-01    1.24       1.0  T
   3    -38.1560217 -0.948987E-02  0.428E-01    1.09       1.0  T
   4    -38.1570036 -0.981853E-03  0.174E-01    1.19       1.0  T
   5    -38.1573441 -0.340543E-03  0.854E-02    1.12       1.0  T
   6    -38.1573793 -0.351817E-04  0.439E-02    1.14       1.0  T
   7    -38.1573947 -0.154071E-04  0.228E-02    1.14       1.0  T
   8    -38.1573936  0.109265E-05  0.106E-02    1.14       1.7  T
   9    -38.1573957 -0.207589E-05  0.405E-03    1.14       4.4  T
  10    -38.1573959 -0.204231E-06  0.148E-03    1.14      12.1  T
  11    -38.1573959 -0.655103E-08  0.852E-04    1.14      21.1  T
  12    -38.1573959 -0.141637E-08  0.503E-04    1.14      35.7  T
     SCC iter.                  ...        0 min,  1.548 sec
     gradient                   ...        0 min,  0.304 sec
 * total energy  :   -37.5505964 Eh     change       -0.3732893E-01 Eh
   gradient norm :     0.0796977 Eh/α   predicted    -0.3591059E-01 (  -3.80%)
   displ. norm   :     0.6653500 α      lambda       -0.2982604E-01
   maximum displ.:     0.2594502 α      in ANC's #22, #6, #10, ...

........................................................................
.............................. CYCLE    5 ..............................
........................................................................
   1    -38.1901189 -0.381901E+02  0.711E-01    1.21       0.0  T
   2    -38.1861744  0.394450E-02  0.694E-01    1.25       1.0  T
   3    -38.1948587 -0.868438E-02  0.338E-01    1.16       1.0  T
   4    -38.1950798 -0.221032E-03  0.135E-01    1.23       1.0  T
   5    -38.1953483 -0.268479E-03  0.634E-02    1.17       1.0  T
   6    -38.1953633 -0.150789E-04  0.319E-02    1.19       1.0  T
   7    -38.1953714 -0.811123E-05  0.186E-02    1.18       1.0  T
   8    -38.1953715 -0.605016E-07  0.811E-03    1.19       2.2  T
   9    -38.1953724 -0.932217E-06  0.314E-03    1.19       5.7  T
  10    -38.1953726 -0.119754E-06  0.119E-03    1.19      15.1  T
  11    -38.1953726  0.565194E-09  0.538E-04    1.19      33.4  T
  12    -38.1953726 -0.305297E-08  0.326E-04    1.19      55.2  T
     SCC iter.                  ...        0 min,  1.945 sec
     gradient                   ...        0 min,  0.342 sec
 * total energy  :   -37.5738146 Eh     change       -0.2321822E-01 Eh
   gradient norm :     0.0686000 Eh/α   predicted    -0.2151488E-01 (  -7.34%)
   displ. norm   :     0.6254882 α      lambda       -0.1990490E-01
   maximum displ.:     0.2518797 α      in ANC's #6, #10, #1, ...

........................................................................
.............................. CYCLE    6 ..............................
........................................................................
   1    -38.2118571 -0.382119E+02  0.591E-01    1.24       0.0  T
   2    -38.2107078  0.114931E-02  0.523E-01    1.21       1.0  T
   3    -38.2134236 -0.271577E-02  0.314E-01    1.18       1.0  T
   4    -38.2137185 -0.294951E-03  0.104E-01    1.25       1.0  T
   5    -38.2139419 -0.223349E-03  0.522E-02    1.19       1.0  T
   6    -38.2139572 -0.153690E-04  0.222E-02    1.20       1.0  T
   7    -38.2139596 -0.240515E-05  0.128E-02    1.20       1.4  T
   8    -38.2139597 -0.300199E-07  0.515E-03    1.20       3.5  T
   9    -38.2139600 -0.345317E-06  0.193E-03    1.20       9.3  T
  10    -38.2139600 -0.168982E-07  0.994E-04    1.20      18.1  T
  11    -38.2139600 -0.441315E-08  0.546E-04    1.20      32.9  T
     SCC iter.                  ...        0 min,  1.834 sec
     gradient                   ...        0 min,  0.265 sec
 * total energy  :   -37.5890937 Eh     change       -0.1527914E-01 Eh
   gradient norm :     0.0454446 Eh/α   predicted    -0.1384621E-01 (  -9.38%)
   displ. norm   :     0.6808988 α      lambda       -0.1503930E-01
   maximum displ.:     0.3075896 α      in ANC's #1, #10, #12, ...

........................................................................
.............................. CYCLE    7 ..............................
........................................................................
   1    -38.2260496 -0.382260E+02  0.533E-01    1.22       0.0  T
   2    -38.2248710  0.117855E-02  0.519E-01    1.22       1.0  T
   3    -38.2283063 -0.343522E-02  0.254E-01    1.20       1.0  T
   4    -38.2283422 -0.359474E-04  0.647E-02    1.23       1.0  T
   5    -38.2284091 -0.668954E-04  0.326E-02    1.20       1.0  T
   6    -38.2284116 -0.252889E-05  0.171E-02    1.20       1.0  T
   7    -38.2284123 -0.657766E-06  0.983E-03    1.20       1.8  T
   8    -38.2284130 -0.706657E-06  0.291E-03    1.21       6.2  T
   9    -38.2284130 -0.359836E-07  0.117E-03    1.20      15.4  T
  10    -38.2284131 -0.135094E-07  0.666E-04    1.21      27.0  T
  11    -38.2284131  0.360373E-09  0.369E-04    1.21      48.7  T
     SCC iter.                  ...        0 min,  1.516 sec
     gradient                   ...        0 min,  0.310 sec
 * total energy  :   -37.5996489 Eh     change       -0.1055513E-01 Eh
   gradient norm :     0.0571084 Eh/α   predicted    -0.1100594E-01 (   4.27%)
   displ. norm   :     0.6019357 α      lambda       -0.1231773E-01
   maximum displ.:     0.2868331 α      in ANC's #1, #6, #10, ...

........................................................................
.............................. CYCLE    8 ..............................
........................................................................
   1    -38.2357400 -0.382357E+02  0.503E-01    1.24       0.0  T
   2    -38.2357011  0.389618E-04  0.401E-01    1.17       1.0  T
   3    -38.2357314 -0.303475E-04  0.239E-01    1.21       1.0  T
   4    -38.2361326 -0.401213E-03  0.849E-02    1.21       1.0  T
   5    -38.2363021 -0.169492E-03  0.316E-02    1.19       1.0  T
   6    -38.2363056 -0.348904E-05  0.140E-02    1.20       1.3  T
   7    -38.2363065 -0.902543E-06  0.818E-03    1.20       2.2  T
   8    -38.2363068 -0.279047E-06  0.356E-03    1.20       5.0  T
   9    -38.2363069 -0.475355E-07  0.130E-03    1.20      13.8  T
  10    -38.2363069 -0.151891E-07  0.596E-04    1.20      30.1  T
  11    -38.2363069 -0.175336E-08  0.237E-04    1.20      75.7  T
     SCC iter.                  ...        0 min,  1.532 sec
     gradient                   ...        0 min,  0.222 sec
 * total energy  :   -37.6076589 Eh     change       -0.8009991E-02 Eh
   gradient norm :     0.0309443 Eh/α   predicted    -0.8390387E-02 (   4.75%)
   displ. norm   :     0.6333218 α      lambda       -0.7114967E-02
   maximum displ.:     0.4306286 α      in ANC's #1, #19, #10, ...

........................................................................
.............................. CYCLE    9 ..............................
........................................................................
   1    -38.2196421 -0.382196E+02  0.416E-01    1.21       0.0  T
   2    -38.2193290  0.313115E-03  0.373E-01    1.19       1.0  T
   3    -38.2205597 -0.123072E-02  0.205E-01    1.19       1.0  T
   4    -38.2206528 -0.930828E-04  0.440E-02    1.19       1.0  T
   5    -38.2206807 -0.279170E-04  0.286E-02    1.19       1.0  T
   6    -38.2206865 -0.574828E-05  0.129E-02    1.19       1.4  T
   7    -38.2206868 -0.315338E-06  0.564E-03    1.19       3.2  T
   8    -38.2206868 -0.565656E-07  0.272E-03    1.19       6.6  T
   9    -38.2206869 -0.340854E-07  0.124E-03    1.19      14.5  T
  10    -38.2206869 -0.712487E-08  0.577E-04    1.19      31.1  T
  11    -38.2206869 -0.157949E-08  0.290E-04    1.19      61.9  T
     SCC iter.                  ...        0 min,  0.914 sec
     gradient                   ...        0 min,  0.046 sec
 * total energy  :   -37.6112436 Eh     change       -0.3584686E-02 Eh
   gradient norm :     0.0527993 Eh/α   predicted    -0.4984395E-02 (  39.05%)
   displ. norm   :     0.4146997 α      lambda       -0.5966284E-02
   maximum displ.:     0.1450249 α      in ANC's #10, #1, #9, ...

........................................................................
.............................. CYCLE   10 ..............................
........................................................................
   1    -38.2346241 -0.382346E+02  0.237E-01    1.19       0.0  T
   2    -38.2346719 -0.477712E-04  0.153E-01    1.20       1.0  T
   3    -38.2346057  0.661854E-04  0.111E-01    1.18       1.0  T
   4    -38.2347105 -0.104788E-03  0.462E-02    1.20       1.0  T
   5    -38.2347235 -0.129661E-04  0.258E-02    1.20       1.0  T
   6    -38.2347266 -0.314513E-05  0.135E-02    1.19       1.3  T
   7    -38.2347288 -0.217957E-05  0.528E-03    1.20       3.4  T
   8    -38.2347289 -0.104153E-06  0.316E-03    1.20       5.7  T
   9    -38.2347289 -0.400798E-07  0.146E-03    1.20      12.3  T
  10    -38.2347289 -0.108275E-07  0.915E-04    1.20      19.6  T
  11    -38.2347289 -0.723766E-09  0.339E-04    1.20      53.0  T
     SCC iter.                  ...        0 min,  0.806 sec
     gradient                   ...        0 min,  0.074 sec
 * total energy  :   -37.6142418 Eh     change       -0.2998252E-02 Eh
   gradient norm :     0.0334261 Eh/α   predicted    -0.3496175E-02 (  16.61%)
   displ. norm   :     0.3833216 α      lambda       -0.4250319E-02
   maximum displ.:     0.2733641 α      in ANC's #1, #3, #37, ...

........................................................................
.............................. CYCLE   11 ..............................
........................................................................
   1    -38.2452065 -0.382452E+02  0.339E-01    1.22       0.0  T
   2    -38.2452596 -0.530996E-04  0.262E-01    1.18       1.0  T
   3    -38.2450010  0.258551E-03  0.185E-01    1.22       1.0  T
   4    -38.2453008 -0.299848E-03  0.516E-02    1.19       1.0  T
   5    -38.2453535 -0.526959E-04  0.264E-02    1.19       1.0  T
   6    -38.2453599 -0.640237E-05  0.167E-02    1.20       1.1  T
   7    -38.2453608 -0.826082E-06  0.626E-03    1.20       2.9  T
   8    -38.2453608 -0.679056E-07  0.371E-03    1.20       4.8  T
   9    -38.2453609 -0.136752E-07  0.131E-03    1.20      13.7  T
  10    -38.2453609 -0.186996E-07  0.657E-04    1.20      27.3  T
  11    -38.2453609 -0.517595E-09  0.348E-04    1.20      51.6  T
     SCC iter.                  ...        0 min,  0.757 sec
     gradient                   ...        0 min,  0.074 sec
 * total energy  :   -37.6158578 Eh     change       -0.1616032E-02 Eh
   gradient norm :     0.0559693 Eh/α   predicted    -0.2437421E-02 (  50.83%)
   displ. norm   :     0.4036717 α      lambda       -0.5131883E-02
   maximum displ.:     0.2480473 α      in ANC's #1, #2, #20, ...

........................................................................
.............................. CYCLE   12 ..............................
........................................................................
   1    -38.2442836 -0.382443E+02  0.290E-01    1.21       0.0  T
   2    -38.2443089 -0.253133E-04  0.201E-01    1.20       1.0  T
   3    -38.2440528  0.256070E-03  0.127E-01    1.20       1.0  T
   4    -38.2443217 -0.268857E-03  0.394E-02    1.20       1.0  T
   5    -38.2443478 -0.261526E-04  0.225E-02    1.20       1.0  T
   6    -38.2443513 -0.348403E-05  0.102E-02    1.20       1.8  T
   7    -38.2443515 -0.207847E-06  0.399E-03    1.20       4.5  T
   8    -38.2443516 -0.492501E-07  0.313E-03    1.20       5.7  T
   9    -38.2443516 -0.242566E-07  0.114E-03    1.20      15.7  T
  10    -38.2443516 -0.561538E-08  0.661E-04    1.20      27.2  T
  11    -38.2443516 -0.568008E-09  0.170E-04    1.20     105.7  T
     SCC iter.                  ...        0 min,  1.094 sec
     gradient                   ...        0 min,  0.115 sec
 * total energy  :   -37.6189378 Eh     change       -0.3079984E-02 Eh
   gradient norm :     0.0423722 Eh/α   predicted    -0.2984070E-02 (  -3.11%)
   displ. norm   :     0.4183223 α      lambda       -0.4376450E-02
   maximum displ.:     0.2301181 α      in ANC's #1, #13, #12, ...

........................................................................
.............................. CYCLE   13 ..............................
........................................................................
   1    -38.2482707 -0.382483E+02  0.300E-01    1.20       0.0  T
   2    -38.2482800 -0.924773E-05  0.206E-01    1.20       1.0  T
   3    -38.2478812  0.398815E-03  0.132E-01    1.20       1.0  T
   4    -38.2483203 -0.439166E-03  0.256E-02    1.20       1.0  T
   5    -38.2483285 -0.816262E-05  0.156E-02    1.20       1.2  T
   6    -38.2483293 -0.836699E-06  0.694E-03    1.20       2.6  T
   7    -38.2483295 -0.145861E-06  0.414E-03    1.20       4.3  T
   8    -38.2483296 -0.102224E-06  0.161E-03    1.20      11.1  T
   9    -38.2483296 -0.121956E-07  0.668E-04    1.20      26.9  T
  10    -38.2483296 -0.867502E-10  0.437E-04    1.20      41.1  T
     SCC iter.                  ...        0 min,  0.818 sec
     gradient                   ...        0 min,  0.147 sec
 * total energy  :   -37.6204686 Eh     change       -0.1530818E-02 Eh
   gradient norm :     0.0430042 Eh/α   predicted    -0.2571163E-02 (  67.96%)
   displ. norm   :     0.4811157 α      lambda       -0.4698462E-02
   maximum displ.:     0.3343551 α      in ANC's #1, #11, #2, ...

........................................................................
.............................. CYCLE   14 ..............................
........................................................................
   1    -38.2410146 -0.382410E+02  0.248E-01    1.22       0.0  T
   2    -38.2410095  0.509860E-05  0.156E-01    1.22       1.0  T
   3    -38.2408226  0.186817E-03  0.146E-01    1.22       1.0  T
   4    -38.2411351 -0.312491E-03  0.373E-02    1.21       1.0  T
   5    -38.2411397 -0.460727E-05  0.213E-02    1.22       1.0  T
   6    -38.2411410 -0.130543E-05  0.109E-02    1.22       1.6  T
   7    -38.2411416 -0.583108E-06  0.354E-03    1.22       5.1  T
   8    -38.2411417 -0.628245E-07  0.191E-03    1.22       9.4  T
   9    -38.2411417 -0.282961E-08  0.857E-04    1.22      21.0  T
  10    -38.2411417 -0.695855E-08  0.533E-04    1.22      33.7  T
     SCC iter.                  ...        0 min,  0.876 sec
     gradient                   ...        0 min,  0.181 sec
 * total energy  :   -37.6226731 Eh     change       -0.2204437E-02 Eh
   gradient norm :     0.0498707 Eh/α   predicted    -0.2893015E-02 (  31.24%)
   displ. norm   :     0.2227765 α      lambda       -0.3548770E-02
   maximum displ.:     0.0856984 α      in ANC's #32, #21, #58, ...

........................................................................
.............................. CYCLE   15 ..............................
........................................................................
   1    -38.2524840 -0.382525E+02  0.201E-01    1.24       0.0  T
   2    -38.2524468  0.371858E-04  0.179E-01    1.23       1.0  T
   3    -38.2526363 -0.189521E-03  0.113E-01    1.24       1.0  T
   4    -38.2526650 -0.286853E-04  0.253E-02    1.23       1.0  T
   5    -38.2526699 -0.492553E-05  0.260E-02    1.24       1.0  T
   6    -38.2526733 -0.331878E-05  0.952E-03    1.24       1.9  T
   7    -38.2526734 -0.129730E-06  0.372E-03    1.24       4.8  T
   8    -38.2526734 -0.325549E-07  0.179E-03    1.24      10.0  T
   9    -38.2526734 -0.253983E-07  0.560E-04    1.24      32.1  T
  10    -38.2526734 -0.197696E-08  0.355E-04    1.24      50.6  T
     SCC iter.                  ...        0 min,  0.861 sec
     gradient                   ...        0 min,  0.168 sec
 * total energy  :   -37.6239922 Eh     change       -0.1319131E-02 Eh
   gradient norm :     0.0334131 Eh/α   predicted    -0.1862449E-02 (  41.19%)
   displ. norm   :     0.4214830 α      lambda       -0.3403860E-02
   maximum displ.:     0.3106782 α      in ANC's #1, #11, #58, ...

........................................................................
.............................. CYCLE   16 ..............................
........................................................................
   1    -38.2554639 -0.382555E+02  0.271E-01    1.27       0.0  T
   2    -38.2554857 -0.217675E-04  0.193E-01    1.24       1.0  T
   3    -38.2554188  0.668730E-04  0.932E-02    1.28       1.0  T
   4    -38.2554969 -0.780569E-04  0.254E-02    1.25       1.0  T
   5    -38.2554994 -0.256834E-05  0.161E-02    1.26       1.1  T
   6    -38.2555010 -0.155605E-05  0.744E-03    1.25       2.4  T
   7    -38.2555013 -0.284383E-06  0.340E-03    1.25       5.3  T
   8    -38.2555014 -0.963874E-07  0.158E-03    1.25      11.3  T
   9    -38.2555014 -0.196694E-08  0.840E-04    1.25      21.4  T
  10    -38.2555014 -0.567186E-08  0.477E-04    1.25      37.7  T
     SCC iter.                  ...        0 min,  1.131 sec
     gradient                   ...        0 min,  0.124 sec
 * total energy  :   -37.6251445 Eh     change       -0.1152285E-02 Eh
   gradient norm :     0.0610182 Eh/α   predicted    -0.2004284E-02 (  73.94%)
   displ. norm   :     0.2787171 α      lambda       -0.2866831E-02
   maximum displ.:     0.1259187 α      in ANC's #1, #22, #58, ...

........................................................................
.............................. CYCLE   17 ..............................
........................................................................
   1    -38.2553274 -0.382553E+02  0.183E-01    1.27       0.0  T
   2    -38.2553405 -0.131844E-04  0.135E-01    1.25       1.0  T
   3    -38.2552794  0.611322E-04  0.752E-02    1.28       1.0  T
   4    -38.2553425 -0.630582E-04  0.228E-02    1.26       1.0  T
   5    -38.2553487 -0.622074E-05  0.153E-02    1.26       1.2  T
   6    -38.2553519 -0.317757E-05  0.681E-03    1.26       2.6  T
   7    -38.2553521 -0.248891E-06  0.269E-03    1.26       6.7  T
   8    -38.2553521 -0.202992E-07  0.136E-03    1.26      13.2  T
   9    -38.2553521 -0.557011E-08  0.955E-04    1.26      18.8  T
  10    -38.2553522 -0.294539E-08  0.592E-04    1.26      30.4  T
     SCC iter.                  ...        0 min,  1.090 sec
     gradient                   ...        0 min,  0.146 sec
 * total energy  :   -37.6262571 Eh     change       -0.1112583E-02 Eh
   gradient norm :     0.0266971 Eh/α   predicted    -0.1544766E-02 (  38.85%)
   displ. norm   :     0.4056677 α      lambda       -0.2862137E-02
   maximum displ.:     0.2687973 α      in ANC's #1, #2, #5, ...

........................................................................
.............................. CYCLE   18 ..............................
........................................................................
   1    -38.2411276 -0.382411E+02  0.399E-01    1.25       0.0  T
   2    -38.2411099  0.177053E-04  0.224E-01    1.31       1.0  T
   3    -38.2406824  0.427438E-03  0.240E-01    1.24       1.0  T
   4    -38.2413713 -0.688869E-03  0.497E-02    1.28       1.0  T
   5    -38.2413910 -0.197074E-04  0.253E-02    1.28       1.0  T
   6    -38.2413954 -0.443119E-05  0.127E-02    1.28       1.4  T
   7    -38.2413964 -0.100232E-05  0.479E-03    1.28       3.8  T
   8    -38.2413966 -0.157097E-06  0.272E-03    1.28       6.6  T
   9    -38.2413966 -0.290886E-07  0.135E-03    1.28      13.3  T
  10    -38.2413966 -0.920569E-08  0.680E-04    1.28      26.4  T
  11    -38.2413966 -0.195179E-08  0.303E-04    1.28      59.3  T
     SCC iter.                  ...        0 min,  1.060 sec
     gradient                   ...        0 min,  0.187 sec
 * total energy  :   -37.6263477 Eh     change       -0.9062577E-04 Eh
   gradient norm :     0.0399062 Eh/α   predicted    -0.1666581E-02 (1738.97%)
   displ. norm   :     0.1653948 α      lambda       -0.2857695E-02
   maximum displ.:     0.0738614 α      in ANC's #13, #19, #11, ...

........................................................................
.............................. CYCLE   19 ..............................
........................................................................
   1    -38.2584545 -0.382585E+02  0.203E-01    1.30       0.0  T
   2    -38.2584631 -0.854697E-05  0.103E-01    1.26       1.0  T
   3    -38.2584297  0.334007E-04  0.118E-01    1.30       1.0  T
   4    -38.2585552 -0.125488E-03  0.305E-02    1.29       1.0  T
   5    -38.2585590 -0.384006E-05  0.221E-02    1.28       1.0  T
   6    -38.2585617 -0.272535E-05  0.111E-02    1.29       1.6  T
   7    -38.2585626 -0.873231E-06  0.437E-03    1.28       4.1  T
   8    -38.2585627 -0.105835E-06  0.234E-03    1.28       7.7  T
   9    -38.2585628 -0.345013E-07  0.760E-04    1.28      23.6  T
  10    -38.2585628 -0.162901E-08  0.261E-04    1.28      68.9  T
     SCC iter.                  ...        0 min,  1.069 sec
     gradient                   ...        0 min,  0.297 sec
 * total energy  :   -37.6276136 Eh     change       -0.1265889E-02 Eh
   gradient norm :     0.0290186 Eh/α   predicted    -0.1467940E-02 (  15.96%)
   displ. norm   :     0.3096808 α      lambda       -0.2004384E-02
   maximum displ.:     0.1761635 α      in ANC's #1, #13, #58, ...

........................................................................
.............................. CYCLE   20 ..............................
........................................................................
   1    -38.2583699 -0.382584E+02  0.160E-01    1.31       0.0  T
   2    -38.2583959 -0.260252E-04  0.102E-01    1.29       1.0  T
   3    -38.2583680  0.279006E-04  0.666E-02    1.31       1.0  T
   4    -38.2584100 -0.420152E-04  0.279E-02    1.30       1.0  T
   5    -38.2584207 -0.106448E-04  0.124E-02    1.30       1.5  T
   6    -38.2584207 -0.649387E-07  0.689E-03    1.30       2.6  T
   7    -38.2584213 -0.561914E-06  0.233E-03    1.30       7.7  T
   8    -38.2584213 -0.217783E-07  0.729E-04    1.30      24.6  T
   9    -38.2584213 -0.277986E-09  0.527E-04    1.30      34.1  T
     SCC iter.                  ...        0 min,  1.265 sec
     gradient                   ...        0 min,  0.277 sec
 * total energy  :   -37.6279331 Eh     change       -0.3194905E-03 Eh
   gradient norm :     0.0292519 Eh/α   predicted    -0.1098304E-02 ( 243.77%)
   displ. norm   :     0.1678263 α      lambda       -0.1282912E-02
   maximum displ.:     0.0892758 α      in ANC's #1, #12, #5, ...
 * RMSD in coord.:     1.1011494 α      energy gain  -0.4705150E+00 Eh

generating ANC from model Hessian ...
Using Lindh-Hessian (1995)
 Shifting diagonal of input Hessian by    1.1107388798443689E-002
 Lowest  eigenvalues of input Hessian
    0.010000    0.010831    0.000000    0.000000    0.000000    0.000000
    0.000000    0.000000    0.011181    0.011540    0.011996    0.012421
    0.012843    0.013551    0.014693    0.016429    0.018527    0.019091
 Highest eigenvalues
    1.737716    1.893988    2.354785    2.793002    4.765542    5.198739


........................................................................
.............................. CYCLE   21 ..............................
........................................................................
   1    -38.2581236 -0.382581E+02  0.160E-01    1.30       0.0  T
   2    -38.2581231  0.545182E-06  0.108E-01    1.31       1.0  T
   3    -38.2580170  0.106123E-03  0.845E-02    1.30       1.0  T
   4    -38.2581477 -0.130783E-03  0.162E-02    1.31       1.1  T
   5    -38.2581517 -0.391978E-05  0.778E-03    1.31       2.3  T
   6    -38.2581519 -0.252227E-06  0.347E-03    1.31       5.2  T
   7    -38.2581520 -0.937949E-07  0.130E-03    1.31      13.8  T
   8    -38.2581520 -0.394480E-08  0.760E-04    1.31      23.6  T
   9    -38.2581520 -0.134770E-08  0.461E-04    1.31      39.0  T
     SCC iter.                  ...        0 min,  1.147 sec
     gradient                   ...        0 min,  0.243 sec
 * total energy  :   -37.6287454 Eh     change       -0.8123186E-03 Eh
   gradient norm :     0.0224375 Eh/α   predicted     0.0000000E+00 (-100.00%)
   displ. norm   :     0.2173594 α      lambda       -0.1130914E-02
   maximum displ.:     0.1508445 α      in ANC's #8, #2, #6, ...

........................................................................
.............................. CYCLE   22 ..............................
........................................................................
   1    -38.2592958 -0.382593E+02  0.151E-01    1.30       0.0  T
   2    -38.2592984 -0.258732E-05  0.935E-02    1.31       1.0  T
   3    -38.2592680  0.303890E-04  0.620E-02    1.29       1.0  T
   4    -38.2593009 -0.329646E-04  0.135E-02    1.31       1.3  T
   5    -38.2593023 -0.138893E-05  0.772E-03    1.31       2.3  T
   6    -38.2593026 -0.295096E-06  0.298E-03    1.31       6.0  T
   7    -38.2593028 -0.121537E-06  0.871E-04    1.31      20.6  T
   8    -38.2593028 -0.993068E-08  0.520E-04    1.31      34.5  T
     SCC iter.                  ...        0 min,  1.387 sec
     gradient                   ...        0 min,  0.229 sec
 * total energy  :   -37.6295834 Eh     change       -0.8379610E-03 Eh
   gradient norm :     0.0057760 Eh/α   predicted    -0.5937309E-03 ( -29.15%)
   displ. norm   :     0.3790046 α      lambda       -0.1038767E-02
   maximum displ.:     0.3040180 α      in ANC's #8, #2, #6, ...

........................................................................
.............................. CYCLE   23 ..............................
........................................................................
   1    -38.2586208 -0.382586E+02  0.205E-01    1.31       0.0  T
   2    -38.2586215 -0.740745E-06  0.130E-01    1.32       1.0  T
   3    -38.2585177  0.103797E-03  0.813E-02    1.30       1.0  T
   4    -38.2586282 -0.110439E-03  0.175E-02    1.32       1.0  T
   5    -38.2586285 -0.294981E-06  0.973E-03    1.32       1.8  T
   6    -38.2586292 -0.707362E-06  0.312E-03    1.32       5.8  T
   7    -38.2586293 -0.874968E-07  0.130E-03    1.32      13.9  T
   8    -38.2586293 -0.954582E-08  0.864E-04    1.32      20.8  T
   9    -38.2586293 -0.192484E-08  0.442E-04    1.32      40.7  T
     SCC iter.                  ...        0 min,  1.217 sec
     gradient                   ...        0 min,  0.107 sec
 * total energy  :   -37.6303204 Eh     change       -0.7369899E-03 Eh
   gradient norm :     0.0074623 Eh/α   predicted    -0.5939935E-03 ( -19.40%)
   displ. norm   :     0.3281728 α      lambda       -0.6331927E-03
   maximum displ.:     0.2437285 α      in ANC's #8, #2, #3, ...

........................................................................
.............................. CYCLE   24 ..............................
........................................................................
   1    -38.2586610 -0.382587E+02  0.188E-01    1.33       0.0  T
   2    -38.2586621 -0.114683E-05  0.125E-01    1.33       1.0  T
   3    -38.2585686  0.935045E-04  0.627E-02    1.33       1.0  T
   4    -38.2586657 -0.970680E-04  0.132E-02    1.33       1.4  T
   5    -38.2586679 -0.220348E-05  0.840E-03    1.33       2.1  T
   6    -38.2586681 -0.230974E-06  0.302E-03    1.33       5.9  T
   7    -38.2586682 -0.653294E-07  0.142E-03    1.33      12.6  T
   8    -38.2586682 -0.194494E-08  0.111E-03    1.33      16.2  T
   9    -38.2586682 -0.748841E-09  0.578E-04    1.33      31.1  T
  10    -38.2586682 -0.265840E-08  0.281E-04    1.33      63.9  T
     SCC iter.                  ...        0 min,  1.141 sec
     gradient                   ...        0 min,  0.260 sec
 * total energy  :   -37.6308231 Eh     change       -0.5027067E-03 Eh
   gradient norm :     0.0106186 Eh/α   predicted    -0.3506928E-03 ( -30.24%)
   displ. norm   :     0.4239978 α      lambda       -0.7767082E-03
   maximum displ.:     0.3098329 α      in ANC's #8, #2, #3, ...

........................................................................
.............................. CYCLE   25 ..............................
........................................................................
   1    -38.2591379 -0.382591E+02  0.201E-01    1.35       0.0  T
   2    -38.2591408 -0.291445E-05  0.136E-01    1.34       1.0  T
   3    -38.2590284  0.112384E-03  0.761E-02    1.36       1.0  T
   4    -38.2591446 -0.116143E-03  0.184E-02    1.35       1.0  T
   5    -38.2591512 -0.663434E-05  0.959E-03    1.35       1.9  T
   6    -38.2591515 -0.282796E-06  0.309E-03    1.35       5.8  T
   7    -38.2591516 -0.152335E-06  0.138E-03    1.35      13.0  T
   8    -38.2591516 -0.450864E-08  0.104E-03    1.35      17.2  T
   9    -38.2591516  0.491916E-09  0.609E-04    1.35      29.5  T
  10    -38.2591516 -0.269525E-08  0.297E-04    1.35      60.4  T
     SCC iter.                  ...        0 min,  1.220 sec
     gradient                   ...        0 min,  0.257 sec
 * total energy  :   -37.6313912 Eh     change       -0.5681594E-03 Eh
   gradient norm :     0.0141400 Eh/α   predicted    -0.4581704E-03 ( -19.36%)
   displ. norm   :     0.3791418 α      lambda       -0.6361376E-03
   maximum displ.:     0.2623480 α      in ANC's #8, #2, #3, ...

........................................................................
.............................. CYCLE   26 ..............................
........................................................................
   1    -38.2606693 -0.382607E+02  0.189E-01    1.36       0.0  T
   2    -38.2606713 -0.198729E-05  0.123E-01    1.35       1.0  T
   3    -38.2606183  0.529807E-04  0.529E-02    1.37       1.0  T
   4    -38.2606727 -0.543598E-04  0.135E-02    1.35       1.3  T
   5    -38.2606749 -0.217909E-05  0.797E-03    1.35       2.3  T
   6    -38.2606752 -0.299185E-06  0.201E-03    1.36       8.9  T
   7    -38.2606752 -0.566270E-07  0.134E-03    1.35      13.4  T
   8    -38.2606752 -0.449322E-08  0.911E-04    1.36      19.7  T
   9    -38.2606752 -0.147610E-08  0.400E-04    1.36      44.9  T
     SCC iter.                  ...        0 min,  1.150 sec
     gradient                   ...        0 min,  0.335 sec
 * total energy  :   -37.6317901 Eh     change       -0.3988601E-03 Eh
   gradient norm :     0.0078689 Eh/α   predicted    -0.3637909E-03 (  -8.79%)
   displ. norm   :     0.2744835 α      lambda       -0.3463506E-03
   maximum displ.:     0.1902334 α      in ANC's #8, #3, #7, ...

........................................................................
.............................. CYCLE   27 ..............................
........................................................................
   1    -38.2620961 -0.382621E+02  0.126E-01    1.36       0.0  T
   2    -38.2620976 -0.151544E-05  0.827E-02    1.36       1.0  T
   3    -38.2620729  0.247015E-04  0.383E-02    1.37       1.0  T
   4    -38.2620971 -0.242059E-04  0.153E-02    1.36       1.2  T
   5    -38.2621000 -0.284306E-05  0.678E-03    1.36       2.6  T
   6    -38.2620999  0.177872E-07  0.342E-03    1.36       5.3  T
   7    -38.2621001 -0.145806E-06  0.100E-03    1.36      17.9  T
   8    -38.2621001 -0.180559E-08  0.797E-04    1.36      22.5  T
   9    -38.2621001 -0.320560E-08  0.339E-04    1.36      53.0  T
     SCC iter.                  ...        0 min,  1.105 sec
     gradient                   ...        0 min,  0.108 sec
 * total energy  :   -37.6319788 Eh     change       -0.1887454E-03 Eh
   gradient norm :     0.0101763 Eh/α   predicted    -0.1862293E-03 (  -1.33%)
   displ. norm   :     0.1944929 α      lambda       -0.2286055E-03
   maximum displ.:     0.1250773 α      in ANC's #8, #3, #5, ...

........................................................................
.............................. CYCLE   28 ..............................
........................................................................
   1    -38.2633161 -0.382633E+02  0.676E-02    1.35       0.0  T
   2    -38.2633175 -0.135989E-05  0.419E-02    1.36       1.0  T
   3    -38.2633138  0.366477E-05  0.188E-02    1.35       1.0  T
   4    -38.2633185 -0.464541E-05  0.666E-03    1.36       2.7  T
   5    -38.2633184  0.917807E-07  0.422E-03    1.35       4.3  T
   6    -38.2633185 -0.111342E-06  0.194E-03    1.35       9.3  T
   7    -38.2633185 -0.570742E-07  0.866E-04    1.35      20.7  T
   8    -38.2633185 -0.255393E-08  0.543E-04    1.35      33.1  T
     SCC iter.                  ...        0 min,  1.054 sec
     gradient                   ...        0 min,  0.219 sec
 * total energy  :   -37.6321325 Eh     change       -0.1536347E-03 Eh
   gradient norm :     0.0068674 Eh/α   predicted    -0.1186312E-03 ( -22.78%)
   displ. norm   :     0.3398988 α      lambda       -0.2561240E-03
   maximum displ.:     0.2251160 α      in ANC's #8, #3, #7, ...

........................................................................
.............................. CYCLE   29 ..............................
........................................................................
   1    -38.2619511 -0.382620E+02  0.128E-01    1.35       0.0  T
   2    -38.2619522 -0.113248E-05  0.806E-02    1.35       1.0  T
   3    -38.2619144  0.378749E-04  0.429E-02    1.35       1.0  T
   4    -38.2619546 -0.402031E-04  0.137E-02    1.35       1.3  T
   5    -38.2619549 -0.340557E-06  0.799E-03    1.35       2.2  T
   6    -38.2619551 -0.219003E-06  0.280E-03    1.35       6.4  T
   7    -38.2619552 -0.538267E-07  0.672E-04    1.35      26.7  T
   8    -38.2619552 -0.268509E-08  0.537E-04    1.35      33.4  T
     SCC iter.                  ...        0 min,  0.802 sec
     gradient                   ...        0 min,  0.191 sec
 * total energy  :   -37.6322705 Eh     change       -0.1380426E-03 Eh
   gradient norm :     0.0125431 Eh/α   predicted    -0.1428580E-03 (   3.49%)
   displ. norm   :     0.2554411 α      lambda       -0.2830889E-03
   maximum displ.:     0.1695124 α      in ANC's #3, #6, #8, ...

........................................................................
.............................. CYCLE   30 ..............................
........................................................................
   1    -38.2657282 -0.382657E+02  0.103E-01    1.36       0.0  T
   2    -38.2657196  0.857101E-05  0.817E-02    1.35       1.0  T
   3    -38.2657117  0.797806E-05  0.543E-02    1.36       1.0  T
   4    -38.2657517 -0.400481E-04  0.860E-03    1.35       2.1  T
   5    -38.2657527 -0.988816E-06  0.707E-03    1.36       2.5  T
   6    -38.2657528 -0.146964E-06  0.294E-03    1.35       6.1  T
   7    -38.2657529 -0.829007E-07  0.810E-04    1.35      22.2  T
   8    -38.2657529 -0.529239E-08  0.453E-04    1.35      39.7  T
     SCC iter.                  ...        0 min,  0.650 sec
     gradient                   ...        0 min,  0.256 sec
 * total energy  :   -37.6322763 Eh     change       -0.5829550E-05 Eh
   gradient norm :     0.0206459 Eh/α   predicted    -0.1507817E-03 (2486.51%)
   displ. norm   :     0.2082377 α      lambda       -0.3153885E-03
   maximum displ.:     0.1524141 α      in ANC's #8, #3, #7, ...

........................................................................
.............................. CYCLE   31 ..............................
........................................................................
   1    -38.2607981 -0.382608E+02  0.963E-02    1.35       0.0  T
   2    -38.2607852  0.128877E-04  0.575E-02    1.36       1.0  T
   3    -38.2607824  0.279292E-05  0.605E-02    1.35       1.0  T
   4    -38.2608290 -0.466282E-04  0.110E-02    1.36       1.6  T
   5    -38.2608293 -0.339062E-06  0.757E-03    1.36       2.4  T
   6    -38.2608295 -0.112011E-06  0.331E-03    1.36       5.4  T
   7    -38.2608296 -0.132160E-06  0.834E-04    1.36      21.5  T
   8    -38.2608296 -0.224785E-08  0.641E-04    1.36      28.0  T
     SCC iter.                  ...        0 min,  0.689 sec
     gradient                   ...        0 min,  0.248 sec
 * total energy  :   -37.6323573 Eh     change       -0.8099453E-04 Eh
   gradient norm :     0.0090232 Eh/α   predicted    -0.1645408E-03 ( 103.15%)
   displ. norm   :     0.1182274 α      lambda       -0.3475636E-03
   maximum displ.:     0.0697940 α      in ANC's #8, #9, #5, ...

........................................................................
.............................. CYCLE   32 ..............................
........................................................................
   1    -38.2639977 -0.382640E+02  0.788E-02    1.36       0.0  T
   2    -38.2640012 -0.356355E-05  0.531E-02    1.35       1.0  T
   3    -38.2639943  0.688746E-05  0.375E-02    1.36       1.0  T
   4    -38.2640022 -0.787445E-05  0.116E-02    1.36       1.5  T
   5    -38.2640042 -0.198522E-05  0.108E-02    1.36       1.7  T
   6    -38.2640052 -0.101915E-05  0.408E-03    1.36       4.4  T
   7    -38.2640053 -0.109990E-06  0.153E-03    1.36      11.8  T
   8    -38.2640053 -0.547384E-08  0.999E-04    1.36      18.0  T
   9    -38.2640053 -0.978903E-08  0.433E-04    1.36      41.5  T
     SCC iter.                  ...        0 min,  0.773 sec
     gradient                   ...        0 min,  0.138 sec
 * total energy  :   -37.6323424 Eh     change        0.1492715E-04 Eh
   gradient norm :     0.0218821 Eh/α   predicted    -0.1762121E-03 (*******%)
   displ. norm   :     0.0728250 α      lambda       -0.2742502E-03
   maximum displ.:     0.0408060 α      in ANC's #3, #9, #1, ...

........................................................................
.............................. CYCLE   33 ..............................
........................................................................
   1    -38.2640900 -0.382641E+02  0.523E-02    1.35       0.0  T
   2    -38.2640899  0.158970E-06  0.442E-02    1.36       1.0  T
   3    -38.2640852  0.471044E-05  0.253E-02    1.36       1.0  T
   4    -38.2640937 -0.849748E-05  0.103E-02    1.35       1.8  T
   5    -38.2640951 -0.146174E-05  0.576E-03    1.36       3.1  T
   6    -38.2640952 -0.867661E-07  0.231E-03    1.36       7.8  T
   7    -38.2640952 -0.262384E-07  0.878E-04    1.36      20.5  T
   8    -38.2640952 -0.243969E-08  0.570E-04    1.36      31.5  T
     SCC iter.                  ...        0 min,  0.751 sec
     gradient                   ...        0 min,  0.255 sec
 * total energy  :   -37.6324923 Eh     change       -0.1499448E-03 Eh
   gradient norm :     0.0027411 Eh/α   predicted    -0.1378599E-03 (  -8.06%)
   displ. norm   :     0.1085764 α      lambda       -0.4388869E-04
   maximum displ.:     0.0879536 α      in ANC's #3, #8, #4, ...

........................................................................
.............................. CYCLE   34 ..............................
........................................................................
   1    -38.2635566 -0.382636E+02  0.249E-02    1.36       0.0  T
   2    -38.2635567 -0.112281E-06  0.160E-02    1.36       1.1  T
   3    -38.2635564  0.319327E-06  0.562E-03    1.35       3.2  T
   4    -38.2635567 -0.357658E-06  0.194E-03    1.36       9.2  T
   5    -38.2635567  0.190779E-07  0.173E-03    1.36      10.4  T
   6    -38.2635568 -0.354100E-07  0.472E-04    1.36      38.0  T
   7    -38.2635568 -0.318248E-08  0.214E-04    1.36      83.9  T
     SCC iter.                  ...        0 min,  0.614 sec
     gradient                   ...        0 min,  0.234 sec
 * total energy  :   -37.6325311 Eh     change       -0.3875702E-04 Eh
   gradient norm :     0.0034426 Eh/α   predicted    -0.2220440E-04 ( -42.71%)
   displ. norm   :     0.0997431 α      lambda       -0.5694270E-04
   maximum displ.:     0.0750305 α      in ANC's #3, #4, #2, ...

........................................................................
.............................. CYCLE   35 ..............................
........................................................................
   1    -38.2641287 -0.382641E+02  0.269E-02    1.36       0.0  T
   2    -38.2641288 -0.101745E-06  0.178E-02    1.35       1.0  T
   3    -38.2641262  0.259538E-05  0.118E-02    1.36       1.5  T
   4    -38.2641290 -0.275612E-05  0.374E-03    1.35       4.8  T
   5    -38.2641291 -0.150431E-06  0.166E-03    1.35      10.8  T
   6    -38.2641291 -0.413583E-08  0.637E-04    1.36      28.2  T
   7    -38.2641291 -0.418653E-08  0.249E-04    1.35      72.2  T
     SCC iter.                  ...        0 min,  0.533 sec
     gradient                   ...        0 min,  0.139 sec
 * total energy  :   -37.6325821 Eh     change       -0.5099505E-04 Eh
   gradient norm :     0.0038508 Eh/α   predicted    -0.2875543E-04 ( -43.61%)
   displ. norm   :     0.1999553 α      lambda       -0.1023051E-03
   maximum displ.:     0.1466825 α      in ANC's #3, #4, #2, ...

........................................................................
.............................. CYCLE   36 ..............................
........................................................................
   1    -38.2642262 -0.382642E+02  0.492E-02    1.36       0.0  T
   2    -38.2642263 -0.107292E-06  0.326E-02    1.35       1.0  T
   3    -38.2642154  0.109151E-04  0.230E-02    1.36       1.0  T
   4    -38.2642272 -0.118067E-04  0.619E-03    1.35       2.9  T
   5    -38.2642276 -0.408249E-06  0.292E-03    1.35       6.2  T
   6    -38.2642276 -0.103531E-07  0.102E-03    1.35      17.6  T
   7    -38.2642277 -0.125021E-07  0.479E-04    1.35      37.5  T
   8    -38.2642277 -0.386386E-09  0.253E-04    1.35      71.1  T
     SCC iter.                  ...        0 min,  0.845 sec
     gradient                   ...        0 min,  0.236 sec
 * total energy  :   -37.6326718 Eh     change       -0.8975437E-04 Eh
   gradient norm :     0.0029520 Eh/α   predicted    -0.5320031E-04 ( -40.73%)
   displ. norm   :     0.2532276 α      lambda       -0.1118791E-03
   maximum displ.:     0.1899709 α      in ANC's #3, #4, #2, ...

........................................................................
.............................. CYCLE   37 ..............................
........................................................................
   1    -38.2637836 -0.382638E+02  0.584E-02    1.35       0.0  T
   2    -38.2637838 -0.150017E-06  0.385E-02    1.35       1.0  T
   3    -38.2637695  0.143328E-04  0.242E-02    1.35       1.0  T
   4    -38.2637846 -0.150978E-04  0.628E-03    1.35       2.9  T
   5    -38.2637850 -0.460569E-06  0.293E-03    1.35       6.1  T
   6    -38.2637850 -0.197930E-07  0.928E-04    1.35      19.4  T
   7    -38.2637850 -0.810235E-08  0.482E-04    1.35      37.2  T
     SCC iter.                  ...        0 min,  0.576 sec
     gradient                   ...        0 min,  0.049 sec
 * total energy  :   -37.6327711 Eh     change       -0.9927048E-04 Eh
   gradient norm :     0.0025025 Eh/α   predicted    -0.5952831E-04 ( -40.03%)
   displ. norm   :     0.2358114 α      lambda       -0.1027092E-03
   maximum displ.:     0.1847596 α      in ANC's #3, #4, #8, ...

........................................................................
.............................. CYCLE   38 ..............................
........................................................................
   1    -38.2633568 -0.382634E+02  0.479E-02    1.35       0.0  T
   2    -38.2633570 -0.149755E-06  0.320E-02    1.35       1.0  T
   3    -38.2633481  0.885771E-05  0.172E-02    1.35       1.0  T
   4    -38.2633573 -0.916358E-05  0.486E-03    1.35       3.7  T
   5    -38.2633576 -0.298250E-06  0.238E-03    1.35       7.6  T
   6    -38.2633576 -0.148974E-07  0.680E-04    1.35      26.4  T
   7    -38.2633576 -0.388597E-08  0.343E-04    1.35      52.4  T
     SCC iter.                  ...        0 min,  0.591 sec
     gradient                   ...        0 min,  0.106 sec
 * total energy  :   -37.6328661 Eh     change       -0.9494455E-04 Eh
   gradient norm :     0.0030351 Eh/α   predicted    -0.5421236E-04 ( -42.90%)
   displ. norm   :     0.2550993 α      lambda       -0.1200601E-03
   maximum displ.:     0.2061067 α      in ANC's #3, #4, #8, ...

........................................................................
.............................. CYCLE   39 ..............................
........................................................................
   1    -38.2632542 -0.382633E+02  0.517E-02    1.35       0.0  T
   2    -38.2632546 -0.365619E-06  0.347E-02    1.35       1.0  T
   3    -38.2632447  0.990251E-05  0.183E-02    1.35       1.0  T
   4    -38.2632548 -0.101326E-04  0.603E-03    1.35       3.0  T
   5    -38.2632554 -0.607085E-06  0.259E-03    1.35       6.9  T
   6    -38.2632554 -0.124685E-07  0.953E-04    1.35      18.8  T
   7    -38.2632554 -0.633391E-08  0.356E-04    1.35      50.5  T
     SCC iter.                  ...        0 min,  0.728 sec
     gradient                   ...        0 min,  0.287 sec
 * total energy  :   -37.6329776 Eh     change       -0.1114934E-03 Eh
   gradient norm :     0.0038972 Eh/α   predicted    -0.6393891E-04 ( -42.65%)
   displ. norm   :     0.3230283 α      lambda       -0.1552547E-03
   maximum displ.:     0.2687560 α      in ANC's #3, #4, #5, ...

........................................................................
.............................. CYCLE   40 ..............................
........................................................................
   1    -38.2630162 -0.382630E+02  0.619E-02    1.35       0.0  T
   2    -38.2630173 -0.114000E-05  0.399E-02    1.35       1.0  T
   3    -38.2630114  0.590223E-05  0.168E-02    1.35       1.1  T
   4    -38.2630176 -0.615914E-05  0.626E-03    1.35       2.9  T
   5    -38.2630182 -0.629745E-06  0.282E-03    1.35       6.4  T
   6    -38.2630182  0.127640E-08  0.122E-03    1.35      14.7  T
   7    -38.2630182 -0.191183E-07  0.328E-04    1.35      54.7  T
   8    -38.2630182  0.929390E-10  0.300E-04    1.35      59.9  T
     SCC iter.                  ...        0 min,  0.705 sec
     gradient                   ...        0 min,  0.190 sec
 * total energy  :   -37.6331171 Eh     change       -0.1395008E-03 Eh
   gradient norm :     0.0039677 Eh/α   predicted    -0.8572863E-04 ( -38.55%)
   displ. norm   :     0.4082421 α      lambda       -0.1778191E-03
   maximum displ.:     0.3452407 α      in ANC's #3, #4, #5, ...

........................................................................
.............................. CYCLE   41 ..............................
........................................................................
   1    -38.2622882 -0.382623E+02  0.856E-02    1.35       0.0  T
   2    -38.2622900 -0.181820E-05  0.561E-02    1.35       1.0  T
   3    -38.2622735  0.164639E-04  0.262E-02    1.35       1.0  T
   4    -38.2622903 -0.167884E-04  0.986E-03    1.35       1.8  T
   5    -38.2622920 -0.163482E-05  0.403E-03    1.35       4.5  T
   6    -38.2622920  0.640202E-08  0.180E-03    1.35      10.0  T
   7    -38.2622920 -0.349769E-07  0.500E-04    1.35      35.9  T
   8    -38.2622920 -0.747491E-11  0.451E-04    1.35      39.8  T
     SCC iter.                  ...        0 min,  0.871 sec
     gradient                   ...        0 min,  0.270 sec
 * total energy  :   -37.6332672 Eh     change       -0.1501727E-03 Eh
   gradient norm :     0.0063323 Eh/α   predicted    -0.1037289E-03 ( -30.93%)
   displ. norm   :     0.5928170 α      lambda       -0.2222645E-03
   maximum displ.:     0.5123612 α      in ANC's #3, #5, #4, ...

........................................................................
.............................. CYCLE   42 ..............................
........................................................................
   1    -38.2598398 -0.382598E+02  0.110E-01    1.35       0.0  T
   2    -38.2598435 -0.369513E-05  0.686E-02    1.36       1.0  T
   3    -38.2598263  0.171712E-04  0.365E-02    1.35       1.0  T
   4    -38.2598453 -0.189731E-04  0.960E-03    1.35       1.9  T
   5    -38.2598465 -0.122519E-05  0.521E-03    1.35       3.4  T
   6    -38.2598465 -0.207372E-07  0.227E-03    1.35       7.9  T
   7    -38.2598467 -0.122348E-06  0.402E-04    1.35      44.7  T
   8    -38.2598467 -0.911079E-09  0.286E-04    1.35      62.8  T
     SCC iter.                  ...        0 min,  0.819 sec
     gradient                   ...        0 min,  0.196 sec
 * total energy  :   -37.6334182 Eh     change       -0.1509344E-03 Eh
   gradient norm :     0.0072638 Eh/α   predicted    -0.1501883E-03 (  -0.49%)
   displ. norm   :     0.5939723 α      lambda        0.2749615E-04
   maximum displ.:     0.5133593 α      in ANC's #3, #5, #4, ...
 * RMSD in coord.:     0.8005862 α      energy gain  -0.5485083E-02 Eh

generating ANC from model Hessian ...
Using Lindh-Hessian (1995)
 Shifting diagonal of input Hessian by    1.1139127023235081E-002
 Lowest  eigenvalues of input Hessian
    0.010000    0.000000    0.000000    0.000000    0.000000    0.000000
    0.000000    0.011216    0.011365    0.011584    0.012111    0.012465
    0.012809    0.013471    0.014807    0.017075    0.018809    0.019211
 Highest eigenvalues
    1.718245    1.779759    2.292710    2.798940    4.806588    5.219207


........................................................................
.............................. CYCLE   43 ..............................
........................................................................
   1    -38.2527180 -0.382527E+02  0.115E-01    1.35       0.0  T
   2    -38.2527221 -0.405243E-05  0.733E-02    1.36       1.0  T
   3    -38.2527005  0.215650E-04  0.385E-02    1.34       1.0  T
   4    -38.2527245 -0.239857E-04  0.110E-02    1.36       1.6  T
   5    -38.2527259 -0.135470E-05  0.574E-03    1.35       3.1  T
   6    -38.2527257  0.150687E-06  0.332E-03    1.35       5.4  T
   7    -38.2527260 -0.252558E-06  0.420E-04    1.35      42.7  T
   8    -38.2527260 -0.179507E-08  0.259E-04    1.35      69.3  T
     SCC iter.                  ...        0 min,  0.819 sec
     gradient                   ...        0 min,  0.218 sec
 * total energy  :   -37.6333197 Eh     change        0.9847777E-04 Eh
   gradient norm :     0.0155700 Eh/α   predicted     0.0000000E+00 (-100.00%)
   displ. norm   :     0.0995810 α      lambda       -0.5250717E-03
   maximum displ.:     0.0567741 α      in ANC's #9, #2, #54, ...

........................................................................
.............................. CYCLE   44 ..............................
........................................................................
   1    -38.2624640 -0.382625E+02  0.551E-02    1.35       0.0  T
   2    -38.2624652 -0.122852E-05  0.364E-02    1.35       1.0  T
   3    -38.2624583  0.693982E-05  0.249E-02    1.36       1.0  T
   4    -38.2624669 -0.863857E-05  0.918E-03    1.35       2.0  T
   5    -38.2624678 -0.883187E-06  0.562E-03    1.35       3.2  T
   6    -38.2624677  0.130017E-06  0.384E-03    1.35       4.7  T
   7    -38.2624679 -0.189741E-06  0.657E-04    1.35      27.3  T
   8    -38.2624679 -0.284808E-08  0.527E-04    1.35      34.1  T
     SCC iter.                  ...        0 min,  0.937 sec
     gradient                   ...        0 min,  0.216 sec
 * total energy  :   -37.6336657 Eh     change       -0.3459979E-03 Eh
   gradient norm :     0.0032616 Eh/α   predicted    -0.2651638E-03 ( -23.36%)
   displ. norm   :     0.1269022 α      lambda       -0.1810905E-03
   maximum displ.:     0.0864728 α      in ANC's #9, #2, #8, ...

........................................................................
.............................. CYCLE   45 ..............................
........................................................................
   1    -38.2668970 -0.382669E+02  0.619E-02    1.35       0.0  T
   2    -38.2668982 -0.117402E-05  0.395E-02    1.34       1.0  T
   3    -38.2668908  0.732179E-05  0.254E-02    1.35       1.0  T
   4    -38.2668991 -0.831700E-05  0.868E-03    1.34       2.1  T
   5    -38.2668999 -0.776207E-06  0.463E-03    1.34       3.9  T
   6    -38.2668999  0.624555E-07  0.275E-03    1.34       6.5  T
   7    -38.2669000 -0.118603E-06  0.609E-04    1.34      29.5  T
   8    -38.2669000 -0.256840E-09  0.515E-04    1.34      34.9  T
     SCC iter.                  ...        0 min,  0.961 sec
     gradient                   ...        0 min,  0.175 sec
 * total energy  :   -37.6337797 Eh     change       -0.1140490E-03 Eh
   gradient norm :     0.0028222 Eh/α   predicted    -0.9210221E-04 ( -19.24%)
   displ. norm   :     0.1544392 α      lambda       -0.1262734E-03
   maximum displ.:     0.1034489 α      in ANC's #9, #2, #11, ...

........................................................................
.............................. CYCLE   46 ..............................
........................................................................
   1    -38.2679035 -0.382679E+02  0.517E-02    1.34       0.0  T
   2    -38.2679043 -0.844978E-06  0.309E-02    1.34       1.0  T
   3    -38.2679014  0.287820E-05  0.151E-02    1.34       1.2  T
   4    -38.2679049 -0.346046E-05  0.374E-03    1.34       4.8  T
   5    -38.2679049 -0.238259E-08  0.327E-03    1.34       5.5  T
   6    -38.2679050 -0.681951E-07  0.127E-03    1.34      14.1  T
   7    -38.2679050 -0.261639E-07  0.611E-04    1.34      29.4  T
   8    -38.2679050 -0.233666E-08  0.326E-04    1.34      55.2  T
     SCC iter.                  ...        0 min,  0.836 sec
     gradient                   ...        0 min,  0.053 sec
 * total energy  :   -37.6338542 Eh     change       -0.7441774E-04 Eh
   gradient norm :     0.0040971 Eh/α   predicted    -0.6464272E-04 ( -13.14%)
   displ. norm   :     0.1261405 α      lambda       -0.8643194E-04
   maximum displ.:     0.0812079 α      in ANC's #9, #2, #1, ...

........................................................................
.............................. CYCLE   47 ..............................
........................................................................
   1    -38.2663000 -0.382663E+02  0.491E-02    1.34       0.0  T
   2    -38.2663000  0.266818E-07  0.334E-02    1.33       1.0  T
   3    -38.2662901  0.993601E-05  0.238E-02    1.34       1.0  T
   4    -38.2663014 -0.113704E-04  0.638E-03    1.33       2.8  T
   5    -38.2663020 -0.564167E-06  0.285E-03    1.33       6.3  T
   6    -38.2663020  0.403137E-08  0.128E-03    1.33      14.0  T
   7    -38.2663020 -0.205648E-07  0.508E-04    1.33      35.3  T
   8    -38.2663020 -0.109856E-08  0.362E-04    1.33      49.6  T
     SCC iter.                  ...        0 min,  0.621 sec
     gradient                   ...        0 min,  0.196 sec
 * total energy  :   -37.6339181 Eh     change       -0.6399503E-04 Eh
   gradient norm :     0.0028451 Eh/α   predicted    -0.4390431E-04 ( -31.39%)
   displ. norm   :     0.1602349 α      lambda       -0.8556890E-04
   maximum displ.:     0.0921277 α      in ANC's #9, #2, #3, ...

........................................................................
.............................. CYCLE   48 ..............................
........................................................................
   1    -38.2639188 -0.382639E+02  0.482E-02    1.33       0.0  T
   2    -38.2639190 -0.181427E-06  0.292E-02    1.33       1.0  T
   3    -38.2639106  0.840863E-05  0.200E-02    1.33       1.0  T
   4    -38.2639197 -0.912344E-05  0.406E-03    1.33       4.4  T
   5    -38.2639199 -0.142470E-06  0.235E-03    1.33       7.6  T
   6    -38.2639199  0.531249E-08  0.101E-03    1.33      17.9  T
   7    -38.2639199 -0.171067E-07  0.352E-04    1.33      51.0  T
   8    -38.2639199 -0.459274E-09  0.241E-04    1.33      74.6  T
     SCC iter.                  ...        0 min,  0.864 sec
     gradient                   ...        0 min,  0.184 sec
 * total energy  :   -37.6339759 Eh     change       -0.5779075E-04 Eh
   gradient norm :     0.0016087 Eh/α   predicted    -0.4388402E-04 ( -24.06%)
   displ. norm   :     0.2354855 α      lambda       -0.5547803E-04
   maximum displ.:     0.1264548 α      in ANC's #3, #2, #9, ...

........................................................................
.............................. CYCLE   49 ..............................
........................................................................
   1    -38.2623042 -0.382623E+02  0.767E-02    1.33       0.0  T
   2    -38.2623046 -0.383921E-06  0.490E-02    1.33       1.0  T
   3    -38.2622871  0.175278E-04  0.256E-02    1.33       1.0  T
   4    -38.2623054 -0.183334E-04  0.690E-03    1.33       2.6  T
   5    -38.2623059 -0.514055E-06  0.314E-03    1.33       5.7  T
   6    -38.2623060 -0.105801E-07  0.130E-03    1.33      13.8  T
   7    -38.2623060 -0.971416E-08  0.514E-04    1.33      35.0  T
   8    -38.2623060 -0.110266E-08  0.359E-04    1.33      50.1  T
     SCC iter.                  ...        0 min,  0.696 sec
     gradient                   ...        0 min,  0.080 sec
 * total energy  :   -37.6340263 Eh     change       -0.5038953E-04 Eh
   gradient norm :     0.0037946 Eh/α   predicted    -0.2842436E-04 ( -43.59%)
   displ. norm   :     0.1078536 α      lambda       -0.4986054E-04
   maximum displ.:     0.0634537 α      in ANC's #3, #2, #4, ...

........................................................................
.............................. CYCLE   50 ..............................
........................................................................
   1    -38.2633058 -0.382633E+02  0.252E-02    1.33       0.0  T
   2    -38.2633062 -0.415354E-06  0.159E-02    1.33       1.1  T
   3    -38.2633054  0.879245E-06  0.908E-03    1.33       2.0  T
   4    -38.2633064 -0.106169E-05  0.408E-03    1.33       4.4  T
   5    -38.2633066 -0.183427E-06  0.218E-03    1.33       8.3  T
   6    -38.2633066 -0.245903E-08  0.105E-03    1.33      17.2  T
   7    -38.2633066 -0.104954E-07  0.485E-04    1.33      37.1  T
   8    -38.2633066 -0.951957E-09  0.279E-04    1.33      64.4  T
     SCC iter.                  ...        0 min,  0.622 sec
     gradient                   ...        0 min,  0.228 sec
 * total energy  :   -37.6340660 Eh     change       -0.3963902E-04 Eh
   gradient norm :     0.0028368 Eh/α   predicted    -0.2522351E-04 ( -36.37%)
   displ. norm   :     0.1681118 α      lambda       -0.6796051E-04
   maximum displ.:     0.0992285 α      in ANC's #3, #2, #4, ...

........................................................................
.............................. CYCLE   51 ..............................
........................................................................
   1    -38.2653901 -0.382654E+02  0.387E-02    1.33       0.0  T
   2    -38.2653910 -0.899649E-06  0.228E-02    1.33       1.0  T
   3    -38.2653885  0.251532E-05  0.161E-02    1.33       1.1  T
   4    -38.2653915 -0.296193E-05  0.435E-03    1.33       4.1  T
   5    -38.2653918 -0.369112E-06  0.197E-03    1.33       9.1  T
   6    -38.2653919 -0.806884E-08  0.740E-04    1.33      24.3  T
   7    -38.2653919 -0.934764E-08  0.298E-04    1.33      60.2  T
     SCC iter.                  ...        0 min,  0.711 sec
     gradient                   ...        0 min,  0.246 sec
 * total energy  :   -37.6341160 Eh     change       -0.5001140E-04 Eh
   gradient norm :     0.0016179 Eh/α   predicted    -0.3494461E-04 ( -30.13%)
   displ. norm   :     0.2566640 α      lambda       -0.4223072E-04
   maximum displ.:     0.1688148 α      in ANC's #2, #3, #4, ...

........................................................................
.............................. CYCLE   52 ..............................
........................................................................
   1    -38.2662454 -0.382662E+02  0.521E-02    1.33       0.0  T
   2    -38.2662466 -0.119876E-05  0.311E-02    1.33       1.0  T
   3    -38.2662411  0.548145E-05  0.211E-02    1.32       1.0  T
   4    -38.2662472 -0.604578E-05  0.583E-03    1.33       3.1  T
   5    -38.2662478 -0.645364E-06  0.264E-03    1.33       6.8  T
   6    -38.2662478 -0.140351E-07  0.796E-04    1.33      22.6  T
   7    -38.2662478 -0.132052E-07  0.259E-04    1.33      69.4  T
     SCC iter.                  ...        0 min,  0.970 sec
     gradient                   ...        0 min,  0.351 sec
 * total energy  :   -37.6341601 Eh     change       -0.4412972E-04 Eh
   gradient norm :     0.0017987 Eh/α   predicted    -0.2173500E-04 ( -50.75%)
   displ. norm   :     0.1282371 α      lambda       -0.2438989E-04
   maximum displ.:     0.0998874 α      in ANC's #2, #3, #4, ...

........................................................................
.............................. CYCLE   53 ..............................
........................................................................
   1    -38.2659992 -0.382660E+02  0.224E-02    1.33       0.0  T
   2    -38.2659993 -0.907339E-07  0.141E-02    1.33       1.3  T
   3    -38.2659977  0.160674E-05  0.895E-03    1.33       2.0  T
   4    -38.2659994 -0.169943E-05  0.229E-03    1.33       7.8  T
   5    -38.2659995 -0.655162E-07  0.167E-03    1.33      10.8  T
   6    -38.2659995 -0.117882E-07  0.417E-04    1.33      43.0  T
   7    -38.2659995 -0.316732E-08  0.153E-04    1.33     117.1  T
     SCC iter.                  ...        0 min,  0.772 sec
     gradient                   ...        0 min,  0.258 sec
 * total energy  :   -37.6341926 Eh     change       -0.3246325E-04 Eh
   gradient norm :     0.0011366 Eh/α   predicted    -0.1228817E-04 ( -62.15%)
   displ. norm   :     0.0990894 α      lambda       -0.2676716E-04
   maximum displ.:     0.0818474 α      in ANC's #2, #9, #3, ...

........................................................................
.............................. CYCLE   54 ..............................
........................................................................
   1    -38.2655569 -0.382656E+02  0.229E-02    1.33       0.0  T
   2    -38.2655572 -0.319540E-06  0.137E-02    1.33       1.3  T
   3    -38.2655564  0.816672E-06  0.893E-03    1.33       2.0  T
   4    -38.2655574 -0.104507E-05  0.221E-03    1.33       8.1  T
   5    -38.2655574 -0.952386E-08  0.206E-03    1.33       8.7  T
   6    -38.2655574 -0.276752E-07  0.840E-04    1.33      21.4  T
   7    -38.2655574 -0.717384E-08  0.381E-04    1.33      47.1  T
     SCC iter.                  ...        0 min,  0.660 sec
     gradient                   ...        0 min,  0.248 sec
 * total energy  :   -37.6342257 Eh     change       -0.3314591E-04 Eh
   gradient norm :     0.0007639 Eh/α   predicted    -0.1344327E-04 ( -59.44%)
   displ. norm   :     0.1013588 α      lambda       -0.1965025E-04
   maximum displ.:     0.0784293 α      in ANC's #2, #9, #4, ...

........................................................................
.............................. CYCLE   55 ..............................
........................................................................
   1    -38.2652730 -0.382653E+02  0.249E-02    1.33       0.0  T
   2    -38.2652731 -0.815214E-07  0.156E-02    1.33       1.2  T
   3    -38.2652712  0.187287E-05  0.101E-02    1.33       1.8  T
   4    -38.2652733 -0.204074E-05  0.268E-03    1.33       6.7  T
   5    -38.2652733 -0.779972E-07  0.134E-03    1.33      13.4  T
   6    -38.2652733  0.287508E-08  0.584E-04    1.33      30.8  T
   7    -38.2652733 -0.502501E-08  0.260E-04    1.33      69.2  T
     SCC iter.                  ...        0 min,  0.826 sec
     gradient                   ...        0 min,  0.185 sec
 * total energy  :   -37.6342481 Eh     change       -0.2242404E-04 Eh
   gradient norm :     0.0009663 Eh/α   predicted    -0.9871929E-05 ( -55.98%)
   displ. norm   :     0.0680160 α      lambda       -0.1081693E-04
   maximum displ.:     0.0588833 α      in ANC's #2, #4, #9, ...

........................................................................
.............................. CYCLE   56 ..............................
........................................................................
   1    -38.2648154 -0.382648E+02  0.232E-02    1.33       0.0  T
   2    -38.2648155 -0.891076E-07  0.151E-02    1.33       1.2  T
   3    -38.2648147  0.788854E-06  0.580E-03    1.33       3.1  T
   4    -38.2648155 -0.815669E-06  0.247E-03    1.33       7.3  T
   5    -38.2648156 -0.566478E-07  0.127E-03    1.33      14.1  T
   6    -38.2648156  0.240874E-08  0.593E-04    1.33      30.3  T
   7    -38.2648156 -0.333236E-08  0.275E-04    1.33      65.3  T
     SCC iter.                  ...        0 min,  0.960 sec
     gradient                   ...        0 min,  0.264 sec
 * total energy  :   -37.6342601 Eh     change       -0.1200748E-04 Eh
   gradient norm :     0.0010249 Eh/α   predicted    -0.5424401E-05 ( -54.82%)
   displ. norm   :     0.0502310 α      lambda       -0.6837986E-05
   maximum displ.:     0.0425007 α      in ANC's #2, #4, #3, ...

........................................................................
.............................. CYCLE   57 ..............................
........................................................................
   1    -38.2650577 -0.382651E+02  0.152E-02    1.33       0.0  T
   2    -38.2650576  0.122754E-06  0.110E-02    1.33       1.6  T
   3    -38.2650566  0.102775E-05  0.850E-03    1.33       2.1  T
   4    -38.2650580 -0.146731E-05  0.103E-03    1.33      17.4  T
   5    -38.2650580 -0.121505E-07  0.598E-04    1.33      30.0  T
   6    -38.2650580 -0.297035E-09  0.235E-04    1.33      76.5  T
     SCC iter.                  ...        0 min,  0.915 sec
     gradient                   ...        0 min,  0.237 sec
 * total energy  :   -37.6342691 Eh     change       -0.8985078E-05 Eh
   gradient norm :     0.0008038 Eh/α   predicted    -0.3426745E-05 ( -61.86%)
   displ. norm   :     0.0656302 α      lambda       -0.7923638E-05
   maximum displ.:     0.0530503 α      in ANC's #2, #3, #6, ...

........................................................................
.............................. CYCLE   58 ..............................
........................................................................
   1    -38.2652848 -0.382653E+02  0.183E-02    1.33       0.0  T
   2    -38.2652848 -0.310015E-07  0.128E-02    1.33       1.4  T
   3    -38.2652829  0.193982E-05  0.833E-03    1.33       2.2  T
   4    -38.2652849 -0.208405E-05  0.189E-03    1.33       9.5  T
   5    -38.2652850 -0.698609E-07  0.784E-04    1.33      22.9  T
   6    -38.2652850 -0.131055E-08  0.376E-04    1.33      47.8  T
     SCC iter.                  ...        0 min,  0.840 sec
     gradient                   ...        0 min,  0.113 sec
 * total energy  :   -37.6342795 Eh     change       -0.1035767E-04 Eh
   gradient norm :     0.0005127 Eh/α   predicted    -0.3972614E-05 ( -61.65%)
   displ. norm   :     0.0921964 α      lambda       -0.9056911E-05
   maximum displ.:     0.0702783 α      in ANC's #2, #3, #6, ...

........................................................................
.............................. CYCLE   59 ..............................
........................................................................
   1    -38.2654375 -0.382654E+02  0.251E-02    1.33       0.0  T
   2    -38.2654374  0.484894E-07  0.177E-02    1.33       1.0  T
   3    -38.2654339  0.356351E-05  0.127E-02    1.33       1.4  T
   4    -38.2654379 -0.403387E-05  0.236E-03    1.33       7.6  T
   5    -38.2654380 -0.104423E-06  0.110E-03    1.33      16.4  T
   6    -38.2654380 -0.241832E-08  0.480E-04    1.33      37.4  T
   7    -38.2654380 -0.172514E-08  0.173E-04    1.33     103.5  T
     SCC iter.                  ...        0 min,  0.876 sec
     gradient                   ...        0 min,  0.258 sec
 * total energy  :   -37.6342911 Eh     change       -0.1157290E-04 Eh
   gradient norm :     0.0010041 Eh/α   predicted    -0.4546788E-05 ( -60.71%)
   displ. norm   :     0.1298078 α      lambda       -0.1040892E-04
   maximum displ.:     0.0967083 α      in ANC's #2, #3, #6, ...

........................................................................
.............................. CYCLE   60 ..............................
........................................................................
   1    -38.2654518 -0.382655E+02  0.283E-02    1.33       0.0  T
   2    -38.2654519 -0.891588E-07  0.184E-02    1.33       1.0  T
   3    -38.2654499  0.193079E-05  0.103E-02    1.32       1.7  T
   4    -38.2654519 -0.202179E-05  0.214E-03    1.33       8.4  T
   5    -38.2654520 -0.667704E-07  0.132E-03    1.33      13.6  T
   6    -38.2654520 -0.865174E-08  0.382E-04    1.33      47.1  T
   7    -38.2654520 -0.279953E-08  0.110E-04    1.33     162.8  T
     SCC iter.                  ...        0 min,  0.959 sec
     gradient                   ...        0 min,  0.331 sec
 * total energy  :   -37.6343038 Eh     change       -0.1272259E-04 Eh
   gradient norm :     0.0007515 Eh/α   predicted    -0.5244546E-05 ( -58.78%)
   displ. norm   :     0.1658521 α      lambda       -0.1039767E-04
   maximum displ.:     0.1214067 α      in ANC's #2, #3, #4, ...

........................................................................
.............................. CYCLE   61 ..............................
........................................................................
   1    -38.2652928 -0.382653E+02  0.371E-02    1.33       0.0  T
   2    -38.2652929 -0.697235E-07  0.254E-02    1.32       1.0  T
   3    -38.2652873  0.553031E-05  0.148E-02    1.33       1.2  T
   4    -38.2652931 -0.577341E-05  0.359E-03    1.32       5.0  T
   5    -38.2652933 -0.185208E-06  0.178E-03    1.32      10.1  T
   6    -38.2652933 -0.992696E-08  0.531E-04    1.32      33.8  T
   7    -38.2652933 -0.130968E-08  0.275E-04    1.32      65.4  T
     SCC iter.                  ...        0 min,  0.972 sec
     gradient                   ...        0 min,  0.253 sec
 * total energy  :   -37.6343152 Eh     change       -0.1143370E-04 Eh
   gradient norm :     0.0013425 Eh/α   predicted    -0.5266224E-05 ( -53.94%)
   displ. norm   :     0.1679652 α      lambda       -0.7499806E-05
   maximum displ.:     0.1255492 α      in ANC's #2, #3, #4, ...

........................................................................
.............................. CYCLE   62 ..............................
........................................................................
   1    -38.2651468 -0.382651E+02  0.298E-02    1.32       0.0  T
   2    -38.2651468  0.603093E-07  0.184E-02    1.32       1.0  T
   3    -38.2651421  0.460699E-05  0.159E-02    1.32       1.1  T
   4    -38.2651472 -0.505429E-05  0.260E-03    1.32       6.9  T
   5    -38.2651472 -0.114585E-07  0.158E-03    1.32      11.4  T
   6    -38.2651472 -0.935114E-08  0.516E-04    1.32      34.8  T
   7    -38.2651472 -0.329097E-08  0.191E-04    1.32      94.0  T
     SCC iter.                  ...        0 min,  0.976 sec
     gradient                   ...        0 min,  0.289 sec
 * total energy  :   -37.6343223 Eh     change       -0.7031016E-05 Eh
   gradient norm :     0.0009137 Eh/α   predicted    -0.3800164E-05 ( -45.95%)
   displ. norm   :     0.0738321 α      lambda       -0.2150643E-05
   maximum displ.:     0.0553406 α      in ANC's #2, #3, #4, ...

........................................................................
.............................. CYCLE   63 ..............................
........................................................................
   1    -38.2654221 -0.382654E+02  0.136E-02    1.32       0.0  T
   2    -38.2654221 -0.360890E-07  0.832E-03    1.32       2.2  T
   3    -38.2654219  0.213434E-06  0.435E-03    1.33       4.1  T
   4    -38.2654222 -0.239790E-06  0.106E-03    1.32      16.9  T
   5    -38.2654222  0.213679E-08  0.968E-04    1.32      18.6  T
   6    -38.2654222 -0.893696E-08  0.372E-04    1.32      48.2  T
     SCC iter.                  ...        0 min,  0.790 sec
     gradient                   ...        0 min,  0.327 sec
 * total energy  :   -37.6343241 Eh     change       -0.1824728E-05 Eh
   gradient norm :     0.0002877 Eh/α   predicted    -0.1079298E-05 ( -40.85%)
   displ. norm   :     0.0173281 α      lambda       -0.3612980E-06
   maximum displ.:     0.0123684 α      in ANC's #2, #3, #9, ...

   *** GEOMETRY OPTIMIZATION CONVERGED AFTER 63 ITERATIONS ***

------------------------------------------------------------------------
 total energy gain   :        -0.4769060 Eh     -299.2630 kcal/mol
 total RMSD          :         1.6860268 a0        0.8922 Å
 total power (kW/mol):       -19.8748648 (step)  -14.5194 (real)
------------------------------------------------------------------------

 ANCopt (total)                0 d,  0 h,  1 min, 26.238 sec
 optimizer setup                ...        0 min,  0.001 sec (  0.001%)
 model hessian                  ...        0 min,  0.174 sec (  0.201%)
 ANC generation                 ...        0 min,  0.076 sec (  0.088%)
 coordinate transformation      ...        0 min,  0.001 sec (  0.001%)
 single point calculation       ...        1 min, 24.641 sec ( 98.149%)
 optimization log               ...        0 min,  0.007 sec (  0.009%)
 hessian update                 ...        0 min,  1.072 sec (  1.243%)
 rational function              ...        0 min,  0.247 sec (  0.287%)

================
 final structure:
================
31
 xtb: 6.5.1 (b24c23e)
Zr          -1.18510220523661        0.04124187849658        0.28236561354893
C           -0.03294523314696        1.27439131991710       -1.74791738092082
C            0.00871758970279       -2.04496601731041        0.74414154634891
C            0.14708001661445       -1.80206438719851       -0.64418585385486
C           -1.13816516818405       -1.87778233157020       -1.23351331302217
C           -2.07681544966214       -2.16620125010943       -0.20701905553819
C           -1.36621576822470       -2.27394476281642        1.01457278663796
H            0.82612514583117       -2.19798498366365        1.44074977382145
H            1.08703719044373       -1.74309781730145       -1.18233640771072
H           -1.34876203488154       -1.86875786046072       -2.29638609889175
H           -3.11474469976099       -2.44335188443270       -0.35683962379108
H           -1.77786095622882       -2.63396750168341        1.95166544995972
C            0.17575006471132        1.09869953004759        2.00609123429404
C           -0.74681650408671        0.26068284308379        2.68076597379896
C           -2.05331313953300        0.75644236875326        2.44121710318864
C           -1.93143553274576        1.93495964440972        1.65869492444290
C           -0.55883477672626        2.14286295960609        1.38602324249407
H            1.25624932279322        1.05829640520547        2.10705553466522
H           -0.48921915143295       -0.52899143935638        3.37711558021661
H           -2.95986381316043        0.41218920857282        2.92977744651303
H           -2.72715187371825        2.64194415205198        1.45590718468440
H           -0.13373859875050        3.02856940989953        0.92768153770924
H            0.71526260222673        1.01233320251092       -0.96342163131570
H            0.07065270315216        0.61914010143900       -2.60964616631560
H            0.11714106873958        2.30442335518273       -2.04621313201368
C           -3.14409401179652        0.65250710365569       -1.03711071112249
C           -2.16086203408794        1.50538387047273       -1.57060639098673
H           -2.11976101887225        2.51335737631577       -1.15136031023890
H           -2.12347668763797        1.53048018516819       -2.65825321080037
H           -3.78376276144892        1.01134265945311       -0.22671777323026
H           -3.58344182491980       -0.09214530833177       -1.69507358259142

 Bond Distances (Angstroems)
 ---------------------------
Zr1-C2=2.6401        Zr1-C3=2.4476        Zr1-C4=2.4558        Zr1-C5=2.4460        Zr1-C6=2.4305        Zr1-C7=2.4350        
Zr1-C13=2.4375       Zr1-C14=2.4480       Zr1-C15=2.4343       Zr1-C16=2.4571       Zr1-C17=2.4550       Zr1-H23=2.4711       
Zr1-C26=2.4397       Zr1-C27=2.5553       C2-Zr1=2.6401        C2-H23=1.1153        C2-H24=1.0875        C2-H25=1.0828        
C3-Zr1=2.4476        C3-C4=1.4162         C3-C7=1.4199         C3-H8=1.0848         C4-Zr1=2.4558        C4-C3=1.4162         
C4-C5=1.4159         C4-H9=1.0847         C5-Zr1=2.4460        C5-C4=1.4159         C5-C6=1.4205         C5-H10=1.0836        
C6-Zr1=2.4305        C6-C5=1.4205         C6-C7=1.4173         C6-H11=1.0847        C7-Zr1=2.4350        C7-C3=1.4199         
C7-C6=1.4173         C7-H12=1.0850        H8-C3=1.0848         H9-C4=1.0847         H10-C5=1.0836        H11-C6=1.0847        
H12-C7=1.0850        C13-Zr1=2.4375       C13-C14=1.4172       C13-C17=1.4193       C13-H18=1.0860       C14-Zr1=2.4480       
C14-C13=1.4172       C14-C15=1.4178       C14-H19=1.0839       C15-Zr1=2.4343       C15-C14=1.4178       C15-C16=1.4199       
C15-H20=1.0858       C16-Zr1=2.4571       C16-C15=1.4199       C16-C17=1.4148       C16-H21=1.0836       C17-Zr1=2.4550       
C17-C13=1.4193       C17-C16=1.4148       C17-H22=1.0841       H18-C13=1.0860       H19-C14=1.0839       H20-C15=1.0858       
H21-C16=1.0836       H22-C17=1.0841       H23-Zr1=2.4711       H23-C2=1.1153        H24-C2=1.0875        H25-C2=1.0828        
C26-Zr1=2.4397       C26-C27=1.4067       C26-H30=1.0930       C26-H31=1.0865       C27-Zr1=2.5553       C27-C26=1.4067       
C27-H28=1.0925       C27-H29=1.0886       H28-C27=1.0925       H29-C27=1.0886       H30-C26=1.0930       H31-C26=1.0865       
 C  H  Rav=1.0878 sigma=0.0074  Rmin=1.0828  Rmax=1.1153    17
 C  C  Rav=1.4169 sigma=0.0037  Rmin=1.4067  Rmax=1.4205    11
 Zr H  Rav=2.4711 sigma=0.0000  Rmin=2.4711  Rmax=2.4711     1
 Zr C  Rav=2.4678 sigma=0.0584  Rmin=2.4305  Rmax=2.6401    13

 selected bond angles (degree)
 --------------------
C3-Zr1-C2=109.29               C4-Zr1-C2= 79.85               C4-Zr1-C3= 33.57               C5-Zr1-C2= 83.19               
C5-Zr1-C3= 55.86               C5-Zr1-C4= 33.58               C6-Zr1-C2=115.43               C6-Zr1-C3= 56.14               
C6-Zr1-C4= 56.04               C6-Zr1-C5= 33.87               C7-Zr1-C2=135.06               C7-Zr1-C3= 33.81               
C7-Zr1-C4= 55.95               C7-Zr1-C5= 56.07               C7-Zr1-C6= 33.87               C13-Zr1-C2= 95.60              
C13-Zr1-C3= 87.94              C13-Zr1-C4=106.83              C13-Zr1-C5=140.17              C13-Zr1-C6=137.84              
C13-Zr1-C7=103.97              C14-Zr1-C2=129.30              C14-Zr1-C3= 78.71              C14-Zr1-C4=109.87              
C14-Zr1-C5=132.38              C14-Zr1-C6=110.14              C14-Zr1-C7= 78.69              C14-Zr1-C13= 33.73             
C15-Zr1-C2=134.46              C15-Zr1-C3=104.90              C15-Zr1-C4=138.47              C15-Zr1-C5=141.90              
C15-Zr1-C6=108.33              C15-Zr1-C7= 89.21              C15-Zr1-C13= 56.26             C15-Zr1-C14= 33.76             
C16-Zr1-C2=101.73              C16-Zr1-C3=134.38              C16-Zr1-C4=162.67              C16-Zr1-C5=163.26              
C16-Zr1-C6=134.53              C16-Zr1-C7=122.80              C16-Zr1-C13= 55.88             C16-Zr1-C14= 55.70             
C16-Zr1-C15= 33.75             C17-Zr1-C2= 80.48              C17-Zr1-C3=121.36              C17-Zr1-C4=132.36              
C17-Zr1-C5=160.97              C17-Zr1-C6=164.07              C17-Zr1-C7=134.25              C17-Zr1-C13= 33.72             
C17-Zr1-C14= 55.75             C17-Zr1-C15= 56.00             C17-Zr1-C16= 33.48             H23-Zr1-C2= 24.93              
H23-Zr1-C3= 93.15              H23-Zr1-C4= 71.80              H23-Zr1-C5= 88.92              H23-Zr1-C6=122.52              
H23-Zr1-C7=125.62              H23-Zr1-C13= 75.92             H23-Zr1-C14=108.72             H23-Zr1-C15=127.29             
H23-Zr1-C16=102.30             H23-Zr1-C17= 72.18             C26-Zr1-C2= 79.48              C26-Zr1-C3=135.01              
C26-Zr1-C4=114.81              C26-Zr1-C5= 82.92              C26-Zr1-C6= 79.87              C26-Zr1-C7=109.95              
C26-Zr1-C13=136.22             C26-Zr1-C14=130.63             C26-Zr1-C15= 96.87             C26-Zr1-C16= 82.30             
C26-Zr1-C17=103.50             C26-Zr1-H23=104.26             C27-Zr1-C2= 48.80              C27-Zr1-C3=144.24              
C27-Zr1-C4=111.32              C27-Zr1-C5= 90.43              C27-Zr1-C6=103.55              C27-Zr1-C7=137.26              
C27-Zr1-C13=118.52             C27-Zr1-C14=136.68             C27-Zr1-C15=109.79             C27-Zr1-C16= 81.29             
C27-Zr1-C17= 86.15             C27-Zr1-H23= 72.72             C27-Zr1-C26= 32.61             H23-C2-Zr1= 69.03              
H24-C2-Zr1=111.69              H24-C2-H23=110.60              H25-C2-Zr1=135.78              H25-C2-H23=108.92              
H25-C2-H24=109.98              C4-C3-Zr1= 73.53               C7-C3-Zr1= 72.61               C7-C3-C4=108.00                
H8-C3-Zr1=127.51               H8-C3-C4=125.46                H8-C3-C7=125.77                C3-C4-Zr1= 72.89               
C5-C4-Zr1= 72.83               C5-C4-C3=108.07                H9-C4-Zr1=128.06               H9-C4-C3=125.47                
H9-C4-C5=125.66                C4-C5-Zr1= 73.59               C6-C5-Zr1= 72.47               C6-C5-C4=108.05                
H10-C5-Zr1=126.70              H10-C5-C4=125.75               H10-C5-C6=125.60               C5-C6-Zr1= 73.66               
C7-C6-Zr1= 73.24               C7-C6-C5=107.88                H11-C6-Zr1=127.66              H11-C6-C5=125.76               
H11-C6-C7=125.41               C3-C7-Zr1= 73.58               C6-C7-Zr1= 72.89               C6-C7-C3=108.00                
H12-C7-Zr1=127.12              H12-C7-C3=125.83               H12-C7-C6=125.41               

 selected dihedral angles (degree)
 ---------------------------------
H23-C2-Zr1-C3=307.95          H23-C2-Zr1-C4=291.58          H23-C2-Zr1-C5=257.78          H23-C2-Zr1-C6=247.11          
H23-C2-Zr1-C7=281.52          H23-C2-Zr1-C13= 37.72         H23-C2-Zr1-C14= 39.00         H23-C2-Zr1-C15= 84.42         
H23-C2-Zr1-C16= 93.99         H23-C2-Zr1-C17= 67.97         H23-C2-Zr1-C26=173.75         H23-C2-Zr1-C27=161.21         
H24-C2-Zr1-C3= 52.61          H24-C2-Zr1-C4= 36.24          H24-C2-Zr1-C5=  2.44          H24-C2-Zr1-C6=351.77          
H24-C2-Zr1-C7= 26.18          H24-C2-Zr1-C13=142.38         H24-C2-Zr1-C14=143.67         H24-C2-Zr1-C15=189.08         
H24-C2-Zr1-C16=198.65         H24-C2-Zr1-C17=172.63         H24-C2-Zr1-H23=104.66         H24-C2-Zr1-C26=278.41         
H24-C2-Zr1-C27=265.87         H25-C2-Zr1-C3=211.97          H25-C2-Zr1-C4=195.60          H25-C2-Zr1-C5=161.80          
H25-C2-Zr1-C6=151.13          H25-C2-Zr1-C7=185.54          H25-C2-Zr1-C13=301.74         H25-C2-Zr1-C14=303.03         
H25-C2-Zr1-C15=348.44         H25-C2-Zr1-C16=358.01         H25-C2-Zr1-C17=331.99         H25-C2-Zr1-H23=264.02         
H25-C2-Zr1-C26= 77.77         H25-C2-Zr1-C27= 65.23         C4-C3-Zr1-C2=329.89           C4-C3-Zr1-C5= 37.00           
C4-C3-Zr1-C6= 78.14           C4-C3-Zr1-C7=115.48           C4-C3-Zr1-C13=234.68          C4-C3-Zr1-C14=201.97          
C4-C3-Zr1-C15=180.46          C4-C3-Zr1-C16=199.81          C4-C3-Zr1-C17=239.43          C4-C3-Zr1-H23=310.45          
C4-C3-Zr1-C26= 64.28          C4-C3-Zr1-C27= 14.81          C7-C3-Zr1-C2=214.40           C7-C3-Zr1-C4=244.52           
C7-C3-Zr1-C5=281.51           C7-C3-Zr1-C6=322.65           C7-C3-Zr1-C13=119.19          C7-C3-Zr1-C14= 86.49          
C7-C3-Zr1-C15= 64.98          C7-C3-Zr1-C16= 84.32          C7-C3-Zr1-C17=123.95          C7-C3-Zr1-H23=194.96          
C7-C3-Zr1-C26=308.80          C7-C3-Zr1-C27=259.32          H8-C3-Zr1-C2= 92.28           H8-C3-Zr1-C4=122.39           
H8-C3-Zr1-C5=159.38           H8-C3-Zr1-C6=200.52           H8-C3-Zr1-C7=237.87           H8-C3-Zr1-C13=357.06          
H8-C3-Zr1-C14=324.36          H8-C3-Zr1-C15=302.85          H8-C3-Zr1-C16=322.19          H8-C3-Zr1-C17=  1.82          
H8-C3-Zr1-H23= 72.83          H8-C3-Zr1-C26=186.67          H8-C3-Zr1-C27=137.20          C3-C4-Zr1-C2=151.25           
C3-C4-Zr1-C5=244.23           C3-C4-Zr1-C6=281.54           C3-C4-Zr1-C7=322.68           C3-C4-Zr1-C13= 58.42          
C3-C4-Zr1-C14= 22.96          C3-C4-Zr1-C15=  0.67          C3-C4-Zr1-C16= 54.38          C3-C4-Zr1-C17= 84.25          
C3-C4-Zr1-H23=126.88          C3-C4-Zr1-C26=224.56          C3-C4-Zr1-C27=189.23          C5-C4-Zr1-C2=267.01           
C5-C4-Zr1-C3=115.77           C5-C4-Zr1-C6= 37.31           C5-C4-Zr1-C7= 78.45           C5-C4-Zr1-C13=174.19          
C5-C4-Zr1-C14=138.73          C5-C4-Zr1-C15=116.44          C5-C4-Zr1-C16=170.15          C5-C4-Zr1-C17=200.02          
C5-C4-Zr1-H23=242.65          C5-C4-Zr1-C26=340.33          C5-C4-Zr1-C27=305.00          H9-C4-Zr1-C2= 29.22           
H9-C4-Zr1-C3=237.98           H9-C4-Zr1-C5=122.21           H9-C4-Zr1-C6=159.52           H9-C4-Zr1-C7=200.66           
H9-C4-Zr1-C13=296.40          H9-C4-Zr1-C14=260.94          H9-C4-Zr1-C15=238.65          H9-C4-Zr1-C16=292.36          
H9-C4-Zr1-C17=322.23          H9-C4-Zr1-H23=  4.86          H9-C4-Zr1-C26=102.54          H9-C4-Zr1-C27= 67.21          
Zr1-C4-C3-C7= 64.93           Zr1-C4-C3-H8=235.32           C5-C4-C3-Zr1=295.17           C5-C4-C3-C7=  0.10            
C5-C4-C3-H8=170.49            H9-C4-C3-Zr1=124.94           H9-C4-C3-C7=189.86            H9-C4-C3-H8=  0.26            
C4-C5-Zr1-C2= 81.88           C4-C5-Zr1-C3=323.01           C4-C5-Zr1-C6=244.42           C4-C5-Zr1-C7=281.93           
C4-C5-Zr1-C13=351.29          C4-C5-Zr1-C14=302.88          C4-C5-Zr1-C15=254.19          C4-C5-Zr1-C16=190.19          
C4-C5-Zr1-C17= 50.87          C4-C5-Zr1-H23= 57.55          C4-C5-Zr1-C26=162.07          C4-C5-Zr1-C27=130.26          
C6-C5-Zr1-C2=197.46           C6-C5-Zr1-C3= 78.59           C6-C5-Zr1-C4=115.58           C6-C5-Zr1-C7= 37.51           
C6-C5-Zr1-C13=106.87          C6-C5-Zr1-C14= 58.46          C6-C5-Zr1-C15=  9.78          C6-C5-Zr1-C16=305.77          
C6-C5-Zr1-C17=166.45          C6-C5-Zr1-H23=173.13          C6-C5-Zr1-C26=277.65          C6-C5-Zr1-C27=245.84          
H10-C5-Zr1-C2=319.19          H10-C5-Zr1-C3=200.32          H10-C5-Zr1-C4=237.31          H10-C5-Zr1-C6=121.73          
H10-C5-Zr1-C7=159.23          H10-C5-Zr1-C13=228.60         H10-C5-Zr1-C14=180.19         H10-C5-Zr1-C15=131.50         
H10-C5-Zr1-C16= 67.50         H10-C5-Zr1-C17=288.18         H10-C5-Zr1-H23=294.86         H10-C5-Zr1-C26= 39.38         
H10-C5-Zr1-C27=  7.57         Zr1-C5-C4-C3= 64.87           Zr1-C5-C4-H9=235.08           C6-C5-C4-Zr1=295.23           
C6-C5-C4-C3=  0.10            C6-C5-C4-H9=170.31            H10-C5-C4-Zr1=123.76          H10-C5-C4-C3=188.63           
H10-C5-C4-H9=358.84           C5-C6-Zr1-C2= 19.27           C5-C6-Zr1-C3=282.29           C5-C6-Zr1-C4=323.02           
C5-C6-Zr1-C7=245.01           C5-C6-Zr1-C13=245.95          C5-C6-Zr1-C14=222.11          C5-C6-Zr1-C15=186.34          
C5-C6-Zr1-C16=160.87          C5-C6-Zr1-C17=196.16          C5-C6-Zr1-H23=351.85          C5-C6-Zr1-C26= 92.39          
C5-C6-Zr1-C27= 69.80          C7-C6-Zr1-C2=134.25           C7-C6-Zr1-C3= 37.28           C7-C6-Zr1-C4= 78.01           
C7-C6-Zr1-C5=114.99           C7-C6-Zr1-C13=  0.93          C7-C6-Zr1-C14=337.10          C7-C6-Zr1-C15=301.32          
C7-C6-Zr1-C16=275.85          C7-C6-Zr1-C17=311.14          C7-C6-Zr1-H23=106.84          C7-C6-Zr1-C26=207.38          
C7-C6-Zr1-C27=184.79          H11-C6-Zr1-C2=256.38          H11-C6-Zr1-C3=159.41          H11-C6-Zr1-C4=200.14          
H11-C6-Zr1-C5=237.12          H11-C6-Zr1-C7=122.13          H11-C6-Zr1-C13=123.06         H11-C6-Zr1-C14= 99.23         
H11-C6-Zr1-C15= 63.45         H11-C6-Zr1-C16= 37.98         H11-C6-Zr1-C17= 73.27         H11-C6-Zr1-H23=228.97         
H11-C6-Zr1-C26=329.51         H11-C6-Zr1-C27=306.92         Zr1-C6-C5-C4= 65.51           Zr1-C6-C5-H10=237.00          
C7-C6-C5-Zr1=294.23           C7-C6-C5-C4=359.74            C7-C6-C5-H10=171.23           H11-C6-C5-Zr1=124.99          
H11-C6-C5-C4=190.50           H11-C6-C5-H10=  1.99          C3-C7-Zr1-C2= 49.02           C3-C7-Zr1-C4= 37.05           
C3-C7-Zr1-C5= 77.82           C3-C7-Zr1-C6=115.33           C3-C7-Zr1-C13=295.97          C3-C7-Zr1-C14=273.45          
C3-C7-Zr1-C15=241.14          C3-C7-Zr1-C16=237.80          C3-C7-Zr1-C17=278.56          C3-C7-Zr1-H23= 18.49          
C3-C7-Zr1-C26=144.12          C3-C7-Zr1-C27=122.20          C6-C7-Zr1-C2=293.69           C6-C7-Zr1-C3=244.67           
C6-C7-Zr1-C4=281.72           C6-C7-Zr1-C5=322.49           C6-C7-Zr1-C13=180.64          C6-C7-Zr1-C14=158.12          
C6-C7-Zr1-C15=125.81          C6-C7-Zr1-C16=122.47          C6-C7-Zr1-C17=163.23          C6-C7-Zr1-H23=263.16          
C6-C7-Zr1-C26= 28.79          C6-C7-Zr1-C27=  6.87          H12-C7-Zr1-C2=171.87          H12-C7-Zr1-C3=122.84          
H12-C7-Zr1-C4=159.89          H12-C7-Zr1-C5=200.67          H12-C7-Zr1-C6=238.17          H12-C7-Zr1-C13= 58.82         
H12-C7-Zr1-C14= 36.30         H12-C7-Zr1-C15=  3.98         H12-C7-Zr1-C16=  0.64         H12-C7-Zr1-C17= 41.40         
H12-C7-Zr1-H23=141.34         H12-C7-Zr1-C26=266.96         H12-C7-Zr1-C27=245.04         Zr1-C7-C3-C4=294.46           
Zr1-C7-C3-H8=124.11           C6-C7-C3-Zr1= 65.28           C6-C7-C3-C4=359.74            C6-C7-C3-H8=189.39            
H12-C7-C3-Zr1=235.72          H12-C7-C3-C4=170.19           H12-C7-C3-H8=359.83           Zr1-C7-C6-C5= 66.05           
Zr1-C7-C6-H11=235.34          C3-C7-C6-Zr1=294.27           C3-C7-C6-C5=  0.32            C3-C7-C6-H11=169.61           
H12-C7-C6-Zr1=123.77          H12-C7-C6-C5=189.82           H12-C7-C6-H11=359.11          

 CMA Distance (Angstroems)
 ---------------------------
R(CMA):  2.8090
           -------------------------------------------------
          |                Final Singlepoint                |
           -------------------------------------------------

          ...................................................
          :                      SETUP                      :
          :.................................................:
          :  # basis functions                  79          :
          :  # atomic orbitals                  78          :
          :  # shells                           46          :
          :  # electrons                        72          :
          :  max. iterations                   250          :
          :  Hamiltonian                  GFN2-xTB          :
          :  restarted?                      false          :
          :  GBSA solvation                  false          :
          :  PC potential                    false          :
          :  electronic temp.          300.0000000     K    :
          :  accuracy                    1.0000000          :
          :  -> integral cutoff          0.2500000E+02      :
          :  -> integral neglect         0.1000000E-07      :
          :  -> SCF convergence          0.1000000E-05 Eh   :
          :  -> wf. convergence          0.1000000E-03 e    :
          :  Broyden damping             0.4000000          :
          ...................................................

 iter      E             dE          RMSdq      gap      omega  full diag
   1    -38.2654222 -0.382654E+02  0.157E-04    1.32       0.0  T
   2    -38.2654222 -0.268585E-10  0.993E-05    1.32     180.9  T
   3    -38.2654222 -0.576748E-10  0.937E-05    1.32     191.7  T

   *** convergence criteria satisfied after 3 iterations ***

         #    Occupation            Energy/Eh            Energy/eV
      -------------------------------------------------------------
         1        2.0000           -0.8741812             -23.7877
       ...           ...                  ...                  ...
        30        2.0000           -0.5855789             -15.9344
        31        2.0000           -0.5731551             -15.5963
        32        2.0000           -0.5250753             -14.2880
        33        2.0000           -0.5241375             -14.2625
        34        2.0000           -0.5146209             -14.0035
        35        2.0000           -0.5094373             -13.8625
        36        2.0000           -0.4771550             -12.9840 (HOMO)
        37                         -0.4284842             -11.6596 (LUMO)
        38                         -0.4116315             -11.2011
        39                         -0.4104860             -11.1699
        40                         -0.4044576             -11.0059
        41                         -0.4027858             -10.9604
       ...                                ...                  ...
        78                          2.5589196              69.6317
      -------------------------------------------------------------
                  HL-Gap            0.0486708 Eh            1.3244 eV
             Fermi-level           -0.4528196 Eh          -12.3218 eV

 SCC (total)                   0 d,  0 h,  0 min,  0.886 sec
 SCC setup                      ...        0 min,  0.026 sec (  2.942%)
 Dispersion                     ...        0 min,  0.049 sec (  5.519%)
 classical contributions        ...        0 min,  0.036 sec (  4.120%)
 integral evaluation            ...        0 min,  0.080 sec (  8.997%)
 iterations                     ...        0 min,  0.448 sec ( 50.595%)
 molecular gradient             ...        0 min,  0.245 sec ( 27.694%)
 printout                       ...        0 min,  0.001 sec (  0.130%)

         :::::::::::::::::::::::::::::::::::::::::::::::::::::
         ::                     SUMMARY                     ::
         :::::::::::::::::::::::::::::::::::::::::::::::::::::
         :: total energy             -37.634324076552 Eh    ::
         :: gradient norm              0.000287792233 Eh/a0 ::
         :: HOMO-LUMO gap              1.324400489630 eV    ::
         ::.................................................::
         :: SCC energy               -38.265422183528 Eh    ::
         :: -> isotropic ES            0.087170001819 Eh    ::
         :: -> anisotropic ES         -0.013262869497 Eh    ::
         :: -> anisotropic XC          0.020595844926 Eh    ::
         :: -> dispersion             -0.027743106776 Eh    ::
         :: repulsion energy           0.629710150981 Eh    ::
         :: add. restraining           0.000701288913 Eh    ::
         :: total charge               1.000000000000 e     ::
         :::::::::::::::::::::::::::::::::::::::::::::::::::::

           -------------------------------------------------
          |                Property Printout                |
           -------------------------------------------------

    * Orbital Energies and Occupations

         #    Occupation            Energy/Eh            Energy/eV
      -------------------------------------------------------------
         1        2.0000           -0.8741812             -23.7877
       ...           ...                  ...                  ...
        24        2.0000           -0.5974490             -16.2574
        25        2.0000           -0.5960569             -16.2195
        26        2.0000           -0.5940728             -16.1655
        27        2.0000           -0.5937060             -16.1556
        28        2.0000           -0.5921319             -16.1127
        29        2.0000           -0.5919269             -16.1071
        30        2.0000           -0.5855789             -15.9344
        31        2.0000           -0.5731551             -15.5963
        32        2.0000           -0.5250753             -14.2880
        33        2.0000           -0.5241375             -14.2625
        34        2.0000           -0.5146209             -14.0035
        35        2.0000           -0.5094373             -13.8625
        36        2.0000           -0.4771550             -12.9840 (HOMO)
        37                         -0.4284842             -11.6596 (LUMO)
        38                         -0.4116315             -11.2011
        39                         -0.4104860             -11.1699
        40                         -0.4044576             -11.0059
        41                         -0.4027858             -10.9604
        42                         -0.3603741              -9.8063
        43                         -0.3100822              -8.4378
        44                         -0.3095148              -8.4223
        45                         -0.3083854              -8.3916
        46                         -0.3078095              -8.3759
        47                         -0.0566277              -1.5409
       ...                                ...                  ...
        78                          2.5589196              69.6317
      -------------------------------------------------------------
                  HL-Gap            0.0486708 Eh            1.3244 eV
             Fermi-level           -0.4528196 Eh          -12.3218 eV

     #   Z          covCN         q      C6AA      α(0)
     1  40 Zr       9.867     0.954   138.744    17.699
     2   6 C        3.622    -0.234    25.726     7.312
     3   6 C        3.760    -0.087    22.211     6.718
     4   6 C        3.756    -0.087    22.217     6.721
     5   6 C        3.762    -0.088    22.233     6.721
     6   6 C        3.765    -0.088    22.214     6.718
     7   6 C        3.765    -0.087    22.199     6.716
     8   1 H        0.925     0.084     1.942     2.179
     9   1 H        0.925     0.079     1.984     2.203
    10   1 H        0.925     0.088     1.899     2.155
    11   1 H        0.925     0.087     1.910     2.161
    12   1 H        0.925     0.086     1.918     2.166
    13   6 C        3.762    -0.091    22.281     6.729
    14   6 C        3.763    -0.082    22.110     6.703
    15   6 C        3.762    -0.090    22.271     6.727
    16   6 C        3.758    -0.088    22.237     6.723
    17   6 C        3.758    -0.089    22.259     6.726
    18   1 H        0.925     0.079     1.993     2.208
    19   1 H        0.925     0.087     1.910     2.161
    20   1 H        0.925     0.081     1.964     2.192
    21   1 H        0.925     0.082     1.963     2.191
    22   1 H        0.925     0.082     1.958     2.188
    23   1 H        1.081     0.070     2.069     2.246
    24   1 H        0.925     0.072     2.064     2.247
    25   1 H        0.925     0.076     2.025     2.225
    26   6 C        3.591    -0.205    25.317     7.290
    27   6 C        3.745    -0.086    22.216     6.724
    28   1 H        0.925     0.105     1.742     2.064
    29   1 H        0.925     0.114     1.666     2.019
    30   1 H        0.929     0.089     1.884     2.146
    31   1 H        0.925     0.089     1.885     2.147

 Mol. C6AA /au·bohr⁶  :       9452.228388
 Mol. C8AA /au·bohr⁸  :     320858.484866
 Mol. α(0) /au        :        143.124708


Wiberg/Mayer (AO) data.
largest (>0.10) Wiberg bond orders for each atom

 ---------------------------------------------------------------------------
     #   Z sym  total        # sym  WBO       # sym  WBO       # sym  WBO
 ---------------------------------------------------------------------------
     1  40 Zr   4.332 --    26 C    0.519     2 C    0.451    15 C    0.255
                             6 C    0.254     7 C    0.251     3 C    0.245
                            13 C    0.245     5 C    0.242     4 C    0.236
                            14 C    0.236    16 C    0.234    27 C    0.233
                            17 C    0.233    23 H    0.114
     2   6 C    3.931 --    25 H    0.973    24 H    0.956    23 H    0.842
                             1 Zr   0.451    27 C    0.443    26 C    0.175
     3   6 C    3.980 --     4 C    1.303     7 C    1.295     8 H    0.923
                             1 Zr   0.245
     4   6 C    3.981 --     5 C    1.308     3 C    1.303     9 H    0.924
                             1 Zr   0.236
     5   6 C    3.979 --     4 C    1.308     6 C    1.289    10 H    0.924
                             1 Zr   0.242
     6   6 C    3.981 --     7 C    1.299     5 C    1.289    11 H    0.920
                             1 Zr   0.254
     7   6 C    3.980 --     6 C    1.299     3 C    1.295    12 H    0.921
                             1 Zr   0.251
     8   1 H    0.990 --     3 C    0.923
     9   1 H    0.992 --     4 C    0.924
    10   1 H    0.989 --     5 C    0.924
    11   1 H    0.990 --     6 C    0.920
    12   1 H    0.990 --     7 C    0.921
    13   6 C    3.978 --    14 C    1.305    17 C    1.294    18 H    0.920
                             1 Zr   0.245
    14   6 C    3.981 --    13 C    1.305    15 C    1.301    19 H    0.925
                             1 Zr   0.236
    15   6 C    3.979 --    14 C    1.301    16 C    1.289    20 H    0.919
                             1 Zr   0.255
    16   6 C    3.979 --    17 C    1.313    15 C    1.289    21 H    0.927
                             1 Zr   0.234
    17   6 C    3.979 --    16 C    1.313    13 C    1.294    22 H    0.925
                             1 Zr   0.233
    18   1 H    0.992 --    13 C    0.920
    19   1 H    0.990 --    14 C    0.925
    20   1 H    0.991 --    15 C    0.919
    21   1 H    0.991 --    16 C    0.927
    22   1 H    0.991 --    17 C    0.925
    23   1 H    0.995 --     2 C    0.842     1 Zr   0.114
    24   1 H    0.993 --     2 C    0.956
    25   1 H    0.992 --     2 C    0.973
    26   6 C    3.917 --    27 C    1.325    31 H    0.925    30 H    0.882
                             1 Zr   0.519     2 C    0.175
    27   6 C    3.986 --    26 C    1.325    29 H    0.942    28 H    0.923
                             2 C    0.443     1 Zr   0.233
    28   1 H    0.987 --    27 C    0.923
    29   1 H    0.986 --    27 C    0.942
    30   1 H    0.991 --    26 C    0.882
    31   1 H    0.990 --    26 C    0.925
 ---------------------------------------------------------------------------

Topologies differ in total number of bonds
Writing topology from bond orders to xtbtopo.mol

molecular dipole:
                 x           y           z       tot (Debye)
 q only:       -2.484       0.440       0.022
   full:       -2.155       0.374       0.246       5.595
molecular quadrupole (traceless):
                xx          xy          yy          xz          yz          zz
 q only:        6.809      -1.945      -4.750       0.747      -4.570      -2.059
  q+dip:        8.270      -0.425      -7.305      -1.183      -7.174      -0.965
   full:        8.581      -0.381      -6.486      -1.828      -5.399      -2.095

           -------------------------------------------------
          |                Geometry Summary                 |
           -------------------------------------------------

      molecular mass/u    :      264.4982010
   center of mass at/Å    :       -1.1608901       0.0073671       0.3429400
  moments of inertia/u·Å² :        0.5988449E+03   0.7240537E+03   0.9215294E+03
rotational constants/cm⁻¹ :        0.2815025E-01   0.2328230E-01   0.1829310E-01

 * 40 selected distances

     #   Z          #   Z                                           value/Å
     1  40 Zr       3   6 C                                       2.4475921
     1  40 Zr       4   6 C                                       2.4558066
     3   6 C        4   6 C                                       1.4161916
     1  40 Zr       5   6 C                                       2.4459655
     4   6 C        5   6 C                                       1.4159434
     1  40 Zr       6   6 C                                       2.4305259
     5   6 C        6   6 C                                       1.4205424
     1  40 Zr       7   6 C                                       2.4349579
     3   6 C        7   6 C                                       1.4198614
     6   6 C        7   6 C                                       1.4173382
     3   6 C        8   1 H                                       1.0848194
     4   6 C        9   1 H                                       1.0847132
     5   6 C       10   1 H                                       1.0835734
     6   6 C       11   1 H                                       1.0846917
     7   6 C       12   1 H                                       1.0849936
     1  40 Zr      13   6 C                                       2.4374919
     1  40 Zr      14   6 C                                       2.4479735
    13   6 C       14   6 C                                       1.4172464
     1  40 Zr      15   6 C                                       2.4343259
    14   6 C       15   6 C                                       1.4177782
     1  40 Zr      16   6 C                                       2.4571251
    15   6 C       16   6 C                                       1.4198938
     1  40 Zr      17   6 C                                       2.4550119
    13   6 C       17   6 C                                       1.4192874
    16   6 C       17   6 C                                       1.4147816
    13   6 C       18   1 H                                       1.0859581
    14   6 C       19   1 H                                       1.0839026
    15   6 C       20   1 H                                       1.0858341
    16   6 C       21   1 H                                       1.0835657
    17   6 C       22   1 H                                       1.0840941
     2   6 C       23   1 H                                       1.1153131
     2   6 C       24   1 H                                       1.0875033
     2   6 C       25   1 H                                       1.0828077 (min)
     1  40 Zr      26   6 C                                       2.4397362
     1  40 Zr      27   6 C                                       2.5552545 (max)
    26   6 C       27   6 C                                       1.4066847
    27   6 C       28   1 H                                       1.0924593
    27   6 C       29   1 H                                       1.0885786
    26   6 C       30   1 H                                       1.0930124
    26   6 C       31   1 H                                       1.0864847

 * 3 distinct bonds (by element types)

   Z      Z             #   av. dist./Å        max./Å        min./Å
   1 H    6 C          17     1.0877826     1.1153131     1.0828077
   6 C    6 C          11     1.4168681     1.4205424     1.4066847
   6 C   40 Zr         12     2.4534806     2.5552545     2.4305259


optimized geometry written to: xtbopt.xyz


           -------------------------------------------------
          | TOTAL ENERGY              -37.634324076552 Eh   |
          | GRADIENT NORM               0.000287792233 Eh/α |
          | HOMO-LUMO GAP               1.324400489630 eV   |
           -------------------------------------------------

------------------------------------------------------------------------
 * finished run on 2026/08/18 at 18:30:58.401     
------------------------------------------------------------------------
 total:
 * wall-time:     0 d,  0 h,  1 min, 30.514 sec
 *  cpu-time:     0 d,  0 h,  2 min, 34.940 sec
 * ratio c/w:     1.712 speedup
 SCF:
 * wall-time:     0 d,  0 h,  0 min,  3.126 sec
 *  cpu-time:     0 d,  0 h,  0 min,  4.244 sec
 * ratio c/w:     1.358 speedup
 ANC optimizer:
 * wall-time:     0 d,  0 h,  1 min, 27.166 sec
 *  cpu-time:     0 d,  0 h,  2 min, 30.439 sec
 * ratio c/w:     1.726 speedup

