      -----------------------------------------------------------      
     |                   =====================                   |     
     |                           x T B                           |     
     |                   =====================                   |     
     |                         S. Grimme                         |     
     |          Mulliken Center for Theoretical Chemistry        |     
     |                    University of Bonn                     |     
      -----------------------------------------------------------      

   * xtb version 6.5.1 (b24c23e) compiled by 'conda@728c89f4b128' on 2022-07-12

   xtb is free software: you can redistribute it and/or modify it under
   the terms of the GNU Lesser General Public License as published by
   the Free Software Foundation, either version 3 of the License, or
   (at your option) any later version.
   
   xtb is distributed in the hope that it will be useful,
   but WITHOUT ANY WARRANTY; without even the implied warranty of
   MERCHANTABILITY or FITNESS FOR A PARTICULAR PURPOSE.  See the
   GNU Lesser General Public License for more details.
   
   Cite this work as:
   * C. Bannwarth, E. Caldeweyher, S. Ehlert, A. Hansen, P. Pracht,
     J. Seibert, S. Spicher, S. Grimme, WIREs Comput. Mol. Sci., 2020, 11,
     e01493. DOI: 10.1002/wcms.1493
   
   for GFN2-xTB:
   * C. Bannwarth, S. Ehlert and S. Grimme., J. Chem. Theory Comput., 2019,
     15, 1652-1671. DOI: 10.1021/acs.jctc.8b01176
   for GFN1-xTB:
   * S. Grimme, C. Bannwarth, P. Shushkov, J. Chem. Theory Comput., 2017,
     13, 1989-2009. DOI: 10.1021/acs.jctc.7b00118
   for GFN0-xTB:
   * P. Pracht, E. Caldeweyher, S. Ehlert, S. Grimme, ChemRxiv, 2019, preprint.
     DOI: 10.26434/chemrxiv.8326202.v1
   for GFN-FF:
   * S. Spicher and S. Grimme, Angew. Chem. Int. Ed., 2020, 59, 15665-15673.
     DOI: 10.1002/anie.202004239
   
   for ALPB and GBSA implicit solvation:
   * S. Ehlert, M. Stahn, S. Spicher, S. Grimme, J. Chem. Theory Comput.,
     2021, 17, 4250-4261. DOI: 10.1021/acs.jctc.1c00471
   
   for DFT-D4:
   * E. Caldeweyher, C. Bannwarth and S. Grimme, J. Chem. Phys., 2017,
     147, 034112. DOI: 10.1063/1.4993215
   * E. Caldeweyher, S. Ehlert, A. Hansen, H. Neugebauer, S. Spicher,
     C. Bannwarth and S. Grimme, J. Chem. Phys., 2019, 150, 154122.
     DOI: 10.1063/1.5090222
   * E. Caldeweyher, J.-M. Mewes, S. Ehlert and S. Grimme, Phys. Chem. Chem. Phys.
     2020, 22, 8499-8512. DOI: 10.1039/D0CP00502A
   
   for sTDA-xTB:
   * S. Grimme and C. Bannwarth, J. Chem. Phys., 2016, 145, 054103.
     DOI: 10.1063/1.4959605
   
   in the mass-spec context:
   * V. Asgeirsson, C. Bauer and S. Grimme, Chem. Sci., 2017, 8, 4879.
     DOI: 10.1039/c7sc00601b
   * J. Koopman and S. Grimme, ACS Omega 2019, 4, 12, 15120-15133.
     DOI: 10.1021/acsomega.9b02011
   
   for metadynamics refer to:
   * S. Grimme, J. Chem. Theory Comput., 2019, 155, 2847-2862
     DOI: 10.1021/acs.jctc.9b00143
   
   for SPH calculations refer to:
   * S. Spicher and S. Grimme, J. Chem. Theory Comput., 2021, 17, 1701-1714
     DOI: 10.1021/acs.jctc.0c01306
   
   with help from (in alphabetical order)
   P. Atkinson, C. Bannwarth, F. Bohle, G. Brandenburg, E. Caldeweyher
   M. Checinski, S. Dohm, S. Ehlert, S. Ehrlich, I. Gerasimov, C. Hölzer
   A. Katbashev, J. Koopman, C. Lavigne, S. Lehtola, F. März, M. Müller,
   F. Musil, H. Neugebauer, J. Pisarek, C. Plett, P. Pracht, F. Pultar,
   J. Seibert, P. Shushkov, S. Spicher, M. Stahn, M. Steiner, T. Strunk,
   J. Stückrath, T. Rose, and J. Unsleber
   
 * started run on 2026/08/12 at 22:02:24.776     

           -------------------------------------------------
          |                Calculation Setup                |
           -------------------------------------------------

          program call               : /h/332/chchoi/miniconda3/envs/el-agente/bin/xtb ZrCp2Cl2.xyz --opt --gfn 2 -P 4 --chrg 0 --uhf 0
          coordinate file            : ZrCp2Cl2.xyz
          omp threads                :                     4

   ID    Z sym.   atoms
    1   40 Zr     1
    2   17 Cl     2, 3
    3    6 C      4-8, 14-18
    4    1 H      9-13, 19-23

           -------------------------------------------------
          |                 G F N 2 - x T B                 |
           -------------------------------------------------

        Reference                      10.1021/acs.jctc.8b01176
      * Hamiltonian:
        H0-scaling (s, p, d)           1.850000    2.230000    2.230000
        zeta-weighting                 0.500000
      * Dispersion:
        s8                             2.700000
        a1                             0.520000
        a2                             5.000000
        s9                             5.000000
      * Repulsion:
        kExp                           1.500000    1.000000
        rExp                           1.000000
      * Coulomb:
        alpha                          2.000000
        third order                    shell-resolved
        anisotropic                    true
        a3                             3.000000
        a5                             4.000000
        cn-shift                       1.200000
        cn-exp                         4.000000
        max-rad                        5.000000


          ...................................................
          :                      SETUP                      :
          :.................................................:
          :  # basis functions                  80          :
          :  # atomic orbitals                  77          :
          :  # shells                           39          :
          :  # electrons                        68          :
          :  max. iterations                   250          :
          :  Hamiltonian                  GFN2-xTB          :
          :  restarted?                      false          :
          :  GBSA solvation                  false          :
          :  PC potential                    false          :
          :  electronic temp.          300.0000000     K    :
          :  accuracy                    1.0000000          :
          :  -> integral cutoff          0.2500000E+02      :
          :  -> integral neglect         0.1000000E-07      :
          :  -> SCF convergence          0.1000000E-05 Eh   :
          :  -> wf. convergence          0.1000000E-03 e    :
          :  Broyden damping             0.4000000          :
          ...................................................

 iter      E             dE          RMSdq      gap      omega  full diag
   1    -37.0962028 -0.370962E+02  0.865E+00    0.28       0.0  T
   2    -37.4533311 -0.357128E+00  0.529E+00    3.55       1.0  T
   3    -37.6366013 -0.183270E+00  0.307E+00    2.50       1.0  T
   4    -37.6602330 -0.236316E-01  0.179E+00    1.26       1.0  T
   5    -37.6015625  0.586705E-01  0.251E+00    0.68       1.0  T
   6    -37.6702455 -0.686830E-01  0.624E-01    1.69       1.0  T
   7    -37.6737087 -0.346320E-02  0.346E-01    1.53       1.0  T
   8    -37.6751168 -0.140814E-02  0.911E-02    1.37       1.0  T
   9    -37.6752132 -0.964249E-04  0.563E-02    1.36       1.0  T
  10    -37.6751665  0.467465E-04  0.747E-02    1.32       1.0  T
  11    -37.6752008 -0.343073E-04  0.520E-02    1.33       1.0  T
  12    -37.6752241 -0.232680E-04  0.194E-02    1.34       1.1  T
  13    -37.6752226  0.148247E-05  0.218E-02    1.36       1.0  T
  14    -37.6752261 -0.353318E-05  0.121E-02    1.36       1.7  T
  15    -37.6752272 -0.109822E-05  0.668E-03    1.35       3.1  T
  16    -37.6752277 -0.476940E-06  0.705E-04    1.35      29.6  T
  17    -37.6752277 -0.212258E-08  0.217E-04    1.35      96.1  T

   *** convergence criteria satisfied after 17 iterations ***

         #    Occupation            Energy/Eh            Energy/eV
      -------------------------------------------------------------
         1        2.0000           -1.0752629             -29.2594
       ...           ...                  ...                  ...
        28        2.0000           -0.4262417             -11.5986
        29        2.0000           -0.4224786             -11.4962
        30        2.0000           -0.4224400             -11.4952
        31        2.0000           -0.3945248             -10.7356
        32        2.0000           -0.3894335             -10.5970
        33        2.0000           -0.3806487             -10.3580
        34        2.0000           -0.3722776             -10.1302 (HOMO)
        35                         -0.3226030              -8.7785 (LUMO)
        36                         -0.3192947              -8.6885
        37                         -0.3191901              -8.6856
        38                         -0.3170432              -8.6272
        39                         -0.3055367              -8.3141
       ...                                ...                  ...
        77                          1.2104340              32.9376
      -------------------------------------------------------------
                  HL-Gap            0.0496745 Eh            1.3517 eV
             Fermi-level           -0.3474684 Eh           -9.4551 eV

 SCC (total)                   0 d,  0 h,  0 min,  1.321 sec
 SCC setup                      ...        0 min,  0.001 sec (  0.041%)
 Dispersion                     ...        0 min,  0.008 sec (  0.584%)
 classical contributions        ...        0 min,  0.016 sec (  1.179%)
 integral evaluation            ...        0 min,  0.006 sec (  0.437%)
 iterations                     ...        0 min,  1.163 sec ( 88.022%)
 molecular gradient             ...        0 min,  0.128 sec (  9.650%)
 printout                       ...        0 min,  0.001 sec (  0.081%)

         :::::::::::::::::::::::::::::::::::::::::::::::::::::
         ::                     SUMMARY                     ::
         :::::::::::::::::::::::::::::::::::::::::::::::::::::
         :: total energy             -37.291520298982 Eh    ::
         :: gradient norm              0.178654631249 Eh/a0 ::
         :: HOMO-LUMO gap              1.351713171932 eV    ::
         ::.................................................::
         :: SCC energy               -37.675227690791 Eh    ::
         :: -> isotropic ES            0.059993317186 Eh    ::
         :: -> anisotropic ES         -0.001757804415 Eh    ::
         :: -> anisotropic XC          0.012968345229 Eh    ::
         :: -> dispersion             -0.025190013361 Eh    ::
         :: repulsion energy           0.383274265393 Eh    ::
         :: add. restraining           0.000000000000 Eh    ::
         :: total charge              -0.000000000000 e     ::
         :::::::::::::::::::::::::::::::::::::::::::::::::::::

      ----------------------------------------------------------- 
     |                   =====================                   |
     |                        A N C O P T                        |
     |                   =====================                   |
     |               Approximate Normal Coordinate               |
     |                Rational Function Optimizer                |
      ----------------------------------------------------------- 

          ...................................................
          :                      SETUP                      :
          :.................................................:
          :   optimization level            normal          :
          :   max. optcycles                   200          :
          :   ANC micro-cycles                  20          :
          :   degrees of freedom                63          :
          :.................................................:
          :   RF solver                   davidson          :
          :   write xtbopt.log                true          :
          :   linear?                        false          :
          :   energy convergence         0.5000000E-05 Eh   :
          :   grad. convergence          0.1000000E-02 Eh/α :
          :   maximium RF displ.         1.0000000          :
          :   Hlow (freq-cutoff)         0.1000000E-01      :
          :   Hmax (freq-cutoff)         5.0000000          :
          :   S6 in model hess.         20.0000000          :
          ...................................................

generating ANC from model Hessian ...
Using Lindh-Hessian (1995)
 Shifting diagonal of input Hessian by    1.4956677970541073E-002
 Lowest  eigenvalues of input Hessian
    0.010000    0.014649    0.000000    0.000000    0.000000    0.000000
    0.000000    0.000000    0.015206    0.015367    0.015572    0.015716
    0.015842    0.015940    0.016173    0.016398    0.016750    0.016787
 Highest eigenvalues
    1.494816    1.494865    1.496077    1.496196    1.496628    1.496646


........................................................................
.............................. CYCLE    1 ..............................
........................................................................
   1    -37.6752277 -0.376752E+02  0.347E-04    1.35       0.0  T
   2    -37.6752277 -0.684572E-09  0.225E-04    1.35      92.5  T
   3    -37.6752277 -0.603151E-09  0.727E-05    1.35     286.9  T
     SCC iter.                  ...        0 min,  0.181 sec
     gradient                   ...        0 min,  0.019 sec
 * total energy  :   -37.2915203 Eh     change       -0.4364296E-09 Eh
   gradient norm :     0.1786481 Eh/α   predicted     0.0000000E+00 (-100.00%)
   displ. norm   :     0.7196273 α      lambda       -0.8400681E-01
   maximum displ.:     0.3215999 α      in ANC's #19, #11, #2, ...

........................................................................
.............................. CYCLE    2 ..............................
........................................................................
   1    -37.7975830 -0.377976E+02  0.685E-01    1.85       0.0  T
   2    -37.7978473 -0.264311E-03  0.455E-01    1.81       1.0  T
   3    -37.7976779  0.169407E-03  0.251E-01    1.87       1.0  T
   4    -37.7979693 -0.291333E-03  0.111E-01    1.83       1.0  T
   5    -37.7979574  0.118876E-04  0.501E-02    1.82       1.0  T
   6    -37.7979784 -0.210592E-04  0.267E-02    1.82       1.0  T
   7    -37.7979791 -0.652873E-06  0.161E-02    1.82       1.3  T
   8    -37.7979804 -0.135494E-05  0.945E-03    1.82       2.2  T
   9    -37.7979807 -0.281035E-06  0.343E-03    1.82       6.1  T
  10    -37.7979808 -0.587074E-07  0.159E-03    1.82      13.1  T
  11    -37.7979808 -0.993586E-08  0.862E-04    1.82      24.2  T
  12    -37.7979808 -0.189921E-08  0.439E-04    1.82      47.5  T
     SCC iter.                  ...        0 min,  0.627 sec
     gradient                   ...        0 min,  0.109 sec
 * total energy  :   -37.3551210 Eh     change       -0.6360068E-01 Eh
   gradient norm :     0.0679803 Eh/α   predicted    -0.6377965E-01 (   0.28%)
   displ. norm   :     0.7281132 α      lambda       -0.3850822E-01
   maximum displ.:     0.4650004 α      in ANC's #2, #11, #20, ...

........................................................................
.............................. CYCLE    3 ..............................
........................................................................
   1    -37.8692542 -0.378693E+02  0.753E-01    2.25       0.0  T
   2    -37.8695918 -0.337623E-03  0.502E-01    2.21       1.0  T
   3    -37.8689188  0.672979E-03  0.286E-01    2.25       1.0  T
   4    -37.8698532 -0.934365E-03  0.121E-01    2.23       1.0  T
   5    -37.8698506  0.262300E-05  0.633E-02    2.20       1.0  T
   6    -37.8698666 -0.160485E-04  0.325E-02    2.21       1.0  T
   7    -37.8698712 -0.461210E-05  0.101E-02    2.21       2.1  T
   8    -37.8698719 -0.691111E-06  0.657E-03    2.21       3.2  T
   9    -37.8698721 -0.224348E-06  0.303E-03    2.21       6.9  T
  10    -37.8698722 -0.584794E-07  0.173E-03    2.21      12.0  T
  11    -37.8698722 -0.164915E-07  0.102E-03    2.21      20.5  T
  12    -37.8698722 -0.308702E-08  0.432E-04    2.21      48.3  T
  13    -37.8698722 -0.823555E-09  0.243E-04    2.21      86.0  T
     SCC iter.                  ...        0 min,  0.670 sec
     gradient                   ...        0 min,  0.052 sec
 * total energy  :   -37.3788373 Eh     change       -0.2371633E-01 Eh
   gradient norm :     0.0380785 Eh/α   predicted    -0.2946168E-01 (  24.23%)
   displ. norm   :     0.6343450 α      lambda       -0.1444404E-01
   maximum displ.:     0.3016492 α      in ANC's #11, #20, #5, ...

........................................................................
.............................. CYCLE    4 ..............................
........................................................................
   1    -37.8870012 -0.378870E+02  0.340E-01    2.41       0.0  T
   2    -37.8872694 -0.268226E-03  0.223E-01    2.32       1.0  T
   3    -37.8873044 -0.349941E-04  0.145E-01    2.32       1.0  T
   4    -37.8872989  0.554339E-05  0.736E-02    2.31       1.0  T
   5    -37.8873169 -0.180125E-04  0.308E-02    2.31       1.0  T
   6    -37.8873200 -0.305755E-05  0.111E-02    2.31       1.9  T
   7    -37.8873204 -0.443012E-06  0.774E-03    2.31       2.7  T
   8    -37.8873206 -0.244985E-06  0.480E-03    2.31       4.3  T
   9    -37.8873208 -0.167554E-06  0.279E-03    2.31       7.5  T
  10    -37.8873209 -0.437120E-07  0.962E-04    2.31      21.7  T
  11    -37.8873209 -0.342980E-08  0.613E-04    2.31      34.0  T
     SCC iter.                  ...        0 min,  0.549 sec
     gradient                   ...        0 min,  0.106 sec
 * total energy  :   -37.3819023 Eh     change       -0.3065020E-02 Eh
   gradient norm :     0.0552506 Eh/α   predicted    -0.1012811E-01 ( 230.44%)
   displ. norm   :     0.4804937 α      lambda       -0.1658033E-01
   maximum displ.:     0.2365407 α      in ANC's #11, #20, #5, ...

........................................................................
.............................. CYCLE    5 ..............................
........................................................................
   1    -37.8686708 -0.378687E+02  0.537E-01    2.22       0.0  T
   2    -37.8693946 -0.723795E-03  0.453E-01    2.36       1.0  T
   3    -37.8696351 -0.240467E-03  0.325E-01    2.33       1.0  T
   4    -37.8694805  0.154579E-03  0.193E-01    2.34       1.0  T
   5    -37.8697196 -0.239103E-03  0.910E-02    2.34       1.0  T
   6    -37.8697475 -0.279179E-04  0.371E-02    2.33       1.0  T
   7    -37.8697514 -0.393545E-05  0.209E-02    2.33       1.0  T
   8    -37.8697537 -0.231938E-05  0.865E-03    2.33       2.4  T
   9    -37.8697540 -0.281466E-06  0.451E-03    2.33       4.6  T
  10    -37.8697541 -0.914546E-07  0.213E-03    2.33       9.8  T
  11    -37.8697542 -0.323477E-07  0.119E-03    2.33      17.5  T
  12    -37.8697542 -0.357324E-08  0.735E-04    2.33      28.4  T
  13    -37.8697542 -0.195009E-08  0.351E-04    2.33      59.4  T
     SCC iter.                  ...        0 min,  0.615 sec
     gradient                   ...        0 min,  0.111 sec
 * total energy  :   -37.3859585 Eh     change       -0.4056122E-02 Eh
   gradient norm :     0.0457421 Eh/α   predicted    -0.1020412E-01 ( 151.57%)
   displ. norm   :     0.3685391 α      lambda       -0.7981675E-02
   maximum displ.:     0.1986666 α      in ANC's #8, #17, #1, ...

........................................................................
.............................. CYCLE    6 ..............................
........................................................................
   1    -37.8812056 -0.378812E+02  0.462E-01    2.34       0.0  T
   2    -37.8814878 -0.282237E-03  0.365E-01    2.28       1.0  T
   3    -37.8815204 -0.325585E-04  0.241E-01    2.29       1.0  T
   4    -37.8816159 -0.955114E-04  0.901E-02    2.28       1.0  T
   5    -37.8816637 -0.477881E-04  0.546E-02    2.28       1.0  T
   6    -37.8816724 -0.866526E-05  0.264E-02    2.29       1.0  T
   7    -37.8816735 -0.112369E-05  0.147E-02    2.29       1.4  T
   8    -37.8816744 -0.946154E-06  0.514E-03    2.29       4.1  T
   9    -37.8816745 -0.546727E-07  0.373E-03    2.29       5.6  T
  10    -37.8816745 -0.382261E-07  0.187E-03    2.29      11.2  T
  11    -37.8816745 -0.254899E-07  0.109E-03    2.29      19.2  T
  12    -37.8816745 -0.265106E-08  0.360E-04    2.29      57.9  T
  13    -37.8816745 -0.610306E-09  0.226E-04    2.29      92.3  T
     SCC iter.                  ...        0 min,  0.748 sec
     gradient                   ...        0 min,  0.103 sec
 * total energy  :   -37.3881341 Eh     change       -0.2175602E-02 Eh
   gradient norm :     0.0350210 Eh/α   predicted    -0.4532907E-02 ( 108.35%)
   displ. norm   :     0.6296439 α      lambda       -0.1191347E-01
   maximum displ.:     0.4925415 α      in ANC's #1, #8, #5, ...

........................................................................
.............................. CYCLE    7 ..............................
........................................................................
   1    -37.8860905 -0.378861E+02  0.115E+00    2.15       0.0  T
   2    -37.8878108 -0.172024E-02  0.116E+00    1.88       1.0  T
   3    -37.8881259 -0.315167E-03  0.986E-01    1.88       1.0  T
   4    -37.8879214  0.204552E-03  0.259E-01    1.85       1.0  T
   5    -37.8885211 -0.599679E-03  0.189E-01    1.87       1.0  T
   6    -37.8885815 -0.604429E-04  0.566E-02    1.91       1.0  T
   7    -37.8885907 -0.918905E-05  0.297E-02    1.91       1.0  T
   8    -37.8885950 -0.424856E-05  0.118E-02    1.91       1.8  T
   9    -37.8885954 -0.449478E-06  0.961E-03    1.92       2.2  T
  10    -37.8885959 -0.458031E-06  0.597E-03    1.92       3.5  T
  11    -37.8885959 -0.649867E-07  0.204E-03    1.92      10.2  T
  12    -37.8885959 -0.183935E-07  0.849E-04    1.92      24.6  T
  13    -37.8885959 -0.236147E-08  0.286E-04    1.92      72.8  T
     SCC iter.                  ...        0 min,  0.601 sec
     gradient                   ...        0 min,  0.130 sec
 * total energy  :   -37.3710351 Eh     change        0.1709895E-01 Eh
   gradient norm :     0.1041163 Eh/α   predicted    -0.8318304E-02 (-148.65%)
   displ. norm   :     0.3960624 α      lambda       -0.3319518E-01
   maximum displ.:     0.3131240 α      in ANC's #1, #37, #21, ...

........................................................................
.............................. CYCLE    8 ..............................
........................................................................
   1    -37.8826553 -0.378827E+02  0.708E-01    2.20       0.0  T
   2    -37.8835241 -0.868790E-03  0.712E-01    2.34       1.0  T
   3    -37.8837233 -0.199178E-03  0.605E-01    2.32       1.0  T
   4    -37.8836096  0.113667E-03  0.159E-01    2.33       1.0  T
   5    -37.8838856 -0.276001E-03  0.120E-01    2.33       1.0  T
   6    -37.8839189 -0.332396E-04  0.490E-02    2.31       1.0  T
   7    -37.8839233 -0.444918E-05  0.224E-02    2.31       1.0  T
   8    -37.8839253 -0.196028E-05  0.112E-02    2.31       1.9  T
   9    -37.8839257 -0.384595E-06  0.628E-03    2.31       3.3  T
  10    -37.8839258 -0.178189E-06  0.240E-03    2.31       8.7  T
  11    -37.8839259 -0.243975E-07  0.137E-03    2.31      15.2  T
  12    -37.8839259 -0.713781E-08  0.532E-04    2.31      39.2  T
  13    -37.8839259 -0.165718E-08  0.273E-04    2.31      76.5  T
     SCC iter.                  ...        0 min,  0.661 sec
     gradient                   ...        0 min,  0.011 sec
 * total energy  :   -37.3898104 Eh     change       -0.1877530E-01 Eh
   gradient norm :     0.0235716 Eh/α   predicted    -0.1920118E-01 (   2.27%)
   displ. norm   :     0.3207409 α      lambda       -0.5853765E-02
   maximum displ.:     0.1770823 α      in ANC's #21, #1, #2, ...

........................................................................
.............................. CYCLE    9 ..............................
........................................................................
   1    -37.8766826 -0.378767E+02  0.465E-01    2.33       0.0  T
   2    -37.8769100 -0.227431E-03  0.416E-01    2.36       1.0  T
   3    -37.8769487 -0.386924E-04  0.257E-01    2.34       1.0  T
   4    -37.8769030  0.456626E-04  0.120E-01    2.35       1.0  T
   5    -37.8770290 -0.125963E-03  0.600E-02    2.36       1.0  T
   6    -37.8770388 -0.981205E-05  0.300E-02    2.35       1.0  T
   7    -37.8770400 -0.125723E-05  0.177E-02    2.35       1.2  T
   8    -37.8770417 -0.165699E-05  0.595E-03    2.35       3.5  T
   9    -37.8770418 -0.128971E-06  0.420E-03    2.35       5.0  T
  10    -37.8770419 -0.115999E-06  0.219E-03    2.35       9.5  T
  11    -37.8770420 -0.115100E-07  0.140E-03    2.35      14.8  T
  12    -37.8770420 -0.751905E-08  0.532E-04    2.35      39.2  T
  13    -37.8770420 -0.850292E-09  0.280E-04    2.35      74.5  T
     SCC iter.                  ...        0 min,  0.484 sec
     gradient                   ...        0 min,  0.008 sec
 * total energy  :   -37.3889087 Eh     change        0.9017088E-03 Eh
   gradient norm :     0.0357686 Eh/α   predicted    -0.3227984E-02 (-457.99%)
   displ. norm   :     0.1792782 α      lambda       -0.5188623E-02
   maximum displ.:     0.1352493 α      in ANC's #21, #3, #8, ...

........................................................................
.............................. CYCLE   10 ..............................
........................................................................
   1    -37.8843172 -0.378843E+02  0.172E-01    2.36       0.0  T
   2    -37.8843696 -0.523899E-04  0.143E-01    2.36       1.0  T
   3    -37.8843857 -0.160668E-04  0.113E-01    2.36       1.0  T
   4    -37.8843622  0.234475E-04  0.708E-02    2.36       1.0  T
   5    -37.8843973 -0.350794E-04  0.197E-02    2.36       1.1  T
   6    -37.8843989 -0.160621E-05  0.115E-02    2.36       1.8  T
   7    -37.8843992 -0.286378E-06  0.780E-03    2.36       2.7  T
   8    -37.8843996 -0.391724E-06  0.339E-03    2.36       6.2  T
   9    -37.8843997 -0.816178E-07  0.183E-03    2.36      11.4  T
  10    -37.8843997 -0.235961E-07  0.115E-03    2.36      18.2  T
  11    -37.8843997 -0.329617E-08  0.751E-04    2.36      27.8  T
  12    -37.8843997 -0.164000E-08  0.236E-04    2.36      88.3  T
     SCC iter.                  ...        0 min,  0.519 sec
     gradient                   ...        0 min,  0.009 sec
 * total energy  :   -37.3913929 Eh     change       -0.2484157E-02 Eh
   gradient norm :     0.0109215 Eh/α   predicted    -0.2677679E-02 (   7.79%)
   displ. norm   :     0.1103440 α      lambda       -0.7346182E-03
   maximum displ.:     0.0496948 α      in ANC's #8, #4, #1, ...

........................................................................
.............................. CYCLE   11 ..............................
........................................................................
   1    -37.8859921 -0.378860E+02  0.147E-01    2.37       0.0  T
   2    -37.8860153 -0.231977E-04  0.138E-01    2.35       1.0  T
   3    -37.8860228 -0.759027E-05  0.979E-02    2.35       1.0  T
   4    -37.8860138  0.904322E-05  0.399E-02    2.35       1.0  T
   5    -37.8860281 -0.143013E-04  0.191E-02    2.35       1.1  T
   6    -37.8860287 -0.613575E-06  0.736E-03    2.35       2.8  T
   7    -37.8860288 -0.986253E-07  0.420E-03    2.35       5.0  T
   8    -37.8860289 -0.861104E-07  0.173E-03    2.35      12.1  T
   9    -37.8860289 -0.872573E-08  0.106E-03    2.35      19.6  T
  10    -37.8860289 -0.588949E-08  0.673E-04    2.35      31.0  T
  11    -37.8860289 -0.869449E-09  0.345E-04    2.35      60.4  T
     SCC iter.                  ...        0 min,  0.527 sec
     gradient                   ...        0 min,  0.073 sec
 * total energy  :   -37.3915125 Eh     change       -0.1195928E-03 Eh
   gradient norm :     0.0097346 Eh/α   predicted    -0.3717932E-03 ( 210.88%)
   displ. norm   :     0.0828902 α      lambda       -0.3391471E-03
   maximum displ.:     0.0401077 α      in ANC's #5, #8, #4, ...

........................................................................
.............................. CYCLE   12 ..............................
........................................................................
   1    -37.8840284 -0.378840E+02  0.789E-02    2.35       0.0  T
   2    -37.8840325 -0.403146E-05  0.662E-02    2.36       1.0  T
   3    -37.8840328 -0.339382E-06  0.261E-02    2.36       1.0  T
   4    -37.8840332 -0.389497E-06  0.143E-02    2.36       1.5  T
   5    -37.8840343 -0.105710E-05  0.867E-03    2.36       2.4  T
   6    -37.8840344 -0.178941E-06  0.311E-03    2.36       6.7  T
   7    -37.8840345 -0.240830E-07  0.173E-03    2.36      12.0  T
   8    -37.8840345 -0.114208E-07  0.785E-04    2.36      26.6  T
   9    -37.8840345 -0.172191E-08  0.460E-04    2.36      45.3  T
     SCC iter.                  ...        0 min,  0.355 sec
     gradient                   ...        0 min,  0.018 sec
 * total energy  :   -37.3917138 Eh     change       -0.2013933E-03 Eh
   gradient norm :     0.0034923 Eh/α   predicted    -0.1707338E-03 ( -15.22%)
   displ. norm   :     0.0845267 α      lambda       -0.1113907E-03
   maximum displ.:     0.0543392 α      in ANC's #4, #3, #5, ...

........................................................................
.............................. CYCLE   13 ..............................
........................................................................
   1    -37.8861376 -0.378861E+02  0.595E-02    2.36       0.0  T
   2    -37.8861391 -0.152085E-05  0.419E-02    2.36       1.0  T
   3    -37.8861383  0.778113E-06  0.172E-02    2.36       1.2  T
   4    -37.8861397 -0.135780E-05  0.849E-03    2.36       2.5  T
   5    -37.8861399 -0.247640E-06  0.419E-03    2.36       5.0  T
   6    -37.8861400 -0.326879E-07  0.188E-03    2.36      11.1  T
   7    -37.8861400 -0.655326E-08  0.108E-03    2.36      19.3  T
   8    -37.8861400 -0.740862E-08  0.409E-04    2.36      50.9  T
   9    -37.8861400 -0.649486E-09  0.296E-04    2.36      70.5  T
     SCC iter.                  ...        0 min,  0.351 sec
     gradient                   ...        0 min,  0.078 sec
 * total energy  :   -37.3917819 Eh     change       -0.6807531E-04 Eh
   gradient norm :     0.0027909 Eh/α   predicted    -0.5609194E-04 ( -17.60%)
   displ. norm   :     0.1492426 α      lambda       -0.1069095E-03
   maximum displ.:     0.1012120 α      in ANC's #4, #5, #3, ...

........................................................................
.............................. CYCLE   14 ..............................
........................................................................
   1    -37.8859774 -0.378860E+02  0.565E-02    2.36       0.0  T
   2    -37.8859789 -0.153383E-05  0.334E-02    2.36       1.0  T
   3    -37.8859764  0.251341E-05  0.194E-02    2.36       1.1  T
   4    -37.8859800 -0.353475E-05  0.506E-03    2.36       4.1  T
   5    -37.8859800 -0.240271E-07  0.296E-03    2.36       7.1  T
   6    -37.8859800 -0.354803E-07  0.906E-04    2.36      23.0  T
   7    -37.8859800 -0.394332E-08  0.613E-04    2.36      34.0  T
     SCC iter.                  ...        0 min,  0.299 sec
     gradient                   ...        0 min,  0.017 sec
 * total energy  :   -37.3918579 Eh     change       -0.7593600E-04 Eh
   gradient norm :     0.0025878 Eh/α   predicted    -0.5464495E-04 ( -28.04%)
   displ. norm   :     0.1897204 α      lambda       -0.1067647E-03
   maximum displ.:     0.1395270 α      in ANC's #4, #9, #3, ...

........................................................................
.............................. CYCLE   15 ..............................
........................................................................
   1    -37.8861648 -0.378862E+02  0.452E-02    2.36       0.0  T
   2    -37.8861668 -0.195368E-05  0.276E-02    2.36       1.0  T
   3    -37.8861660  0.816415E-06  0.164E-02    2.36       1.3  T
   4    -37.8861681 -0.215912E-05  0.439E-03    2.36       4.7  T
   5    -37.8861682 -0.867018E-07  0.254E-03    2.36       8.2  T
   6    -37.8861682 -0.296566E-07  0.947E-04    2.36      22.0  T
   7    -37.8861682 -0.234296E-08  0.479E-04    2.36      43.5  T
     SCC iter.                  ...        0 min,  0.317 sec
     gradient                   ...        0 min,  0.113 sec
 * total energy  :   -37.3919394 Eh     change       -0.8151318E-04 Eh
   gradient norm :     0.0026824 Eh/α   predicted    -0.5530326E-04 ( -32.15%)
   displ. norm   :     0.2191792 α      lambda       -0.1190963E-03
   maximum displ.:     0.1522314 α      in ANC's #4, #9, #3, ...

........................................................................
.............................. CYCLE   16 ..............................
........................................................................
   1    -37.8865422 -0.378865E+02  0.370E-02    2.36       0.0  T
   2    -37.8865433 -0.109204E-05  0.233E-02    2.36       1.0  T
   3    -37.8865426  0.730987E-06  0.120E-02    2.36       1.7  T
   4    -37.8865440 -0.135941E-05  0.399E-03    2.36       5.2  T
   5    -37.8865440 -0.472700E-07  0.221E-03    2.36       9.4  T
   6    -37.8865440 -0.296105E-07  0.867E-04    2.36      24.0  T
   7    -37.8865440 -0.296655E-08  0.507E-04    2.36      41.1  T
     SCC iter.                  ...        0 min,  0.315 sec
     gradient                   ...        0 min,  0.114 sec
 * total energy  :   -37.3920410 Eh     change       -0.1016558E-03 Eh
   gradient norm :     0.0036333 Eh/α   predicted    -0.6240666E-04 ( -38.61%)
   displ. norm   :     0.4869012 α      lambda       -0.2572850E-03
   maximum displ.:     0.3227816 α      in ANC's #4, #9, #3, ...

........................................................................
.............................. CYCLE   17 ..............................
........................................................................
   1    -37.8842613 -0.378843E+02  0.746E-02    2.36       0.0  T
   2    -37.8842650 -0.373084E-05  0.464E-02    2.36       1.0  T
   3    -37.8842603  0.472046E-05  0.242E-02    2.36       1.0  T
   4    -37.8842675 -0.720357E-05  0.691E-03    2.36       3.0  T
   5    -37.8842676 -0.259940E-07  0.365E-03    2.36       5.7  T
   6    -37.8842677 -0.117779E-06  0.142E-03    2.36      14.7  T
   7    -37.8842677 -0.726713E-08  0.829E-04    2.36      25.1  T
   8    -37.8842677 -0.303461E-08  0.469E-04    2.36      44.4  T
     SCC iter.                  ...        0 min,  0.402 sec
     gradient                   ...        0 min,  0.109 sec
 * total energy  :   -37.3922403 Eh     change       -0.1993074E-03 Eh
   gradient norm :     0.0071512 Eh/α   predicted    -0.1591173E-03 ( -20.16%)
   displ. norm   :     0.5230716 α      lambda       -0.2738410E-03
   maximum displ.:     0.3282503 α      in ANC's #9, #4, #3, ...

........................................................................
.............................. CYCLE   18 ..............................
........................................................................
   1    -37.8821242 -0.378821E+02  0.796E-02    2.36       0.0  T
   2    -37.8821306 -0.632684E-05  0.479E-02    2.35       1.0  T
   3    -37.8821265  0.402925E-05  0.278E-02    2.36       1.0  T
   4    -37.8821350 -0.844605E-05  0.717E-03    2.35       2.9  T
   5    -37.8821350 -0.273537E-07  0.459E-03    2.35       4.5  T
   6    -37.8821351 -0.112980E-06  0.193E-03    2.36      10.8  T
   7    -37.8821351 -0.124185E-07  0.132E-03    2.36      15.8  T
   8    -37.8821352 -0.759699E-08  0.720E-04    2.36      29.0  T
   9    -37.8821352 -0.385740E-08  0.448E-04    2.36      46.5  T
     SCC iter.                  ...        0 min,  0.391 sec
     gradient                   ...        0 min,  0.114 sec
 * total energy  :   -37.3924284 Eh     change       -0.1880492E-03 Eh
   gradient norm :     0.0080545 Eh/α   predicted    -0.1743543E-03 (  -7.28%)
   displ. norm   :     0.3018540 α      lambda       -0.2547869E-03
   maximum displ.:     0.2105210 α      in ANC's #9, #4, #3, ...

........................................................................
.............................. CYCLE   19 ..............................
........................................................................
   1    -37.8854842 -0.378855E+02  0.602E-02    2.37       0.0  T
   2    -37.8854884 -0.417738E-05  0.356E-02    2.36       1.0  T
   3    -37.8854873  0.115917E-05  0.213E-02    2.37       1.0  T
   4    -37.8854910 -0.373706E-05  0.614E-03    2.36       3.4  T
   5    -37.8854911 -0.102771E-06  0.369E-03    2.36       5.6  T
   6    -37.8854911 -0.335347E-07  0.183E-03    2.36      11.4  T
   7    -37.8854911 -0.162556E-07  0.115E-03    2.36      18.1  T
   8    -37.8854912 -0.843156E-08  0.593E-04    2.36      35.1  T
   9    -37.8854912 -0.198866E-08  0.407E-04    2.36      51.3  T
     SCC iter.                  ...        0 min,  0.335 sec
     gradient                   ...        0 min,  0.008 sec
 * total energy  :   -37.3925992 Eh     change       -0.1707748E-03 Eh
   gradient norm :     0.0052759 Eh/α   predicted    -0.1389968E-03 ( -18.61%)
   displ. norm   :     0.3598979 α      lambda       -0.1696254E-03
   maximum displ.:     0.2590986 α      in ANC's #9, #4, #3, ...

........................................................................
.............................. CYCLE   20 ..............................
........................................................................
   1    -37.8840809 -0.378841E+02  0.634E-02    2.37       0.0  T
   2    -37.8840846 -0.379272E-05  0.359E-02    2.37       1.0  T
   3    -37.8840831  0.158582E-05  0.219E-02    2.37       1.0  T
   4    -37.8840869 -0.382791E-05  0.464E-03    2.37       4.5  T
   5    -37.8840869  0.107630E-07  0.299E-03    2.37       7.0  T
   6    -37.8840869 -0.698461E-07  0.158E-03    2.37      13.2  T
   7    -37.8840870 -0.144373E-07  0.101E-03    2.37      20.7  T
   8    -37.8840870 -0.713450E-08  0.561E-04    2.37      37.2  T
   9    -37.8840870 -0.258385E-08  0.379E-04    2.37      55.0  T
     SCC iter.                  ...        0 min,  0.276 sec
     gradient                   ...        0 min,  0.042 sec
 * total energy  :   -37.3927050 Eh     change       -0.1058073E-03 Eh
   gradient norm :     0.0043286 Eh/α   predicted    -0.9579518E-04 (  -9.46%)
   displ. norm   :     0.1316996 α      lambda       -0.1259358E-03
   maximum displ.:     0.1051348 α      in ANC's #9, #7, #43, ...
 * RMSD in coord.:     0.7867686 α      energy gain  -0.1011847E+00 Eh

generating ANC from model Hessian ...
Using Lindh-Hessian (1995)
 Shifting diagonal of input Hessian by    1.0069071362877850E-002
 Lowest  eigenvalues of input Hessian
    0.010000    0.000000    0.000000    0.000000    0.000000    0.000000
    0.000000    0.010197    0.010476    0.011165    0.011489    0.011760
    0.012048    0.017274    0.017369    0.017425    0.028942    0.028994
 Highest eigenvalues
    1.693941    1.696615    1.750064    1.753075    1.753601    1.755313


........................................................................
.............................. CYCLE   21 ..............................
........................................................................
   1    -37.8882456 -0.378882E+02  0.492E-02    2.37       0.0  T
   2    -37.8882487 -0.311784E-05  0.271E-02    2.37       1.0  T
   3    -37.8882485  0.265863E-06  0.193E-02    2.37       1.1  T
   4    -37.8882505 -0.207976E-05  0.488E-03    2.37       4.3  T
   5    -37.8882505  0.264552E-07  0.206E-03    2.37      10.1  T
   6    -37.8882506 -0.569470E-07  0.104E-03    2.37      20.1  T
   7    -37.8882506 -0.416279E-08  0.762E-04    2.37      27.3  T
   8    -37.8882506 -0.483659E-08  0.428E-04    2.37      48.7  T
     SCC iter.                  ...        0 min,  0.210 sec
     gradient                   ...        0 min,  0.024 sec
 * total energy  :   -37.3927555 Eh     change       -0.5053516E-04 Eh
   gradient norm :     0.0037724 Eh/α   predicted     0.0000000E+00 (-100.00%)
   displ. norm   :     0.0311398 α      lambda       -0.4205754E-04
   maximum displ.:     0.0120269 α      in ANC's #4, #7, #3, ...

........................................................................
.............................. CYCLE   22 ..............................
........................................................................
   1    -37.8875328 -0.378875E+02  0.236E-02    2.38       0.0  T
   2    -37.8875332 -0.391186E-06  0.161E-02    2.37       1.3  T
   3    -37.8875331  0.557885E-07  0.861E-03    2.37       2.4  T
   4    -37.8875332 -0.867114E-07  0.476E-03    2.37       4.4  T
   5    -37.8875334 -0.153095E-06  0.194E-03    2.37      10.7  T
   6    -37.8875334 -0.120147E-07  0.923E-04    2.37      22.6  T
   7    -37.8875334 -0.179325E-08  0.519E-04    2.37      40.2  T
     SCC iter.                  ...        0 min,  0.277 sec
     gradient                   ...        0 min,  0.048 sec
 * total energy  :   -37.3927762 Eh     change       -0.2067723E-04 Eh
   gradient norm :     0.0014643 Eh/α   predicted    -0.2147501E-04 (   3.86%)
   displ. norm   :     0.0435973 α      lambda       -0.1516548E-04
   maximum displ.:     0.0259555 α      in ANC's #7, #3, #16, ...

........................................................................
.............................. CYCLE   23 ..............................
........................................................................
   1    -37.8864454 -0.378864E+02  0.400E-02    2.37       0.0  T
   2    -37.8864460 -0.554288E-06  0.237E-02    2.37       1.0  T
   3    -37.8864456  0.390382E-06  0.887E-03    2.37       2.4  T
   4    -37.8864461 -0.525868E-06  0.308E-03    2.37       6.8  T
   5    -37.8864462 -0.520352E-07  0.190E-03    2.37      11.0  T
   6    -37.8864462 -0.119501E-07  0.727E-04    2.37      28.7  T
   7    -37.8864462 -0.182165E-08  0.466E-04    2.37      44.7  T
     SCC iter.                  ...        0 min,  0.289 sec
     gradient                   ...        0 min,  0.093 sec
 * total energy  :   -37.3927814 Eh     change       -0.5231261E-05 Eh
   gradient norm :     0.0013772 Eh/α   predicted    -0.7622654E-05 (  45.71%)
   displ. norm   :     0.0205477 α      lambda       -0.6691925E-05
   maximum displ.:     0.0123615 α      in ANC's #3, #6, #13, ...

........................................................................
.............................. CYCLE   24 ..............................
........................................................................
   1    -37.8869770 -0.378870E+02  0.193E-02    2.37       0.0  T
   2    -37.8869771 -0.109125E-06  0.117E-02    2.37       1.8  T
   3    -37.8869770  0.939694E-07  0.437E-03    2.37       4.8  T
   4    -37.8869771 -0.127037E-06  0.137E-03    2.37      15.2  T
   5    -37.8869771 -0.645349E-08  0.665E-04    2.37      31.4  T
   6    -37.8869771 -0.628027E-09  0.345E-04    2.37      60.4  T
     SCC iter.                  ...        0 min,  0.248 sec
     gradient                   ...        0 min,  0.005 sec
 * total energy  :   -37.3927867 Eh     change       -0.5340656E-05 Eh
   gradient norm :     0.0005777 Eh/α   predicted    -0.3350947E-05 ( -37.26%)
   displ. norm   :     0.0216731 α      lambda       -0.2834751E-05
   maximum displ.:     0.0175964 α      in ANC's #3, #4, #6, ...

........................................................................
.............................. CYCLE   25 ..............................
........................................................................
   1    -37.8873473 -0.378873E+02  0.170E-02    2.37       0.0  T
   2    -37.8873474 -0.597353E-07  0.106E-02    2.37       2.0  T
   3    -37.8873472  0.151781E-06  0.403E-03    2.37       5.2  T
   4    -37.8873474 -0.191989E-06  0.138E-03    2.37      15.1  T
   5    -37.8873474 -0.215242E-08  0.789E-04    2.37      26.4  T
   6    -37.8873474 -0.285143E-08  0.380E-04    2.37      54.9  T
     SCC iter.                  ...        0 min,  0.249 sec
     gradient                   ...        0 min,  0.110 sec
 * total energy  :   -37.3927881 Eh     change       -0.1320671E-05 Eh
   gradient norm :     0.0005285 Eh/α   predicted    -0.1418617E-05 (   7.42%)
   displ. norm   :     0.0155969 α      lambda       -0.2117515E-05
   maximum displ.:     0.0131728 α      in ANC's #3, #6, #2, ...

   *** GEOMETRY OPTIMIZATION CONVERGED AFTER 25 ITERATIONS ***

------------------------------------------------------------------------
 total energy gain   :        -0.1012678 Eh      -63.5465 kcal/mol
 total RMSD          :         0.8016517 a0        0.4242 Å
 total power (kW/mol):       -10.6351399 (step)  -19.7755 (real)
------------------------------------------------------------------------

 ANCopt (total)                0 d,  0 h,  0 min, 13.445 sec
 optimizer setup                ...        0 min,  0.001 sec (  0.004%)
 model hessian                  ...        0 min,  0.032 sec (  0.241%)
 ANC generation                 ...        0 min,  0.004 sec (  0.031%)
 coordinate transformation      ...        0 min,  0.000 sec (  0.002%)
 single point calculation       ...        0 min, 13.186 sec ( 98.073%)
 optimization log               ...        0 min,  0.002 sec (  0.014%)
 hessian update                 ...        0 min,  0.159 sec (  1.180%)
 rational function              ...        0 min,  0.060 sec (  0.444%)

================
 final structure:
================
23
 xtb: 6.5.1 (b24c23e)
Zr          -1.22471360360624       -0.01611511001686        0.41137285143458
Cl          -0.57590331505420        1.04397777514475       -1.55819216156127
Cl          -3.49182164407809        0.31872348497937       -0.00984246825998
C           -0.32969517126340       -2.17027551697459        1.26600168304663
C            0.34278726156765       -1.89436197541514        0.05118513837776
C           -0.60566162695777       -1.98229225163283       -0.99746789375807
C           -1.86181745594582       -2.27523881858899       -0.42995741395409
C           -1.69878330858758       -2.37448260060279        0.97434554356676
H            0.14267887379609       -2.33747521248342        2.22627618505526
H            1.41499349996550       -1.79215165325943       -0.07625845589710
H           -0.38586403039286       -1.92331723990211       -2.05681210180191
H           -2.77491917795623       -2.47817268164344       -0.97736454433998
H           -2.45976736210524       -2.69811770665736        1.67595418340937
C            0.32938778272853        0.66059860130877        2.23859301331616
C           -0.93207389066013        0.43234018350902        2.84471471084435
C           -1.83095815870815        1.40740792779596        2.35805563515278
C           -1.13398883680182        2.22796368791220        1.44122743301866
C            0.20339597023717        1.76910035826475        1.37280877215399
H            1.26030159562942        0.17363202945947        2.50413807373961
H           -1.13486298764169       -0.26141243384989        3.65254343783792
H           -2.84721778657296        1.56299336925609        2.70093551841267
H           -1.52913593181004        3.10970344618988        0.94854033988627
H            1.01098013421618        2.25178812720550        0.83424931031986

 Bond Distances (Angstroems)
 ---------------------------
Zr1-Cl2=2.3289       Zr1-Cl3=2.3301       Zr1-C4=2.4843        Zr1-C5=2.4728        Zr1-C6=2.4968        Zr1-C7=2.4935        
Zr1-C8=2.4705        Zr1-C14=2.4924       Zr1-C15=2.4916       Zr1-C16=2.4867       Zr1-C17=2.4708       Zr1-C18=2.4801       
Cl2-Zr1=2.3289       Cl3-Zr1=2.3301       C4-Zr1=2.4843        C4-C5=1.4157         C4-C8=1.4146         C4-H9=1.0832         
C5-Zr1=2.4728        C5-C4=1.4157         C5-C6=1.4167         C5-H10=1.0846        C6-Zr1=2.4968        C6-C5=1.4167         
C6-C7=1.4092         C6-H11=1.0835        C7-Zr1=2.4935        C7-C6=1.4092         C7-C8=1.4172         C7-H12=1.0838        
C8-Zr1=2.4705        C8-C4=1.4146         C8-C7=1.4172         C8-H13=1.0845        H9-C4=1.0832         H10-C5=1.0846        
H11-C6=1.0835        H12-C7=1.0838        H13-C8=1.0845        C14-Zr1=2.4924       C14-C15=1.4180       C14-C18=1.4122       
C14-H19=1.0836       C15-Zr1=2.4916       C15-C14=1.4180       C15-C16=1.4127       C15-H20=1.0840       C16-Zr1=2.4867       
C16-C15=1.4127       C16-C17=1.4141       C16-H21=1.0838       C17-Zr1=2.4708       C17-C16=1.4141       C17-C18=1.4156       
C17-H22=1.0846       C18-Zr1=2.4801       C18-C14=1.4122       C18-C17=1.4156       C18-H23=1.0841       H19-C14=1.0836       
H20-C15=1.0840       H21-C16=1.0838       H22-C17=1.0846       H23-C18=1.0841       
 C  H  Rav=1.0840 sigma=0.0005  Rmin=1.0832  Rmax=1.0846    10
 C  C  Rav=1.4146 sigma=0.0025  Rmin=1.4092  Rmax=1.4180    10
 Zr C  Rav=2.4839 sigma=0.0094  Rmin=2.4705  Rmax=2.4968    10
 Zr Cl Rav=2.3295 sigma=0.0006  Rmin=2.3289  Rmax=2.3301     2

 selected bond angles (degree)
 --------------------
Cl3-Zr1-Cl2= 93.02             C4-Zr1-Cl2=125.82              C4-Zr1-Cl3=122.50              C5-Zr1-Cl2= 92.63              
C5-Zr1-Cl3=134.39              C5-Zr1-C4= 33.19               C6-Zr1-Cl2= 79.17              C6-Zr1-Cl3=104.62              
C6-Zr1-C4= 54.69               C6-Zr1-C5= 33.12               C7-Zr1-Cl2=101.43              C7-Zr1-Cl3= 79.67              
C7-Zr1-C4= 54.73               C7-Zr1-C5= 54.87               C7-Zr1-C6= 32.81               C8-Zr1-Cl2=132.90              
C8-Zr1-Cl3= 89.52              C8-Zr1-C4= 33.18               C8-Zr1-C5= 55.23               C8-Zr1-C6= 54.86               
C8-Zr1-C7= 33.17               C14-Zr1-Cl2=108.83             C14-Zr1-Cl3=134.44             C14-Zr1-C4= 76.03              
C14-Zr1-C5= 85.28              C14-Zr1-C6=118.22              C14-Zr1-C7=130.74              C14-Zr1-C8=102.23              
C15-Zr1-Cl2=135.34             C15-Zr1-Cl3=105.36             C15-Zr1-C4= 77.16              C15-Zr1-C5=101.80              
C15-Zr1-C6=131.58              C15-Zr1-C7=121.51              C15-Zr1-C8= 88.38              C15-Zr1-C14= 33.06             
C16-Zr1-Cl2=117.99             C16-Zr1-Cl3= 79.75             C16-Zr1-C4=108.36              C16-Zr1-C5=134.70              
C16-Zr1-C6=162.36              C16-Zr1-C7=136.10              C16-Zr1-C8=108.74              C16-Zr1-C14= 54.74             
C16-Zr1-C15= 32.97             C17-Zr1-Cl2= 85.92             C17-Zr1-Cl3= 88.89             C17-Zr1-C4=129.12              
C17-Zr1-C5=136.66              C17-Zr1-C6=160.27              C17-Zr1-C7=166.63              C17-Zr1-C8=141.18              
C17-Zr1-C14= 54.90             C17-Zr1-C15= 54.91             C17-Zr1-C16= 33.15             C18-Zr1-Cl2= 80.78             
C18-Zr1-Cl3=121.80             C18-Zr1-C4=106.46              C18-Zr1-C5=103.78              C18-Zr1-C6=130.00              
C18-Zr1-C7=158.45              C18-Zr1-C8=135.18              C18-Zr1-C14= 33.00             C18-Zr1-C15= 54.84             
C18-Zr1-C16= 54.89             C18-Zr1-C17= 33.23             C5-C4-Zr1= 72.96               C8-C4-Zr1= 72.88               
C8-C4-C5=108.12                H9-C4-Zr1=126.58               H9-C4-C5=125.71                H9-C4-C8=125.63                
C4-C5-Zr1= 73.85               C6-C5-Zr1= 74.37               C6-C5-C4=107.76                H10-C5-Zr1=124.90              
H10-C5-C4=126.07               H10-C5-C6=125.50               C5-C6-Zr1= 72.51               C7-C6-Zr1= 73.47               
C7-C6-C5=108.15                H11-C6-Zr1=123.99              H11-C6-C5=125.77               H11-C6-C7=125.87               
C6-C7-Zr1= 73.73               C8-C7-Zr1= 72.53               C8-C7-C6=108.12                H12-C7-Zr1=123.73              
H12-C7-C6=125.91               H12-C7-C8=125.75               C4-C8-Zr1= 73.95               C7-C8-Zr1= 74.30               
C7-C8-C4=107.79                H13-C8-Zr1=124.54              H13-C8-C4=126.07               H13-C8-C7=125.54               

 selected dihedral angles (degree)
 ---------------------------------
C5-C4-Zr1-Cl2=  0.30          C5-C4-Zr1-Cl3=122.78          C5-C4-Zr1-C6= 37.63           C5-C4-Zr1-C7= 78.11           
C5-C4-Zr1-C8=115.77           C5-C4-Zr1-C14=256.97          C5-C4-Zr1-C15=222.97          C5-C4-Zr1-C16=212.15          
C5-C4-Zr1-C17=242.01          C5-C4-Zr1-C18=269.88          C8-C4-Zr1-Cl2=244.53          C8-C4-Zr1-Cl3=  7.01          
C8-C4-Zr1-C5=244.23           C8-C4-Zr1-C6=281.86           C8-C4-Zr1-C7=322.34           C8-C4-Zr1-C14=141.20          
C8-C4-Zr1-C15=107.20          C8-C4-Zr1-C16= 96.38          C8-C4-Zr1-C17=126.24          C8-C4-Zr1-C18=154.11          
H9-C4-Zr1-Cl2=122.49          H9-C4-Zr1-Cl3=244.97          H9-C4-Zr1-C5=122.19           H9-C4-Zr1-C6=159.82           
H9-C4-Zr1-C7=200.30           H9-C4-Zr1-C8=237.96           H9-C4-Zr1-C14= 19.16          H9-C4-Zr1-C15=345.16          
H9-C4-Zr1-C16=334.34          H9-C4-Zr1-C17=  4.20          H9-C4-Zr1-C18= 32.08          C4-C5-Zr1-Cl2=180.24          
C4-C5-Zr1-Cl3=277.07          C4-C5-Zr1-C6=245.75           C4-C5-Zr1-C7=282.38           C4-C5-Zr1-C8=323.14           
C4-C5-Zr1-C14= 71.56          C4-C5-Zr1-C15= 42.76          C4-C5-Zr1-C16= 45.28          C4-C5-Zr1-C17= 93.39          
C4-C5-Zr1-C18= 99.09          C6-C5-Zr1-Cl2=294.49          C6-C5-Zr1-Cl3= 31.33          C6-C5-Zr1-C4=114.25           
C6-C5-Zr1-C7= 36.63           C6-C5-Zr1-C8= 77.39           C6-C5-Zr1-C14=185.81          C6-C5-Zr1-C15=157.02          
C6-C5-Zr1-C16=159.53          C6-C5-Zr1-C17=207.65          C6-C5-Zr1-C18=213.35          H10-C5-Zr1-Cl2= 57.18         
H10-C5-Zr1-Cl3=154.02         H10-C5-Zr1-C4=236.94          H10-C5-Zr1-C6=122.69          H10-C5-Zr1-C7=159.32          
H10-C5-Zr1-C8=200.08          H10-C5-Zr1-C14=308.50         H10-C5-Zr1-C15=279.71         H10-C5-Zr1-C16=282.22         
H10-C5-Zr1-C17=330.34         H10-C5-Zr1-C18=336.04         Zr1-C5-C4-C8= 64.89           Zr1-C5-C4-H9=236.82           
C6-C5-C4-Zr1=292.78           C6-C5-C4-C8=357.68            C6-C5-C4-H9=169.60            H10-C5-C4-Zr1=121.74          
H10-C5-C4-C8=186.64           H10-C5-C4-H9=358.56           C5-C6-Zr1-Cl2=112.25          C5-C6-Zr1-Cl3=202.58          
C5-C6-Zr1-C4=322.30           C5-C6-Zr1-C7=244.26           C5-C6-Zr1-C8=281.38           C5-C6-Zr1-C14=  6.58          
C5-C6-Zr1-C15=329.27          C5-C6-Zr1-C16=304.90          C5-C6-Zr1-C17= 70.67          C5-C6-Zr1-C18= 44.18          
C7-C6-Zr1-Cl2=228.00          C7-C6-Zr1-Cl3=318.32          C7-C6-Zr1-C4= 78.04           C7-C6-Zr1-C5=115.74           
C7-C6-Zr1-C8= 37.13           C7-C6-Zr1-C14=122.32          C7-C6-Zr1-C15= 85.01          C7-C6-Zr1-C16= 60.64          
C7-C6-Zr1-C17=186.41          C7-C6-Zr1-C18=159.92          H11-C6-Zr1-Cl2=350.47         H11-C6-Zr1-Cl3= 80.80         
H11-C6-Zr1-C4=200.51          H11-C6-Zr1-C5=238.22          H11-C6-Zr1-C7=122.48          H11-C6-Zr1-C8=159.60          
H11-C6-Zr1-C14=244.79         H11-C6-Zr1-C15=207.49         H11-C6-Zr1-C16=183.12         H11-C6-Zr1-C17=308.89         
H11-C6-Zr1-C18=282.40         Zr1-C6-C5-C4= 66.87           Zr1-C6-C5-H10=237.98          C7-C6-C5-Zr1=294.67           
C7-C6-C5-C4=  1.53            C7-C6-C5-H10=172.64           H11-C6-C5-Zr1=119.70          H11-C6-C5-C4=186.57           
H11-C6-C5-H10=357.68          C6-C7-Zr1-Cl2= 48.13          C6-C7-Zr1-Cl3=139.15          C6-C7-Zr1-C4=282.09           
C6-C7-Zr1-C5=323.00           C6-C7-Zr1-C8=244.43           C6-C7-Zr1-C14=280.63          C6-C7-Zr1-C15=240.93          
C6-C7-Zr1-C16=202.39          C6-C7-Zr1-C17=170.62          C6-C7-Zr1-C18=314.28          C8-C7-Zr1-Cl2=163.70          
C8-C7-Zr1-Cl3=254.72          C8-C7-Zr1-C4= 37.66           C8-C7-Zr1-C5= 78.57           C8-C7-Zr1-C6=115.57           
C8-C7-Zr1-C14= 36.20          C8-C7-Zr1-C15=356.50          C8-C7-Zr1-C16=317.96          C8-C7-Zr1-C17=286.19          
C8-C7-Zr1-C18= 69.85          H12-C7-Zr1-Cl2=285.46         H12-C7-Zr1-Cl3= 16.48         H12-C7-Zr1-C4=159.42          
H12-C7-Zr1-C5=200.33          H12-C7-Zr1-C6=237.33          H12-C7-Zr1-C8=121.76          H12-C7-Zr1-C14=157.96         
H12-C7-Zr1-C15=118.26         H12-C7-Zr1-C16= 79.72         H12-C7-Zr1-C17= 47.95         H12-C7-Zr1-C18=191.61         
Zr1-C7-C6-C5= 64.70           Zr1-C7-C6-H11=239.66          C8-C7-C6-Zr1=295.13           C8-C7-C6-C5=359.84            
C8-C7-C6-H11=174.79           H12-C7-C6-Zr1=120.19          H12-C7-C6-C5=184.90           H12-C7-C6-H11=359.85          
C4-C8-Zr1-Cl2= 92.22          C4-C8-Zr1-Cl3=185.91          C4-C8-Zr1-C5= 36.87           C4-C8-Zr1-C6= 77.57           
C4-C8-Zr1-C7=114.27           C4-C8-Zr1-C14=321.52          C4-C8-Zr1-C15=291.29          C4-C8-Zr1-C16=264.91          
C4-C8-Zr1-C17=273.53          C4-C8-Zr1-C18=323.56          C7-C8-Zr1-Cl2=337.94          C7-C8-Zr1-Cl3= 71.63          
C7-C8-Zr1-C4=245.73           C7-C8-Zr1-C5=282.60           C7-C8-Zr1-C6=323.30           C7-C8-Zr1-C14=207.25          
C7-C8-Zr1-C15=177.02          C7-C8-Zr1-C16=150.63          C7-C8-Zr1-C17=159.26          C7-C8-Zr1-C18=209.29          
H13-C8-Zr1-Cl2=215.30         H13-C8-Zr1-Cl3=308.98         H13-C8-Zr1-C4=123.08          H13-C8-Zr1-C5=159.95          
H13-C8-Zr1-C6=200.65          H13-C8-Zr1-C7=237.35          H13-C8-Zr1-C14= 84.60         H13-C8-Zr1-C15= 54.37         
H13-C8-Zr1-C16= 27.98         H13-C8-Zr1-C17= 36.61         H13-C8-Zr1-C18= 86.64         Zr1-C8-C4-C5=295.05           
Zr1-C8-C4-H9=123.12           C7-C8-C4-Zr1= 67.17           C7-C8-C4-C5=  2.22            C7-C8-C4-H9=190.29            
H13-C8-C4-Zr1=238.65          H13-C8-C4-C5=173.70           H13-C8-C4-H9=  1.77           Zr1-C8-C7-C6= 65.66           
Zr1-C8-C7-H12=240.61          C4-C8-C7-Zr1=293.07           C4-C8-C7-C6=358.73            C4-C8-C7-H12=173.68           
H13-C8-C7-Zr1=121.53          H13-C8-C7-C6=187.19           H13-C8-C7-H12=  2.14          
           -------------------------------------------------
          |                Final Singlepoint                |
           -------------------------------------------------

          ...................................................
          :                      SETUP                      :
          :.................................................:
          :  # basis functions                  80          :
          :  # atomic orbitals                  77          :
          :  # shells                           39          :
          :  # electrons                        68          :
          :  max. iterations                   250          :
          :  Hamiltonian                  GFN2-xTB          :
          :  restarted?                      false          :
          :  GBSA solvation                  false          :
          :  PC potential                    false          :
          :  electronic temp.          300.0000000     K    :
          :  accuracy                    1.0000000          :
          :  -> integral cutoff          0.2500000E+02      :
          :  -> integral neglect         0.1000000E-07      :
          :  -> SCF convergence          0.1000000E-05 Eh   :
          :  -> wf. convergence          0.1000000E-03 e    :
          :  Broyden damping             0.4000000          :
          ...................................................

 iter      E             dE          RMSdq      gap      omega  full diag
   1    -37.8873474 -0.378873E+02  0.251E-04    2.37       0.0  T
   2    -37.8873474 -0.124366E-09  0.172E-04    2.37     121.0  T
   3    -37.8873474 -0.353992E-10  0.139E-04    2.37     150.5  T

   *** convergence criteria satisfied after 3 iterations ***

         #    Occupation            Energy/Eh            Energy/eV
      -------------------------------------------------------------
         1        2.0000           -1.0693443             -29.0983
       ...           ...                  ...                  ...
        28        2.0000           -0.4200459             -11.4300
        29        2.0000           -0.4168867             -11.3441
        30        2.0000           -0.4113521             -11.1935
        31        2.0000           -0.3992571             -10.8643
        32        2.0000           -0.3936930             -10.7129
        33        2.0000           -0.3861823             -10.5086
        34        2.0000           -0.3812726             -10.3750 (HOMO)
        35                         -0.2940677              -8.0020 (LUMO)
        36                         -0.2880104              -7.8372
        37                         -0.2842706              -7.7354
        38                         -0.2758866              -7.5073
        39                         -0.2620243              -7.1300
       ...                                ...                  ...
        77                          2.3454753              63.8236
      -------------------------------------------------------------
                  HL-Gap            0.0872049 Eh            2.3730 eV
             Fermi-level           -0.3376702 Eh           -9.1885 eV

 SCC (total)                   0 d,  0 h,  0 min,  0.342 sec
 SCC setup                      ...        0 min,  0.004 sec (  1.287%)
 Dispersion                     ...        0 min,  0.022 sec (  6.561%)
 classical contributions        ...        0 min,  0.009 sec (  2.515%)
 integral evaluation            ...        0 min,  0.035 sec ( 10.331%)
 iterations                     ...        0 min,  0.164 sec ( 48.027%)
 molecular gradient             ...        0 min,  0.107 sec ( 31.224%)
 printout                       ...        0 min,  0.000 sec (  0.048%)

         :::::::::::::::::::::::::::::::::::::::::::::::::::::
         ::                     SUMMARY                     ::
         :::::::::::::::::::::::::::::::::::::::::::::::::::::
         :: total energy             -37.392788070866 Eh    ::
         :: gradient norm              0.000528629038 Eh/a0 ::
         :: HOMO-LUMO gap              2.372967379714 eV    ::
         ::.................................................::
         :: SCC energy               -37.887347440378 Eh    ::
         :: -> isotropic ES            0.054063673839 Eh    ::
         :: -> anisotropic ES         -0.005557166457 Eh    ::
         :: -> anisotropic XC          0.013658708433 Eh    ::
         :: -> dispersion             -0.025564632347 Eh    ::
         :: repulsion energy           0.494207104557 Eh    ::
         :: add. restraining           0.000000000000 Eh    ::
         :: total charge              -0.000000000000 e     ::
         :::::::::::::::::::::::::::::::::::::::::::::::::::::

           -------------------------------------------------
          |                Property Printout                |
           -------------------------------------------------

    * Orbital Energies and Occupations

         #    Occupation            Energy/Eh            Energy/eV
      -------------------------------------------------------------
         1        2.0000           -1.0693443             -29.0983
       ...           ...                  ...                  ...
        22        2.0000           -0.4707960             -12.8110
        23        2.0000           -0.4694459             -12.7743
        24        2.0000           -0.4691587             -12.7665
        25        2.0000           -0.4421544             -12.0316
        26        2.0000           -0.4272077             -11.6249
        27        2.0000           -0.4215202             -11.4701
        28        2.0000           -0.4200459             -11.4300
        29        2.0000           -0.4168867             -11.3441
        30        2.0000           -0.4113521             -11.1935
        31        2.0000           -0.3992571             -10.8643
        32        2.0000           -0.3936930             -10.7129
        33        2.0000           -0.3861823             -10.5086
        34        2.0000           -0.3812726             -10.3750 (HOMO)
        35                         -0.2940677              -8.0020 (LUMO)
        36                         -0.2880104              -7.8372
        37                         -0.2842706              -7.7354
        38                         -0.2758866              -7.5073
        39                         -0.2620243              -7.1300
        40                         -0.1853284              -5.0430
        41                         -0.1841379              -5.0106
        42                         -0.1792964              -4.8789
        43                         -0.1785695              -4.8591
        44                          0.0622169               1.6930
        45                          0.0690730               1.8796
       ...                                ...                  ...
        77                          2.3454753              63.8236
      -------------------------------------------------------------
                  HL-Gap            0.0872049 Eh            2.3730 eV
             Fermi-level           -0.3376702 Eh           -9.1885 eV

     #   Z          covCN         q      C6AA      α(0)
     1  40 Zr       8.899     1.132   134.149    17.404
     2  17 Cl       0.736    -0.475   114.562    16.372
     3  17 Cl       0.736    -0.475   114.577    16.373
     4   6 C        3.752    -0.098    22.430     6.754
     5   6 C        3.755    -0.098    22.419     6.751
     6   6 C        3.746    -0.079    22.077     6.702
     7   6 C        3.748    -0.079    22.079     6.702
     8   6 C        3.756    -0.096    22.379     6.745
     9   1 H        0.925     0.064     2.156     2.296
    10   1 H        0.925     0.066     2.128     2.281
    11   1 H        0.925     0.080     1.980     2.200
    12   1 H        0.925     0.080     1.979     2.200
    13   1 H        0.925     0.068     2.107     2.270
    14   6 C        3.748    -0.099    22.463     6.760
    15   6 C        3.748    -0.100    22.472     6.761
    16   6 C        3.750    -0.083    22.143     6.711
    17   6 C        3.759    -0.082    22.113     6.704
    18   6 C        3.753    -0.085    22.186     6.717
    19   1 H        0.925     0.062     2.171     2.304
    20   1 H        0.925     0.062     2.171     2.304
    21   1 H        0.925     0.078     2.002     2.213
    22   1 H        0.925     0.080     1.979     2.200
    23   1 H        0.925     0.076     2.018     2.221

 Mol. C6AA /au·bohr⁶  :       8925.291990
 Mol. C8AA /au·bohr⁸  :     348996.576386
 Mol. α(0) /au        :        139.946387


Wiberg/Mayer (AO) data.
largest (>0.10) Wiberg bond orders for each atom

 ---------------------------------------------------------------------------
     #   Z sym  total        # sym  WBO       # sym  WBO       # sym  WBO
 ---------------------------------------------------------------------------
     1  40 Zr   4.218 --     2 Cl   0.785     3 Cl   0.784    17 C    0.240
                             8 C    0.239     5 C    0.238    18 C    0.235
                            16 C    0.233     7 C    0.232     6 C    0.231
                            15 C    0.226    14 C    0.223     4 C    0.217
     2  17 Cl   0.929 --     1 Zr   0.785
     3  17 Cl   0.928 --     1 Zr   0.784
     4   6 C    3.975 --     8 C    1.307     5 C    1.304     9 H    0.932
                             1 Zr   0.217
     5   6 C    3.975 --     4 C    1.304     6 C    1.298    10 H    0.927
                             1 Zr   0.238
     6   6 C    3.980 --     7 C    1.330     5 C    1.298    11 H    0.927
                             1 Zr   0.231
     7   6 C    3.980 --     6 C    1.330     8 C    1.297    12 H    0.927
                             1 Zr   0.232
     8   6 C    3.975 --     4 C    1.307     7 C    1.297    13 H    0.927
                             1 Zr   0.239
     9   1 H    0.996 --     4 C    0.932
    10   1 H    0.993 --     5 C    0.927
    11   1 H    0.991 --     6 C    0.927
    12   1 H    0.991 --     7 C    0.927
    13   1 H    0.993 --     8 C    0.927
    14   6 C    3.974 --    18 C    1.314    15 C    1.295    19 H    0.931
                             1 Zr   0.223
    15   6 C    3.974 --    16 C    1.311    14 C    1.295    20 H    0.931
                             1 Zr   0.226
    16   6 C    3.980 --    17 C    1.312    15 C    1.311    21 H    0.927
                             1 Zr   0.233
    17   6 C    3.979 --    16 C    1.312    18 C    1.306    22 H    0.924
                             1 Zr   0.240
    18   6 C    3.979 --    14 C    1.314    17 C    1.306    23 H    0.927
                             1 Zr   0.235
    19   1 H    0.994 --    14 C    0.931
    20   1 H    0.994 --    15 C    0.931
    21   1 H    0.992 --    16 C    0.927
    22   1 H    0.990 --    17 C    0.924
    23   1 H    0.993 --    18 C    0.927
 ---------------------------------------------------------------------------

Topologies differ in total number of bonds
Writing topology from bond orders to xtbtopo.mol

molecular dipole:
                 x           y           z       tot (Debye)
 q only:        1.161      -1.000       1.713
   full:        1.040      -0.904       1.532       5.237
molecular quadrupole (traceless):
                xx          xy          yy          xz          yz          zz
 q only:       -9.440       4.143       5.323      -5.174       3.073       4.117
  q+dip:       -6.459       3.336       1.962      -4.461      -0.128       4.497
   full:       -6.888       3.384       2.475      -4.427       0.447       4.413

           -------------------------------------------------
          |                Geometry Summary                 |
           -------------------------------------------------

      molecular mass/u    :      292.3162833
   center of mass at/Å    :       -1.2096010      -0.0274418       0.4345018
  moments of inertia/u·Å² :        0.7052138E+03   0.8410946E+03   0.9146369E+03
rotational constants/cm⁻¹ :        0.2390429E-01   0.2004249E-01   0.1843096E-01

 * 32 selected distances

     #   Z          #   Z                                           value/Å
     1  40 Zr       2  17 Cl                                      2.3289352
     1  40 Zr       3  17 Cl                                      2.3300899
     1  40 Zr       4   6 C                                       2.4843222
     1  40 Zr       5   6 C                                       2.4727731
     4   6 C        5   6 C                                       1.4156767
     1  40 Zr       6   6 C                                       2.4967802 (max)
     5   6 C        6   6 C                                       1.4166724
     1  40 Zr       7   6 C                                       2.4934673
     6   6 C        7   6 C                                       1.4091890
     1  40 Zr       8   6 C                                       2.4705422
     4   6 C        8   6 C                                       1.4146259
     7   6 C        8   6 C                                       1.4172144
     4   6 C        9   1 H                                       1.0831530 (min)
     5   6 C       10   1 H                                       1.0845807
     6   6 C       11   1 H                                       1.0835125
     7   6 C       12   1 H                                       1.0837858
     8   6 C       13   1 H                                       1.0844774
     1  40 Zr      14   6 C                                       2.4923698
     1  40 Zr      15   6 C                                       2.4915666
    14   6 C       15   6 C                                       1.4180167
     1  40 Zr      16   6 C                                       2.4866695
    15   6 C       16   6 C                                       1.4126526
     1  40 Zr      17   6 C                                       2.4707736
    16   6 C       17   6 C                                       1.4140906
     1  40 Zr      18   6 C                                       2.4800910
    14   6 C       18   6 C                                       1.4121731
    17   6 C       18   6 C                                       1.4155688
    14   6 C       19   1 H                                       1.0836288
    15   6 C       20   1 H                                       1.0839758
    16   6 C       21   1 H                                       1.0837699
    17   6 C       22   1 H                                       1.0845953
    18   6 C       23   1 H                                       1.0840785

 * 4 distinct bonds (by element types)

   Z      Z             #   av. dist./Å        max./Å        min./Å
   1 H    6 C          10     1.0839558     1.0845953     1.0831530
   6 C    6 C          10     1.4145880     1.4180167     1.4091890
   6 C   40 Zr         10     2.4839355     2.4967802     2.4705422
  17 Cl  40 Zr          2     2.3295126     2.3300899     2.3289352


optimized geometry written to: xtbopt.xyz


           -------------------------------------------------
          | TOTAL ENERGY              -37.392788070866 Eh   |
          | GRADIENT NORM               0.000528629038 Eh/α |
          | HOMO-LUMO GAP               2.372967379714 eV   |
           -------------------------------------------------

------------------------------------------------------------------------
 * finished run on 2026/08/12 at 22:02:40.050     
------------------------------------------------------------------------
 total:
 * wall-time:     0 d,  0 h,  0 min, 15.274 sec
 *  cpu-time:     0 d,  0 h,  0 min, 57.704 sec
 * ratio c/w:     3.778 speedup
 SCF:
 * wall-time:     0 d,  0 h,  0 min,  1.322 sec
 *  cpu-time:     0 d,  0 h,  0 min,  5.257 sec
 * ratio c/w:     3.977 speedup
 ANC optimizer:
 * wall-time:     0 d,  0 h,  0 min, 13.799 sec
 *  cpu-time:     0 d,  0 h,  0 min, 52.006 sec
 * ratio c/w:     3.769 speedup

