      -----------------------------------------------------------      
     |                   =====================                   |     
     |                           x T B                           |     
     |                   =====================                   |     
     |                         S. Grimme                         |     
     |          Mulliken Center for Theoretical Chemistry        |     
     |                    University of Bonn                     |     
      -----------------------------------------------------------      

   * xtb version 6.5.1 (b24c23e) compiled by 'conda@728c89f4b128' on 2022-07-12

   xtb is free software: you can redistribute it and/or modify it under
   the terms of the GNU Lesser General Public License as published by
   the Free Software Foundation, either version 3 of the License, or
   (at your option) any later version.
   
   xtb is distributed in the hope that it will be useful,
   but WITHOUT ANY WARRANTY; without even the implied warranty of
   MERCHANTABILITY or FITNESS FOR A PARTICULAR PURPOSE.  See the
   GNU Lesser General Public License for more details.
   
   Cite this work as:
   * C. Bannwarth, E. Caldeweyher, S. Ehlert, A. Hansen, P. Pracht,
     J. Seibert, S. Spicher, S. Grimme, WIREs Comput. Mol. Sci., 2020, 11,
     e01493. DOI: 10.1002/wcms.1493
   
   for GFN2-xTB:
   * C. Bannwarth, S. Ehlert and S. Grimme., J. Chem. Theory Comput., 2019,
     15, 1652-1671. DOI: 10.1021/acs.jctc.8b01176
   for GFN1-xTB:
   * S. Grimme, C. Bannwarth, P. Shushkov, J. Chem. Theory Comput., 2017,
     13, 1989-2009. DOI: 10.1021/acs.jctc.7b00118
   for GFN0-xTB:
   * P. Pracht, E. Caldeweyher, S. Ehlert, S. Grimme, ChemRxiv, 2019, preprint.
     DOI: 10.26434/chemrxiv.8326202.v1
   for GFN-FF:
   * S. Spicher and S. Grimme, Angew. Chem. Int. Ed., 2020, 59, 15665-15673.
     DOI: 10.1002/anie.202004239
   
   for ALPB and GBSA implicit solvation:
   * S. Ehlert, M. Stahn, S. Spicher, S. Grimme, J. Chem. Theory Comput.,
     2021, 17, 4250-4261. DOI: 10.1021/acs.jctc.1c00471
   
   for DFT-D4:
   * E. Caldeweyher, C. Bannwarth and S. Grimme, J. Chem. Phys., 2017,
     147, 034112. DOI: 10.1063/1.4993215
   * E. Caldeweyher, S. Ehlert, A. Hansen, H. Neugebauer, S. Spicher,
     C. Bannwarth and S. Grimme, J. Chem. Phys., 2019, 150, 154122.
     DOI: 10.1063/1.5090222
   * E. Caldeweyher, J.-M. Mewes, S. Ehlert and S. Grimme, Phys. Chem. Chem. Phys.
     2020, 22, 8499-8512. DOI: 10.1039/D0CP00502A
   
   for sTDA-xTB:
   * S. Grimme and C. Bannwarth, J. Chem. Phys., 2016, 145, 054103.
     DOI: 10.1063/1.4959605
   
   in the mass-spec context:
   * V. Asgeirsson, C. Bauer and S. Grimme, Chem. Sci., 2017, 8, 4879.
     DOI: 10.1039/c7sc00601b
   * J. Koopman and S. Grimme, ACS Omega 2019, 4, 12, 15120-15133.
     DOI: 10.1021/acsomega.9b02011
   
   for metadynamics refer to:
   * S. Grimme, J. Chem. Theory Comput., 2019, 155, 2847-2862
     DOI: 10.1021/acs.jctc.9b00143
   
   for SPH calculations refer to:
   * S. Spicher and S. Grimme, J. Chem. Theory Comput., 2021, 17, 1701-1714
     DOI: 10.1021/acs.jctc.0c01306
   
   with help from (in alphabetical order)
   P. Atkinson, C. Bannwarth, F. Bohle, G. Brandenburg, E. Caldeweyher
   M. Checinski, S. Dohm, S. Ehlert, S. Ehrlich, I. Gerasimov, C. Hölzer
   A. Katbashev, J. Koopman, C. Lavigne, S. Lehtola, F. März, M. Müller,
   F. Musil, H. Neugebauer, J. Pisarek, C. Plett, P. Pracht, F. Pultar,
   J. Seibert, P. Shushkov, S. Spicher, M. Stahn, M. Steiner, T. Strunk,
   J. Stückrath, T. Rose, and J. Unsleber
   
 * started run on 2026/07/30 at 13:23:57.263     

           -------------------------------------------------
          |                Calculation Setup                |
           -------------------------------------------------

          program call               : /h/332/chchoi/miniconda3/envs/el-agente/bin/xtb alanine_enantiomer_guess.xyz --opt --gfn 2 -P 4 --chrg 0 --uhf 0
          coordinate file            : alanine_enantiomer_guess.xyz
          omp threads                :                     4

   ID    Z sym.   atoms
    1    8 O      1, 2
    2    7 N      3
    3    6 C      4-6
    4    1 H      7-13

           -------------------------------------------------
          |                 G F N 2 - x T B                 |
           -------------------------------------------------

        Reference                      10.1021/acs.jctc.8b01176
      * Hamiltonian:
        H0-scaling (s, p, d)           1.850000    2.230000    2.230000
        zeta-weighting                 0.500000
      * Dispersion:
        s8                             2.700000
        a1                             0.520000
        a2                             5.000000
        s9                             5.000000
      * Repulsion:
        kExp                           1.500000    1.000000
        rExp                           1.000000
      * Coulomb:
        alpha                          2.000000
        third order                    shell-resolved
        anisotropic                    true
        a3                             3.000000
        a5                             4.000000
        cn-shift                       1.200000
        cn-exp                         4.000000
        max-rad                        5.000000


          ...................................................
          :                      SETUP                      :
          :.................................................:
          :  # basis functions                  31          :
          :  # atomic orbitals                  31          :
          :  # shells                           19          :
          :  # electrons                        36          :
          :  max. iterations                   250          :
          :  Hamiltonian                  GFN2-xTB          :
          :  restarted?                      false          :
          :  GBSA solvation                  false          :
          :  PC potential                    false          :
          :  electronic temp.          300.0000000     K    :
          :  accuracy                    1.0000000          :
          :  -> integral cutoff          0.2500000E+02      :
          :  -> integral neglect         0.1000000E-07      :
          :  -> SCF convergence          0.1000000E-05 Eh   :
          :  -> wf. convergence          0.1000000E-03 e    :
          :  Broyden damping             0.4000000          :
          ...................................................

 iter      E             dE          RMSdq      gap      omega  full diag
   1    -21.1920904 -0.211921E+02  0.425E+00    4.04       0.0  T
   2    -21.2268302 -0.347397E-01  0.218E+00    3.62       1.0  T
   3    -21.2287494 -0.191921E-02  0.126E+00    3.92       1.0  T
   4    -21.2320351 -0.328568E-02  0.188E-01    3.53       1.0  T
   5    -21.2321837 -0.148589E-03  0.683E-02    3.50       1.0  T
   6    -21.2321905 -0.680051E-05  0.281E-02    3.50       1.0  T
   7    -21.2321922 -0.169612E-05  0.637E-03    3.50       4.4  T
   8    -21.2321923 -0.988820E-07  0.311E-03    3.50       8.9  T
   9    -21.2321923 -0.330100E-07  0.607E-04    3.50      45.7  T
  10    -21.2321923 -0.384905E-09  0.280E-04    3.50      99.2  T

   *** convergence criteria satisfied after 10 iterations ***

         #    Occupation            Energy/Eh            Energy/eV
      -------------------------------------------------------------
         1        2.0000           -0.7433983             -20.2289
       ...           ...                  ...                  ...
        12        2.0000           -0.5012735             -13.6403
        13        2.0000           -0.4778519             -13.0030
        14        2.0000           -0.4757491             -12.9458
        15        2.0000           -0.4681403             -12.7387
        16        2.0000           -0.4614956             -12.5579
        17        2.0000           -0.4214360             -11.4679
        18        2.0000           -0.3748609             -10.2005 (HOMO)
        19                         -0.2462671              -6.7013 (LUMO)
        20                          0.0129510               0.3524
        21                          0.0505715               1.3761
        22                          0.1004757               2.7341
        23                          0.1042772               2.8375
       ...                                ...                  ...
        31                          0.5785625              15.7435
      -------------------------------------------------------------
                  HL-Gap            0.1285939 Eh            3.4992 eV
             Fermi-level           -0.3105640 Eh           -8.4509 eV

 SCC (total)                   0 d,  0 h,  0 min,  2.400 sec
 SCC setup                      ...        0 min,  0.055 sec (  2.296%)
 Dispersion                     ...        0 min,  0.078 sec (  3.236%)
 classical contributions        ...        0 min,  0.088 sec (  3.675%)
 integral evaluation            ...        0 min,  0.131 sec (  5.456%)
 iterations                     ...        0 min,  1.740 sec ( 72.495%)
 molecular gradient             ...        0 min,  0.308 sec ( 12.835%)
 printout                       ...        0 min,  0.000 sec (  0.007%)

         :::::::::::::::::::::::::::::::::::::::::::::::::::::
         ::                     SUMMARY                     ::
         :::::::::::::::::::::::::::::::::::::::::::::::::::::
         :: total energy             -21.035518420046 Eh    ::
         :: gradient norm              0.062458128324 Eh/a0 ::
         :: HOMO-LUMO gap              3.499217091737 eV    ::
         ::.................................................::
         :: SCC energy               -21.232192285702 Eh    ::
         :: -> isotropic ES            0.058105103915 Eh    ::
         :: -> anisotropic ES          0.005326767657 Eh    ::
         :: -> anisotropic XC          0.007405054307 Eh    ::
         :: -> dispersion             -0.006966059629 Eh    ::
         :: repulsion energy           0.196663614757 Eh    ::
         :: add. restraining           0.000000000000 Eh    ::
         :: total charge               0.000000000000 e     ::
         :::::::::::::::::::::::::::::::::::::::::::::::::::::

      ----------------------------------------------------------- 
     |                   =====================                   |
     |                        A N C O P T                        |
     |                   =====================                   |
     |               Approximate Normal Coordinate               |
     |                Rational Function Optimizer                |
      ----------------------------------------------------------- 

          ...................................................
          :                      SETUP                      :
          :.................................................:
          :   optimization level            normal          :
          :   max. optcycles                   200          :
          :   ANC micro-cycles                  20          :
          :   degrees of freedom                33          :
          :.................................................:
          :   RF solver                   davidson          :
          :   write xtbopt.log                true          :
          :   linear?                        false          :
          :   energy convergence         0.5000000E-05 Eh   :
          :   grad. convergence          0.1000000E-02 Eh/α :
          :   maximium RF displ.         1.0000000          :
          :   Hlow (freq-cutoff)         0.1000000E-01      :
          :   Hmax (freq-cutoff)         5.0000000          :
          :   S6 in model hess.         20.0000000          :
          ...................................................

generating ANC from model Hessian ...
Using Lindh-Hessian (1995)
 Shifting diagonal of input Hessian by    4.4632284124643817E-003
 Lowest  eigenvalues of input Hessian
    0.000000    0.000000    0.000000    0.000000    0.000000    0.000000
    0.010000    0.014137    0.016515    0.018450    0.024176    0.027279
    0.049720    0.060819    0.064106    0.070939    0.072739    0.085008
 Highest eigenvalues
    1.174144    1.212200    1.313938    1.432140    1.685549    2.253757


........................................................................
.............................. CYCLE    1 ..............................
........................................................................
   1    -21.2321923 -0.212322E+02  0.582E-05    3.50       0.0  T
   2    -21.2321923 -0.287770E-11  0.356E-05    3.50     779.0  T
   3    -21.2321923 -0.596856E-12  0.129E-05    3.50    2145.2  T
     SCC iter.                  ...        0 min,  0.449 sec
     gradient                   ...        0 min,  0.437 sec
 * total energy  :   -21.0355184 Eh     change       -0.8343903E-10 Eh
   gradient norm :     0.0624600 Eh/α   predicted     0.0000000E+00 (-100.00%)
   displ. norm   :     0.1870072 α      lambda       -0.5117810E-02
   maximum displ.:     0.0906685 α      in ANC's #10, #5, #4, ...

........................................................................
.............................. CYCLE    2 ..............................
........................................................................
   1    -21.2457404 -0.212457E+02  0.270E-01    3.77       0.0  T
   2    -21.2457856 -0.452541E-04  0.162E-01    3.71       1.0  T
   3    -21.2457770  0.863365E-05  0.500E-02    3.73       1.0  T
   4    -21.2457925 -0.154786E-04  0.626E-03    3.72       4.4  T
   5    -21.2457926 -0.751628E-07  0.372E-03    3.72       7.4  T
   6    -21.2457926 -0.183990E-07  0.129E-03    3.72      21.5  T
   7    -21.2457926 -0.179218E-08  0.503E-04    3.72      55.1  T
   8    -21.2457926 -0.371053E-09  0.156E-04    3.72     178.1  T
     SCC iter.                  ...        0 min,  1.487 sec
     gradient                   ...        0 min,  0.828 sec
 * total energy  :   -21.0387122 Eh     change       -0.3193771E-02 Eh
   gradient norm :     0.0159755 Eh/α   predicted    -0.2648394E-02 ( -17.08%)
   displ. norm   :     0.1545177 α      lambda       -0.8832593E-03
   maximum displ.:     0.0817901 α      in ANC's #4, #5, #3, ...

........................................................................
.............................. CYCLE    3 ..............................
........................................................................
   1    -21.2493740 -0.212494E+02  0.137E-01    3.75       0.0  T
   2    -21.2493786 -0.469464E-05  0.801E-02    3.74       1.0  T
   3    -21.2493781  0.585970E-06  0.137E-02    3.74       2.0  T
   4    -21.2493794 -0.133136E-05  0.323E-03    3.74       8.6  T
   5    -21.2493794 -0.256004E-07  0.157E-03    3.74      17.7  T
   6    -21.2493794 -0.203292E-08  0.367E-04    3.74      75.6  T
   7    -21.2493794 -0.146706E-09  0.154E-04    3.74     180.3  T
     SCC iter.                  ...        0 min,  2.038 sec
     gradient                   ...        0 min,  0.808 sec
 * total energy  :   -21.0392917 Eh     change       -0.5794784E-03 Eh
   gradient norm :     0.0086355 Eh/α   predicted    -0.4521755E-03 ( -21.97%)
   displ. norm   :     0.1585560 α      lambda       -0.3643703E-03
   maximum displ.:     0.1071944 α      in ANC's #4, #5, #3, ...

........................................................................
.............................. CYCLE    4 ..............................
........................................................................
   1    -21.2492079 -0.212492E+02  0.118E-01    3.69       0.0  T
   2    -21.2492153 -0.738371E-05  0.684E-02    3.69       1.0  T
   3    -21.2492154 -0.607817E-07  0.137E-02    3.70       2.0  T
   4    -21.2492159 -0.502008E-06  0.314E-03    3.70       8.8  T
   5    -21.2492159 -0.299824E-07  0.160E-03    3.70      17.3  T
   6    -21.2492159 -0.127574E-08  0.313E-04    3.70      88.6  T
   7    -21.2492159 -0.191406E-09  0.159E-04    3.70     174.7  T
     SCC iter.                  ...        0 min,  1.772 sec
     gradient                   ...        0 min,  0.800 sec
 * total energy  :   -21.0395484 Eh     change       -0.2567197E-03 Eh
   gradient norm :     0.0070436 Eh/α   predicted    -0.1867668E-03 ( -27.25%)
   displ. norm   :     0.1874481 α      lambda       -0.2956749E-03
   maximum displ.:     0.1417496 α      in ANC's #4, #5, #3, ...

........................................................................
.............................. CYCLE    5 ..............................
........................................................................
   1    -21.2485718 -0.212486E+02  0.124E-01    3.64       0.0  T
   2    -21.2485782 -0.633827E-05  0.722E-02    3.64       1.0  T
   3    -21.2485784 -0.193823E-06  0.125E-02    3.64       2.2  T
   4    -21.2485789 -0.552738E-06  0.366E-03    3.64       7.6  T
   5    -21.2485790 -0.280823E-07  0.194E-03    3.64      14.3  T
   6    -21.2485790 -0.210651E-08  0.452E-04    3.64      61.4  T
   7    -21.2485790 -0.608228E-09  0.206E-04    3.64     134.5  T
     SCC iter.                  ...        0 min,  1.498 sec
     gradient                   ...        0 min,  0.756 sec
 * total energy  :   -21.0397542 Eh     change       -0.2058205E-03 Eh
   gradient norm :     0.0101759 Eh/α   predicted    -0.1530305E-03 ( -25.65%)
   displ. norm   :     0.1913168 α      lambda       -0.2891650E-03
   maximum displ.:     0.1518095 α      in ANC's #4, #5, #3, ...

........................................................................
.............................. CYCLE    6 ..............................
........................................................................
   1    -21.2478337 -0.212478E+02  0.123E-01    3.59       0.0  T
   2    -21.2478385 -0.482921E-05  0.720E-02    3.59       1.0  T
   3    -21.2478388 -0.261754E-06  0.105E-02    3.59       2.6  T
   4    -21.2478392 -0.453399E-06  0.358E-03    3.59       7.7  T
   5    -21.2478392 -0.189387E-07  0.181E-03    3.59      15.4  T
   6    -21.2478392 -0.211404E-08  0.355E-04    3.59      78.2  T
   7    -21.2478392 -0.111708E-09  0.157E-04    3.59     176.5  T
     SCC iter.                  ...        0 min,  1.737 sec
     gradient                   ...        0 min,  0.577 sec
 * total energy  :   -21.0399693 Eh     change       -0.2150921E-03 Eh
   gradient norm :     0.0130671 Eh/α   predicted    -0.1498748E-03 ( -30.32%)
   displ. norm   :     0.2405296 α      lambda       -0.4190667E-03
   maximum displ.:     0.1899051 α      in ANC's #4, #5, #1, ...

........................................................................
.............................. CYCLE    7 ..............................
........................................................................
   1    -21.2485281 -0.212485E+02  0.130E-01    3.59       0.0  T
   2    -21.2485307 -0.256722E-05  0.765E-02    3.57       1.0  T
   3    -21.2485314 -0.736050E-06  0.685E-03    3.57       4.0  T
   4    -21.2485314 -0.493745E-07  0.312E-03    3.57       8.9  T
   5    -21.2485315 -0.117502E-07  0.144E-03    3.57      19.3  T
   6    -21.2485315 -0.473117E-08  0.394E-04    3.57      70.3  T
   7    -21.2485315 -0.216993E-09  0.168E-04    3.57     165.5  T
     SCC iter.                  ...        0 min,  1.792 sec
     gradient                   ...        0 min,  0.622 sec
 * total energy  :   -21.0402654 Eh     change       -0.2961298E-03 Eh
   gradient norm :     0.0115663 Eh/α   predicted    -0.2216561E-03 ( -25.15%)
   displ. norm   :     0.2354444 α      lambda       -0.3500702E-03
   maximum displ.:     0.1881419 α      in ANC's #4, #5, #1, ...

........................................................................
.............................. CYCLE    8 ..............................
........................................................................
   1    -21.2478309 -0.212478E+02  0.140E-01    3.57       0.0  T
   2    -21.2478359 -0.500636E-05  0.827E-02    3.55       1.0  T
   3    -21.2478353  0.594713E-06  0.153E-02    3.55       1.8  T
   4    -21.2478369 -0.158918E-05  0.421E-03    3.54       6.6  T
   5    -21.2478370 -0.322228E-07  0.192E-03    3.55      14.4  T
   6    -21.2478370 -0.242850E-08  0.424E-04    3.55      65.4  T
   7    -21.2478370 -0.286960E-09  0.193E-04    3.55     143.7  T
     SCC iter.                  ...        0 min,  1.681 sec
     gradient                   ...        0 min,  0.772 sec
 * total energy  :   -21.0405001 Eh     change       -0.2346639E-03 Eh
   gradient norm :     0.0113362 Eh/α   predicted    -0.1847401E-03 ( -21.27%)
   displ. norm   :     0.1699835 α      lambda       -0.4778951E-03
   maximum displ.:     0.0998988 α      in ANC's #4, #1, #19, ...

........................................................................
.............................. CYCLE    9 ..............................
........................................................................
   1    -21.2543221 -0.212543E+02  0.122E-01    3.63       0.0  T
   2    -21.2543319 -0.986261E-05  0.705E-02    3.60       1.0  T
   3    -21.2543307  0.118053E-05  0.228E-02    3.60       1.2  T
   4    -21.2543335 -0.278446E-05  0.394E-03    3.59       7.0  T
   5    -21.2543336 -0.276195E-07  0.181E-03    3.60      15.3  T
   6    -21.2543336 -0.150869E-08  0.685E-04    3.60      40.5  T
   7    -21.2543336 -0.107015E-08  0.159E-04    3.60     174.7  T
     SCC iter.                  ...        0 min,  1.881 sec
     gradient                   ...        0 min,  0.684 sec
 * total energy  :   -21.0404061 Eh     change        0.9400640E-04 Eh
   gradient norm :     0.0202102 Eh/α   predicted    -0.2458515E-03 (-361.53%)
   displ. norm   :     0.2707128 α      lambda       -0.7811262E-03
   maximum displ.:     0.2126538 α      in ANC's #4, #5, #3, ...

........................................................................
.............................. CYCLE   10 ..............................
........................................................................
   1    -21.2484197 -0.212484E+02  0.181E-01    3.55       0.0  T
   2    -21.2484232 -0.357381E-05  0.106E-01    3.56       1.0  T
   3    -21.2484239 -0.645260E-06  0.975E-03    3.55       2.8  T
   4    -21.2484243 -0.444515E-06  0.486E-03    3.55       5.7  T
   5    -21.2484244 -0.411497E-07  0.195E-03    3.55      14.2  T
   6    -21.2484244 -0.235542E-08  0.441E-04    3.55      62.8  T
   7    -21.2484244 -0.170328E-09  0.133E-04    3.55     208.9  T
     SCC iter.                  ...        0 min,  1.804 sec
     gradient                   ...        0 min,  0.592 sec
 * total energy  :   -21.0407243 Eh     change       -0.3181799E-03 Eh
   gradient norm :     0.0099960 Eh/α   predicted    -0.4191848E-03 (  31.74%)
   displ. norm   :     0.1446773 α      lambda       -0.2157949E-03
   maximum displ.:     0.1081451 α      in ANC's #4, #5, #1, ...

........................................................................
.............................. CYCLE   11 ..............................
........................................................................
   1    -21.2503457 -0.212503E+02  0.770E-02    3.54       0.0  T
   2    -21.2503488 -0.313708E-05  0.456E-02    3.56       1.0  T
   3    -21.2503489 -0.110262E-06  0.846E-03    3.56       3.3  T
   4    -21.2503491 -0.168736E-06  0.237E-03    3.56      11.7  T
   5    -21.2503491 -0.146925E-07  0.111E-03    3.56      24.9  T
   6    -21.2503491 -0.844899E-09  0.264E-04    3.56     105.2  T
   7    -21.2503491 -0.124821E-09  0.133E-04    3.56     208.4  T
     SCC iter.                  ...        0 min,  1.509 sec
     gradient                   ...        0 min,  0.692 sec
 * total energy  :   -21.0407902 Eh     change       -0.6593514E-04 Eh
   gradient norm :     0.0044626 Eh/α   predicted    -0.1101547E-03 (  67.07%)
   displ. norm   :     0.0877783 α      lambda       -0.6084663E-04
   maximum displ.:     0.0656506 α      in ANC's #4, #5, #19, ...

........................................................................
.............................. CYCLE   12 ..............................
........................................................................
   1    -21.2503650 -0.212504E+02  0.539E-02    3.58       0.0  T
   2    -21.2503655 -0.502927E-06  0.318E-02    3.57       1.0  T
   3    -21.2503654  0.752084E-07  0.524E-03    3.57       5.3  T
   4    -21.2503656 -0.214711E-06  0.154E-03    3.57      18.0  T
   5    -21.2503656 -0.157340E-08  0.550E-04    3.57      50.4  T
   6    -21.2503656 -0.393072E-09  0.174E-04    3.57     159.7  T
     SCC iter.                  ...        0 min,  1.331 sec
     gradient                   ...        0 min,  0.702 sec
 * total energy  :   -21.0408383 Eh     change       -0.4811727E-04 Eh
   gradient norm :     0.0029649 Eh/α   predicted    -0.3065973E-04 ( -36.28%)
   displ. norm   :     0.2515249 α      lambda       -0.1089036E-03
   maximum displ.:     0.1759784 α      in ANC's #4, #5, #1, ...

........................................................................
.............................. CYCLE   13 ..............................
........................................................................
   1    -21.2479428 -0.212479E+02  0.167E-01    3.55       0.0  T
   2    -21.2479459 -0.306665E-05  0.984E-02    3.55       1.0  T
   3    -21.2479464 -0.536333E-06  0.883E-03    3.54       3.1  T
   4    -21.2479468 -0.360482E-06  0.443E-03    3.55       6.3  T
   5    -21.2479468 -0.341011E-07  0.202E-03    3.55      13.7  T
   6    -21.2479468 -0.307114E-08  0.402E-04    3.55      69.1  T
   7    -21.2479468 -0.149598E-09  0.173E-04    3.55     160.0  T
     SCC iter.                  ...        0 min,  1.635 sec
     gradient                   ...        0 min,  0.640 sec
 * total energy  :   -21.0408451 Eh     change       -0.6774572E-05 Eh
   gradient norm :     0.0088692 Eh/α   predicted    -0.5789778E-04 ( 754.63%)
   displ. norm   :     0.0841401 α      lambda       -0.1380855E-03
   maximum displ.:     0.0613469 α      in ANC's #4, #3, #5, ...

........................................................................
.............................. CYCLE   14 ..............................
........................................................................
   1    -21.2512313 -0.212512E+02  0.686E-02    3.62       0.0  T
   2    -21.2512348 -0.352769E-05  0.406E-02    3.60       1.0  T
   3    -21.2512345  0.334459E-06  0.124E-02    3.60       2.2  T
   4    -21.2512353 -0.778231E-06  0.212E-03    3.60      13.1  T
   5    -21.2512353 -0.109578E-07  0.119E-03    3.60      23.3  T
   6    -21.2512353 -0.976780E-09  0.366E-04    3.60      75.7  T
   7    -21.2512353 -0.254872E-09  0.135E-04    3.60     205.6  T
     SCC iter.                  ...        0 min,  1.384 sec
     gradient                   ...        0 min,  0.711 sec
 * total energy  :   -21.0408909 Eh     change       -0.4580148E-04 Eh
   gradient norm :     0.0058714 Eh/α   predicted    -0.6953076E-04 (  51.81%)
   displ. norm   :     0.0244773 α      lambda       -0.4101769E-04
   maximum displ.:     0.0146991 α      in ANC's #6, #2, #3, ...

........................................................................
.............................. CYCLE   15 ..............................
........................................................................
   1    -21.2506812 -0.212507E+02  0.263E-02    3.57       0.0  T
   2    -21.2506832 -0.201238E-05  0.156E-02    3.58       1.8  T
   3    -21.2506833 -0.401670E-07  0.714E-03    3.58       3.9  T
   4    -21.2506833 -0.224898E-07  0.120E-03    3.58      23.1  T
   5    -21.2506833 -0.105771E-07  0.472E-04    3.58      58.8  T
   6    -21.2506833 -0.282299E-09  0.191E-04    3.58     145.0  T
     SCC iter.                  ...        0 min,  1.440 sec
     gradient                   ...        0 min,  0.551 sec
 * total energy  :   -21.0409053 Eh     change       -0.1440696E-04 Eh
   gradient norm :     0.0022267 Eh/α   predicted    -0.2052243E-04 (  42.45%)
   displ. norm   :     0.0644308 α      lambda       -0.1813503E-04
   maximum displ.:     0.0403307 α      in ANC's #4, #5, #2, ...

........................................................................
.............................. CYCLE   16 ..............................
........................................................................
   1    -21.2504178 -0.212504E+02  0.383E-02    3.58       0.0  T
   2    -21.2504179 -0.940634E-07  0.226E-02    3.58       1.2  T
   3    -21.2504180 -0.420955E-07  0.152E-03    3.58      18.2  T
   4    -21.2504180 -0.108788E-08  0.572E-04    3.58      48.5  T
   5    -21.2504180 -0.515453E-09  0.181E-04    3.58     153.1  T
     SCC iter.                  ...        0 min,  1.101 sec
     gradient                   ...        0 min,  0.169 sec
 * total energy  :   -21.0409175 Eh     change       -0.1215615E-04 Eh
   gradient norm :     0.0011622 Eh/α   predicted    -0.9105955E-05 ( -25.09%)
   displ. norm   :     0.0793905 α      lambda       -0.7779223E-05
   maximum displ.:     0.0437734 α      in ANC's #2, #4, #5, ...

........................................................................
.............................. CYCLE   17 ..............................
........................................................................
   1    -21.2504817 -0.212505E+02  0.429E-02    3.59       0.0  T
   2    -21.2504818 -0.118380E-06  0.254E-02    3.59       1.1  T
   3    -21.2504818 -0.477808E-07  0.182E-03    3.58      15.2  T
   4    -21.2504819 -0.591651E-08  0.997E-04    3.58      27.8  T
   5    -21.2504819 -0.122329E-08  0.193E-04    3.59     143.7  T
     SCC iter.                  ...        0 min,  0.912 sec
     gradient                   ...        0 min,  0.384 sec
 * total energy  :   -21.0409233 Eh     change       -0.5811256E-05 Eh
   gradient norm :     0.0019078 Eh/α   predicted    -0.3902135E-05 ( -32.85%)
   displ. norm   :     0.0173556 α      lambda       -0.3582081E-05
   maximum displ.:     0.0139865 α      in ANC's #2, #3, #4, ...

........................................................................
.............................. CYCLE   18 ..............................
........................................................................
   1    -21.2509139 -0.212509E+02  0.855E-03    3.59       0.0  T
   2    -21.2509139 -0.397175E-07  0.491E-03    3.59       5.6  T
   3    -21.2509139  0.362663E-08  0.138E-03    3.59      20.1  T
   4    -21.2509139 -0.850419E-08  0.283E-04    3.59      97.8  T
   5    -21.2509139 -0.273165E-09  0.119E-04    3.59     233.0  T
     SCC iter.                  ...        0 min,  1.072 sec
     gradient                   ...        0 min,  0.450 sec
 * total energy  :   -21.0409262 Eh     change       -0.2937537E-05 Eh
   gradient norm :     0.0013580 Eh/α   predicted    -0.1790390E-05 ( -39.05%)
   displ. norm   :     0.0259593 α      lambda       -0.2697687E-05
   maximum displ.:     0.0193174 α      in ANC's #2, #3, #5, ...

........................................................................
.............................. CYCLE   19 ..............................
........................................................................
   1    -21.2508745 -0.212509E+02  0.100E-02    3.59       0.0  T
   2    -21.2508746 -0.715566E-07  0.586E-03    3.59       4.7  T
   3    -21.2508746 -0.615429E-09  0.142E-03    3.59      19.6  T
   4    -21.2508746 -0.301666E-08  0.327E-04    3.59      84.8  T
   5    -21.2508746 -0.597701E-09  0.137E-04    3.59     202.3  T
     SCC iter.                  ...        0 min,  1.085 sec
     gradient                   ...        0 min,  0.472 sec
 * total energy  :   -21.0409289 Eh     change       -0.2723899E-05 Eh
   gradient norm :     0.0010265 Eh/α   predicted    -0.1348931E-05 ( -50.48%)
   displ. norm   :     0.0466830 α      lambda       -0.4916763E-05
   maximum displ.:     0.0320419 α      in ANC's #2, #3, #5, ...

........................................................................
.............................. CYCLE   20 ..............................
........................................................................
   1    -21.2507758 -0.212508E+02  0.209E-02    3.58       0.0  T
   2    -21.2507758 -0.833777E-07  0.124E-02    3.58       2.2  T
   3    -21.2507758  0.233561E-07  0.226E-03    3.58      12.3  T
   4    -21.2507759 -0.427281E-07  0.524E-04    3.58      52.9  T
   5    -21.2507759 -0.252609E-09  0.256E-04    3.58     108.2  T
     SCC iter.                  ...        0 min,  1.068 sec
     gradient                   ...        0 min,  0.521 sec
 * total energy  :   -21.0409341 Eh     change       -0.5126569E-05 Eh
   gradient norm :     0.0009851 Eh/α   predicted    -0.2459997E-05 ( -52.01%)
   displ. norm   :     0.0630459 α      lambda       -0.6502572E-05
   maximum displ.:     0.0444323 α      in ANC's #3, #2, #5, ...
 * RMSD in coord.:     0.5174419 α      energy gain  -0.5415640E-02 Eh

generating ANC from model Hessian ...
Using Lindh-Hessian (1995)
 Shifting diagonal of input Hessian by    3.5704755943959717E-003
 Lowest  eigenvalues of input Hessian
    0.000000    0.000000    0.000000    0.000000    0.000000    0.000000
    0.010000    0.012480    0.015074    0.017775    0.022360    0.025091
    0.049681    0.059633    0.063639    0.070573    0.072523    0.086570
 Highest eigenvalues
    1.181344    1.214880    1.365242    1.477721    1.777497    2.358300


........................................................................
.............................. CYCLE   21 ..............................
........................................................................
   1    -21.2507250 -0.212507E+02  0.421E-02    3.58       0.0  T
   2    -21.2507251 -0.130647E-06  0.247E-02    3.58       1.1  T
   3    -21.2507252 -0.452580E-07  0.187E-03    3.57      14.8  T
   4    -21.2507252 -0.108740E-07  0.103E-03    3.57      27.0  T
   5    -21.2507252 -0.144055E-08  0.387E-04    3.58      71.7  T
   6    -21.2507252 -0.147399E-09  0.102E-04    3.57     271.3  T
     SCC iter.                  ...        0 min,  1.020 sec
     gradient                   ...        0 min,  0.510 sec
 * total energy  :   -21.0409401 Eh     change       -0.6034801E-05 Eh
   gradient norm :     0.0013290 Eh/α   predicted     0.0000000E+00 (-100.00%)
   displ. norm   :     0.0294634 α      lambda       -0.8158761E-05
   maximum displ.:     0.0239851 α      in ANC's #1, #4, #2, ...

........................................................................
.............................. CYCLE   22 ..............................
........................................................................
   1    -21.2507209 -0.212507E+02  0.179E-02    3.57       0.0  T
   2    -21.2507211 -0.184078E-06  0.106E-02    3.57       2.6  T
   3    -21.2507211  0.307498E-07  0.346E-03    3.57       8.0  T
   4    -21.2507211 -0.689885E-07  0.535E-04    3.57      51.8  T
   5    -21.2507211 -0.331820E-09  0.302E-04    3.57      91.8  T
     SCC iter.                  ...        0 min,  0.795 sec
     gradient                   ...        0 min,  0.320 sec
 * total energy  :   -21.0409495 Eh     change       -0.9359158E-05 Eh
   gradient norm :     0.0006856 Eh/α   predicted    -0.4081965E-05 ( -56.39%)
   displ. norm   :     0.0639978 α      lambda       -0.1145688E-04
   maximum displ.:     0.0433515 α      in ANC's #1, #4, #2, ...

........................................................................
.............................. CYCLE   23 ..............................
........................................................................
   1    -21.2506563 -0.212507E+02  0.418E-02    3.57       0.0  T
   2    -21.2506568 -0.517295E-06  0.247E-02    3.57       1.1  T
   3    -21.2506567  0.101676E-06  0.523E-03    3.57       5.3  T
   4    -21.2506569 -0.206195E-06  0.122E-03    3.57      22.8  T
   5    -21.2506569 -0.242180E-08  0.654E-04    3.57      42.4  T
   6    -21.2506569 -0.256925E-09  0.135E-04    3.57     205.0  T
     SCC iter.                  ...        0 min,  0.957 sec
     gradient                   ...        0 min,  0.510 sec
 * total energy  :   -21.0409633 Eh     change       -0.1379678E-04 Eh
   gradient norm :     0.0013081 Eh/α   predicted    -0.5738978E-05 ( -58.40%)
   displ. norm   :     0.1556695 α      lambda       -0.2257352E-04
   maximum displ.:     0.1076520 α      in ANC's #1, #4, #2, ...

........................................................................
.............................. CYCLE   24 ..............................
........................................................................
   1    -21.2501050 -0.212501E+02  0.943E-02    3.56       0.0  T
   2    -21.2501070 -0.201657E-05  0.556E-02    3.56       1.0  T
   3    -21.2501068  0.273641E-06  0.963E-03    3.55       2.9  T
   4    -21.2501075 -0.739676E-06  0.280E-03    3.55       9.9  T
   5    -21.2501075 -0.117693E-07  0.143E-03    3.55      19.3  T
   6    -21.2501075 -0.143325E-08  0.300E-04    3.55      92.3  T
   7    -21.2501075 -0.215874E-09  0.131E-04    3.55     212.3  T
     SCC iter.                  ...        0 min,  0.862 sec
     gradient                   ...        0 min,  0.415 sec
 * total energy  :   -21.0409874 Eh     change       -0.2413626E-04 Eh
   gradient norm :     0.0030256 Eh/α   predicted    -0.1140906E-04 ( -52.73%)
   displ. norm   :     0.1648587 α      lambda       -0.3278811E-04
   maximum displ.:     0.1093133 α      in ANC's #1, #4, #2, ...

........................................................................
.............................. CYCLE   25 ..............................
........................................................................
   1    -21.2492622 -0.212493E+02  0.103E-01    3.54       0.0  T
   2    -21.2492637 -0.148525E-05  0.607E-02    3.54       1.0  T
   3    -21.2492634  0.236439E-06  0.909E-03    3.54       3.1  T
   4    -21.2492641 -0.714396E-06  0.289E-03    3.54       9.6  T
   5    -21.2492641 -0.592830E-08  0.118E-03    3.54      23.5  T
   6    -21.2492641 -0.129076E-08  0.285E-04    3.54      97.2  T
   7    -21.2492641 -0.218396E-09  0.125E-04    3.54     221.1  T
     SCC iter.                  ...        0 min,  0.791 sec
     gradient                   ...        0 min,  0.263 sec
 * total energy  :   -21.0410094 Eh     change       -0.2197743E-04 Eh
   gradient norm :     0.0050807 Eh/α   predicted    -0.1683968E-04 ( -23.38%)
   displ. norm   :     0.1399278 α      lambda       -0.4029319E-04
   maximum displ.:     0.0892215 α      in ANC's #1, #4, #5, ...

........................................................................
.............................. CYCLE   26 ..............................
........................................................................
   1    -21.2490106 -0.212490E+02  0.824E-02    3.54       0.0  T
   2    -21.2490113 -0.639377E-06  0.486E-02    3.54       1.0  T
   3    -21.2490114 -0.129456E-06  0.454E-03    3.54       6.1  T
   4    -21.2490115 -0.119888E-06  0.224E-03    3.54      12.4  T
   5    -21.2490115 -0.394410E-08  0.741E-04    3.54      37.4  T
   6    -21.2490115 -0.101907E-08  0.238E-04    3.54     116.3  T
     SCC iter.                  ...        0 min,  0.668 sec
     gradient                   ...        0 min,  0.322 sec
 * total energy  :   -21.0410415 Eh     change       -0.3217178E-04 Eh
   gradient norm :     0.0058953 Eh/α   predicted    -0.2054250E-04 ( -36.15%)
   displ. norm   :     0.2201281 α      lambda       -0.1259473E-03
   maximum displ.:     0.1377165 α      in ANC's #4, #1, #5, ...

........................................................................
.............................. CYCLE   27 ..............................
........................................................................
   1    -21.2499052 -0.212499E+02  0.130E-01    3.56       0.0  T
   2    -21.2499073 -0.205446E-05  0.761E-02    3.55       1.0  T
   3    -21.2499073 -0.826269E-07  0.945E-03    3.55       2.9  T
   4    -21.2499080 -0.622929E-06  0.362E-03    3.55       7.7  T
   5    -21.2499080 -0.104647E-07  0.131E-03    3.55      21.2  T
   6    -21.2499080 -0.157209E-08  0.401E-04    3.55      69.2  T
   7    -21.2499080 -0.460016E-09  0.166E-04    3.55     167.3  T
     SCC iter.                  ...        0 min,  0.818 sec
     gradient                   ...        0 min,  0.425 sec
 * total energy  :   -21.0411198 Eh     change       -0.7827405E-04 Eh
   gradient norm :     0.0070723 Eh/α   predicted    -0.6602542E-04 ( -15.65%)
   displ. norm   :     0.1091317 α      lambda       -0.8108728E-04
   maximum displ.:     0.0683968 α      in ANC's #4, #1, #6, ...

........................................................................
.............................. CYCLE   28 ..............................
........................................................................
   1    -21.2507993 -0.212508E+02  0.796E-02    3.55       0.0  T
   2    -21.2508003 -0.961107E-06  0.464E-02    3.55       1.0  T
   3    -21.2508004 -0.146510E-06  0.460E-03    3.55       6.0  T
   4    -21.2508005 -0.818517E-07  0.218E-03    3.54      12.7  T
   5    -21.2508005 -0.956007E-08  0.109E-03    3.55      25.4  T
   6    -21.2508005 -0.116840E-08  0.214E-04    3.55     129.4  T
   7    -21.2508005 -0.609077E-10  0.823E-05    3.55     337.2  T
     SCC iter.                  ...        0 min,  0.654 sec
     gradient                   ...        0 min,  0.254 sec
 * total energy  :   -21.0411841 Eh     change       -0.6431457E-04 Eh
   gradient norm :     0.0051186 Eh/α   predicted    -0.4102760E-04 ( -36.21%)
   displ. norm   :     0.5888331 α      lambda       -0.2344971E-03
   maximum displ.:     0.3715094 α      in ANC's #4, #1, #6, ...

........................................................................
.............................. CYCLE   29 ..............................
........................................................................
   1    -21.2402801 -0.212403E+02  0.406E-01    3.36       0.0  T
   2    -21.2403170 -0.369461E-04  0.241E-01    3.40       1.0  T
   3    -21.2403056  0.114076E-04  0.495E-02    3.38       1.0  T
   4    -21.2403275 -0.218720E-04  0.118E-02    3.40       2.4  T
   5    -21.2403276 -0.804587E-07  0.599E-03    3.40       4.6  T
   6    -21.2403276 -0.257341E-07  0.121E-03    3.40      22.9  T
   7    -21.2403276 -0.147617E-08  0.449E-04    3.40      61.8  T
   8    -21.2403276 -0.197865E-09  0.121E-04    3.40     228.5  T
     SCC iter.                  ...        0 min,  0.473 sec
     gradient                   ...        0 min,  0.178 sec
 * total energy  :   -21.0406873 Eh     change        0.4968496E-03 Eh
   gradient norm :     0.0351705 Eh/α   predicted    -0.1579004E-03 (-131.78%)
   displ. norm   :     0.2908708 α      lambda       -0.1804402E-02
   maximum displ.:     0.1862058 α      in ANC's #4, #1, #7, ...

........................................................................
.............................. CYCLE   30 ..............................
........................................................................
   1    -21.2522431 -0.212522E+02  0.222E-01    3.58       0.0  T
   2    -21.2522726 -0.295556E-04  0.131E-01    3.54       1.0  T
   3    -21.2522678  0.478645E-05  0.394E-02    3.54       1.0  T
   4    -21.2522775 -0.968172E-05  0.682E-03    3.53       4.1  T
   5    -21.2522776 -0.489934E-07  0.387E-03    3.54       7.2  T
   6    -21.2522776 -0.902312E-08  0.102E-03    3.54      27.1  T
   7    -21.2522776 -0.100124E-08  0.300E-04    3.53      92.4  T
   8    -21.2522776 -0.130150E-09  0.126E-04    3.53     220.5  T
     SCC iter.                  ...        0 min,  0.555 sec
     gradient                   ...        0 min,  0.163 sec
 * total energy  :   -21.0413439 Eh     change       -0.6565906E-03 Eh
   gradient norm :     0.0059556 Eh/α   predicted    -0.9785308E-03 (  49.03%)
   displ. norm   :     0.0911791 α      lambda       -0.1111292E-03
   maximum displ.:     0.0568664 α      in ANC's #4, #5, #1, ...

........................................................................
.............................. CYCLE   31 ..............................
........................................................................
   1    -21.2516931 -0.212517E+02  0.562E-02    3.54       0.0  T
   2    -21.2516936 -0.440426E-06  0.330E-02    3.54       1.0  T
   3    -21.2516937 -0.108544E-06  0.265E-03    3.54      10.5  T
   4    -21.2516937 -0.539517E-08  0.124E-03    3.54      22.4  T
   5    -21.2516937 -0.685024E-09  0.456E-04    3.54      60.9  T
   6    -21.2516937 -0.547431E-09  0.147E-04    3.54     188.1  T
     SCC iter.                  ...        0 min,  0.460 sec
     gradient                   ...        0 min,  0.159 sec
 * total energy  :   -21.0414404 Eh     change       -0.9655197E-04 Eh
   gradient norm :     0.0051047 Eh/α   predicted    -0.5602455E-04 ( -41.97%)
   displ. norm   :     0.5571728 α      lambda       -0.5116656E-03
   maximum displ.:     0.3430668 α      in ANC's #4, #5, #1, ...

........................................................................
.............................. CYCLE   32 ..............................
........................................................................
   1    -21.2411093 -0.212411E+02  0.375E-01    3.41       0.0  T
   2    -21.2411473 -0.379355E-04  0.220E-01    3.46       1.0  T
   3    -21.2411416  0.569234E-05  0.427E-02    3.45       1.0  T
   4    -21.2411556 -0.139806E-04  0.115E-02    3.46       2.4  T
   5    -21.2411557 -0.171389E-06  0.575E-03    3.46       4.8  T
   6    -21.2411558 -0.191568E-07  0.133E-03    3.46      20.8  T
   7    -21.2411558 -0.174229E-08  0.511E-04    3.46      54.3  T
   8    -21.2411558 -0.273722E-09  0.152E-04    3.46     182.0  T
     SCC iter.                  ...        0 min,  0.491 sec
     gradient                   ...        0 min,  0.117 sec
 * total energy  :   -21.0409236 Eh     change        0.5167994E-03 Eh
   gradient norm :     0.0372709 Eh/α   predicted    -0.3352549E-03 (-164.87%)
   displ. norm   :     0.3448072 α      lambda       -0.2023581E-02
   maximum displ.:     0.2178368 α      in ANC's #4, #5, #1, ...

........................................................................
.............................. CYCLE   33 ..............................
........................................................................
   1    -21.2509315 -0.212509E+02  0.240E-01    3.57       0.0  T
   2    -21.2509516 -0.201492E-04  0.140E-01    3.52       1.0  T
   3    -21.2509491  0.246635E-05  0.298E-02    3.53       1.0  T
   4    -21.2509552 -0.609589E-05  0.756E-03    3.52       3.7  T
   5    -21.2509553 -0.876965E-07  0.378E-03    3.52       7.3  T
   6    -21.2509553 -0.742906E-08  0.956E-04    3.52      29.0  T
   7    -21.2509553 -0.897572E-09  0.324E-04    3.52      85.6  T
     SCC iter.                  ...        0 min,  0.534 sec
     gradient                   ...        0 min,  0.139 sec
 * total energy  :   -21.0416590 Eh     change       -0.7353454E-03 Eh
   gradient norm :     0.0062283 Eh/α   predicted    -0.1132083E-02 (  53.95%)
   displ. norm   :     0.0719310 α      lambda       -0.1027596E-03
   maximum displ.:     0.0413823 α      in ANC's #5, #4, #3, ...

........................................................................
.............................. CYCLE   34 ..............................
........................................................................
   1    -21.2511856 -0.212512E+02  0.396E-02    3.55       0.0  T
   2    -21.2511868 -0.120097E-05  0.233E-02    3.55       1.2  T
   3    -21.2511868 -0.322335E-07  0.521E-03    3.55       5.3  T
   4    -21.2511869 -0.475845E-07  0.118E-03    3.55      23.4  T
   5    -21.2511869 -0.444854E-08  0.598E-04    3.55      46.4  T
   6    -21.2511869 -0.272589E-09  0.162E-04    3.55     171.0  T
     SCC iter.                  ...        0 min,  0.445 sec
     gradient                   ...        0 min,  0.126 sec
 * total energy  :   -21.0417480 Eh     change       -0.8906116E-04 Eh
   gradient norm :     0.0064098 Eh/α   predicted    -0.5164494E-04 ( -42.01%)
   displ. norm   :     0.5177004 α      lambda       -0.6275239E-03
   maximum displ.:     0.2820815 α      in ANC's #4, #5, #3, ...

........................................................................
.............................. CYCLE   35 ..............................
........................................................................
   1    -21.2442119 -0.212442E+02  0.321E-01    3.53       0.0  T
   2    -21.2442382 -0.263397E-04  0.188E-01    3.56       1.0  T
   3    -21.2442350  0.321199E-05  0.352E-02    3.55       1.0  T
   4    -21.2442442 -0.918984E-05  0.988E-03    3.56       2.8  T
   5    -21.2442444 -0.140911E-06  0.463E-03    3.56       6.0  T
   6    -21.2442444 -0.126340E-07  0.118E-03    3.56      23.5  T
   7    -21.2442444 -0.320521E-08  0.482E-04    3.56      57.6  T
   8    -21.2442444 -0.387431E-09  0.132E-04    3.56     210.8  T
     SCC iter.                  ...        0 min,  0.566 sec
     gradient                   ...        0 min,  0.120 sec
 * total energy  :   -21.0418535 Eh     change       -0.1055234E-03 Eh
   gradient norm :     0.0255299 Eh/α   predicted    -0.3978347E-03 ( 277.01%)
   displ. norm   :     0.1994950 α      lambda       -0.7905600E-03
   maximum displ.:     0.1168609 α      in ANC's #4, #5, #1, ...

........................................................................
.............................. CYCLE   36 ..............................
........................................................................
   1    -21.2506539 -0.212507E+02  0.138E-01    3.58       0.0  T
   2    -21.2506608 -0.686145E-05  0.800E-02    3.56       1.0  T
   3    -21.2506600  0.825272E-06  0.180E-02    3.57       1.5  T
   4    -21.2506621 -0.208176E-05  0.444E-03    3.56       6.2  T
   5    -21.2506621 -0.352993E-07  0.198E-03    3.56      14.0  T
   6    -21.2506621 -0.181173E-08  0.494E-04    3.56      56.1  T
   7    -21.2506621 -0.513268E-09  0.192E-04    3.56     144.4  T
     SCC iter.                  ...        0 min,  0.099 sec
     gradient                   ...        0 min,  0.006 sec
 * total energy  :   -21.0421539 Eh     change       -0.3003188E-03 Eh
   gradient norm :     0.0064801 Eh/α   predicted    -0.4110122E-03 (  36.86%)
   displ. norm   :     0.1397144 α      lambda       -0.1837625E-03
   maximum displ.:     0.0715935 α      in ANC's #3, #4, #5, ...

........................................................................
.............................. CYCLE   37 ..............................
........................................................................
   1    -21.2506963 -0.212507E+02  0.814E-02    3.57       0.0  T
   2    -21.2506971 -0.746999E-06  0.479E-02    3.57       1.0  T
   3    -21.2506972 -0.177334E-06  0.449E-03    3.57       6.2  T
   4    -21.2506973 -0.839346E-07  0.225E-03    3.57      12.3  T
   5    -21.2506973 -0.696232E-08  0.894E-04    3.57      31.0  T
   6    -21.2506973 -0.848374E-09  0.247E-04    3.57     112.4  T
     SCC iter.                  ...        0 min,  0.200 sec
     gradient                   ...        0 min,  0.074 sec
 * total energy  :   -21.0423265 Eh     change       -0.1726564E-03 Eh
   gradient norm :     0.0064499 Eh/α   predicted    -0.9367662E-04 ( -45.74%)
   displ. norm   :     0.6545190 α      lambda       -0.8364203E-03
   maximum displ.:     0.3238412 α      in ANC's #4, #3, #5, ...

........................................................................
.............................. CYCLE   38 ..............................
........................................................................
   1    -21.2407316 -0.212407E+02  0.394E-01    3.51       0.0  T
   2    -21.2407685 -0.368407E-04  0.230E-01    3.56       1.0  T
   3    -21.2407682  0.258063E-06  0.354E-02    3.55       1.0  T
   4    -21.2407760 -0.780618E-05  0.121E-02    3.56       2.3  T
   5    -21.2407763 -0.307695E-06  0.584E-03    3.56       4.7  T
   6    -21.2407764 -0.224204E-07  0.142E-03    3.56      19.5  T
   7    -21.2407764 -0.194727E-08  0.548E-04    3.56      50.6  T
   8    -21.2407764 -0.284885E-09  0.142E-04    3.56     195.5  T
     SCC iter.                  ...        0 min,  0.199 sec
     gradient                   ...        0 min,  0.026 sec
 * total energy  :   -21.0421163 Eh     change        0.2102649E-03 Eh
   gradient norm :     0.0335275 Eh/α   predicted    -0.5973616E-03 (-384.10%)
   displ. norm   :     0.2959918 α      lambda       -0.1955414E-02
   maximum displ.:     0.1583071 α      in ANC's #4, #5, #3, ...

........................................................................
.............................. CYCLE   39 ..............................
........................................................................
   1    -21.2526962 -0.212527E+02  0.213E-01    3.66       0.0  T
   2    -21.2527174 -0.211404E-04  0.123E-01    3.62       1.0  T
   3    -21.2527155  0.187280E-05  0.290E-02    3.62       1.0  T
   4    -21.2527204 -0.492769E-05  0.704E-03    3.61       3.9  T
   5    -21.2527205 -0.104707E-06  0.340E-03    3.61       8.2  T
   6    -21.2527205 -0.653957E-08  0.106E-03    3.61      26.1  T
   7    -21.2527205 -0.781018E-09  0.278E-04    3.61      99.6  T
   8    -21.2527205 -0.722302E-10  0.105E-04    3.61     263.7  T
     SCC iter.                  ...        0 min,  0.225 sec
     gradient                   ...        0 min,  0.008 sec
 * total energy  :   -21.0428054 Eh     change       -0.6891844E-03 Eh
   gradient norm :     0.0054589 Eh/α   predicted    -0.1063362E-02 (  54.29%)
   displ. norm   :     0.1178968 α      lambda       -0.1838020E-03
   maximum displ.:     0.0484424 α      in ANC's #4, #5, #6, ...

........................................................................
.............................. CYCLE   40 ..............................
........................................................................
   1    -21.2523709 -0.212524E+02  0.692E-02    3.61       0.0  T
   2    -21.2523717 -0.777499E-06  0.407E-02    3.61       1.0  T
   3    -21.2523718 -0.131583E-06  0.424E-03    3.62       6.5  T
   4    -21.2523719 -0.698625E-07  0.201E-03    3.62      13.8  T
   5    -21.2523719 -0.824760E-08  0.922E-04    3.62      30.1  T
   6    -21.2523719 -0.753118E-09  0.225E-04    3.62     123.4  T
     SCC iter.                  ...        0 min,  0.244 sec
     gradient                   ...        0 min,  0.102 sec
 * total energy  :   -21.0429765 Eh     change       -0.1711044E-03 Eh
   gradient norm :     0.0045374 Eh/α   predicted    -0.9317901E-04 ( -45.54%)
   displ. norm   :     0.7395193 α      lambda       -0.1062427E-02
   maximum displ.:     0.3317522 α      in ANC's #4, #5, #1, ...

........................................................................
.............................. CYCLE   41 ..............................
........................................................................
   1    -21.2377332 -0.212377E+02  0.448E-01    3.52       0.0  T
   2    -21.2378118 -0.785345E-04  0.257E-01    3.61       1.0  T
   3    -21.2378084  0.334684E-05  0.542E-02    3.60       1.0  T
   4    -21.2378238 -0.154142E-04  0.158E-02    3.61       1.8  T
   5    -21.2378245 -0.698560E-06  0.695E-03    3.60       4.0  T
   6    -21.2378246 -0.279381E-07  0.141E-03    3.60      19.7  T
   7    -21.2378246 -0.193374E-08  0.641E-04    3.60      43.3  T
   8    -21.2378246 -0.474135E-09  0.153E-04    3.60     181.5  T
     SCC iter.                  ...        0 min,  0.273 sec
     gradient                   ...        0 min,  0.107 sec
 * total energy  :   -21.0415621 Eh     change        0.1414492E-02 Eh
   gradient norm :     0.0486447 Eh/α   predicted    -0.8217227E-03 (-158.09%)
   displ. norm   :     0.3976275 α      lambda       -0.4843774E-02
   maximum displ.:     0.2045622 α      in ANC's #4, #5, #19, ...

........................................................................
.............................. CYCLE   42 ..............................
........................................................................
   1    -21.2521924 -0.212522E+02  0.281E-01    3.68       0.0  T
   2    -21.2522291 -0.367027E-04  0.159E-01    3.62       1.0  T
   3    -21.2522282  0.955159E-06  0.355E-02    3.62       1.0  T
   4    -21.2522338 -0.560903E-05  0.103E-02    3.61       2.7  T
   5    -21.2522341 -0.337465E-06  0.398E-03    3.62       7.0  T
   6    -21.2522341 -0.777293E-08  0.901E-04    3.62      30.8  T
   7    -21.2522341 -0.654467E-09  0.347E-04    3.62      79.8  T
     SCC iter.                  ...        0 min,  0.330 sec
     gradient                   ...        0 min,  0.053 sec
 * total energy  :   -21.0434361 Eh     change       -0.1874043E-02 Eh
   gradient norm :     0.0072367 Eh/α   predicted    -0.2804812E-02 (  49.67%)
   displ. norm   :     0.0668322 α      lambda       -0.1958348E-03
   maximum displ.:     0.0312646 α      in ANC's #3, #5, #19, ...
 * RMSD in coord.:     0.7319428 α      energy gain  -0.2502038E-02 Eh

generating ANC from model Hessian ...
Using Lindh-Hessian (1995)
 Shifting diagonal of input Hessian by    4.0039265125272738E-003
 Lowest  eigenvalues of input Hessian
    0.000000    0.000000    0.000000    0.000000    0.000000    0.000000
    0.010000    0.013712    0.016992    0.019642    0.020955    0.024775
    0.051812    0.058385    0.063394    0.068459    0.077903    0.080645
 Highest eigenvalues
    1.169852    1.209467    1.345340    1.459413    1.786962    2.370331


........................................................................
.............................. CYCLE   43 ..............................
........................................................................
   1    -21.2536814 -0.212537E+02  0.479E-02    3.69       0.0  T
   2    -21.2536850 -0.353767E-05  0.289E-02    3.68       1.0  T
   3    -21.2536852 -0.236534E-06  0.139E-02    3.68       2.0  T
   4    -21.2536857 -0.472408E-06  0.167E-03    3.68      16.6  T
   5    -21.2536857 -0.236329E-08  0.861E-04    3.68      32.2  T
   6    -21.2536857 -0.860872E-09  0.325E-04    3.68      85.4  T
     SCC iter.                  ...        0 min,  0.072 sec
     gradient                   ...        0 min,  0.001 sec
 * total energy  :   -21.0435483 Eh     change       -0.1121818E-03 Eh
   gradient norm :     0.0086709 Eh/α   predicted     0.0000000E+00 (-100.00%)
   displ. norm   :     0.1190149 α      lambda       -0.3395235E-03
   maximum displ.:     0.0597159 α      in ANC's #4, #1, #3, ...

........................................................................
.............................. CYCLE   44 ..............................
........................................................................
   1    -21.2531564 -0.212532E+02  0.683E-02    3.65       0.0  T
   2    -21.2531581 -0.169535E-05  0.408E-02    3.66       1.0  T
   3    -21.2531576  0.548999E-06  0.116E-02    3.66       2.4  T
   4    -21.2531585 -0.932379E-06  0.179E-03    3.66      15.5  T
   5    -21.2531585 -0.147607E-08  0.835E-04    3.66      33.2  T
   6    -21.2531585 -0.442192E-09  0.221E-04    3.66     125.3  T
     SCC iter.                  ...        0 min,  0.146 sec
     gradient                   ...        0 min,  0.001 sec
 * total energy  :   -21.0438159 Eh     change       -0.2676008E-03 Eh
   gradient norm :     0.0041121 Eh/α   predicted    -0.1721669E-03 ( -35.66%)
   displ. norm   :     0.3281803 α      lambda       -0.6525518E-03
   maximum displ.:     0.1751292 α      in ANC's #4, #3, #5, ...

........................................................................
.............................. CYCLE   45 ..............................
........................................................................
   1    -21.2497423 -0.212497E+02  0.174E-01    3.60       0.0  T
   2    -21.2497533 -0.110285E-04  0.102E-01    3.63       1.0  T
   3    -21.2497498  0.351742E-05  0.300E-02    3.62       1.0  T
   4    -21.2497559 -0.609779E-05  0.461E-03    3.63       6.0  T
   5    -21.2497559 -0.159753E-07  0.201E-03    3.63      13.8  T
   6    -21.2497559 -0.176372E-08  0.481E-04    3.63      57.6  T
   7    -21.2497559 -0.534246E-09  0.208E-04    3.63     133.4  T
     SCC iter.                  ...        0 min,  0.128 sec
     gradient                   ...        0 min,  0.044 sec
 * total energy  :   -21.0442396 Eh     change       -0.4237081E-03 Eh
   gradient norm :     0.0126667 Eh/α   predicted    -0.3614177E-03 ( -14.70%)
   displ. norm   :     0.1621657 α      lambda       -0.2658025E-03
   maximum displ.:     0.0868262 α      in ANC's #4, #3, #5, ...

........................................................................
.............................. CYCLE   46 ..............................
........................................................................
   1    -21.2502309 -0.212502E+02  0.754E-02    3.65       0.0  T
   2    -21.2502324 -0.153570E-05  0.444E-02    3.65       1.0  T
   3    -21.2502323  0.478842E-07  0.708E-03    3.65       3.9  T
   4    -21.2502326 -0.257434E-06  0.215E-03    3.65      12.9  T
   5    -21.2502326 -0.157384E-07  0.903E-04    3.65      30.7  T
   6    -21.2502326 -0.582371E-09  0.264E-04    3.65     105.2  T
     SCC iter.                  ...        0 min,  0.162 sec
     gradient                   ...        0 min,  0.029 sec
 * total energy  :   -21.0444386 Eh     change       -0.1990527E-03 Eh
   gradient norm :     0.0115566 Eh/α   predicted    -0.1363954E-03 ( -31.48%)
   displ. norm   :     0.1574210 α      lambda       -0.4454393E-03
   maximum displ.:     0.0738834 α      in ANC's #2, #3, #4, ...

........................................................................
.............................. CYCLE   47 ..............................
........................................................................
   1    -21.2554721 -0.212555E+02  0.806E-02    3.72       0.0  T
   2    -21.2554757 -0.361997E-05  0.476E-02    3.71       1.0  T
   3    -21.2554756  0.944248E-07  0.102E-02    3.71       2.7  T
   4    -21.2554760 -0.385507E-06  0.236E-03    3.71      11.8  T
   5    -21.2554761 -0.245331E-07  0.124E-03    3.71      22.3  T
   6    -21.2554761 -0.136323E-08  0.314E-04    3.71      88.4  T
   7    -21.2554761 -0.170754E-09  0.128E-04    3.71     216.0  T
     SCC iter.                  ...        0 min,  0.067 sec
     gradient                   ...        0 min,  0.001 sec
 * total energy  :   -21.0446527 Eh     change       -0.2140184E-03 Eh
   gradient norm :     0.0076364 Eh/α   predicted    -0.2282390E-03 (   6.64%)
   displ. norm   :     0.2135802 α      lambda       -0.2024402E-03
   maximum displ.:     0.1165892 α      in ANC's #4, #3, #5, ...

........................................................................
.............................. CYCLE   48 ..............................
........................................................................
   1    -21.2527728 -0.212528E+02  0.109E-01    3.69       0.0  T
   2    -21.2527747 -0.197237E-05  0.642E-02    3.71       1.0  T
   3    -21.2527750 -0.269872E-06  0.591E-03    3.71       4.7  T
   4    -21.2527751 -0.851013E-07  0.246E-03    3.71      11.3  T
   5    -21.2527751 -0.144541E-07  0.114E-03    3.71      24.2  T
   6    -21.2527751 -0.847713E-09  0.274E-04    3.71     101.3  T
   7    -21.2527751 -0.206278E-09  0.122E-04    3.71     227.8  T
     SCC iter.                  ...        0 min,  0.170 sec
     gradient                   ...        0 min,  0.085 sec
 * total energy  :   -21.0447034 Eh     change       -0.5078293E-04 Eh
   gradient norm :     0.0118857 Eh/α   predicted    -0.1058362E-03 ( 108.41%)
   displ. norm   :     0.0552536 α      lambda       -0.1476135E-03
   maximum displ.:     0.0320029 α      in ANC's #4, #5, #2, ...

........................................................................
.............................. CYCLE   49 ..............................
........................................................................
   1    -21.2541684 -0.212542E+02  0.364E-02    3.69       0.0  T
   2    -21.2541693 -0.913920E-06  0.204E-02    3.69       1.4  T
   3    -21.2541694 -0.312941E-07  0.487E-03    3.69       5.7  T
   4    -21.2541694 -0.282903E-07  0.109E-03    3.69      25.4  T
   5    -21.2541694 -0.485481E-08  0.414E-04    3.69      67.0  T
   6    -21.2541694 -0.171504E-09  0.145E-04    3.69     190.8  T
     SCC iter.                  ...        0 min,  0.168 sec
     gradient                   ...        0 min,  0.049 sec
 * total energy  :   -21.0447818 Eh     change       -0.7839611E-04 Eh
   gradient norm :     0.0029064 Eh/α   predicted    -0.7403280E-04 (  -5.57%)
   displ. norm   :     0.0698498 α      lambda       -0.4303584E-04
   maximum displ.:     0.0383512 α      in ANC's #3, #4, #5, ...

........................................................................
.............................. CYCLE   50 ..............................
........................................................................
   1    -21.2541340 -0.212541E+02  0.386E-02    3.68       0.0  T
   2    -21.2541342 -0.214715E-06  0.228E-02    3.69       1.2  T
   3    -21.2541343 -0.266096E-07  0.233E-03    3.69      11.9  T
   4    -21.2541343 -0.270783E-07  0.100E-03    3.69      27.7  T
   5    -21.2541343 -0.169771E-08  0.478E-04    3.69      58.0  T
   6    -21.2541343 -0.178460E-09  0.123E-04    3.69     225.9  T
     SCC iter.                  ...        0 min,  0.012 sec
     gradient                   ...        0 min,  0.005 sec
 * total energy  :   -21.0448156 Eh     change       -0.3371720E-04 Eh
   gradient norm :     0.0020851 Eh/α   predicted    -0.2162455E-04 ( -35.86%)
   displ. norm   :     0.1321209 α      lambda       -0.5375355E-04
   maximum displ.:     0.0804566 α      in ANC's #4, #3, #5, ...

........................................................................
.............................. CYCLE   51 ..............................
........................................................................
   1    -21.2539257 -0.212539E+02  0.680E-02    3.68       0.0  T
   2    -21.2539261 -0.389570E-06  0.402E-02    3.69       1.0  T
   3    -21.2539262 -0.125256E-06  0.317E-03    3.69       8.7  T
   4    -21.2539262 -0.304149E-07  0.170E-03    3.69      16.3  T
   5    -21.2539262 -0.405254E-08  0.513E-04    3.69      54.1  T
   6    -21.2539262 -0.286750E-09  0.180E-04    3.69     154.5  T
     SCC iter.                  ...        0 min,  0.016 sec
     gradient                   ...        0 min,  0.001 sec
 * total energy  :   -21.0448482 Eh     change       -0.3268018E-04 Eh
   gradient norm :     0.0031035 Eh/α   predicted    -0.2734597E-04 ( -16.32%)
   displ. norm   :     0.0467791 α      lambda       -0.1809277E-04
   maximum displ.:     0.0303262 α      in ANC's #4, #3, #5, ...

........................................................................
.............................. CYCLE   52 ..............................
........................................................................
   1    -21.2544577 -0.212545E+02  0.251E-02    3.69       0.0  T
   2    -21.2544578 -0.114856E-06  0.148E-02    3.69       1.9  T
   3    -21.2544578 -0.201701E-07  0.127E-03    3.69      21.9  T
   4    -21.2544578 -0.207803E-08  0.611E-04    3.69      45.4  T
   5    -21.2544578 -0.235698E-09  0.265E-04    3.69     104.5  T
     SCC iter.                  ...        0 min,  0.016 sec
     gradient                   ...        0 min,  0.001 sec
 * total energy  :   -21.0448614 Eh     change       -0.1318915E-04 Eh
   gradient norm :     0.0014561 Eh/α   predicted    -0.9067108E-05 ( -31.25%)
   displ. norm   :     0.0989898 α      lambda       -0.1470948E-04
   maximum displ.:     0.0671260 α      in ANC's #4, #3, #6, ...

........................................................................
.............................. CYCLE   53 ..............................
........................................................................
   1    -21.2546210 -0.212546E+02  0.550E-02    3.69       0.0  T
   2    -21.2546214 -0.346474E-06  0.324E-02    3.69       1.0  T
   3    -21.2546214 -0.266630E-07  0.366E-03    3.69       7.6  T
   4    -21.2546215 -0.877046E-07  0.148E-03    3.69      18.7  T
   5    -21.2546215 -0.248112E-08  0.606E-04    3.69      45.8  T
   6    -21.2546215 -0.359247E-09  0.149E-04    3.69     186.7  T
     SCC iter.                  ...        0 min,  0.022 sec
     gradient                   ...        0 min,  0.001 sec
 * total energy  :   -21.0448734 Eh     change       -0.1199175E-04 Eh
   gradient norm :     0.0010643 Eh/α   predicted    -0.7387738E-05 ( -38.39%)
   displ. norm   :     0.0358408 α      lambda       -0.5926244E-05
   maximum displ.:     0.0327097 α      in ANC's #2, #4, #1, ...

........................................................................
.............................. CYCLE   54 ..............................
........................................................................
   1    -21.2550392 -0.212550E+02  0.131E-02    3.69       0.0  T
   2    -21.2550392 -0.409918E-07  0.776E-03    3.69       3.6  T
   3    -21.2550392  0.806843E-09  0.112E-03    3.69      24.7  T
   4    -21.2550392 -0.725921E-08  0.334E-04    3.69      83.0  T
   5    -21.2550392 -0.252939E-09  0.168E-04    3.69     165.5  T
     SCC iter.                  ...        0 min,  0.009 sec
     gradient                   ...        0 min,  0.001 sec
 * total energy  :   -21.0448768 Eh     change       -0.3401945E-05 Eh
   gradient norm :     0.0020086 Eh/α   predicted    -0.2965533E-05 ( -12.83%)
   displ. norm   :     0.0226101 α      lambda       -0.4356738E-05
   maximum displ.:     0.0144813 α      in ANC's #4, #2, #3, ...

........................................................................
.............................. CYCLE   55 ..............................
........................................................................
   1    -21.2547483 -0.212547E+02  0.116E-02    3.69       0.0  T
   2    -21.2547483 -0.166183E-07  0.681E-03    3.69       4.1  T
   3    -21.2547483 -0.281394E-08  0.561E-04    3.69      49.4  T
   4    -21.2547483 -0.128657E-08  0.268E-04    3.69     103.5  T
     SCC iter.                  ...        0 min,  0.004 sec
     gradient                   ...        0 min,  0.001 sec
 * total energy  :   -21.0448799 Eh     change       -0.3076481E-05 Eh
   gradient norm :     0.0010716 Eh/α   predicted    -0.2179512E-05 ( -29.16%)
   displ. norm   :     0.0430559 α      lambda       -0.4326354E-05
   maximum displ.:     0.0372058 α      in ANC's #2, #1, #4, ...

........................................................................
.............................. CYCLE   56 ..............................
........................................................................
   1    -21.2544948 -0.212545E+02  0.151E-02    3.69       0.0  T
   2    -21.2544949 -0.893680E-07  0.902E-03    3.69       3.1  T
   3    -21.2544949  0.329523E-08  0.162E-03    3.69      17.2  T
   4    -21.2544949 -0.126799E-07  0.357E-04    3.69      77.8  T
   5    -21.2544949 -0.258364E-09  0.181E-04    3.69     153.3  T
     SCC iter.                  ...        0 min,  0.011 sec
     gradient                   ...        0 min,  0.001 sec
 * total energy  :   -21.0448815 Eh     change       -0.1615261E-05 Eh
   gradient norm :     0.0012885 Eh/α   predicted    -0.2166364E-05 (  34.12%)
   displ. norm   :     0.0122585 α      lambda       -0.2229159E-05
   maximum displ.:     0.0090839 α      in ANC's #4, #2, #3, ...

........................................................................
.............................. CYCLE   57 ..............................
........................................................................
   1    -21.2544537 -0.212545E+02  0.732E-03    3.69       0.0  T
   2    -21.2544537 -0.156736E-07  0.422E-03    3.69       6.6  T
   3    -21.2544537 -0.766960E-09  0.630E-04    3.69      44.1  T
   4    -21.2544537 -0.124348E-08  0.193E-04    3.69     143.6  T
     SCC iter.                  ...        0 min,  0.009 sec
     gradient                   ...        0 min,  0.001 sec
 * total energy  :   -21.0448831 Eh     change       -0.1578041E-05 Eh
   gradient norm :     0.0006686 Eh/α   predicted    -0.1115630E-05 ( -29.30%)
   displ. norm   :     0.0127694 α      lambda       -0.6180917E-06
   maximum displ.:     0.0078372 α      in ANC's #4, #3, #6, ...

   *** GEOMETRY OPTIMIZATION CONVERGED AFTER 57 ITERATIONS ***

------------------------------------------------------------------------
 total energy gain   :        -0.0093647 Eh       -5.8764 kcal/mol
 total RMSD          :         1.1347732 a0        0.6005 Å
 total power (kW/mol):        -0.4313498 (step)   -0.3447 (real)
------------------------------------------------------------------------

 ANCopt (total)                0 d,  0 h,  1 min, 11.336 sec
 optimizer setup                ...        0 min,  0.000 sec (  0.001%)
 model hessian                  ...        0 min,  0.102 sec (  0.143%)
 ANC generation                 ...        0 min,  0.033 sec (  0.046%)
 coordinate transformation      ...        0 min,  0.000 sec (  0.000%)
 single point calculation       ...        1 min,  9.533 sec ( 97.472%)
 optimization log               ...        0 min,  0.004 sec (  0.006%)
 hessian update                 ...        0 min,  1.647 sec (  2.308%)
 rational function              ...        0 min,  0.012 sec (  0.017%)

================
 final structure:
================
13
 xtb: 6.5.1 (b24c23e)
O            1.38006468968009       -1.08501508502387        0.03690924720816
O            1.04158284793365        1.07018411297428       -0.43578322052120
N           -1.69459060608722        0.86637859580784        0.12041890358216
C           -0.79842485700707       -0.21767384019493        0.46487226711358
C           -0.76351900707834       -0.40119565605425        1.98501701559212
C            0.62540587524836        0.01693565276276       -0.02990123996206
H           -1.16969864548161       -1.13803416683405       -0.00004302266263
H           -1.77737160807378       -0.54428777377120        2.34634136210251
H           -0.15929839018120       -1.26485394223921        2.24689723367014
H           -0.34635393312183        0.48448040057972        2.45939099424297
H           -1.73212314016128        0.98884981116584       -0.88643809756813
H           -1.34156981576793        1.73498429852980        0.51140592961233
H            2.28281576009816       -0.89837280770284       -0.26782493240999

 Bond Distances (Angstroems)
 ---------------------------
O1-C6=1.3373         O1-H13=0.9709        O2-C6=1.2030         N3-C4=1.4481         N3-H11=1.0150        N3-H12=1.0159        
C4-N3=1.4481         C4-C5=1.5316         C4-C6=1.5255         C4-H7=1.0959         C5-C4=1.5316         C5-H8=1.0858         
C5-H9=1.0861         C5-H10=1.0879        C6-O1=1.3373         C6-O2=1.2030         C6-C4=1.5255         H7-C4=1.0959         
H8-C5=1.0858         H9-C5=1.0861         H10-C5=1.0879        H11-N3=1.0150        H12-N3=1.0159        H13-O1=0.9709        
 C  H  Rav=1.0889 sigma=0.0041  Rmin=1.0858  Rmax=1.0959     4
 C  C  Rav=1.5285 sigma=0.0030  Rmin=1.5255  Rmax=1.5316     2
 N  H  Rav=1.0154 sigma=0.0004  Rmin=1.0150  Rmax=1.0159     2
 N  C  Rav=1.4481 sigma=0.0000  Rmin=1.4481  Rmax=1.4481     1
 O  H  Rav=0.9709 sigma=0.0000  Rmin=0.9709  Rmax=0.9709     1
 O  C  Rav=1.2701 sigma=0.0671  Rmin=1.2030  Rmax=1.3373     2

 selected bond angles (degree)
 --------------------
H13-O1-C6=110.53               H11-N3-C4=110.44               H12-N3-C4=109.48               H12-N3-H11=106.95              
C5-C4-N3=109.87                C6-C4-N3=112.66                C6-C4-C5=108.61                H7-C4-N3=108.55                
H7-C4-C5=109.16                H7-C4-C6=107.92                H8-C5-C4=108.95                H9-C5-C4=110.32                
H9-C5-H8=109.54                H10-C5-C4=110.12               H10-C5-H8=108.68               H10-C5-H9=109.20               
O2-C6-O1=122.89                C4-C6-O1=112.57                C4-C6-O2=124.54                

 selected dihedral angles (degree)
 ---------------------------------
C5-C4-N3-H11=180.62           C5-C4-N3-H12= 63.12           C6-C4-N3-H11= 59.39           C6-C4-N3-H12=301.89           
H7-C4-N3-H11=299.92           H7-C4-N3-H12=182.42           H8-C5-C4-N3= 54.98            H8-C5-C4-C6=178.62            
H8-C5-C4-H7=296.06            H9-C5-C4-N3=175.26            H9-C5-C4-C6=298.90            H9-C5-C4-H7= 56.34            
H10-C5-C4-N3=295.87           H10-C5-C4-C6= 59.52           H10-C5-C4-H7=176.95           O2-C6-O1-H13=  0.96           
C4-C6-O1-H13=181.12           O1-C6-C4-N3=193.04            O1-C6-C4-C5= 71.09            O1-C6-C4-H7=312.87            
O2-C6-C4-N3= 13.20            O2-C6-C4-C5=251.25            O2-C6-C4-H7=133.03            
           -------------------------------------------------
          |                Final Singlepoint                |
           -------------------------------------------------

          ...................................................
          :                      SETUP                      :
          :.................................................:
          :  # basis functions                  31          :
          :  # atomic orbitals                  31          :
          :  # shells                           19          :
          :  # electrons                        36          :
          :  max. iterations                   250          :
          :  Hamiltonian                  GFN2-xTB          :
          :  restarted?                      false          :
          :  GBSA solvation                  false          :
          :  PC potential                    false          :
          :  electronic temp.          300.0000000     K    :
          :  accuracy                    1.0000000          :
          :  -> integral cutoff          0.2500000E+02      :
          :  -> integral neglect         0.1000000E-07      :
          :  -> SCF convergence          0.1000000E-05 Eh   :
          :  -> wf. convergence          0.1000000E-03 e    :
          :  Broyden damping             0.4000000          :
          ...................................................

 iter      E             dE          RMSdq      gap      omega  full diag
   1    -21.2544537 -0.212545E+02  0.919E-05    3.69       0.0  T
   2    -21.2544537 -0.348876E-11  0.550E-05    3.69     504.2  T
   3    -21.2544537 -0.540012E-12  0.129E-05    3.69    2157.0  T

   *** convergence criteria satisfied after 3 iterations ***

         #    Occupation            Energy/Eh            Energy/eV
      -------------------------------------------------------------
         1        2.0000           -0.7515131             -20.4497
       ...           ...                  ...                  ...
        12        2.0000           -0.4999926             -13.6055
        13        2.0000           -0.4845759             -13.1860
        14        2.0000           -0.4771902             -12.9850
        15        2.0000           -0.4669602             -12.7066
        16        2.0000           -0.4550889             -12.3836
        17        2.0000           -0.4323570             -11.7650
        18        2.0000           -0.3768692             -10.2551 (HOMO)
        19                         -0.2413199              -6.5666 (LUMO)
        20                          0.0330744               0.9000
        21                          0.0531728               1.4469
        22                          0.1072524               2.9185
        23                          0.1256476               3.4190
       ...                                ...                  ...
        31                          0.6322493              17.2044
      -------------------------------------------------------------
                  HL-Gap            0.1355493 Eh            3.6885 eV
             Fermi-level           -0.3090945 Eh           -8.4109 eV

 SCC (total)                   0 d,  0 h,  0 min,  0.010 sec
 SCC setup                      ...        0 min,  0.000 sec (  0.675%)
 Dispersion                     ...        0 min,  0.000 sec (  0.249%)
 classical contributions        ...        0 min,  0.000 sec (  0.079%)
 integral evaluation            ...        0 min,  0.000 sec (  2.608%)
 iterations                     ...        0 min,  0.009 sec ( 88.939%)
 molecular gradient             ...        0 min,  0.001 sec (  6.388%)
 printout                       ...        0 min,  0.000 sec (  0.922%)

         :::::::::::::::::::::::::::::::::::::::::::::::::::::
         ::                     SUMMARY                     ::
         :::::::::::::::::::::::::::::::::::::::::::::::::::::
         :: total energy             -21.044883089435 Eh    ::
         :: gradient norm              0.000668978665 Eh/a0 ::
         :: HOMO-LUMO gap              3.688484081099 eV    ::
         ::.................................................::
         :: SCC energy               -21.254453685548 Eh    ::
         :: -> isotropic ES            0.058416524440 Eh    ::
         :: -> anisotropic ES          0.002157497180 Eh    ::
         :: -> anisotropic XC          0.006619332454 Eh    ::
         :: -> dispersion             -0.006975239026 Eh    ::
         :: repulsion energy           0.209559835743 Eh    ::
         :: add. restraining           0.000000000000 Eh    ::
         :: total charge              -0.000000000000 e     ::
         :::::::::::::::::::::::::::::::::::::::::::::::::::::

           -------------------------------------------------
          |                Property Printout                |
           -------------------------------------------------

    * Orbital Energies and Occupations

         #    Occupation            Energy/Eh            Energy/eV
      -------------------------------------------------------------
         1        2.0000           -0.7515131             -20.4497
       ...           ...                  ...                  ...
         6        2.0000           -0.5949600             -16.1897
         7        2.0000           -0.5844565             -15.9039
         8        2.0000           -0.5813506             -15.8194
         9        2.0000           -0.5635606             -15.3353
        10        2.0000           -0.5311374             -14.4530
        11        2.0000           -0.5177606             -14.0890
        12        2.0000           -0.4999926             -13.6055
        13        2.0000           -0.4845759             -13.1860
        14        2.0000           -0.4771902             -12.9850
        15        2.0000           -0.4669602             -12.7066
        16        2.0000           -0.4550889             -12.3836
        17        2.0000           -0.4323570             -11.7650
        18        2.0000           -0.3768692             -10.2551 (HOMO)
        19                         -0.2413199              -6.5666 (LUMO)
        20                          0.0330744               0.9000
        21                          0.0531728               1.4469
        22                          0.1072524               2.9185
        23                          0.1256476               3.4190
        24                          0.1475817               4.0159
        25                          0.1569826               4.2717
        26                          0.1762439               4.7958
        27                          0.2240011               6.0954
        28                          0.2423571               6.5949
        29                          0.2481365               6.7521
       ...                                ...                  ...
        31                          0.6322493              17.2044
      -------------------------------------------------------------
                  HL-Gap            0.1355493 Eh            3.6885 eV
             Fermi-level           -0.3090945 Eh           -8.4109 eV

     #   Z          covCN         q      C6AA      α(0)
     1   8 O        1.659    -0.379    20.447     6.104
     2   8 O        0.856    -0.412    21.914     6.276
     3   7 N        2.632    -0.335    28.614     7.945
     4   6 C        3.782     0.034    20.020     6.374
     5   6 C        3.758    -0.113    22.722     6.796
     6   6 C        2.692     0.346    21.129     7.523
     7   1 H        0.924     0.060     2.201     2.320
     8   1 H        0.925     0.066     2.128     2.281
     9   1 H        0.925     0.054     2.269     2.355
    10   1 H        0.925     0.048     2.339     2.392
    11   1 H        0.860     0.145     1.435     1.876
    12   1 H        0.860     0.155     1.368     1.832
    13   1 H        0.804     0.330     0.637     1.253

 Mol. C6AA /au·bohr⁶  :       1400.947759
 Mol. C8AA /au·bohr⁸  :      29665.129167
 Mol. α(0) /au        :         55.328052


Wiberg/Mayer (AO) data.
largest (>0.10) Wiberg bond orders for each atom

 ---------------------------------------------------------------------------
     #   Z sym  total        # sym  WBO       # sym  WBO       # sym  WBO
 ---------------------------------------------------------------------------
     1   8 O    2.199 --     6 C    1.134    13 H    0.865     2 O    0.172
     2   8 O    2.039 --     6 C    1.768     1 O    0.172
     3   7 N    3.015 --     4 C    1.031    11 H    0.964    12 H    0.959
     4   6 C    3.988 --     3 N    1.031     5 C    0.982     7 H    0.951
                             6 C    0.941
     5   6 C    3.991 --    10 H    0.986     9 H    0.985     4 C    0.982
                             8 H    0.982
     6   6 C    3.902 --     2 O    1.768     1 O    1.134     4 C    0.941
     7   1 H    0.996 --     4 C    0.951
     8   1 H    0.996 --     5 C    0.982
     9   1 H    0.997 --     5 C    0.985
    10   1 H    0.998 --     5 C    0.986
    11   1 H    0.979 --     3 N    0.964
    12   1 H    0.976 --     3 N    0.959
    13   1 H    0.891 --     1 O    0.865
 ---------------------------------------------------------------------------

Topologies differ in total number of bonds
Writing topology from bond orders to xtbtopo.mol

molecular dipole:
                 x           y           z       tot (Debye)
 q only:       -0.052      -0.583       0.309
   full:        0.394      -0.539       0.110       1.719
molecular quadrupole (traceless):
                xx          xy          yy          xz          yz          zz
 q only:        1.640      -3.027      -2.699      -0.179       0.900       1.058
  q+dip:        0.802      -2.435      -2.617       0.742       1.779       1.816
   full:        0.340      -2.834      -2.810       1.120       1.832       2.469

           -------------------------------------------------
          |                Geometry Summary                 |
           -------------------------------------------------

      molecular mass/u    :       89.0933060
   center of mass at/Å    :       -0.0057975       0.0451870       0.3460573
  moments of inertia/u·Å² :        0.9892176E+02   0.1611410E+03   0.2216916E+03
rotational constants/cm⁻¹ :        0.1704138E+00   0.1046142E+00   0.7604092E-01

 * 11 selected distances

     #   Z          #   Z                                           value/Å
     3   7 N        4   6 C                                       1.4480785
     4   6 C        5   6 C                                       1.5315806 (max)
     1   8 O        6   6 C                                       1.3372619
     2   8 O        6   6 C                                       1.2030279
     4   6 C        7   1 H                                       1.0959260
     5   6 C        8   1 H                                       1.0857845
     5   6 C        9   1 H                                       1.0860799
     5   6 C       10   1 H                                       1.0878785
     3   7 N       11   1 H                                       1.0149725
     3   7 N       12   1 H                                       1.0158595
     1   8 O       13   1 H                                       0.9709057 (min)

 * 6 distinct bonds (by element types)

   Z      Z             #   av. dist./Å        max./Å        min./Å
   1 H    6 C           4     1.0889172     1.0959260     1.0857845
   6 C    6 C           1     1.5315806     1.5315806     1.5315806
   1 H    7 N           2     1.0154160     1.0158595     1.0149725
   6 C    7 N           1     1.4480785     1.4480785     1.4480785
   1 H    8 O           1     0.9709057     0.9709057     0.9709057
   6 C    8 O           2     1.2701449     1.3372619     1.2030279


optimized geometry written to: xtbopt.xyz


           -------------------------------------------------
          | TOTAL ENERGY              -21.044883089435 Eh   |
          | GRADIENT NORM               0.000668978665 Eh/α |
          | HOMO-LUMO GAP               3.688484081099 eV   |
           -------------------------------------------------

------------------------------------------------------------------------
 * finished run on 2026/07/30 at 13:25:11.347     
------------------------------------------------------------------------
 total:
 * wall-time:     0 d,  0 h,  1 min, 14.085 sec
 *  cpu-time:     0 d,  0 h,  1 min, 10.435 sec
 * ratio c/w:     0.951 speedup
 SCF:
 * wall-time:     0 d,  0 h,  0 min,  2.400 sec
 *  cpu-time:     0 d,  0 h,  0 min,  2.037 sec
 * ratio c/w:     0.849 speedup
 ANC optimizer:
 * wall-time:     0 d,  0 h,  1 min, 11.380 sec
 *  cpu-time:     0 d,  0 h,  1 min,  8.166 sec
 * ratio c/w:     0.955 speedup

