      -----------------------------------------------------------      
     |                   =====================                   |     
     |                           x T B                           |     
     |                   =====================                   |     
     |                         S. Grimme                         |     
     |          Mulliken Center for Theoretical Chemistry        |     
     |                    University of Bonn                     |     
      -----------------------------------------------------------      

   * xtb version 6.5.1 (b24c23e) compiled by 'conda@728c89f4b128' on 2022-07-12

   xtb is free software: you can redistribute it and/or modify it under
   the terms of the GNU Lesser General Public License as published by
   the Free Software Foundation, either version 3 of the License, or
   (at your option) any later version.
   
   xtb is distributed in the hope that it will be useful,
   but WITHOUT ANY WARRANTY; without even the implied warranty of
   MERCHANTABILITY or FITNESS FOR A PARTICULAR PURPOSE.  See the
   GNU Lesser General Public License for more details.
   
   Cite this work as:
   * C. Bannwarth, E. Caldeweyher, S. Ehlert, A. Hansen, P. Pracht,
     J. Seibert, S. Spicher, S. Grimme, WIREs Comput. Mol. Sci., 2020, 11,
     e01493. DOI: 10.1002/wcms.1493
   
   for GFN2-xTB:
   * C. Bannwarth, S. Ehlert and S. Grimme., J. Chem. Theory Comput., 2019,
     15, 1652-1671. DOI: 10.1021/acs.jctc.8b01176
   for GFN1-xTB:
   * S. Grimme, C. Bannwarth, P. Shushkov, J. Chem. Theory Comput., 2017,
     13, 1989-2009. DOI: 10.1021/acs.jctc.7b00118
   for GFN0-xTB:
   * P. Pracht, E. Caldeweyher, S. Ehlert, S. Grimme, ChemRxiv, 2019, preprint.
     DOI: 10.26434/chemrxiv.8326202.v1
   for GFN-FF:
   * S. Spicher and S. Grimme, Angew. Chem. Int. Ed., 2020, 59, 15665-15673.
     DOI: 10.1002/anie.202004239
   
   for ALPB and GBSA implicit solvation:
   * S. Ehlert, M. Stahn, S. Spicher, S. Grimme, J. Chem. Theory Comput.,
     2021, 17, 4250-4261. DOI: 10.1021/acs.jctc.1c00471
   
   for DFT-D4:
   * E. Caldeweyher, C. Bannwarth and S. Grimme, J. Chem. Phys., 2017,
     147, 034112. DOI: 10.1063/1.4993215
   * E. Caldeweyher, S. Ehlert, A. Hansen, H. Neugebauer, S. Spicher,
     C. Bannwarth and S. Grimme, J. Chem. Phys., 2019, 150, 154122.
     DOI: 10.1063/1.5090222
   * E. Caldeweyher, J.-M. Mewes, S. Ehlert and S. Grimme, Phys. Chem. Chem. Phys.
     2020, 22, 8499-8512. DOI: 10.1039/D0CP00502A
   
   for sTDA-xTB:
   * S. Grimme and C. Bannwarth, J. Chem. Phys., 2016, 145, 054103.
     DOI: 10.1063/1.4959605
   
   in the mass-spec context:
   * V. Asgeirsson, C. Bauer and S. Grimme, Chem. Sci., 2017, 8, 4879.
     DOI: 10.1039/c7sc00601b
   * J. Koopman and S. Grimme, ACS Omega 2019, 4, 12, 15120-15133.
     DOI: 10.1021/acsomega.9b02011
   
   for metadynamics refer to:
   * S. Grimme, J. Chem. Theory Comput., 2019, 155, 2847-2862
     DOI: 10.1021/acs.jctc.9b00143
   
   for SPH calculations refer to:
   * S. Spicher and S. Grimme, J. Chem. Theory Comput., 2021, 17, 1701-1714
     DOI: 10.1021/acs.jctc.0c01306
   
   with help from (in alphabetical order)
   P. Atkinson, C. Bannwarth, F. Bohle, G. Brandenburg, E. Caldeweyher
   M. Checinski, S. Dohm, S. Ehlert, S. Ehrlich, I. Gerasimov, C. Hölzer
   A. Katbashev, J. Koopman, C. Lavigne, S. Lehtola, F. März, M. Müller,
   F. Musil, H. Neugebauer, J. Pisarek, C. Plett, P. Pracht, F. Pultar,
   J. Seibert, P. Shushkov, S. Spicher, M. Stahn, M. Steiner, T. Strunk,
   J. Stückrath, T. Rose, and J. Unsleber
   
 * started run on 2026/07/30 at 13:25:16.659     

           -------------------------------------------------
          |                Calculation Setup                |
           -------------------------------------------------

          program call               : /h/332/chchoi/miniconda3/envs/el-agente/bin/xtb stilbene_cis_constrained.xyz --opt --gfn 2 -P 4 --chrg 0 --uhf 0
          coordinate file            : stilbene_cis_constrained.xyz
          omp threads                :                     4

   ID    Z sym.   atoms
    1    6 C      1-14
    2    1 H      15-26

           -------------------------------------------------
          |                 G F N 2 - x T B                 |
           -------------------------------------------------

        Reference                      10.1021/acs.jctc.8b01176
      * Hamiltonian:
        H0-scaling (s, p, d)           1.850000    2.230000    2.230000
        zeta-weighting                 0.500000
      * Dispersion:
        s8                             2.700000
        a1                             0.520000
        a2                             5.000000
        s9                             5.000000
      * Repulsion:
        kExp                           1.500000    1.000000
        rExp                           1.000000
      * Coulomb:
        alpha                          2.000000
        third order                    shell-resolved
        anisotropic                    true
        a3                             3.000000
        a5                             4.000000
        cn-shift                       1.200000
        cn-exp                         4.000000
        max-rad                        5.000000


          ...................................................
          :                      SETUP                      :
          :.................................................:
          :  # basis functions                  68          :
          :  # atomic orbitals                  68          :
          :  # shells                           40          :
          :  # electrons                        68          :
          :  max. iterations                   250          :
          :  Hamiltonian                  GFN2-xTB          :
          :  restarted?                      false          :
          :  GBSA solvation                  false          :
          :  PC potential                    false          :
          :  electronic temp.          300.0000000     K    :
          :  accuracy                    1.0000000          :
          :  -> integral cutoff          0.2500000E+02      :
          :  -> integral neglect         0.1000000E-07      :
          :  -> SCF convergence          0.1000000E-05 Eh   :
          :  -> wf. convergence          0.1000000E-03 e    :
          :  Broyden damping             0.4000000          :
          ...................................................

 iter      E             dE          RMSdq      gap      omega  full diag
   1    -36.7310907 -0.367311E+02  0.426E+00    3.17       0.0  T
   2    -36.7545181 -0.234275E-01  0.252E+00    3.15       1.0  T
   3    -36.7533511  0.116709E-02  0.533E-01    3.13       1.0  T
   4    -36.7545122 -0.116114E-02  0.265E-01    3.13       1.0  T
   5    -36.7564805 -0.196834E-02  0.383E-02    3.14       1.0  T
   6    -36.7564842 -0.362605E-05  0.215E-02    3.14       1.0  T
   7    -36.7564863 -0.214590E-05  0.614E-03    3.14       3.2  T
   8    -36.7564871 -0.836117E-06  0.105E-03    3.14      18.7  T
   9    -36.7564871 -0.558607E-08  0.538E-04    3.14      36.5  T
  10    -36.7564871 -0.238744E-08  0.146E-04    3.14     134.6  T

   *** convergence criteria satisfied after 10 iterations ***

         #    Occupation            Energy/Eh            Energy/eV
      -------------------------------------------------------------
         1        2.0000           -0.6436285             -17.5140
       ...           ...                  ...                  ...
        28        2.0000           -0.4214852             -11.4692
        29        2.0000           -0.4207617             -11.4495
        30        2.0000           -0.4128593             -11.2345
        31        2.0000           -0.4039115             -10.9910
        32        2.0000           -0.4001953             -10.8899
        33        2.0000           -0.3993576             -10.8671
        34        2.0000           -0.3723281             -10.1316 (HOMO)
        35                         -0.2570868              -6.9957 (LUMO)
        36                         -0.2222032              -6.0465
        37                         -0.2168543              -5.9009
        38                         -0.2135241              -5.8103
        39                         -0.1710687              -4.6550
       ...                                ...                  ...
        68                          0.6862706              18.6744
      -------------------------------------------------------------
                  HL-Gap            0.1152413 Eh            3.1359 eV
             Fermi-level           -0.3147074 Eh           -8.5636 eV

 SCC (total)                   0 d,  0 h,  0 min,  0.496 sec
 SCC setup                      ...        0 min,  0.000 sec (  0.042%)
 Dispersion                     ...        0 min,  0.000 sec (  0.051%)
 classical contributions        ...        0 min,  0.001 sec (  0.154%)
 integral evaluation            ...        0 min,  0.004 sec (  0.719%)
 iterations                     ...        0 min,  0.426 sec ( 85.816%)
 molecular gradient             ...        0 min,  0.065 sec ( 13.176%)
 printout                       ...        0 min,  0.000 sec (  0.038%)

         :::::::::::::::::::::::::::::::::::::::::::::::::::::
         ::                     SUMMARY                     ::
         :::::::::::::::::::::::::::::::::::::::::::::::::::::
         :: total energy             -36.044103546194 Eh    ::
         :: gradient norm              0.023386887019 Eh/a0 ::
         :: HOMO-LUMO gap              3.135876048261 eV    ::
         ::.................................................::
         :: SCC energy               -36.756487141622 Eh    ::
         :: -> isotropic ES            0.001623943103 Eh    ::
         :: -> anisotropic ES          0.004640086963 Eh    ::
         :: -> anisotropic XC          0.026086024902 Eh    ::
         :: -> dispersion             -0.026331661515 Eh    ::
         :: repulsion energy           0.712213083278 Eh    ::
         :: add. restraining           0.000000000000 Eh    ::
         :: total charge              -0.000000000000 e     ::
         :::::::::::::::::::::::::::::::::::::::::::::::::::::

      ----------------------------------------------------------- 
     |                   =====================                   |
     |                        A N C O P T                        |
     |                   =====================                   |
     |               Approximate Normal Coordinate               |
     |                Rational Function Optimizer                |
      ----------------------------------------------------------- 

          ...................................................
          :                      SETUP                      :
          :.................................................:
          :   optimization level            normal          :
          :   max. optcycles                   200          :
          :   ANC micro-cycles                  20          :
          :   degrees of freedom                72          :
          :.................................................:
          :   RF solver                   davidson          :
          :   write xtbopt.log                true          :
          :   linear?                        false          :
          :   energy convergence         0.5000000E-05 Eh   :
          :   grad. convergence          0.1000000E-02 Eh/α :
          :   maximium RF displ.         1.0000000          :
          :   Hlow (freq-cutoff)         0.1000000E-01      :
          :   Hmax (freq-cutoff)         5.0000000          :
          :   S6 in model hess.         20.0000000          :
          ...................................................

generating ANC from model Hessian ...
Using Lindh-Hessian (1995)
 Shifting diagonal of input Hessian by    9.1498438864650849E-003
 Lowest  eigenvalues of input Hessian
    0.000000    0.000000    0.000000    0.000000    0.000000    0.000000
    0.010000    0.010283    0.010360    0.014502    0.015425    0.021473
    0.021768    0.024805    0.024999    0.029554    0.031190    0.032562
 Highest eigenvalues
    1.897112    1.913462    2.001009    2.003791    2.045616    2.083077


........................................................................
.............................. CYCLE    1 ..............................
........................................................................
   1    -36.7564871 -0.367565E+02  0.674E-05    3.14       0.0  T
   2    -36.7564871 -0.234479E-12  0.565E-05    3.14     346.9  T
   3    -36.7564871 -0.552802E-10  0.246E-05    3.14     798.0  T
     SCC iter.                  ...        0 min,  0.076 sec
     gradient                   ...        0 min,  0.006 sec
 * total energy  :   -36.0441035 Eh     change       -0.1831140E-09 Eh
   gradient norm :     0.0233868 Eh/α   predicted     0.0000000E+00 (-100.00%)
   displ. norm   :     0.0609678 α      lambda       -0.5582034E-03
   maximum displ.:     0.0315685 α      in ANC's #1, #11, #40, ...

........................................................................
.............................. CYCLE    2 ..............................
........................................................................
   1    -36.7599154 -0.367599E+02  0.485E-02    3.17       0.0  T
   2    -36.7599170 -0.165363E-05  0.298E-02    3.17       1.0  T
   3    -36.7599168  0.259585E-06  0.408E-03    3.17       4.8  T
   4    -36.7599171 -0.354665E-06  0.141E-03    3.17      13.9  T
   5    -36.7599171 -0.362220E-07  0.491E-04    3.17      40.0  T
   6    -36.7599171 -0.314223E-09  0.124E-04    3.17     157.7  T
     SCC iter.                  ...        0 min,  0.150 sec
     gradient                   ...        0 min,  0.004 sec
 * total energy  :   -36.0444491 Eh     change       -0.3455873E-03 Eh
   gradient norm :     0.0056958 Eh/α   predicted    -0.2801411E-03 ( -18.94%)
   displ. norm   :     0.0501994 α      lambda       -0.6998418E-04
   maximum displ.:     0.0320710 α      in ANC's #1, #5, #7, ...

........................................................................
.............................. CYCLE    3 ..............................
........................................................................
   1    -36.7608153 -0.367608E+02  0.304E-02    3.17       0.0  T
   2    -36.7608154 -0.128813E-06  0.179E-02    3.17       1.1  T
   3    -36.7608153  0.959029E-07  0.199E-03    3.17       9.8  T
   4    -36.7608155 -0.118001E-06  0.455E-04    3.17      43.1  T
   5    -36.7608155 -0.522229E-08  0.187E-04    3.17     105.1  T
     SCC iter.                  ...        0 min,  0.125 sec
     gradient                   ...        0 min,  0.005 sec
 * total energy  :   -36.0444940 Eh     change       -0.4487929E-04 Eh
   gradient norm :     0.0008084 Eh/α   predicted    -0.3511294E-04 ( -21.76%)
   displ. norm   :     0.0781283 α      lambda       -0.2361837E-04
   maximum displ.:     0.0488723 α      in ANC's #1, #5, #2, ...

........................................................................
.............................. CYCLE    4 ..............................
........................................................................
   1    -36.7608437 -0.367608E+02  0.413E-02    3.17       0.0  T
   2    -36.7608438 -0.732978E-07  0.243E-02    3.17       1.0  T
   3    -36.7608436  0.187085E-06  0.272E-03    3.17       7.2  T
   4    -36.7608438 -0.234111E-06  0.331E-04    3.17      59.3  T
   5    -36.7608438 -0.935074E-11  0.173E-04    3.17     113.3  T
     SCC iter.                  ...        0 min,  0.117 sec
     gradient                   ...        0 min,  0.005 sec
 * total energy  :   -36.0445156 Eh     change       -0.2162744E-04 Eh
   gradient norm :     0.0020610 Eh/α   predicted    -0.1185245E-04 ( -45.20%)
   displ. norm   :     0.0521768 α      lambda        0.9658053E-05
   maximum displ.:     0.0326435 α      in ANC's #1, #5, #2, ...

........................................................................
.............................. CYCLE    5 ..............................
........................................................................
   1    -36.7607666 -0.367608E+02  0.276E-02    3.16       0.0  T
   2    -36.7607666 -0.318078E-07  0.162E-02    3.16       1.2  T
   3    -36.7607666  0.801632E-07  0.178E-03    3.16      11.0  T
   4    -36.7607667 -0.100770E-06  0.222E-04    3.16      88.1  T
   5    -36.7607667  0.359890E-10  0.115E-04    3.16     170.9  T
     SCC iter.                  ...        0 min,  0.101 sec
     gradient                   ...        0 min,  0.005 sec
 * total energy  :   -36.0445148 Eh     change        0.8834319E-06 Eh
   gradient norm :     0.0032421 Eh/α   predicted     0.4842153E-05 ( 448.11%)
   displ. norm   :     0.0121348 α      lambda       -0.1354777E-04
   maximum displ.:     0.0074630 α      in ANC's #7, #11, #40, ...

........................................................................
.............................. CYCLE    6 ..............................
........................................................................
   1    -36.7606801 -0.367607E+02  0.102E-02    3.16       0.0  T
   2    -36.7606801 -0.828237E-08  0.601E-03    3.16       3.3  T
   3    -36.7606801  0.735313E-08  0.629E-04    3.16      31.2  T
   4    -36.7606802 -0.975137E-08  0.125E-04    3.16     156.3  T
     SCC iter.                  ...        0 min,  0.097 sec
     gradient                   ...        0 min,  0.005 sec
 * total energy  :   -36.0445248 Eh     change       -0.1005411E-04 Eh
   gradient norm :     0.0014866 Eh/α   predicted    -0.6776782E-05 ( -32.60%)
   displ. norm   :     0.0534604 α      lambda       -0.1198360E-04
   maximum displ.:     0.0383317 α      in ANC's #1, #2, #5, ...

........................................................................
.............................. CYCLE    7 ..............................
........................................................................
   1    -36.7604815 -0.367605E+02  0.272E-02    3.16       0.0  T
   2    -36.7604816 -0.300770E-07  0.160E-02    3.16       1.2  T
   3    -36.7604816  0.103485E-07  0.105E-03    3.16      18.7  T
   4    -36.7604816 -0.213696E-07  0.288E-04    3.16      68.2  T
   5    -36.7604816 -0.452260E-09  0.150E-04    3.16     131.0  T
     SCC iter.                  ...        0 min,  0.100 sec
     gradient                   ...        0 min,  0.006 sec
 * total energy  :   -36.0445345 Eh     change       -0.9695502E-05 Eh
   gradient norm :     0.0012940 Eh/α   predicted    -0.6000060E-05 ( -38.12%)
   displ. norm   :     0.0412185 α      lambda       -0.4503064E-05
   maximum displ.:     0.0330051 α      in ANC's #1, #2, #5, ...

........................................................................
.............................. CYCLE    8 ..............................
........................................................................
   1    -36.7605433 -0.367605E+02  0.204E-02    3.16       0.0  T
   2    -36.7605433 -0.972755E-08  0.120E-02    3.16       1.6  T
   3    -36.7605433  0.801892E-08  0.703E-04    3.16      27.9  T
   4    -36.7605433 -0.134606E-07  0.169E-04    3.16     115.9  T
     SCC iter.                  ...        0 min,  0.067 sec
     gradient                   ...        0 min,  0.003 sec
 * total energy  :   -36.0445406 Eh     change       -0.6048313E-05 Eh
   gradient norm :     0.0009090 Eh/α   predicted    -0.2255007E-05 ( -62.72%)
   displ. norm   :     0.0445740 α      lambda       -0.5233906E-05
   maximum displ.:     0.0352905 α      in ANC's #1, #2, #7, ...

........................................................................
.............................. CYCLE    9 ..............................
........................................................................
   1    -36.7607234 -0.367607E+02  0.233E-02    3.16       0.0  T
   2    -36.7607234 -0.128820E-07  0.137E-02    3.16       1.4  T
   3    -36.7607234  0.151906E-07  0.960E-04    3.16      20.4  T
   4    -36.7607234 -0.222090E-07  0.191E-04    3.16     102.4  T
     SCC iter.                  ...        0 min,  0.096 sec
     gradient                   ...        0 min,  0.017 sec
 * total energy  :   -36.0445472 Eh     change       -0.6623588E-05 Eh
   gradient norm :     0.0003190 Eh/α   predicted    -0.2619596E-05 ( -60.45%)
   displ. norm   :     0.0539856 α      lambda       -0.4678432E-05
   maximum displ.:     0.0424497 α      in ANC's #1, #2, #7, ...

........................................................................
.............................. CYCLE   10 ..............................
........................................................................
   1    -36.7607511 -0.367608E+02  0.282E-02    3.17       0.0  T
   2    -36.7607511 -0.168808E-07  0.165E-02    3.17       1.2  T
   3    -36.7607511  0.126647E-07  0.100E-03    3.17      19.6  T
   4    -36.7607511 -0.222636E-07  0.238E-04    3.17      82.4  T
   5    -36.7607511  0.136957E-09  0.118E-04    3.17     166.0  T
     SCC iter.                  ...        0 min,  0.010 sec
     gradient                   ...        0 min,  0.003 sec
 * total energy  :   -36.0445533 Eh     change       -0.6074089E-05 Eh
   gradient norm :     0.0005091 Eh/α   predicted    -0.2343883E-05 ( -61.41%)
   displ. norm   :     0.0498370 α      lambda       -0.3587026E-05
   maximum displ.:     0.0404249 α      in ANC's #1, #2, #7, ...

........................................................................
.............................. CYCLE   11 ..............................
........................................................................
   1    -36.7607877 -0.367608E+02  0.259E-02    3.18       0.0  T
   2    -36.7607877 -0.130269E-07  0.152E-02    3.18       1.3  T
   3    -36.7607877  0.951447E-08  0.912E-04    3.18      21.5  T
   4    -36.7607877 -0.169303E-07  0.185E-04    3.18     105.9  T
     SCC iter.                  ...        0 min,  0.010 sec
     gradient                   ...        0 min,  0.003 sec
 * total energy  :   -36.0445579 Eh     change       -0.4690129E-05 Eh
   gradient norm :     0.0004164 Eh/α   predicted    -0.1796313E-05 ( -61.70%)
   displ. norm   :     0.0357768 α      lambda       -0.2327447E-05
   maximum displ.:     0.0312763 α      in ANC's #1, #2, #7, ...

   *** GEOMETRY OPTIMIZATION CONVERGED AFTER 11 ITERATIONS ***

------------------------------------------------------------------------
 total energy gain   :        -0.0004544 Eh       -0.2851 kcal/mol
 total RMSD          :         0.0828046 a0        0.0438 Å
 total power (kW/mol):        -0.1084562 (step)   -1.0664 (real)
------------------------------------------------------------------------

 ANCopt (total)                0 d,  0 h,  0 min,  1.119 sec
 optimizer setup                ...        0 min,  0.000 sec (  0.025%)
 model hessian                  ...        0 min,  0.005 sec (  0.438%)
 ANC generation                 ...        0 min,  0.005 sec (  0.440%)
 coordinate transformation      ...        0 min,  0.000 sec (  0.009%)
 single point calculation       ...        0 min,  1.101 sec ( 98.459%)
 optimization log               ...        0 min,  0.001 sec (  0.075%)
 hessian update                 ...        0 min,  0.005 sec (  0.418%)
 rational function              ...        0 min,  0.001 sec (  0.076%)

================
 final structure:
================
26
 xtb: 6.5.1 (b24c23e)
C           -1.99858415651997        0.22008642988304       -0.09149185085066
C            0.17278686757258       -2.02094801919955        0.10724214723496
C           -0.54934509939341        0.38245031397148        0.00419012439776
C            0.38020022809850       -0.57611561359562        0.03453731972355
C           -2.58079797056676       -0.76197791515340       -0.89250407488553
C           -0.83732601966893       -2.58406806628573        0.88673012729510
C           -2.83269523674648        1.10763777220165        0.58775579913940
C            1.04389191116498       -2.87215541628283       -0.57207661256195
C           -3.95500162320973       -0.86652648528757       -0.98710321307490
C           -0.98471457249682       -3.95563252803367        0.96022042740898
C           -4.20728429264004        0.99428016012971        0.49979220778628
C            0.88775992965924       -4.24374686659825       -0.50536097257847
C           -4.77355117523868        0.00516330498454       -0.28669710960287
C           -0.12871298166830       -4.79051660741109        0.25974755400307
H           -0.21804450699189        1.41424351057954        0.03881460494337
H            1.42191483483212       -0.27587708118348        0.01895226562965
H           -1.94770659060760       -1.43551729124036       -1.45067090053202
H           -1.49898440461144       -1.93856958996935        1.44490113762942
H           -2.39352281968164        1.88279150920177        1.20039991976479
H            1.84028486017937       -2.44830559606242       -1.16803286248949
H           -4.39185499134219       -1.63061450157466       -1.61369983529896
H           -1.77017919907382       -4.37769935949421        1.57032291187651
H           -4.83930504569385        1.68390800796327        1.04070645173850
H            1.56525748507183       -4.88888546196590       -1.04610683423338
H           -5.84768990396087       -0.08068151633801       -0.36054913217500
H           -0.24804399646661       -5.86246827323956        0.31703843971211

 Bond Distances (Angstroems)
 ---------------------------
C1-C3=1.4614         C1-C5=1.3946         C1-C7=1.3946         C2-C4=1.4615         C2-C6=1.3946         C2-C8=1.3946         
C3-C1=1.4614         C3-C4=1.3356         C3-H15=1.0842        C4-C2=1.4615         C4-C3=1.3356         C4-H16=1.0842        
C5-C1=1.3946         C5-C9=1.3814         C5-H17=1.0798        C6-C2=1.3946         C6-C10=1.3814        C6-H18=1.0798        
C7-C1=1.3946         C7-C11=1.3821        C7-H19=1.0812        C8-C2=1.3946         C8-C12=1.3821        C8-H20=1.0812        
C9-C5=1.3814         C9-C13=1.3858        C9-H21=1.0804        C10-C6=1.3814        C10-C14=1.3858       C10-H22=1.0804       
C11-C7=1.3821        C11-C13=1.3848       C11-H23=1.0806       C12-C8=1.3821        C12-C14=1.3848       C12-H24=1.0806       
C13-C9=1.3858        C13-C11=1.3848       C13-H25=1.0801       C14-C10=1.3858       C14-C12=1.3848       C14-H26=1.0801       
H15-C3=1.0842        H16-C4=1.0842        H17-C5=1.0798        H18-C6=1.0798        H19-C7=1.0812        H20-C8=1.0812        
H21-C9=1.0804        H22-C10=1.0804       H23-C11=1.0806       H24-C12=1.0806       H25-C13=1.0801       H26-C14=1.0801       
 C  H  Rav=1.0811 sigma=0.0015  Rmin=1.0798  Rmax=1.0842    12
 C  C  Rav=1.3937 sigma=0.0299  Rmin=1.3356  Rmax=1.4615    15

 selected bond angles (degree)
 --------------------
C5-C1-C3=121.99                C7-C1-C3=119.37                C7-C1-C5=118.57                C6-C2-C4=121.99                
C8-C2-C4=119.38                C8-C2-C6=118.57                C4-C3-C1=127.73                H15-C3-C1=114.26               
H15-C3-C4=118.01               C3-C4-C2=127.73                H16-C4-C2=114.26               H16-C4-C3=118.01               
C9-C5-C1=120.52                H17-C5-C1=119.43               H17-C5-C9=120.04               C10-C6-C2=120.52               
H18-C6-C2=119.43               H18-C6-C10=120.04              C11-C7-C1=120.78               H19-C7-C1=119.29               
H19-C7-C11=119.92              C12-C8-C2=120.77               H20-C8-C2=119.29               H20-C8-C12=119.92              
C13-C9-C5=120.36               H21-C9-C5=119.70               H21-C9-C13=119.94              C14-C10-C6=120.36              
H22-C10-C6=119.70              H22-C10-C14=119.94             

 selected dihedral angles (degree)
 ---------------------------------
C4-C3-C1-C5=321.64            C4-C3-C1-C7=144.60            H15-C3-C1-C5=140.70           H15-C3-C1-C7=323.66           
C3-C4-C2-C6=321.61            C3-C4-C2-C8=144.56            H16-C4-C2-C6=140.66           H16-C4-C2-C8=323.62           
C2-C4-C3-C1=353.66            C2-C4-C3-H15=174.64           H16-C4-C3-C1=174.63           H16-C4-C3-H15=355.61          
C9-C5-C1-C3=181.66            C9-C5-C1-C7=358.73            H17-C5-C1-C3=  0.90           H17-C5-C1-C7=177.96           
C10-C6-C2-C4=181.66           C10-C6-C2-C8=358.73           H18-C6-C2-C4=  0.90           H18-C6-C2-C8=177.97           
C11-C7-C1-C3=178.93           C11-C7-C1-C5=  1.79           H19-C7-C1-C3=358.04           H19-C7-C1-C5=180.90           
C12-C8-C2-C4=178.93           C12-C8-C2-C6=  1.79           H20-C8-C2-C4=358.04           H20-C8-C2-C6=180.90           
C13-C9-C5-C1=  0.04           C13-C9-C5-H17=180.81          H21-C9-C5-C1=179.83           H21-C9-C5-H17=  0.60          
C14-C10-C6-C2=  0.04          C14-C10-C6-H18=180.81         H22-C10-C6-C2=179.83          H22-C10-C6-H18=  0.60         
           -------------------------------------------------
          |                Final Singlepoint                |
           -------------------------------------------------

          ...................................................
          :                      SETUP                      :
          :.................................................:
          :  # basis functions                  68          :
          :  # atomic orbitals                  68          :
          :  # shells                           40          :
          :  # electrons                        68          :
          :  max. iterations                   250          :
          :  Hamiltonian                  GFN2-xTB          :
          :  restarted?                      false          :
          :  GBSA solvation                  false          :
          :  PC potential                    false          :
          :  electronic temp.          300.0000000     K    :
          :  accuracy                    1.0000000          :
          :  -> integral cutoff          0.2500000E+02      :
          :  -> integral neglect         0.1000000E-07      :
          :  -> SCF convergence          0.1000000E-05 Eh   :
          :  -> wf. convergence          0.1000000E-03 e    :
          :  Broyden damping             0.4000000          :
          ...................................................

 iter      E             dE          RMSdq      gap      omega  full diag
   1    -36.7607877 -0.367608E+02  0.666E-05    3.18       0.0  T
   2    -36.7607877 -0.374385E-10  0.429E-05    3.18     457.4  T
   3    -36.7607877 -0.317186E-10  0.216E-05    3.18     906.7  T

   *** convergence criteria satisfied after 3 iterations ***

         #    Occupation            Energy/Eh            Energy/eV
      -------------------------------------------------------------
         1        2.0000           -0.6436781             -17.5154
       ...           ...                  ...                  ...
        28        2.0000           -0.4214110             -11.4672
        29        2.0000           -0.4207013             -11.4479
        30        2.0000           -0.4130045             -11.2384
        31        2.0000           -0.4039246             -10.9913
        32        2.0000           -0.4001779             -10.8894
        33        2.0000           -0.3995843             -10.8732
        34        2.0000           -0.3727965             -10.1443 (HOMO)
        35                         -0.2560531              -6.9676 (LUMO)
        36                         -0.2221463              -6.0449
        37                         -0.2168024              -5.8995
        38                         -0.2133581              -5.8058
        39                         -0.1690892              -4.6012
       ...                                ...                  ...
        68                          0.6946528              18.9025
      -------------------------------------------------------------
                  HL-Gap            0.1167434 Eh            3.1767 eV
             Fermi-level           -0.3144248 Eh           -8.5559 eV

 SCC (total)                   0 d,  0 h,  0 min,  0.013 sec
 SCC setup                      ...        0 min,  0.000 sec (  0.734%)
 Dispersion                     ...        0 min,  0.000 sec (  0.639%)
 classical contributions        ...        0 min,  0.000 sec (  0.149%)
 integral evaluation            ...        0 min,  0.001 sec (  8.329%)
 iterations                     ...        0 min,  0.007 sec ( 52.973%)
 molecular gradient             ...        0 min,  0.005 sec ( 36.010%)
 printout                       ...        0 min,  0.000 sec (  1.050%)

         :::::::::::::::::::::::::::::::::::::::::::::::::::::
         ::                     SUMMARY                     ::
         :::::::::::::::::::::::::::::::::::::::::::::::::::::
         :: total energy             -36.044557942724 Eh    ::
         :: gradient norm              0.000416435155 Eh/a0 ::
         :: HOMO-LUMO gap              3.176749595036 eV    ::
         ::.................................................::
         :: SCC energy               -36.760787701889 Eh    ::
         :: -> isotropic ES            0.001618620760 Eh    ::
         :: -> anisotropic ES          0.004638388720 Eh    ::
         :: -> anisotropic XC          0.026015904923 Eh    ::
         :: -> dispersion             -0.026377492761 Eh    ::
         :: repulsion energy           0.716050238873 Eh    ::
         :: add. restraining           0.000000000000 Eh    ::
         :: total charge               0.000000000000 e     ::
         :::::::::::::::::::::::::::::::::::::::::::::::::::::

           -------------------------------------------------
          |                Property Printout                |
           -------------------------------------------------

    * Orbital Energies and Occupations

         #    Occupation            Energy/Eh            Energy/eV
      -------------------------------------------------------------
         1        2.0000           -0.6436781             -17.5154
       ...           ...                  ...                  ...
        22        2.0000           -0.4739043             -12.8956
        23        2.0000           -0.4715060             -12.8303
        24        2.0000           -0.4642569             -12.6331
        25        2.0000           -0.4523085             -12.3079
        26        2.0000           -0.4330258             -11.7832
        27        2.0000           -0.4253663             -11.5748
        28        2.0000           -0.4214110             -11.4672
        29        2.0000           -0.4207013             -11.4479
        30        2.0000           -0.4130045             -11.2384
        31        2.0000           -0.4039246             -10.9913
        32        2.0000           -0.4001779             -10.8894
        33        2.0000           -0.3995843             -10.8732
        34        2.0000           -0.3727965             -10.1443 (HOMO)
        35                         -0.2560531              -6.9676 (LUMO)
        36                         -0.2221463              -6.0449
        37                         -0.2168024              -5.8995
        38                         -0.2133581              -5.8058
        39                         -0.1690892              -4.6012
        40                         -0.0865916              -2.3563
        41                         -0.0779624              -2.1215
        42                          0.1050936               2.8597
        43                          0.1060875               2.8868
        44                          0.1292213               3.5163
        45                          0.1326951               3.6108
       ...                                ...                  ...
        68                          0.6946528              18.9025
      -------------------------------------------------------------
                  HL-Gap            0.1167434 Eh            3.1767 eV
             Fermi-level           -0.3144248 Eh           -8.5559 eV

     #   Z          covCN         q      C6AA      α(0)
     1   6 C        2.971     0.018    27.603     8.618
     2   6 C        2.971     0.018    27.603     8.618
     3   6 C        2.899    -0.038    28.956     8.823
     4   6 C        2.899    -0.038    28.956     8.823
     5   6 C        2.924    -0.031    28.774     8.797
     6   6 C        2.924    -0.031    28.774     8.797
     7   6 C        2.927    -0.036    28.891     8.815
     8   6 C        2.927    -0.036    28.891     8.815
     9   6 C        2.918    -0.030    28.740     8.791
    10   6 C        2.918    -0.030    28.740     8.791
    11   6 C        2.918    -0.030    28.753     8.793
    12   6 C        2.918    -0.030    28.753     8.793
    13   6 C        2.920    -0.031    28.785     8.798
    14   6 C        2.920    -0.031    28.785     8.798
    15   1 H        0.925     0.034     2.536     2.490
    16   1 H        0.925     0.034     2.535     2.490
    17   1 H        0.926     0.031     2.565     2.505
    18   1 H        0.926     0.031     2.565     2.505
    19   1 H        0.925     0.028     2.613     2.528
    20   1 H        0.925     0.028     2.613     2.528
    21   1 H        0.926     0.029     2.607     2.525
    22   1 H        0.926     0.029     2.607     2.525
    23   1 H        0.926     0.028     2.610     2.526
    24   1 H        0.926     0.028     2.610     2.526
    25   1 H        0.926     0.028     2.610     2.526
    26   1 H        0.926     0.028     2.610     2.526

 Mol. C6AA /au·bohr⁶  :       8876.670240
 Mol. C8AA /au·bohr⁸  :     220904.357493
 Mol. α(0) /au        :        153.068798


Wiberg/Mayer (AO) data.
largest (>0.10) Wiberg bond orders for each atom

 ---------------------------------------------------------------------------
     #   Z sym  total        # sym  WBO       # sym  WBO       # sym  WBO
 ---------------------------------------------------------------------------
     1   6 C    3.990 --     7 C    1.382     5 C    1.377     3 C    1.075
                            13 C    0.104
     2   6 C    3.990 --     8 C    1.382     6 C    1.377     4 C    1.075
                            14 C    0.104
     3   6 C    3.991 --     4 C    1.821     1 C    1.075    15 H    0.960
     4   6 C    3.991 --     3 C    1.821     2 C    1.075    16 H    0.960
     5   6 C    3.992 --     9 C    1.458     1 C    1.377    17 H    0.969
                            11 C    0.107
     6   6 C    3.992 --    10 C    1.458     2 C    1.377    18 H    0.969
                            12 C    0.107
     7   6 C    3.987 --    11 C    1.453     1 C    1.382    19 H    0.970
                             9 C    0.106
     8   6 C    3.987 --    12 C    1.453     2 C    1.382    20 H    0.970
                            10 C    0.106
     9   6 C    3.992 --     5 C    1.458    13 C    1.430    21 H    0.971
                             7 C    0.106
    10   6 C    3.992 --     6 C    1.458    14 C    1.430    22 H    0.971
                             8 C    0.106
    11   6 C    3.992 --     7 C    1.453    13 C    1.434    23 H    0.971
                             5 C    0.107
    12   6 C    3.992 --     8 C    1.453    14 C    1.434    24 H    0.971
                             6 C    0.107
    13   6 C    3.989 --    11 C    1.434     9 C    1.430    25 H    0.972
                             1 C    0.104
    14   6 C    3.989 --    12 C    1.434    10 C    1.430    26 H    0.972
                             2 C    0.104
    15   1 H    0.998 --     3 C    0.960
    16   1 H    0.998 --     4 C    0.960
    17   1 H    0.999 --     5 C    0.969
    18   1 H    0.999 --     6 C    0.969
    19   1 H    0.999 --     7 C    0.970
    20   1 H    0.999 --     8 C    0.970
    21   1 H    0.999 --     9 C    0.971
    22   1 H    0.999 --    10 C    0.971
    23   1 H    0.999 --    11 C    0.971
    24   1 H    0.999 --    12 C    0.971
    25   1 H    0.999 --    13 C    0.972
    26   1 H    0.999 --    14 C    0.972
 ---------------------------------------------------------------------------

Topologies differ in total number of bonds
Writing topology from bond orders to xtbtopo.mol

molecular dipole:
                 x           y           z       tot (Debye)
 q only:        0.036       0.035       0.000
   full:        0.044       0.043       0.001       0.155
molecular quadrupole (traceless):
                xx          xy          yy          xz          yz          zz
 q only:        0.583       0.175       0.548      -0.780       0.835      -1.130
  q+dip:        2.833       0.084       2.724      -3.624       3.861      -5.557
   full:        1.306       0.194       1.242      -1.751       1.867      -2.548

           -------------------------------------------------
          |                Geometry Summary                 |
           -------------------------------------------------

      molecular mass/u    :      180.2455916
   center of mass at/Å    :       -1.4594118      -1.4306005       0.0002877
  moments of inertia/u·Å² :        0.3302971E+03   0.1167799E+04   0.1353308E+04
rotational constants/cm⁻¹ :        0.5103779E-01   0.1443539E-01   0.1245661E-01

 * 25 selected distances

     #   Z          #   Z                                           value/Å
     3   6 C        4   6 C                                       1.3355989
     1   6 C        5   6 C                                       1.3946484 (max)
     2   6 C        6   6 C                                       1.3946448
     1   6 C        7   6 C                                       1.3945847
     2   6 C        8   6 C                                       1.3945796
     5   6 C        9   6 C                                       1.3814179
     6   6 C       10   6 C                                       1.3814173
     7   6 C       11   6 C                                       1.3820575
     8   6 C       12   6 C                                       1.3820606
     9   6 C       13   6 C                                       1.3857978
    11   6 C       13   6 C                                       1.3847657
    10   6 C       14   6 C                                       1.3857968
    12   6 C       14   6 C                                       1.3847620
     3   6 C       15   1 H                                       1.0842308
     4   6 C       16   1 H                                       1.0842304
     5   6 C       17   1 H                                       1.0798196 (min)
     6   6 C       18   1 H                                       1.0798218
     7   6 C       19   1 H                                       1.0812348
     8   6 C       20   1 H                                       1.0812282
     9   6 C       21   1 H                                       1.0804142
    10   6 C       22   1 H                                       1.0804260
    11   6 C       23   1 H                                       1.0805671
    12   6 C       24   1 H                                       1.0805615
    13   6 C       25   1 H                                       1.0800915
    14   6 C       26   1 H                                       1.0800939

 * 2 distinct bonds (by element types)

   Z      Z             #   av. dist./Å        max./Å        min./Å
   1 H    6 C          12     1.0810600     1.0842308     1.0798196
   6 C    6 C          13     1.3832409     1.3946484     1.3355989


optimized geometry written to: xtbopt.xyz


           -------------------------------------------------
          | TOTAL ENERGY              -36.044557942724 Eh   |
          | GRADIENT NORM               0.000416435155 Eh/α |
          | HOMO-LUMO GAP               3.176749595036 eV   |
           -------------------------------------------------

------------------------------------------------------------------------
 * finished run on 2026/07/30 at 13:25:18.339     
------------------------------------------------------------------------
 total:
 * wall-time:     0 d,  0 h,  0 min,  1.680 sec
 *  cpu-time:     0 d,  0 h,  0 min, 11.298 sec
 * ratio c/w:     6.727 speedup
 SCF:
 * wall-time:     0 d,  0 h,  0 min,  0.497 sec
 *  cpu-time:     0 d,  0 h,  0 min,  2.415 sec
 * ratio c/w:     4.863 speedup
 ANC optimizer:
 * wall-time:     0 d,  0 h,  0 min,  1.139 sec
 *  cpu-time:     0 d,  0 h,  0 min,  8.710 sec
 * ratio c/w:     7.650 speedup

