      -----------------------------------------------------------      
     |                   =====================                   |     
     |                           x T B                           |     
     |                   =====================                   |     
     |                         S. Grimme                         |     
     |          Mulliken Center for Theoretical Chemistry        |     
     |                    University of Bonn                     |     
      -----------------------------------------------------------      

   * xtb version 6.5.1 (b24c23e) compiled by 'conda@728c89f4b128' on 2022-07-12

   xtb is free software: you can redistribute it and/or modify it under
   the terms of the GNU Lesser General Public License as published by
   the Free Software Foundation, either version 3 of the License, or
   (at your option) any later version.
   
   xtb is distributed in the hope that it will be useful,
   but WITHOUT ANY WARRANTY; without even the implied warranty of
   MERCHANTABILITY or FITNESS FOR A PARTICULAR PURPOSE.  See the
   GNU Lesser General Public License for more details.
   
   Cite this work as:
   * C. Bannwarth, E. Caldeweyher, S. Ehlert, A. Hansen, P. Pracht,
     J. Seibert, S. Spicher, S. Grimme, WIREs Comput. Mol. Sci., 2020, 11,
     e01493. DOI: 10.1002/wcms.1493
   
   for GFN2-xTB:
   * C. Bannwarth, S. Ehlert and S. Grimme., J. Chem. Theory Comput., 2019,
     15, 1652-1671. DOI: 10.1021/acs.jctc.8b01176
   for GFN1-xTB:
   * S. Grimme, C. Bannwarth, P. Shushkov, J. Chem. Theory Comput., 2017,
     13, 1989-2009. DOI: 10.1021/acs.jctc.7b00118
   for GFN0-xTB:
   * P. Pracht, E. Caldeweyher, S. Ehlert, S. Grimme, ChemRxiv, 2019, preprint.
     DOI: 10.26434/chemrxiv.8326202.v1
   for GFN-FF:
   * S. Spicher and S. Grimme, Angew. Chem. Int. Ed., 2020, 59, 15665-15673.
     DOI: 10.1002/anie.202004239
   
   for ALPB and GBSA implicit solvation:
   * S. Ehlert, M. Stahn, S. Spicher, S. Grimme, J. Chem. Theory Comput.,
     2021, 17, 4250-4261. DOI: 10.1021/acs.jctc.1c00471
   
   for DFT-D4:
   * E. Caldeweyher, C. Bannwarth and S. Grimme, J. Chem. Phys., 2017,
     147, 034112. DOI: 10.1063/1.4993215
   * E. Caldeweyher, S. Ehlert, A. Hansen, H. Neugebauer, S. Spicher,
     C. Bannwarth and S. Grimme, J. Chem. Phys., 2019, 150, 154122.
     DOI: 10.1063/1.5090222
   * E. Caldeweyher, J.-M. Mewes, S. Ehlert and S. Grimme, Phys. Chem. Chem. Phys.
     2020, 22, 8499-8512. DOI: 10.1039/D0CP00502A
   
   for sTDA-xTB:
   * S. Grimme and C. Bannwarth, J. Chem. Phys., 2016, 145, 054103.
     DOI: 10.1063/1.4959605
   
   in the mass-spec context:
   * V. Asgeirsson, C. Bauer and S. Grimme, Chem. Sci., 2017, 8, 4879.
     DOI: 10.1039/c7sc00601b
   * J. Koopman and S. Grimme, ACS Omega 2019, 4, 12, 15120-15133.
     DOI: 10.1021/acsomega.9b02011
   
   for metadynamics refer to:
   * S. Grimme, J. Chem. Theory Comput., 2019, 155, 2847-2862
     DOI: 10.1021/acs.jctc.9b00143
   
   for SPH calculations refer to:
   * S. Spicher and S. Grimme, J. Chem. Theory Comput., 2021, 17, 1701-1714
     DOI: 10.1021/acs.jctc.0c01306
   
   with help from (in alphabetical order)
   P. Atkinson, C. Bannwarth, F. Bohle, G. Brandenburg, E. Caldeweyher
   M. Checinski, S. Dohm, S. Ehlert, S. Ehrlich, I. Gerasimov, C. Hölzer
   A. Katbashev, J. Koopman, C. Lavigne, S. Lehtola, F. März, M. Müller,
   F. Musil, H. Neugebauer, J. Pisarek, C. Plett, P. Pracht, F. Pultar,
   J. Seibert, P. Shushkov, S. Spicher, M. Stahn, M. Steiner, T. Strunk,
   J. Stückrath, T. Rose, and J. Unsleber
   
 * started run on 2026/08/12 at 22:02:24.776     

           -------------------------------------------------
          |                Calculation Setup                |
           -------------------------------------------------

          program call               : /h/332/chchoi/miniconda3/envs/el-agente/bin/xtb ZrCp2Me_eta2_C2H4.xyz --opt --gfn 2 -P 4 --chrg 0 --uhf 0
          coordinate file            : ZrCp2Me_eta2_C2H4.xyz
          omp threads                :                     4

   ID    Z sym.   atoms
    1   40 Zr     1
    2    6 C      2-7, 13-17, 26, 27
    3    1 H      8-12, 18-25, 28-31

molecular fragmentation (1/2 indicates fragments):
1111111111111111111111111222222
# atoms in fragment 1/2:    25     6
 fragment masses (1/2) :      236.44       28.05
CMA distance (Bohr)    :   5.713
constraining FC (au)   :  0.0500

           -------------------------------------------------
          |                 G F N 2 - x T B                 |
           -------------------------------------------------

        Reference                      10.1021/acs.jctc.8b01176
      * Hamiltonian:
        H0-scaling (s, p, d)           1.850000    2.230000    2.230000
        zeta-weighting                 0.500000
      * Dispersion:
        s8                             2.700000
        a1                             0.520000
        a2                             5.000000
        s9                             5.000000
      * Repulsion:
        kExp                           1.500000    1.000000
        rExp                           1.000000
      * Coulomb:
        alpha                          2.000000
        third order                    shell-resolved
        anisotropic                    true
        a3                             3.000000
        a5                             4.000000
        cn-shift                       1.200000
        cn-exp                         4.000000
        max-rad                        5.000000


          ...................................................
          :                      SETUP                      :
          :.................................................:
          :  # basis functions                  79          :
          :  # atomic orbitals                  78          :
          :  # shells                           46          :
          :  # electrons                        73          :
          :  max. iterations                   250          :
          :  Hamiltonian                  GFN2-xTB          :
          :  restarted?                      false          :
          :  GBSA solvation                  false          :
          :  PC potential                    false          :
          :  electronic temp.          300.0000000     K    :
          :  accuracy                    1.0000000          :
          :  -> integral cutoff          0.2500000E+02      :
          :  -> integral neglect         0.1000000E-07      :
          :  -> SCF convergence          0.1000000E-05 Eh   :
          :  -> wf. convergence          0.1000000E-03 e    :
          :  Broyden damping             0.4000000          :
          ...................................................

 iter      E             dE          RMSdq      gap      omega  full diag
   1    -37.9857757 -0.379858E+02  0.500E+00    0.15       0.0  T
   2    -38.2290301 -0.243254E+00  0.423E+00    1.34       1.0  T
   3    -38.4520638 -0.223034E+00  0.270E+00    0.19       1.0  T
   4    -38.4668002 -0.147364E-01  0.206E+00    0.35       1.0  T
   5    -38.4708638 -0.406362E-02  0.842E-01    0.34       1.0  T
   6    -38.4698046  0.105927E-02  0.403E-01    0.32       1.0  T
   7    -38.4722604 -0.245583E-02  0.220E-01    0.30       1.0  T
   8    -38.4727426 -0.482241E-03  0.119E-01    0.32       1.0  T
   9    -38.4727714 -0.287821E-04  0.466E-02    0.33       1.0  T
  10    -38.4727879 -0.165140E-04  0.201E-02    0.32       1.0  T
  11    -38.4727890 -0.108007E-05  0.130E-02    0.32       1.4  T
  12    -38.4727888  0.224996E-06  0.104E-02    0.32       1.7  T
  13    -38.4727895 -0.713032E-06  0.380E-03    0.32       4.7  T
  14    -38.4727896 -0.128687E-06  0.853E-04    0.32      21.1  T
  15    -38.4727896  0.223476E-08  0.841E-04    0.32      21.4  T

   *** convergence criteria satisfied after 15 iterations ***

         #    Occupation            Energy/Eh            Energy/eV
      -------------------------------------------------------------
         1        2.0000           -0.6829456             -18.5839
       ...           ...                  ...                  ...
        31        2.0000           -0.4121557             -11.2153
        32        2.0000           -0.3567887              -9.7087
        33        2.0000           -0.3518112              -9.5733
        34        2.0000           -0.3412108              -9.2848
        35        2.0000           -0.3327246              -9.0539
        36        2.0000           -0.3322926              -9.0421
        37        0.9979           -0.2744293              -7.4676 (HOMO)
        38        0.0019           -0.2626091              -7.1460 (LUMO)
        39        0.0002           -0.2606887              -7.0937
        40        0.0000           -0.2572203              -6.9993
        41                         -0.2504192              -6.8143
        42                         -0.2317819              -6.3071
       ...                                ...                  ...
        78                          1.5403465              41.9150
      -------------------------------------------------------------
                  HL-Gap            0.0118202 Eh            0.3216 eV
             Fermi-level           -0.2858628 Eh           -7.7787 eV

 SCC (total)                   0 d,  0 h,  0 min,  0.980 sec
 SCC setup                      ...        0 min,  0.004 sec (  0.433%)
 Dispersion                     ...        0 min,  0.014 sec (  1.460%)
 classical contributions        ...        0 min,  0.011 sec (  1.083%)
 integral evaluation            ...        0 min,  0.055 sec (  5.636%)
 iterations                     ...        0 min,  0.880 sec ( 89.773%)
 molecular gradient             ...        0 min,  0.015 sec (  1.581%)
 printout                       ...        0 min,  0.000 sec (  0.028%)

         :::::::::::::::::::::::::::::::::::::::::::::::::::::
         ::                     SUMMARY                     ::
         :::::::::::::::::::::::::::::::::::::::::::::::::::::
         :: total energy             -37.911580621963 Eh    ::
         :: gradient norm              0.205236673596 Eh/a0 ::
         :: HOMO-LUMO gap              0.321644439913 eV    ::
         ::.................................................::
         :: SCC energy               -38.472789616467 Eh    ::
         :: -> isotropic ES            0.030025044760 Eh    ::
         :: -> anisotropic ES          0.012663994540 Eh    ::
         :: -> anisotropic XC          0.022779550099 Eh    ::
         :: -> dispersion             -0.029560634374 Eh    ::
         :: repulsion energy           0.560402980177 Eh    ::
         :: add. restraining           0.000000000000 Eh    ::
         :: total charge               0.000000000000 e     ::
         :::::::::::::::::::::::::::::::::::::::::::::::::::::

      ----------------------------------------------------------- 
     |                   =====================                   |
     |                        A N C O P T                        |
     |                   =====================                   |
     |               Approximate Normal Coordinate               |
     |                Rational Function Optimizer                |
      ----------------------------------------------------------- 

          ...................................................
          :                      SETUP                      :
          :.................................................:
          :   optimization level            normal          :
          :   max. optcycles                   200          :
          :   ANC micro-cycles                  20          :
          :   degrees of freedom                87          :
          :.................................................:
          :   RF solver                   davidson          :
          :   write xtbopt.log                true          :
          :   linear?                        false          :
          :   energy convergence         0.5000000E-05 Eh   :
          :   grad. convergence          0.1000000E-02 Eh/α :
          :   maximium RF displ.         1.0000000          :
          :   Hlow (freq-cutoff)         0.1000000E-01      :
          :   Hmax (freq-cutoff)         5.0000000          :
          :   S6 in model hess.         20.0000000          :
          ...................................................

generating ANC from model Hessian ...
Using Lindh-Hessian (1995)
 Shifting diagonal of input Hessian by    1.3732395051140028E-002
 Lowest  eigenvalues of input Hessian
    0.010000    0.013715    0.000000    0.000000    0.000000    0.000000
    0.000000    0.000000    0.013891    0.013981    0.014037    0.014156
    0.014267    0.014395    0.014536    0.014633    0.014714    0.014857
 Highest eigenvalues
    1.493677    1.494916    1.494997    1.495456    1.495476    1.888374


........................................................................
.............................. CYCLE    1 ..............................
........................................................................
   1    -38.4727896 -0.384728E+02  0.388E-04    0.32       0.0  T
   2    -38.4727896  0.140646E-08  0.404E-04    0.32      44.4  T
   3    -38.4727896 -0.263756E-08  0.162E-04    0.32     111.0  T
     SCC iter.                  ...        0 min,  0.160 sec
     gradient                   ...        0 min,  0.013 sec
 * total energy  :   -37.9115806 Eh     change       -0.6573913E-08 Eh
   gradient norm :     0.2052420 Eh/α   predicted     0.0000000E+00 (-100.00%)
   displ. norm   :     0.6080690 α      lambda       -0.8102316E-01
   maximum displ.:     0.2865513 α      in ANC's #25, #59, #14, ...

........................................................................
.............................. CYCLE    2 ..............................
........................................................................
   1    -38.5632979 -0.385633E+02  0.711E-01    0.32       0.0  T
   2    -38.5545646  0.873328E-02  0.127E+00    0.17       1.0  T
   3    -38.5645131 -0.994850E-02  0.772E-01    0.21       1.0  T
   4    -38.5668293 -0.231620E-02  0.395E-01    0.23       1.0  T
   5    -38.5674507 -0.621346E-03  0.137E-01    0.26       1.0  T
   6    -38.5674719 -0.212221E-04  0.115E-01    0.25       1.0  T
   7    -38.5674733 -0.144562E-05  0.277E-02    0.26       1.0  T
   8    -38.5674807 -0.740256E-05  0.155E-02    0.26       1.2  T
   9    -38.5674814 -0.666568E-06  0.788E-03    0.26       2.3  T
  10    -38.5674817 -0.267876E-06  0.251E-03    0.26       7.2  T
  11    -38.5674816  0.526486E-07  0.273E-03    0.26       6.6  T
  12    -38.5674817 -0.502534E-07  0.142E-03    0.26      12.6  T
  13    -38.5674817 -0.125677E-07  0.340E-04    0.26      52.8  T
  14    -38.5674817 -0.341586E-09  0.184E-04    0.26      97.4  T
     SCC iter.                  ...        0 min,  0.824 sec
     gradient                   ...        0 min,  0.059 sec
 * total energy  :   -37.9635454 Eh     change       -0.5196481E-01 Eh
   gradient norm :     0.0754864 Eh/α   predicted    -0.5550995E-01 (   6.82%)
   displ. norm   :     0.7194244 α      lambda       -0.4456002E-01
   maximum displ.:     0.3246895 α      in ANC's #25, #28, #27, ...

........................................................................
.............................. CYCLE    3 ..............................
........................................................................
   1    -38.6233615 -0.386234E+02  0.115E+00    0.51       0.0  T
   2    -38.6036366  0.197250E-01  0.184E+00    0.23       1.0  T
   3    -38.6339747 -0.303382E-01  0.641E-01    0.31       1.0  T
   4    -38.6354376 -0.146290E-02  0.305E-01    0.34       1.0  T
   5    -38.6354988 -0.611943E-04  0.116E-01    0.35       1.0  T
   6    -38.6355132 -0.144234E-04  0.106E-01    0.35       1.0  T
   7    -38.6355529 -0.396301E-04  0.323E-02    0.35       1.0  T
   8    -38.6355568 -0.393297E-05  0.227E-02    0.36       1.0  T
   9    -38.6355592 -0.238519E-05  0.105E-02    0.35       1.7  T
  10    -38.6355597 -0.488304E-06  0.290E-03    0.35       6.2  T
  11    -38.6355597 -0.221580E-07  0.183E-03    0.35       9.8  T
  12    -38.6355597 -0.599471E-08  0.833E-04    0.35      21.6  T
  13    -38.6355597 -0.197900E-08  0.365E-04    0.35      49.2  T
     SCC iter.                  ...        0 min,  0.742 sec
     gradient                   ...        0 min,  0.035 sec
 * total energy  :   -37.9821949 Eh     change       -0.1864951E-01 Eh
   gradient norm :     0.0886421 Eh/α   predicted    -0.3381153E-01 (  81.30%)
   displ. norm   :     0.5019459 α      lambda       -0.1579678E-01
   maximum displ.:     0.3245200 α      in ANC's #14, #13, #7, ...

........................................................................
.............................. CYCLE    4 ..............................
........................................................................
   1    -38.6216710 -0.386217E+02  0.471E-01    0.50       0.0  T
   2    -38.6211056  0.565412E-03  0.364E-01    0.42       1.0  T
   3    -38.6216411 -0.535517E-03  0.322E-01    0.51       1.0  T
   4    -38.6221912 -0.550064E-03  0.747E-02    0.47       1.0  T
   5    -38.6221873  0.381271E-05  0.638E-02    0.48       1.0  T
   6    -38.6222051 -0.177858E-04  0.248E-02    0.47       1.0  T
   7    -38.6222111 -0.596128E-05  0.726E-03    0.47       2.5  T
   8    -38.6222112 -0.100688E-06  0.381E-03    0.47       4.7  T
   9    -38.6222112 -0.121527E-08  0.258E-03    0.47       7.0  T
  10    -38.6222112 -0.345364E-07  0.126E-03    0.47      14.2  T
  11    -38.6222112 -0.180051E-08  0.567E-04    0.47      31.7  T
  12    -38.6222112 -0.222801E-08  0.151E-04    0.47     118.7  T
     SCC iter.                  ...        0 min,  0.606 sec
     gradient                   ...        0 min,  0.102 sec
 * total energy  :   -37.9926900 Eh     change       -0.1049503E-01 Eh
   gradient norm :     0.0353221 Eh/α   predicted    -0.9888420E-02 (  -5.78%)
   displ. norm   :     0.6098821 α      lambda       -0.9415826E-02
   maximum displ.:     0.3151916 α      in ANC's #14, #2, #1, ...

........................................................................
.............................. CYCLE    5 ..............................
........................................................................
   1    -38.6281813 -0.386282E+02  0.575E-01    0.73       0.0  T
   2    -38.6279372  0.244159E-03  0.434E-01    0.57       1.0  T
   3    -38.6293669 -0.142979E-02  0.294E-01    0.68       1.0  T
   4    -38.6295709 -0.203947E-03  0.119E-01    0.63       1.0  T
   5    -38.6296208 -0.499433E-04  0.571E-02    0.65       1.0  T
   6    -38.6296595 -0.387133E-04  0.312E-02    0.65       1.0  T
   7    -38.6296618 -0.220544E-05  0.106E-02    0.65       1.7  T
   8    -38.6296622 -0.474611E-06  0.627E-03    0.65       2.9  T
   9    -38.6296624 -0.188327E-06  0.251E-03    0.65       7.2  T
  10    -38.6296624 -0.630398E-08  0.126E-03    0.65      14.3  T
  11    -38.6296624 -0.637762E-08  0.434E-04    0.65      41.4  T
  12    -38.6296624 -0.140172E-08  0.197E-04    0.65      91.3  T
     SCC iter.                  ...        0 min,  0.717 sec
     gradient                   ...        0 min,  0.032 sec
 * total energy  :   -37.9970978 Eh     change       -0.4407827E-02 Eh
   gradient norm :     0.0352896 Eh/α   predicted    -0.6459048E-02 (  46.54%)
   displ. norm   :     0.6862732 α      lambda       -0.1144146E-01
   maximum displ.:     0.3203671 α      in ANC's #1, #14, #2, ...

........................................................................
.............................. CYCLE    6 ..............................
........................................................................
   1    -38.6382449 -0.386382E+02  0.515E-01    0.99       0.0  T
   2    -38.6393348 -0.108989E-02  0.513E-01    0.81       1.0  T
   3    -38.6402556 -0.920802E-03  0.385E-01    0.88       1.0  T
   4    -38.6403279 -0.722424E-04  0.236E-01    0.87       1.0  T
   5    -38.6402996  0.282885E-04  0.125E-01    0.91       1.0  T
   6    -38.6404006 -0.100995E-03  0.550E-02    0.89       1.0  T
   7    -38.6404138 -0.132081E-04  0.191E-02    0.89       1.0  T
   8    -38.6404141 -0.313680E-06  0.101E-02    0.89       1.8  T
   9    -38.6404149 -0.808487E-06  0.409E-03    0.89       4.4  T
  10    -38.6404150 -0.949543E-07  0.266E-03    0.89       6.7  T
  11    -38.6404150 -0.137389E-07  0.795E-04    0.89      22.6  T
  12    -38.6404150 -0.193299E-08  0.235E-04    0.89      76.3  T
     SCC iter.                  ...        0 min,  0.454 sec
     gradient                   ...        0 min,  0.105 sec
 * total energy  :   -37.9944193 Eh     change        0.2678501E-02 Eh
   gradient norm :     0.0581713 Eh/α   predicted    -0.8415040E-02 (-414.17%)
   displ. norm   :     0.3134471 α      lambda       -0.1385125E-01
   maximum displ.:     0.1730400 α      in ANC's #1, #33, #19, ...

........................................................................
.............................. CYCLE    7 ..............................
........................................................................
   1    -38.6407147 -0.386407E+02  0.433E-01    0.71       0.0  T
   2    -38.6409444 -0.229617E-03  0.330E-01    0.76       1.0  T
   3    -38.6406744  0.269913E-03  0.290E-01    0.68       1.0  T
   4    -38.6411731 -0.498609E-03  0.121E-01    0.73       1.0  T
   5    -38.6411609  0.121629E-04  0.800E-02    0.72       1.0  T
   6    -38.6411887 -0.277894E-04  0.368E-02    0.73       1.0  T
   7    -38.6411910 -0.232010E-05  0.134E-02    0.73       1.3  T
   8    -38.6411914 -0.428604E-06  0.734E-03    0.73       2.4  T
   9    -38.6411918 -0.325914E-06  0.299E-03    0.73       6.0  T
  10    -38.6411918 -0.278731E-07  0.173E-03    0.73      10.4  T
  11    -38.6411918 -0.131389E-07  0.754E-04    0.73      23.8  T
  12    -38.6411918 -0.285891E-08  0.185E-04    0.73      96.9  T
     SCC iter.                  ...        0 min,  0.584 sec
     gradient                   ...        0 min,  0.134 sec
 * total energy  :   -38.0016053 Eh     change       -0.7186013E-02 Eh
   gradient norm :     0.0208235 Eh/α   predicted    -0.7606083E-02 (   5.85%)
   displ. norm   :     0.3010192 α      lambda       -0.2735120E-02
   maximum displ.:     0.1231813 α      in ANC's #2, #28, #4, ...

........................................................................
.............................. CYCLE    8 ..............................
........................................................................
   1    -38.6344273 -0.386344E+02  0.315E-01    0.72       0.0  T
   2    -38.6345489 -0.121602E-03  0.273E-01    0.73       1.0  T
   3    -38.6345253  0.236153E-04  0.161E-01    0.71       1.0  T
   4    -38.6344770  0.483432E-04  0.882E-02    0.75       1.0  T
   5    -38.6345938 -0.116776E-03  0.504E-02    0.72       1.0  T
   6    -38.6346009 -0.715882E-05  0.239E-02    0.72       1.0  T
   7    -38.6346032 -0.226978E-05  0.793E-03    0.72       2.3  T
   8    -38.6346034 -0.197267E-06  0.479E-03    0.72       3.8  T
   9    -38.6346034 -0.294736E-07  0.171E-03    0.72      10.5  T
  10    -38.6346034 -0.141848E-07  0.107E-03    0.72      16.8  T
  11    -38.6346034 -0.545049E-08  0.297E-04    0.72      60.5  T
  12    -38.6346034 -0.210825E-09  0.107E-04    0.72     168.1  T
     SCC iter.                  ...        0 min,  0.562 sec
     gradient                   ...        0 min,  0.032 sec
 * total energy  :   -38.0021444 Eh     change       -0.5390440E-03 Eh
   gradient norm :     0.0203160 Eh/α   predicted    -0.1491472E-02 ( 176.69%)
   displ. norm   :     0.2847515 α      lambda       -0.2349644E-02
   maximum displ.:     0.1076155 α      in ANC's #5, #3, #6, ...

........................................................................
.............................. CYCLE    9 ..............................
........................................................................
   1    -38.6400451 -0.386400E+02  0.204E-01    0.82       0.0  T
   2    -38.6400994 -0.542555E-04  0.185E-01    0.80       1.0  T
   3    -38.6401294 -0.300230E-04  0.141E-01    0.81       1.0  T
   4    -38.6400901  0.393659E-04  0.576E-02    0.79       1.0  T
   5    -38.6401360 -0.459668E-04  0.259E-02    0.81       1.0  T
   6    -38.6401391 -0.310780E-05  0.133E-02    0.81       1.3  T
   7    -38.6401396 -0.476329E-06  0.518E-03    0.81       3.5  T
   8    -38.6401396 -0.944027E-08  0.328E-03    0.81       5.5  T
   9    -38.6401396 -0.258673E-07  0.134E-03    0.81      13.4  T
  10    -38.6401397 -0.153409E-07  0.706E-04    0.81      25.4  T
  11    -38.6401397 -0.535088E-09  0.175E-04    0.81     102.4  T
     SCC iter.                  ...        0 min,  0.559 sec
     gradient                   ...        0 min,  0.124 sec
 * total energy  :   -38.0032085 Eh     change       -0.1064187E-02 Eh
   gradient norm :     0.0152587 Eh/α   predicted    -0.1270083E-02 (  19.35%)
   displ. norm   :     0.2990390 α      lambda       -0.1964342E-02
   maximum displ.:     0.1444446 α      in ANC's #4, #6, #3, ...

........................................................................
.............................. CYCLE   10 ..............................
........................................................................
   1    -38.6417525 -0.386418E+02  0.162E-01    0.76       0.0  T
   2    -38.6418023 -0.497337E-04  0.129E-01    0.76       1.0  T
   3    -38.6418053 -0.307240E-05  0.926E-02    0.76       1.0  T
   4    -38.6417608  0.444897E-04  0.655E-02    0.78       1.0  T
   5    -38.6418209 -0.600514E-04  0.282E-02    0.76       1.0  T
   6    -38.6418250 -0.406961E-05  0.146E-02    0.76       1.2  T
   7    -38.6418251 -0.138479E-06  0.638E-03    0.76       2.8  T
   8    -38.6418252 -0.125701E-06  0.363E-03    0.76       4.9  T
   9    -38.6418253 -0.117002E-06  0.113E-03    0.76      15.9  T
  10    -38.6418254 -0.419635E-08  0.657E-04    0.76      27.3  T
  11    -38.6418254 -0.399972E-09  0.183E-04    0.76      98.0  T
     SCC iter.                  ...        0 min,  0.483 sec
     gradient                   ...        0 min,  0.046 sec
 * total energy  :   -38.0041730 Eh     change       -0.9644207E-03 Eh
   gradient norm :     0.0153197 Eh/α   predicted    -0.1070006E-02 (  10.95%)
   displ. norm   :     0.3507027 α      lambda       -0.1184959E-02
   maximum displ.:     0.2016498 α      in ANC's #4, #12, #6, ...

........................................................................
.............................. CYCLE   11 ..............................
........................................................................
   1    -38.6391444 -0.386391E+02  0.185E-01    0.79       0.0  T
   2    -38.6391525 -0.808952E-05  0.133E-01    0.79       1.0  T
   3    -38.6391219  0.306386E-04  0.449E-02    0.79       1.0  T
   4    -38.6391559 -0.340505E-04  0.139E-02    0.79       1.3  T
   5    -38.6391569 -0.994802E-06  0.917E-03    0.79       2.0  T
   6    -38.6391571 -0.196025E-06  0.290E-03    0.79       6.2  T
   7    -38.6391571 -0.425631E-07  0.986E-04    0.79      18.2  T
   8    -38.6391571 -0.146500E-08  0.702E-04    0.79      25.6  T
     SCC iter.                  ...        0 min,  0.312 sec
     gradient                   ...        0 min,  0.004 sec
 * total energy  :   -38.0051599 Eh     change       -0.9869797E-03 Eh
   gradient norm :     0.0136827 Eh/α   predicted    -0.6653528E-03 ( -32.59%)
   displ. norm   :     0.6332854 α      lambda       -0.2007204E-02
   maximum displ.:     0.3872783 α      in ANC's #4, #12, #3, ...

........................................................................
.............................. CYCLE   12 ..............................
........................................................................
   1    -38.6382340 -0.386382E+02  0.347E-01    0.80       0.0  T
   2    -38.6382451 -0.110952E-04  0.246E-01    0.84       1.0  T
   3    -38.6379955  0.249617E-03  0.191E-01    0.78       1.0  T
   4    -38.6383113 -0.315789E-03  0.257E-02    0.82       1.0  T
   5    -38.6383178 -0.658295E-05  0.172E-02    0.82       1.0  T
   6    -38.6383200 -0.220383E-05  0.770E-03    0.82       2.3  T
   7    -38.6383202 -0.187913E-06  0.236E-03    0.82       7.6  T
   8    -38.6383202 -0.116250E-07  0.150E-03    0.82      12.0  T
   9    -38.6383202 -0.525932E-08  0.138E-03    0.82      13.0  T
  10    -38.6383202 -0.332881E-08  0.568E-04    0.82      31.6  T
  11    -38.6383202 -0.332960E-09  0.172E-04    0.82     104.6  T
     SCC iter.                  ...        0 min,  0.446 sec
     gradient                   ...        0 min,  0.016 sec
 * total energy  :   -38.0065947 Eh     change       -0.1434774E-02 Eh
   gradient norm :     0.0158347 Eh/α   predicted    -0.1406098E-02 (  -2.00%)
   displ. norm   :     0.5311575 α      lambda       -0.1306043E-02
   maximum displ.:     0.3397036 α      in ANC's #4, #12, #3, ...

........................................................................
.............................. CYCLE   13 ..............................
........................................................................
   1    -38.6375753 -0.386376E+02  0.263E-01    0.85       0.0  T
   2    -38.6375827 -0.741217E-05  0.173E-01    0.86       1.0  T
   3    -38.6375243  0.583963E-04  0.659E-02    0.84       1.0  T
   4    -38.6375873 -0.629876E-04  0.155E-02    0.86       1.2  T
   5    -38.6375883 -0.104180E-05  0.105E-02    0.85       1.7  T
   6    -38.6375889 -0.556441E-06  0.278E-03    0.86       6.5  T
   7    -38.6375889 -0.545571E-07  0.143E-03    0.86      12.6  T
   8    -38.6375889 -0.713449E-09  0.939E-04    0.86      19.1  T
   9    -38.6375889 -0.498677E-08  0.380E-04    0.86      47.3  T
     SCC iter.                  ...        0 min,  0.495 sec
     gradient                   ...        0 min,  0.061 sec
 * total energy  :   -38.0075568 Eh     change       -0.9620527E-03 Eh
   gradient norm :     0.0172174 Eh/α   predicted    -0.8372598E-03 ( -12.97%)
   displ. norm   :     0.4812681 α      lambda       -0.1845363E-02
   maximum displ.:     0.3149472 α      in ANC's #4, #12, #14, ...

........................................................................
.............................. CYCLE   14 ..............................
........................................................................
   1    -38.6492804 -0.386493E+02  0.193E-01    0.85       0.0  T
   2    -38.6492988 -0.183912E-04  0.151E-01    0.88       1.0  T
   3    -38.6493035 -0.470317E-05  0.950E-02    0.86       1.0  T
   4    -38.6493091 -0.553166E-05  0.367E-02    0.88       1.0  T
   5    -38.6493251 -0.160747E-04  0.126E-02    0.87       1.4  T
   6    -38.6493253 -0.192461E-06  0.877E-03    0.87       2.0  T
   7    -38.6493256 -0.303288E-06  0.330E-03    0.87       5.4  T
   8    -38.6493257 -0.864380E-08  0.155E-03    0.87      11.6  T
   9    -38.6493257 -0.727636E-08  0.104E-03    0.87      17.3  T
  10    -38.6493257 -0.617010E-08  0.407E-04    0.87      44.1  T
  11    -38.6493257 -0.646061E-09  0.156E-04    0.87     115.4  T
     SCC iter.                  ...        0 min,  0.561 sec
     gradient                   ...        0 min,  0.033 sec
 * total energy  :   -38.0088198 Eh     change       -0.1263057E-02 Eh
   gradient norm :     0.0149675 Eh/α   predicted    -0.1136392E-02 ( -10.03%)
   displ. norm   :     0.6376408 α      lambda       -0.2018371E-02
   maximum displ.:     0.3716834 α      in ANC's #4, #12, #6, ...

........................................................................
.............................. CYCLE   15 ..............................
........................................................................
   1    -38.6455509 -0.386456E+02  0.230E-01    0.91       0.0  T
   2    -38.6455600 -0.916138E-05  0.167E-01    0.88       1.0  T
   3    -38.6455151  0.449675E-04  0.105E-01    0.92       1.0  T
   4    -38.6455974 -0.823638E-04  0.381E-02    0.89       1.0  T
   5    -38.6456034 -0.597930E-05  0.149E-02    0.90       1.2  T
   6    -38.6456031  0.330461E-06  0.537E-03    0.90       3.3  T
   7    -38.6456036 -0.506303E-06  0.279E-03    0.90       6.4  T
   8    -38.6456036 -0.291977E-07  0.174E-03    0.90      10.3  T
   9    -38.6456036 -0.779136E-08  0.916E-04    0.90      19.6  T
  10    -38.6456036 -0.246678E-08  0.382E-04    0.90      47.1  T
     SCC iter.                  ...        0 min,  0.454 sec
     gradient                   ...        0 min,  0.005 sec
 * total energy  :   -38.0103348 Eh     change       -0.1514983E-02 Eh
   gradient norm :     0.0157900 Eh/α   predicted    -0.1419509E-02 (  -6.30%)
   displ. norm   :     0.5166737 α      lambda       -0.2138454E-02
   maximum displ.:     0.2294617 α      in ANC's #9, #12, #4, ...

........................................................................
.............................. CYCLE   16 ..............................
........................................................................
   1    -38.6538615 -0.386539E+02  0.158E-01    0.92       0.0  T
   2    -38.6538752 -0.137657E-04  0.105E-01    0.90       1.0  T
   3    -38.6538517  0.234820E-04  0.699E-02    0.92       1.0  T
   4    -38.6538973 -0.455836E-04  0.201E-02    0.90       1.0  T
   5    -38.6539002 -0.286927E-05  0.109E-02    0.91       1.7  T
   6    -38.6539003 -0.147900E-06  0.365E-03    0.91       4.9  T
   7    -38.6539004 -0.100264E-06  0.238E-03    0.91       7.5  T
   8    -38.6539005 -0.260198E-07  0.144E-03    0.91      12.4  T
   9    -38.6539005 -0.540434E-08  0.849E-04    0.91      21.2  T
  10    -38.6539005 -0.315984E-08  0.368E-04    0.91      48.8  T
     SCC iter.                  ...        0 min,  0.439 sec
     gradient                   ...        0 min,  0.015 sec
 * total energy  :   -38.0115660 Eh     change       -0.1231174E-02 Eh
   gradient norm :     0.0153671 Eh/α   predicted    -0.1354660E-02 (  10.03%)
   displ. norm   :     0.6381921 α      lambda       -0.1804253E-02
   maximum displ.:     0.3499137 α      in ANC's #12, #4, #9, ...

........................................................................
.............................. CYCLE   17 ..............................
........................................................................
   1    -38.6405013 -0.386405E+02  0.292E-01    0.93       0.0  T
   2    -38.6405308 -0.294779E-04  0.163E-01    0.92       1.0  T
   3    -38.6404725  0.582791E-04  0.117E-01    0.94       1.0  T
   4    -38.6405432 -0.706631E-04  0.440E-02    0.92       1.0  T
   5    -38.6405487 -0.556551E-05  0.215E-02    0.93       1.0  T
   6    -38.6405482  0.503727E-06  0.689E-03    0.92       2.6  T
   7    -38.6405488 -0.578385E-06  0.222E-03    0.93       8.1  T
   8    -38.6405489 -0.921067E-07  0.918E-04    0.93      19.6  T
   9    -38.6405489 -0.425213E-08  0.619E-04    0.93      29.0  T
     SCC iter.                  ...        0 min,  0.384 sec
     gradient                   ...        0 min,  0.005 sec
 * total energy  :   -38.0124095 Eh     change       -0.8435215E-03 Eh
   gradient norm :     0.0233704 Eh/α   predicted    -0.1269554E-02 (  50.51%)
   displ. norm   :     0.3044007 α      lambda       -0.1926401E-02
   maximum displ.:     0.1285667 α      in ANC's #15, #4, #13, ...

........................................................................
.............................. CYCLE   18 ..............................
........................................................................
   1    -38.6428147 -0.386428E+02  0.173E-01    0.93       0.0  T
   2    -38.6428627 -0.479382E-04  0.874E-02    0.94       1.0  T
   3    -38.6428668 -0.412727E-05  0.618E-02    0.93       1.0  T
   4    -38.6428691 -0.231713E-05  0.236E-02    0.93       1.0  T
   5    -38.6428702 -0.112305E-05  0.210E-02    0.93       1.0  T
   6    -38.6428713 -0.109796E-05  0.927E-03    0.93       1.9  T
   7    -38.6428715 -0.206423E-06  0.310E-03    0.93       5.8  T
   8    -38.6428716 -0.589196E-07  0.120E-03    0.93      15.0  T
   9    -38.6428716 -0.537078E-09  0.745E-04    0.93      24.1  T
  10    -38.6428716 -0.298092E-08  0.349E-04    0.93      51.4  T
     SCC iter.                  ...        0 min,  0.498 sec
     gradient                   ...        0 min,  0.114 sec
 * total energy  :   -38.0130064 Eh     change       -0.5969110E-03 Eh
   gradient norm :     0.0221258 Eh/α   predicted    -0.1052455E-02 (  76.32%)
   displ. norm   :     0.2305397 α      lambda       -0.1524991E-02
   maximum displ.:     0.1250792 α      in ANC's #12, #15, #7, ...

........................................................................
.............................. CYCLE   19 ..............................
........................................................................
   1    -38.6539949 -0.386540E+02  0.160E-01    0.90       0.0  T
   2    -38.6539998 -0.485922E-05  0.116E-01    0.93       1.0  T
   3    -38.6540066 -0.685809E-05  0.804E-02    0.91       1.0  T
   4    -38.6540355 -0.288351E-04  0.204E-02    0.92       1.0  T
   5    -38.6540374 -0.191356E-05  0.893E-03    0.92       2.0  T
   6    -38.6540380 -0.628810E-06  0.306E-03    0.92       5.9  T
   7    -38.6540380 -0.257954E-07  0.204E-03    0.92       8.8  T
   8    -38.6540380 -0.190596E-08  0.116E-03    0.92      15.5  T
   9    -38.6540380 -0.128337E-07  0.549E-04    0.92      32.7  T
  10    -38.6540380 -0.374477E-09  0.242E-04    0.92      74.2  T
     SCC iter.                  ...        0 min,  0.562 sec
     gradient                   ...        0 min,  0.113 sec
 * total energy  :   -38.0136950 Eh     change       -0.6886150E-03 Eh
   gradient norm :     0.0154035 Eh/α   predicted    -0.8030239E-03 (  16.61%)
   displ. norm   :     0.5047124 α      lambda       -0.1390173E-02
   maximum displ.:     0.2672493 α      in ANC's #4, #12, #6, ...

........................................................................
.............................. CYCLE   20 ..............................
........................................................................
   1    -38.6465742 -0.386466E+02  0.227E-01    1.00       0.0  T
   2    -38.6465934 -0.192464E-04  0.179E-01    0.94       1.0  T
   3    -38.6466644 -0.709196E-04  0.996E-02    0.98       1.0  T
   4    -38.6466782 -0.138459E-04  0.514E-02    0.96       1.0  T
   5    -38.6466915 -0.132950E-04  0.239E-02    0.96       1.0  T
   6    -38.6466920 -0.540552E-06  0.874E-03    0.97       2.1  T
   7    -38.6466931 -0.105139E-05  0.362E-03    0.97       5.0  T
   8    -38.6466931 -0.359677E-07  0.205E-03    0.97       8.8  T
   9    -38.6466931 -0.204806E-07  0.112E-03    0.97      16.0  T
  10    -38.6466931 -0.273711E-08  0.550E-04    0.97      32.7  T
  11    -38.6466931 -0.121796E-08  0.139E-04    0.97     129.4  T
     SCC iter.                  ...        0 min,  0.507 sec
     gradient                   ...        0 min,  0.007 sec
 * total energy  :   -38.0141436 Eh     change       -0.4486078E-03 Eh
   gradient norm :     0.0204389 Eh/α   predicted    -0.8721533E-03 (  94.41%)
   displ. norm   :     0.1327161 α      lambda       -0.9250984E-03
   maximum displ.:     0.0543772 α      in ANC's #7, #18, #62, ...
 * RMSD in coord.:     1.0510546 α      energy gain  -0.1025630E+00 Eh

generating ANC from model Hessian ...
Using Lindh-Hessian (1995)
 Shifting diagonal of input Hessian by    9.7142509376402057E-003
 Lowest  eigenvalues of input Hessian
    0.000000    0.000000    0.000000    0.000000    0.000000    0.000000
    0.010000    0.010190    0.010286    0.010508    0.010694    0.011189
    0.011610    0.011679    0.011841    0.015499    0.015557    0.015563
 Highest eigenvalues
    1.707046    1.708938    1.766540    1.768070    1.769166    1.773561


........................................................................
.............................. CYCLE   21 ..............................
........................................................................
   1    -38.6517353 -0.386517E+02  0.890E-02    0.96       0.0  T
   2    -38.6517381 -0.271343E-05  0.695E-02    0.97       1.0  T
   3    -38.6517234  0.146600E-04  0.302E-02    0.96       1.0  T
   4    -38.6517412 -0.178259E-04  0.192E-02    0.97       1.0  T
   5    -38.6517423 -0.105319E-05  0.108E-02    0.97       1.7  T
   6    -38.6517428 -0.488361E-06  0.242E-03    0.97       7.4  T
   7    -38.6517428 -0.605482E-07  0.787E-04    0.97      22.8  T
   8    -38.6517428 -0.240877E-08  0.369E-04    0.97      48.6  T
     SCC iter.                  ...        0 min,  0.319 sec
     gradient                   ...        0 min,  0.032 sec
 * total energy  :   -38.0147351 Eh     change       -0.5914898E-03 Eh
   gradient norm :     0.0107300 Eh/α   predicted     0.0000000E+00 (-100.00%)
   displ. norm   :     0.2036876 α      lambda       -0.7465984E-03
   maximum displ.:     0.1318838 α      in ANC's #6, #4, #2, ...

........................................................................
.............................. CYCLE   22 ..............................
........................................................................
   1    -38.6550339 -0.386550E+02  0.662E-02    0.98       0.0  T
   2    -38.6550374 -0.342997E-05  0.478E-02    0.98       1.0  T
   3    -38.6550371  0.288416E-06  0.229E-02    0.98       1.0  T
   4    -38.6550375 -0.440553E-06  0.104E-02    0.98       1.7  T
   5    -38.6550384 -0.946406E-06  0.446E-03    0.98       4.0  T
   6    -38.6550384  0.381906E-07  0.306E-03    0.98       5.9  T
   7    -38.6550385 -0.569037E-07  0.127E-03    0.98      14.1  T
   8    -38.6550385 -0.827957E-08  0.846E-04    0.98      21.2  T
   9    -38.6550385 -0.136124E-08  0.402E-04    0.98      44.6  T
     SCC iter.                  ...        0 min,  0.502 sec
     gradient                   ...        0 min,  0.118 sec
 * total energy  :   -38.0153195 Eh     change       -0.5843514E-03 Eh
   gradient norm :     0.0042371 Eh/α   predicted    -0.3887880E-03 ( -33.47%)
   displ. norm   :     0.3815361 α      lambda       -0.8215136E-03
   maximum displ.:     0.2331056 α      in ANC's #6, #4, #2, ...

........................................................................
.............................. CYCLE   23 ..............................
........................................................................
   1    -38.6553434 -0.386553E+02  0.130E-01    0.99       0.0  T
   2    -38.6553453 -0.184685E-05  0.826E-02    1.00       1.0  T
   3    -38.6553336  0.116170E-04  0.313E-02    0.99       1.0  T
   4    -38.6553467 -0.130194E-04  0.111E-02    0.99       1.6  T
   5    -38.6553464  0.246521E-06  0.697E-03    0.99       2.6  T
   6    -38.6553467 -0.330515E-06  0.169E-03    0.99      10.6  T
   7    -38.6553468 -0.281340E-07  0.699E-04    0.99      25.7  T
   8    -38.6553468 -0.425511E-08  0.510E-04    0.99      35.2  T
     SCC iter.                  ...        0 min,  0.350 sec
     gradient                   ...        0 min,  0.105 sec
 * total energy  :   -38.0159661 Eh     change       -0.6466020E-03 Eh
   gradient norm :     0.0044086 Eh/α   predicted    -0.4705511E-03 ( -27.23%)
   displ. norm   :     0.4465816 α      lambda       -0.6576086E-03
   maximum displ.:     0.2494398 α      in ANC's #6, #4, #2, ...

........................................................................
.............................. CYCLE   24 ..............................
........................................................................
   1    -38.6527941 -0.386528E+02  0.171E-01    1.02       0.0  T
   2    -38.6527977 -0.355250E-05  0.110E-01    1.01       1.0  T
   3    -38.6527642  0.334476E-04  0.573E-02    1.03       1.0  T
   4    -38.6528017 -0.374533E-04  0.167E-02    1.01       1.1  T
   5    -38.6528029 -0.123846E-05  0.889E-03    1.01       2.0  T
   6    -38.6528029  0.478149E-07  0.308E-03    1.01       5.8  T
   7    -38.6528031 -0.176711E-06  0.103E-03    1.02      17.5  T
   8    -38.6528031 -0.196932E-08  0.827E-04    1.02      21.7  T
   9    -38.6528031 -0.809521E-09  0.459E-04    1.02      39.1  T
     SCC iter.                  ...        0 min,  0.229 sec
     gradient                   ...        0 min,  0.008 sec
 * total energy  :   -38.0164489 Eh     change       -0.4827901E-03 Eh
   gradient norm :     0.0083418 Eh/α   predicted    -0.3943797E-03 ( -18.31%)
   displ. norm   :     0.3692059 α      lambda       -0.4726146E-03
   maximum displ.:     0.2094071 α      in ANC's #4, #2, #6, ...

........................................................................
.............................. CYCLE   25 ..............................
........................................................................
   1    -38.6526260 -0.386526E+02  0.147E-01    1.04       0.0  T
   2    -38.6526282 -0.216603E-05  0.102E-01    1.03       1.0  T
   3    -38.6525970  0.312001E-04  0.541E-02    1.05       1.0  T
   4    -38.6526320 -0.350005E-04  0.115E-02    1.03       1.6  T
   5    -38.6526329 -0.852629E-06  0.563E-03    1.03       3.2  T
   6    -38.6526331 -0.256497E-06  0.188E-03    1.03       9.6  T
   7    -38.6526331 -0.113533E-07  0.113E-03    1.03      16.0  T
   8    -38.6526331  0.699494E-09  0.941E-04    1.03      19.1  T
   9    -38.6526331 -0.370392E-08  0.378E-04    1.03      47.5  T
     SCC iter.                  ...        0 min,  0.241 sec
     gradient                   ...        0 min,  0.014 sec
 * total energy  :   -38.0168027 Eh     change       -0.3538489E-03 Eh
   gradient norm :     0.0076397 Eh/α   predicted    -0.2685514E-03 ( -24.11%)
   displ. norm   :     0.3209607 α      lambda       -0.4284284E-03
   maximum displ.:     0.1693455 α      in ANC's #4, #1, #2, ...

........................................................................
.............................. CYCLE   26 ..............................
........................................................................
   1    -38.6562128 -0.386562E+02  0.146E-01    1.04       0.0  T
   2    -38.6562150 -0.225997E-05  0.999E-02    1.04       1.0  T
   3    -38.6562132  0.187942E-05  0.120E-02    1.04       1.5  T
   4    -38.6562153 -0.216219E-05  0.648E-03    1.04       2.8  T
   5    -38.6562156 -0.283982E-06  0.379E-03    1.04       4.7  T
   6    -38.6562157 -0.582715E-07  0.144E-03    1.04      12.5  T
   7    -38.6562157 -0.154276E-07  0.125E-03    1.04      14.4  T
   8    -38.6562157 -0.297108E-08  0.829E-04    1.04      21.7  T
   9    -38.6562157 -0.186376E-08  0.329E-04    1.04      54.6  T
     SCC iter.                  ...        0 min,  0.227 sec
     gradient                   ...        0 min,  0.006 sec
 * total energy  :   -38.0170907 Eh     change       -0.2879993E-03 Eh
   gradient norm :     0.0042941 Eh/α   predicted    -0.2362819E-03 ( -17.96%)
   displ. norm   :     0.3381534 α      lambda       -0.2112759E-03
   maximum displ.:     0.1780270 α      in ANC's #4, #1, #2, ...

........................................................................
.............................. CYCLE   27 ..............................
........................................................................
   1    -38.6554594 -0.386555E+02  0.147E-01    1.04       0.0  T
   2    -38.6554605 -0.108738E-05  0.946E-02    1.04       1.0  T
   3    -38.6554493  0.111763E-04  0.362E-02    1.03       1.0  T
   4    -38.6554615 -0.122434E-04  0.979E-03    1.04       1.8  T
   5    -38.6554614  0.108236E-06  0.722E-03    1.04       2.5  T
   6    -38.6554616 -0.183112E-06  0.156E-03    1.04      11.5  T
   7    -38.6554616 -0.214425E-07  0.101E-03    1.04      17.8  T
   8    -38.6554616 -0.613221E-08  0.521E-04    1.04      34.5  T
   9    -38.6554616 -0.827427E-09  0.293E-04    1.04      61.3  T
     SCC iter.                  ...        0 min,  0.239 sec
     gradient                   ...        0 min,  0.009 sec
 * total energy  :   -38.0172162 Eh     change       -0.1254335E-03 Eh
   gradient norm :     0.0049930 Eh/α   predicted    -0.1177259E-03 (  -6.14%)
   displ. norm   :     0.1981956 α      lambda       -0.1709856E-03
   maximum displ.:     0.1307386 α      in ANC's #1, #4, #2, ...

........................................................................
.............................. CYCLE   28 ..............................
........................................................................
   1    -38.6590135 -0.386590E+02  0.796E-02    1.02       0.0  T
   2    -38.6590163 -0.277109E-05  0.619E-02    1.04       1.0  T
   3    -38.6590172 -0.950511E-06  0.379E-02    1.03       1.0  T
   4    -38.6590230 -0.580856E-05  0.100E-02    1.03       1.8  T
   5    -38.6590237 -0.623489E-06  0.422E-03    1.03       4.3  T
   6    -38.6590236  0.148567E-07  0.200E-03    1.03       9.0  T
   7    -38.6590237 -0.325370E-07  0.879E-04    1.03      20.4  T
   8    -38.6590237 -0.963446E-09  0.700E-04    1.03      25.7  T
     SCC iter.                  ...        0 min,  0.223 sec
     gradient                   ...        0 min,  0.009 sec
 * total energy  :   -38.0173120 Eh     change       -0.9587686E-04 Eh
   gradient norm :     0.0034187 Eh/α   predicted    -0.8885717E-04 (  -7.32%)
   displ. norm   :     0.1456082 α      lambda       -0.5482296E-04
   maximum displ.:     0.0909332 α      in ANC's #1, #4, #2, ...

........................................................................
.............................. CYCLE   29 ..............................
........................................................................
   1    -38.6584335 -0.386584E+02  0.605E-02    1.03       0.0  T
   2    -38.6584337 -0.277252E-06  0.392E-02    1.03       1.0  T
   3    -38.6584304  0.333205E-05  0.168E-02    1.03       1.1  T
   4    -38.6584341 -0.364190E-05  0.342E-03    1.03       5.2  T
   5    -38.6584340  0.939092E-08  0.266E-03    1.03       6.8  T
   6    -38.6584341 -0.315678E-07  0.114E-03    1.03      15.8  T
   7    -38.6584341 -0.464036E-08  0.585E-04    1.03      30.7  T
   8    -38.6584341 -0.570076E-09  0.341E-04    1.03      52.7  T
     SCC iter.                  ...        0 min,  0.239 sec
     gradient                   ...        0 min,  0.024 sec
 * total energy  :   -38.0173521 Eh     change       -0.4004912E-04 Eh
   gradient norm :     0.0021121 Eh/α   predicted    -0.2799833E-04 ( -30.09%)
   displ. norm   :     0.1197966 α      lambda       -0.4141268E-04
   maximum displ.:     0.0821830 α      in ANC's #1, #4, #2, ...

........................................................................
.............................. CYCLE   30 ..............................
........................................................................
   1    -38.6582205 -0.386582E+02  0.377E-02    1.03       0.0  T
   2    -38.6582207 -0.179482E-06  0.244E-02    1.03       1.0  T
   3    -38.6582193  0.138200E-05  0.111E-02    1.03       1.6  T
   4    -38.6582208 -0.152041E-05  0.233E-03    1.03       7.7  T
   5    -38.6582208 -0.907815E-08  0.167E-03    1.03      10.8  T
   6    -38.6582208 -0.150776E-07  0.403E-04    1.03      44.6  T
   7    -38.6582208 -0.903377E-09  0.290E-04    1.03      62.0  T
     SCC iter.                  ...        0 min,  0.172 sec
     gradient                   ...        0 min,  0.008 sec
 * total energy  :   -38.0173828 Eh     change       -0.3070706E-04 Eh
   gradient norm :     0.0015479 Eh/α   predicted    -0.2100672E-04 ( -31.59%)
   displ. norm   :     0.1903462 α      lambda       -0.3548880E-04
   maximum displ.:     0.1271246 α      in ANC's #1, #2, #4, ...

........................................................................
.............................. CYCLE   31 ..............................
........................................................................
   1    -38.6576261 -0.386576E+02  0.639E-02    1.03       0.0  T
   2    -38.6576266 -0.443699E-06  0.424E-02    1.03       1.0  T
   3    -38.6576225  0.406611E-05  0.151E-02    1.03       1.2  T
   4    -38.6576268 -0.434818E-05  0.457E-03    1.03       3.9  T
   5    -38.6576269 -0.969937E-07  0.254E-03    1.03       7.1  T
   6    -38.6576270 -0.197293E-07  0.658E-04    1.03      27.3  T
   7    -38.6576270 -0.418165E-08  0.332E-04    1.03      54.0  T
     SCC iter.                  ...        0 min,  0.193 sec
     gradient                   ...        0 min,  0.008 sec
 * total energy  :   -38.0174165 Eh     change       -0.3373086E-04 Eh
   gradient norm :     0.0019367 Eh/α   predicted    -0.1803086E-04 ( -46.54%)
   displ. norm   :     0.1454270 α      lambda       -0.3480371E-04
   maximum displ.:     0.1017237 α      in ANC's #1, #3, #2, ...

........................................................................
.............................. CYCLE   32 ..............................
........................................................................
   1    -38.6590081 -0.386590E+02  0.371E-02    1.03       0.0  T
   2    -38.6590087 -0.550671E-06  0.226E-02    1.03       1.0  T
   3    -38.6590075  0.122441E-05  0.146E-02    1.03       1.2  T
   4    -38.6590091 -0.163678E-05  0.581E-03    1.03       3.1  T
   5    -38.6590092 -0.726464E-07  0.362E-03    1.03       5.0  T
   6    -38.6590092  0.533370E-08  0.910E-04    1.03      19.7  T
   7    -38.6590092 -0.153257E-07  0.383E-04    1.03      46.9  T
     SCC iter.                  ...        0 min,  0.194 sec
     gradient                   ...        0 min,  0.011 sec
 * total energy  :   -38.0174357 Eh     change       -0.1919166E-04 Eh
   gradient norm :     0.0033831 Eh/α   predicted    -0.1757703E-04 (  -8.41%)
   displ. norm   :     0.1364491 α      lambda       -0.4865191E-04
   maximum displ.:     0.0824402 α      in ANC's #1, #2, #4, ...

........................................................................
.............................. CYCLE   33 ..............................
........................................................................
   1    -38.6581590 -0.386582E+02  0.403E-02    1.04       0.0  T
   2    -38.6581593 -0.360860E-06  0.304E-02    1.03       1.0  T
   3    -38.6581580  0.136631E-05  0.161E-02    1.04       1.1  T
   4    -38.6581600 -0.203216E-05  0.590E-03    1.03       3.0  T
   5    -38.6581602 -0.222656E-06  0.292E-03    1.03       6.1  T
   6    -38.6581603 -0.451360E-07  0.692E-04    1.03      26.0  T
   7    -38.6581603 -0.135343E-08  0.332E-04    1.03      54.0  T
     SCC iter.                  ...        0 min,  0.196 sec
     gradient                   ...        0 min,  0.007 sec
 * total energy  :   -38.0174676 Eh     change       -0.3190519E-04 Eh
   gradient norm :     0.0022147 Eh/α   predicted    -0.2477963E-04 ( -22.33%)
   displ. norm   :     0.0990689 α      lambda       -0.2836430E-04
   maximum displ.:     0.0599834 α      in ANC's #1, #2, #6, ...

........................................................................
.............................. CYCLE   34 ..............................
........................................................................
   1    -38.6583452 -0.386583E+02  0.359E-02    1.04       0.0  T
   2    -38.6583454 -0.161768E-06  0.236E-02    1.04       1.0  T
   3    -38.6583447  0.670461E-06  0.619E-03    1.03       2.9  T
   4    -38.6583455 -0.754646E-06  0.217E-03    1.04       8.3  T
   5    -38.6583455 -0.612864E-08  0.188E-03    1.04       9.6  T
   6    -38.6583455 -0.161196E-07  0.463E-04    1.04      38.8  T
   7    -38.6583455 -0.660705E-09  0.331E-04    1.04      54.2  T
     SCC iter.                  ...        0 min,  0.190 sec
     gradient                   ...        0 min,  0.015 sec
 * total energy  :   -38.0174848 Eh     change       -0.1722035E-04 Eh
   gradient norm :     0.0011913 Eh/α   predicted    -0.1432207E-04 ( -16.83%)
   displ. norm   :     0.0860037 α      lambda       -0.1207645E-04
   maximum displ.:     0.0476529 α      in ANC's #1, #2, #6, ...

........................................................................
.............................. CYCLE   35 ..............................
........................................................................
   1    -38.6587223 -0.386587E+02  0.179E-02    1.03       0.0  T
   2    -38.6587224 -0.869048E-07  0.116E-02    1.04       1.5  T
   3    -38.6587219  0.561185E-06  0.882E-03    1.03       2.0  T
   4    -38.6587228 -0.926998E-06  0.139E-03    1.04      12.9  T
   5    -38.6587228 -0.143738E-07  0.103E-03    1.04      17.4  T
   6    -38.6587228 -0.767258E-09  0.324E-04    1.04      55.4  T
   7    -38.6587228 -0.119264E-08  0.193E-04    1.04      93.3  T
     SCC iter.                  ...        0 min,  0.207 sec
     gradient                   ...        0 min,  0.016 sec
 * total energy  :   -38.0174971 Eh     change       -0.1227095E-04 Eh
   gradient norm :     0.0008697 Eh/α   predicted    -0.6060662E-05 ( -50.61%)
   displ. norm   :     0.0720022 α      lambda       -0.9468738E-05
   maximum displ.:     0.0478363 α      in ANC's #4, #6, #2, ...

........................................................................
.............................. CYCLE   36 ..............................
........................................................................
   1    -38.6587797 -0.386588E+02  0.210E-02    1.03       0.0  T
   2    -38.6587798 -0.120287E-06  0.149E-02    1.04       1.2  T
   3    -38.6587792  0.573915E-06  0.890E-03    1.03       2.0  T
   4    -38.6587801 -0.940377E-06  0.264E-03    1.03       6.8  T
   5    -38.6587802 -0.323303E-07  0.125E-03    1.03      14.4  T
   6    -38.6587802 -0.668397E-08  0.402E-04    1.03      44.7  T
   7    -38.6587802 -0.471402E-09  0.124E-04    1.03     144.6  T
     SCC iter.                  ...        0 min,  0.193 sec
     gradient                   ...        0 min,  0.023 sec
 * total energy  :   -38.0175062 Eh     change       -0.9048591E-05 Eh
   gradient norm :     0.0009827 Eh/α   predicted    -0.4748435E-05 ( -47.52%)
   displ. norm   :     0.0504113 α      lambda       -0.5102465E-05
   maximum displ.:     0.0356246 α      in ANC's #4, #2, #1, ...

........................................................................
.............................. CYCLE   37 ..............................
........................................................................
   1    -38.6583625 -0.386584E+02  0.191E-02    1.04       0.0  T
   2    -38.6583627 -0.135557E-06  0.106E-02    1.03       1.7  T
   3    -38.6583624  0.275969E-06  0.849E-03    1.04       2.1  T
   4    -38.6583628 -0.385411E-06  0.136E-03    1.04      13.2  T
   5    -38.6583628 -0.125559E-07  0.856E-04    1.04      21.0  T
   6    -38.6583628 -0.334081E-08  0.396E-04    1.04      45.3  T
     SCC iter.                  ...        0 min,  0.160 sec
     gradient                   ...        0 min,  0.012 sec
 * total energy  :   -38.0175109 Eh     change       -0.4770131E-05 Eh
   gradient norm :     0.0008188 Eh/α   predicted    -0.2557800E-05 ( -46.38%)
   displ. norm   :     0.0441309 α      lambda       -0.3876862E-05
   maximum displ.:     0.0316543 α      in ANC's #4, #1, #2, ...

   *** GEOMETRY OPTIMIZATION CONVERGED AFTER 37 ITERATIONS ***

------------------------------------------------------------------------
 total energy gain   :        -0.1059303 Eh      -66.4723 kcal/mol
 total RMSD          :         1.2720283 a0        0.6731 Å
 total power (kW/mol):        -7.5167558 (step)  -16.0224 (real)
------------------------------------------------------------------------

 ANCopt (total)                0 d,  0 h,  0 min, 17.358 sec
 optimizer setup                ...        0 min,  0.001 sec (  0.003%)
 model hessian                  ...        0 min,  0.075 sec (  0.431%)
 ANC generation                 ...        0 min,  0.013 sec (  0.075%)
 coordinate transformation      ...        0 min,  0.001 sec (  0.003%)
 single point calculation       ...        0 min, 16.969 sec ( 97.759%)
 optimization log               ...        0 min,  0.012 sec (  0.068%)
 hessian update                 ...        0 min,  0.184 sec (  1.058%)
 rational function              ...        0 min,  0.102 sec (  0.589%)

================
 final structure:
================
31
 xtb: 6.5.1 (b24c23e)
Zr          -1.38552897203727        0.00492407618171        0.37612434021348
C           -0.82323249123246        1.14825958764331       -1.48513697174424
C           -0.35498146709090       -2.21702001117945        1.08141357417018
C            0.34887259415134       -1.78642221941958       -0.06286734532297
C           -0.53824408441730       -1.83955924446315       -1.16075621638021
C           -1.78979675363967       -2.28082699921064       -0.69158239567658
C           -1.67889396450283       -2.50797910875604        0.69894023884448
H            0.07740086230821       -2.42827711141736        2.05225581109116
H            1.41362307067512       -1.58728696057445       -0.12064593255670
H           -0.26742893288469       -1.69449804363574       -2.19861080274831
H           -2.64671651506602       -2.51882683317179       -1.31094895388582
H           -2.42450241674563       -2.97891475854187        1.33010373751042
C            0.24366691672649        0.53315020425017        2.22332711686797
C           -1.01356392952223        0.40297420066635        2.85391818608460
C           -1.81531892786602        1.48969389878292        2.44444303125288
C           -1.07236058405900        2.26773503075132        1.53897748750245
C            0.20353050674141        1.67494296569612        1.39827129047704
H            1.12967957367703       -0.05297830483354        2.43934986355409
H           -1.26270676771481       -0.30655108576767        3.63623768005056
H           -2.77804102261029        1.75984241809557        2.86062928002444
H           -1.37678928225550        3.22014730651268        1.12305433764818
H            1.04529991004064        2.10410698230508        0.86745724001505
H            0.26808517381632        1.08016156454991       -1.64860932155416
H           -1.29895222972969        0.76894709161025       -2.40490265263251
H           -1.06389695331581        2.22330176619075       -1.43878899793303
C           -3.77242106263789       -0.24308166292847        0.74810398274490
C           -3.53627074108964        0.66162239949364       -0.30823736879141
H           -3.65006210879564        1.72990445071341       -0.12587930831555
H           -3.73434955897746        0.33475408336089       -1.32808304189811
H           -4.07575740994900        0.13800321569868        1.72045719739723
H           -4.15542279200898       -1.23071394863478        0.50506923398282

 Bond Distances (Angstroems)
 ---------------------------
Zr1-C2=2.2556        Zr1-C3=2.5488        Zr1-C4=2.5318        Zr1-C5=2.5460        Zr1-C6=2.5550        Zr1-C7=2.5505        
Zr1-C13=2.5190       Zr1-C14=2.5370       Zr1-C15=2.5821       Zr1-C16=2.5633       Zr1-C17=2.5217       Zr1-C26=2.4284       
Zr1-C27=2.3506       C2-Zr1=2.2556        C2-H23=1.1056        C2-H24=1.1028        C2-H25=1.1026        C3-Zr1=2.5488        
C3-C4=1.4107         C3-C7=1.4084         C3-H8=1.0836         C4-Zr1=2.5318        C4-C3=1.4107         C4-C5=1.4125         
C4-H9=1.0848         C5-Zr1=2.5460        C5-C4=1.4125         C5-C6=1.4076         C5-H10=1.0824        C6-Zr1=2.5550        
C6-C5=1.4076         C6-C7=1.4133         C6-H11=1.0838        C7-Zr1=2.5505        C7-C3=1.4084         C7-C6=1.4133         
C7-H12=1.0845        H8-C3=1.0836         H9-C4=1.0848         H10-C5=1.0824        H11-C6=1.0838        H12-C7=1.0845        
C13-Zr1=2.5190       C13-C14=1.4125       C13-C17=1.4093       C13-H18=1.0841       C14-Zr1=2.5370       C14-C13=1.4125       
C14-C15=1.4112       C14-H19=1.0851       C15-Zr1=2.5821       C15-C14=1.4112       C15-C16=1.4061       C15-H20=1.0831       
C16-Zr1=2.5633       C16-C15=1.4061       C16-C17=1.4139       C16-H21=1.0829       C17-Zr1=2.5217       C17-C13=1.4093       
C17-C16=1.4139       C17-H22=1.0838       H18-C13=1.0841       H19-C14=1.0851       H20-C15=1.0831       H21-C16=1.0829       
H22-C17=1.0838       H23-C2=1.1056        H24-C2=1.1028        H25-C2=1.1026        C26-Zr1=2.4284       C26-C27=1.4107       
C26-H30=1.0875       C26-H31=1.0868       C27-Zr1=2.3506       C27-C26=1.4107       C27-H28=1.0897       C27-H29=1.0891       
H28-C27=1.0897       H29-C27=1.0891       H30-C26=1.0875       H31-C26=1.0868       
 C  H  Rav=1.0884 sigma=0.0074  Rmin=1.0824  Rmax=1.1056    17
 C  C  Rav=1.4106 sigma=0.0024  Rmin=1.4061  Rmax=1.4139    11
 Zr C  Rav=2.4992 sigma=0.0925  Rmin=2.2556  Rmax=2.5821    13

 selected bond angles (degree)
 --------------------
C3-Zr1-C2=124.71               C4-Zr1-C2= 92.57               C4-Zr1-C3= 32.24               C5-Zr1-C2= 77.65               
C5-Zr1-C3= 53.20               C5-Zr1-C4= 32.30               C6-Zr1-C2= 98.52               C6-Zr1-C3= 53.11               
C6-Zr1-C4= 53.34               C6-Zr1-C5= 32.04               C7-Zr1-C2=129.24               C7-Zr1-C3= 32.07               
C7-Zr1-C4= 53.39               C7-Zr1-C5= 53.19               C7-Zr1-C6= 32.14               C13-Zr1-C2=109.73              
C13-Zr1-C3= 73.64              C13-Zr1-C4= 80.35              C13-Zr1-C5=112.29              C13-Zr1-C6=126.61              
C13-Zr1-C7=100.85              C14-Zr1-C2=133.62              C14-Zr1-C3= 78.89              C14-Zr1-C4=100.37              
C14-Zr1-C5=130.88              C14-Zr1-C6=124.87              C14-Zr1-C7= 92.74              C14-Zr1-C13= 32.44             
C15-Zr1-C2=114.27              C15-Zr1-C3=110.30              C15-Zr1-C4=131.28              C15-Zr1-C5=162.85              
C15-Zr1-C6=145.37              C15-Zr1-C7=116.49              C15-Zr1-C13= 53.11             C15-Zr1-C14= 31.99             
C16-Zr1-C2= 84.05              C16-Zr1-C3=126.49              C16-Zr1-C4=128.28              C16-Zr1-C5=150.78              
C16-Zr1-C6=177.01              C16-Zr1-C7=145.73              C16-Zr1-C13= 53.36             C16-Zr1-C14= 53.17             
C16-Zr1-C15= 31.72             C17-Zr1-C2= 80.89              C17-Zr1-C3=102.14              C17-Zr1-C4= 96.15              
C17-Zr1-C5=120.98              C17-Zr1-C6=149.49              C17-Zr1-C7=132.35              C17-Zr1-C13= 32.47             
C17-Zr1-C14= 53.69             C17-Zr1-C15= 53.09             C17-Zr1-C16= 32.27             C26-Zr1-C2=115.04              
C26-Zr1-C3=105.43              C26-Zr1-C4=128.88              C26-Zr1-C5=110.22              C26-Zr1-C6= 79.46              
C26-Zr1-C7= 76.52              C26-Zr1-C13=123.01             C26-Zr1-C14= 90.60             C26-Zr1-C15= 76.85             
C26-Zr1-C16= 98.09             C26-Zr1-C17=128.68             C27-Zr1-C2= 81.15              C27-Zr1-C3=133.95              
C27-Zr1-C4=140.71              C27-Zr1-C5=109.34              C27-Zr1-C6= 89.05              C27-Zr1-C7=101.94              
C27-Zr1-C13=138.30             C27-Zr1-C14=112.00             C27-Zr1-C15= 85.43             C27-Zr1-C16= 89.84             
C27-Zr1-C17=120.64             C27-Zr1-C26= 34.29             H23-C2-Zr1=109.69              H24-C2-Zr1=113.98              
H24-C2-H23=106.34              H25-C2-Zr1=113.90              H25-C2-H23=106.36              H25-C2-H24=106.04              
C4-C3-Zr1= 73.21               C7-C3-Zr1= 74.03               C7-C3-C4=108.17                H8-C3-Zr1=125.40               
H8-C3-C4=125.96                H8-C3-C7=125.32                C3-C4-Zr1= 74.55               C5-C4-Zr1= 74.40               
C5-C4-C3=107.80                H9-C4-Zr1=123.49               H9-C4-C3=126.08                H9-C4-C5=125.59                
C4-C5-Zr1= 73.30               C6-C5-Zr1= 74.34               C6-C5-C4=108.13                H10-C5-Zr1=124.40              
H10-C5-C4=125.67               H10-C5-C6=125.74               C5-C6-Zr1= 73.63               C7-C6-Zr1= 73.75               
C7-C6-C5=107.97                H11-C6-Zr1=124.08              H11-C6-C5=125.55               H11-C6-C7=126.09               
C3-C7-Zr1= 73.90               C6-C7-Zr1= 74.11               C6-C7-C3=107.92                H12-C7-Zr1=125.49              
H12-C7-C3=125.31               H12-C7-C6=126.05               

 selected dihedral angles (degree)
 ---------------------------------
H23-C2-Zr1-C3=321.26          H23-C2-Zr1-C4=323.95          H23-C2-Zr1-C5=295.11          H23-C2-Zr1-C6=270.65          
H23-C2-Zr1-C7=281.19          H23-C2-Zr1-C13= 44.63         H23-C2-Zr1-C14= 70.90         H23-C2-Zr1-C15=102.08         
H23-C2-Zr1-C16= 92.19         H23-C2-Zr1-C17= 59.78         H23-C2-Zr1-C26=188.36         H23-C2-Zr1-C27=182.96         
H24-C2-Zr1-C3= 80.34          H24-C2-Zr1-C4= 83.04          H24-C2-Zr1-C5= 54.19          H24-C2-Zr1-C6= 29.73          
H24-C2-Zr1-C7= 40.27          H24-C2-Zr1-C13=163.71         H24-C2-Zr1-C14=189.98         H24-C2-Zr1-C15=221.17         
H24-C2-Zr1-C16=211.27         H24-C2-Zr1-C17=178.86         H24-C2-Zr1-C26=307.44         H24-C2-Zr1-C27=302.04         
H25-C2-Zr1-C3=202.19          H25-C2-Zr1-C4=204.89          H25-C2-Zr1-C5=176.05          H25-C2-Zr1-C6=151.59          
H25-C2-Zr1-C7=162.12          H25-C2-Zr1-C13=285.56         H25-C2-Zr1-C14=311.84         H25-C2-Zr1-C15=343.02         
H25-C2-Zr1-C16=333.12         H25-C2-Zr1-C17=300.71         H25-C2-Zr1-C26= 69.30         H25-C2-Zr1-C27= 63.89         
C4-C3-Zr1-C2=  5.05           C4-C3-Zr1-C5= 37.57           C4-C3-Zr1-C6= 77.91           C4-C3-Zr1-C7=115.15           
C4-C3-Zr1-C13=262.07          C4-C3-Zr1-C14=229.07          C4-C3-Zr1-C15=222.93          C4-C3-Zr1-C16=254.22          
C4-C3-Zr1-C17=277.80          C4-C3-Zr1-C26=141.54          C4-C3-Zr1-C27=119.13          C7-C3-Zr1-C2=249.90           
C7-C3-Zr1-C4=244.85           C7-C3-Zr1-C5=282.42           C7-C3-Zr1-C6=322.76           C7-C3-Zr1-C13=146.91          
C7-C3-Zr1-C14=113.91          C7-C3-Zr1-C15=107.78          C7-C3-Zr1-C16=139.07          C7-C3-Zr1-C17=162.65          
C7-C3-Zr1-C26= 26.38          C7-C3-Zr1-C27=  3.98          H8-C3-Zr1-C2=127.60           H8-C3-Zr1-C4=122.55           
H8-C3-Zr1-C5=160.12           H8-C3-Zr1-C6=200.46           H8-C3-Zr1-C7=237.70           H8-C3-Zr1-C13= 24.62          
H8-C3-Zr1-C14=351.62          H8-C3-Zr1-C15=345.48          H8-C3-Zr1-C16= 16.77          H8-C3-Zr1-C17= 40.35          
H8-C3-Zr1-C26=264.08          H8-C3-Zr1-C27=241.68          C3-C4-Zr1-C2=184.16           C3-C4-Zr1-C5=246.02           
C3-C4-Zr1-C6=282.86           C3-C4-Zr1-C7=323.22           C3-C4-Zr1-C13= 74.57          C3-C4-Zr1-C14= 48.90          
C3-C4-Zr1-C15= 58.22          C3-C4-Zr1-C16= 99.70          C3-C4-Zr1-C17=103.05          C3-C4-Zr1-C26=309.63          
C3-C4-Zr1-C27=263.30          C5-C4-Zr1-C2=298.13           C5-C4-Zr1-C3=113.98           C5-C4-Zr1-C6= 36.84           
C5-C4-Zr1-C7= 77.20           C5-C4-Zr1-C13=188.55          C5-C4-Zr1-C14=162.88          C5-C4-Zr1-C15=172.20          
C5-C4-Zr1-C16=213.68          C5-C4-Zr1-C17=217.02          C5-C4-Zr1-C26= 63.60          C5-C4-Zr1-C27= 17.28          
H9-C4-Zr1-C2= 60.80           H9-C4-Zr1-C3=236.65           H9-C4-Zr1-C5=122.67           H9-C4-Zr1-C6=159.51           
H9-C4-Zr1-C7=199.87           H9-C4-Zr1-C13=311.22          H9-C4-Zr1-C14=285.55          H9-C4-Zr1-C15=294.87          
H9-C4-Zr1-C16=336.35          H9-C4-Zr1-C17=339.69          H9-C4-Zr1-C26=186.28          H9-C4-Zr1-C27=139.95          
Zr1-C4-C3-C7= 66.33           Zr1-C4-C3-H8=238.09           C5-C4-C3-Zr1=292.44           C5-C4-C3-C7=358.77            
C5-C4-C3-H8=170.53            H9-C4-C3-Zr1=120.46           H9-C4-C3-C7=186.79            H9-C4-C3-H8=358.55            
C4-C5-Zr1-C2=115.60           C4-C5-Zr1-C3=322.50           C4-C5-Zr1-C6=245.07           C4-C5-Zr1-C7=282.14           
C4-C5-Zr1-C13=  9.12          C4-C5-Zr1-C14=337.49          C4-C5-Zr1-C15=339.77          C4-C5-Zr1-C16= 63.08          
C4-C5-Zr1-C17= 44.29          C4-C5-Zr1-C26=228.00          C4-C5-Zr1-C27=191.50          C6-C5-Zr1-C2=230.53           
C6-C5-Zr1-C3= 77.43           C6-C5-Zr1-C4=114.93           C6-C5-Zr1-C7= 37.07           C6-C5-Zr1-C13=124.05          
C6-C5-Zr1-C14= 92.42          C6-C5-Zr1-C15= 94.70          C6-C5-Zr1-C16=178.01          C6-C5-Zr1-C17=159.22          
C6-C5-Zr1-C26=342.93          C6-C5-Zr1-C27=306.43          H10-C5-Zr1-C2=353.43          H10-C5-Zr1-C3=200.33          
H10-C5-Zr1-C4=237.83          H10-C5-Zr1-C6=122.90          H10-C5-Zr1-C7=159.98          H10-C5-Zr1-C13=246.95         
H10-C5-Zr1-C14=215.32         H10-C5-Zr1-C15=217.60         H10-C5-Zr1-C16=300.92         H10-C5-Zr1-C17=282.13         
H10-C5-Zr1-C26=105.83         H10-C5-Zr1-C27= 69.33         Zr1-C5-C4-C3= 67.66           Zr1-C5-C4-H9=239.69           
C6-C5-C4-Zr1=293.26           C6-C5-C4-C3=  0.91            C6-C5-C4-H9=172.95            H10-C5-C4-Zr1=120.71          
H10-C5-C4-C3=188.37           H10-C5-C4-H9=  0.40           C5-C6-Zr1-C2= 49.69           C5-C6-Zr1-C3=282.28           
C5-C6-Zr1-C4=322.84           C5-C6-Zr1-C7=245.13           C5-C6-Zr1-C13=287.24          C5-C6-Zr1-C14=247.04          
C5-C6-Zr1-C15=211.15          C5-C6-Zr1-C16=198.93          C5-C6-Zr1-C17=323.20          C5-C6-Zr1-C26=163.73          
C5-C6-Zr1-C27=130.60          C7-C6-Zr1-C2=164.56           C7-C6-Zr1-C3= 37.15           C7-C6-Zr1-C4= 77.71           
C7-C6-Zr1-C5=114.87           C7-C6-Zr1-C13= 42.11          C7-C6-Zr1-C14=  1.91          C7-C6-Zr1-C15=326.02          
C7-C6-Zr1-C16=313.81          C7-C6-Zr1-C17= 78.07          C7-C6-Zr1-C26=278.60          C7-C6-Zr1-C27=245.47          
H11-C6-Zr1-C2=287.49          H11-C6-Zr1-C3=160.08          H11-C6-Zr1-C4=200.64          H11-C6-Zr1-C5=237.80          
H11-C6-Zr1-C7=122.93          H11-C6-Zr1-C13=165.04         H11-C6-Zr1-C14=124.84         H11-C6-Zr1-C15= 88.95         
H11-C6-Zr1-C16= 76.73         H11-C6-Zr1-C17=201.00         H11-C6-Zr1-C26= 41.53         H11-C6-Zr1-C27=  8.40         
Zr1-C6-C5-C4= 66.05           Zr1-C6-C5-H10=238.59          C7-C6-C5-Zr1=293.69           C7-C6-C5-C4=359.74            
C7-C6-C5-H10=172.29           H11-C6-C5-Zr1=120.53          H11-C6-C5-C4=186.58           H11-C6-C5-H10=359.12          
C3-C7-Zr1-C2= 94.66           C3-C7-Zr1-C4= 36.98           C3-C7-Zr1-C5= 77.59           C3-C7-Zr1-C6=114.53           
C3-C7-Zr1-C13=327.77          C3-C7-Zr1-C14=296.10          C3-C7-Zr1-C15=273.75          C3-C7-Zr1-C16=290.70          
C3-C7-Zr1-C17=336.76          C3-C7-Zr1-C26=206.14          C3-C7-Zr1-C27=182.93          C6-C7-Zr1-C2=340.13           
C6-C7-Zr1-C3=245.47           C6-C7-Zr1-C4=282.45           C6-C7-Zr1-C5=323.05           C6-C7-Zr1-C13=213.24          
C6-C7-Zr1-C14=181.57          C6-C7-Zr1-C15=159.21          C6-C7-Zr1-C16=176.17          C6-C7-Zr1-C17=222.23          
C6-C7-Zr1-C26= 91.60          C6-C7-Zr1-C27= 68.39          H12-C7-Zr1-C2=216.87          H12-C7-Zr1-C3=122.21          
H12-C7-Zr1-C4=159.19          H12-C7-Zr1-C5=199.79          H12-C7-Zr1-C6=236.74          H12-C7-Zr1-C13= 89.98         
H12-C7-Zr1-C14= 58.31         H12-C7-Zr1-C15= 35.95         H12-C7-Zr1-C16= 52.91         H12-C7-Zr1-C17= 98.97         
H12-C7-Zr1-C26=328.34         H12-C7-Zr1-C27=305.13         Zr1-C7-C3-C4=294.21           Zr1-C7-C3-H8=122.39           
C6-C7-C3-Zr1= 66.86           C6-C7-C3-C4=  1.07            C6-C7-C3-H8=189.25            H12-C7-C3-Zr1=237.58          
H12-C7-C3-C4=171.79           H12-C7-C3-H8=359.97           Zr1-C7-C6-C5= 66.22           Zr1-C7-C6-H11=239.34          
C3-C7-C6-Zr1=293.27           C3-C7-C6-C5=359.50            C3-C7-C6-H11=172.62           H12-C7-C6-Zr1=122.64          
H12-C7-C6-C5=188.87           H12-C7-C6-H11=  1.99          

 CMA Distance (Angstroems)
 ---------------------------
R(CMA):  2.7502
           -------------------------------------------------
          |                Final Singlepoint                |
           -------------------------------------------------

          ...................................................
          :                      SETUP                      :
          :.................................................:
          :  # basis functions                  79          :
          :  # atomic orbitals                  78          :
          :  # shells                           46          :
          :  # electrons                        73          :
          :  max. iterations                   250          :
          :  Hamiltonian                  GFN2-xTB          :
          :  restarted?                      false          :
          :  GBSA solvation                  false          :
          :  PC potential                    false          :
          :  electronic temp.          300.0000000     K    :
          :  accuracy                    1.0000000          :
          :  -> integral cutoff          0.2500000E+02      :
          :  -> integral neglect         0.1000000E-07      :
          :  -> SCF convergence          0.1000000E-05 Eh   :
          :  -> wf. convergence          0.1000000E-03 e    :
          :  Broyden damping             0.4000000          :
          ...................................................

 iter      E             dE          RMSdq      gap      omega  full diag
   1    -38.6583628 -0.386584E+02  0.257E-04    1.04       0.0  T
   2    -38.6583628 -0.406146E-10  0.171E-04    1.04     105.3  T
   3    -38.6583628  0.909992E-10  0.170E-04    1.04     105.8  T

   *** convergence criteria satisfied after 3 iterations ***

         #    Occupation            Energy/Eh            Energy/eV
      -------------------------------------------------------------
         1        2.0000           -0.6940756             -18.8868
       ...           ...                  ...                  ...
        31        2.0000           -0.4132422             -11.2449
        32        2.0000           -0.3652973              -9.9402
        33        2.0000           -0.3605408              -9.8108
        34        2.0000           -0.3503206              -9.5327
        35        2.0000           -0.3467228              -9.4348
        36        2.0000           -0.3273785              -8.9084
        37        1.0000           -0.2757165              -7.5026 (HOMO)
        38                         -0.2376638              -6.4672 (LUMO)
        39                         -0.2356964              -6.4136
        40                         -0.2317428              -6.3060
        41                         -0.2211358              -6.0174
        42                         -0.2030921              -5.5264
       ...                                ...                  ...
        78                          2.3503462              63.9562
      -------------------------------------------------------------
                  HL-Gap            0.0380527 Eh            1.0355 eV
             Fermi-level           -0.2791474 Eh           -7.5960 eV

 SCC (total)                   0 d,  0 h,  0 min,  0.107 sec
 SCC setup                      ...        0 min,  0.004 sec (  4.151%)
 Dispersion                     ...        0 min,  0.004 sec (  3.449%)
 classical contributions        ...        0 min,  0.000 sec (  0.029%)
 integral evaluation            ...        0 min,  0.022 sec ( 20.969%)
 iterations                     ...        0 min,  0.070 sec ( 65.907%)
 molecular gradient             ...        0 min,  0.006 sec (  5.324%)
 printout                       ...        0 min,  0.000 sec (  0.150%)

         :::::::::::::::::::::::::::::::::::::::::::::::::::::
         ::                     SUMMARY                     ::
         :::::::::::::::::::::::::::::::::::::::::::::::::::::
         :: total energy             -38.017510922796 Eh    ::
         :: gradient norm              0.000819157644 Eh/a0 ::
         :: HOMO-LUMO gap              1.035466083799 eV    ::
         ::.................................................::
         :: SCC energy               -38.658362778845 Eh    ::
         :: -> isotropic ES            0.025872473815 Eh    ::
         :: -> anisotropic ES          0.005754337068 Eh    ::
         :: -> anisotropic XC          0.018875808509 Eh    ::
         :: -> dispersion             -0.029913466063 Eh    ::
         :: repulsion energy           0.640139994453 Eh    ::
         :: add. restraining           0.000000000000 Eh    ::
         :: total charge              -0.000000000257 e     ::
         :::::::::::::::::::::::::::::::::::::::::::::::::::::

           -------------------------------------------------
          |                Property Printout                |
           -------------------------------------------------

    * Orbital Energies and Occupations

         #    Occupation            Energy/Eh            Energy/eV
      -------------------------------------------------------------
         1        2.0000           -0.6940756             -18.8868
       ...           ...                  ...                  ...
        25        2.0000           -0.4381854             -11.9236
        26        2.0000           -0.4373086             -11.8998
        27        2.0000           -0.4361730             -11.8689
        28        2.0000           -0.4348729             -11.8335
        29        2.0000           -0.4299298             -11.6990
        30        2.0000           -0.4213434             -11.4653
        31        2.0000           -0.4132422             -11.2449
        32        2.0000           -0.3652973              -9.9402
        33        2.0000           -0.3605408              -9.8108
        34        2.0000           -0.3503206              -9.5327
        35        2.0000           -0.3467228              -9.4348
        36        2.0000           -0.3273785              -8.9084
        37        1.0000           -0.2757165              -7.5026 (HOMO)
        38                         -0.2376638              -6.4672 (LUMO)
        39                         -0.2356964              -6.4136
        40                         -0.2317428              -6.3060
        41                         -0.2211358              -6.0174
        42                         -0.2030921              -5.5264
        43                         -0.1460048              -3.9730
        44                         -0.1454024              -3.9566
        45                         -0.1440366              -3.9194
        46                         -0.1437819              -3.9125
        47                          0.1096303               2.9832
        48                          0.1240856               3.3765
       ...                                ...                  ...
        78                          2.3503462              63.9562
      -------------------------------------------------------------
                  HL-Gap            0.0380527 Eh            1.0355 eV
             Fermi-level           -0.2791474 Eh           -7.5960 eV

     #   Z          covCN         q      C6AA      α(0)
     1  40 Zr       9.458     0.781   143.443    17.997
     2   6 C        3.569    -0.303    27.842     7.678
     3   6 C        3.726    -0.086    22.255     6.736
     4   6 C        3.733    -0.090    22.312     6.742
     5   6 C        3.728    -0.082    22.174     6.723
     6   6 C        3.720    -0.093    22.402     6.760
     7   6 C        3.723    -0.091    22.356     6.752
     8   1 H        0.925     0.039     2.459     2.452
     9   1 H        0.925     0.039     2.464     2.455
    10   1 H        0.925     0.046     2.367     2.406
    11   1 H        0.925     0.033     2.548     2.496
    12   1 H        0.925     0.036     2.503     2.474
    13   6 C        3.743    -0.088    22.263     6.731
    14   6 C        3.730    -0.092    22.362     6.750
    15   6 C        3.703    -0.090    22.371     6.762
    16   6 C        3.715    -0.088    22.321     6.750
    17   6 C        3.740    -0.086    22.223     6.726
    18   1 H        0.925     0.040     2.453     2.449
    19   1 H        0.925     0.037     2.489     2.467
    20   1 H        0.925     0.031     2.569     2.507
    21   1 H        0.925     0.039     2.465     2.455
    22   1 H        0.925     0.047     2.364     2.404
    23   1 H        0.927     0.019     2.742     2.589
    24   1 H        0.925     0.015     2.806     2.619
    25   1 H        0.925     0.019     2.746     2.591
    26   6 C        3.595    -0.153    24.162     7.116
    27   6 C        3.616    -0.143    23.807     7.040
    28   1 H        0.926     0.073     2.056     2.242
    29   1 H        0.926     0.073     2.055     2.242
    30   1 H        0.925     0.061     2.192     2.315
    31   1 H        0.925     0.061     2.192     2.315

 Mol. C6AA /au·bohr⁶  :      10136.911755
 Mol. C8AA /au·bohr⁸  :     337530.977005
 Mol. α(0) /au        :        148.743778


Wiberg/Mayer (AO) data.
largest (>0.10) Wiberg bond orders for each atom

 ---------------------------------------------------------------------------
     #   Z sym  total        # sym  WBO       # sym  WBO       # sym  WBO
 ---------------------------------------------------------------------------
     1  40 Zr   4.079 --     2 C    0.798    27 C    0.406    26 C    0.352
                            17 C    0.204     4 C    0.193     5 C    0.193
                            14 C    0.185    13 C    0.185     7 C    0.184
                            16 C    0.182     3 C    0.178     6 C    0.176
                            15 C    0.170
     2   6 C    3.765 --    24 H    0.935    25 H    0.935    23 H    0.923
                             1 Zr   0.798
     3   6 C    3.974 --     7 C    1.328     4 C    1.322     8 H    0.936
                             1 Zr   0.178
     4   6 C    3.968 --     3 C    1.322     5 C    1.309     9 H    0.932
                             1 Zr   0.193
     5   6 C    3.977 --     6 C    1.330     4 C    1.309    10 H    0.935
                             1 Zr   0.193
     6   6 C    3.965 --     5 C    1.330     7 C    1.311    11 H    0.937
                             1 Zr   0.176
     7   6 C    3.973 --     3 C    1.328     6 C    1.311    12 H    0.934
                             1 Zr   0.184
     8   1 H    0.997 --     3 C    0.936
     9   1 H    0.996 --     4 C    0.932
    10   1 H    0.996 --     5 C    0.935
    11   1 H    0.996 --     6 C    0.937
    12   1 H    0.997 --     7 C    0.934
    13   6 C    3.974 --    17 C    1.323    14 C    1.318    18 H    0.933
                             1 Zr   0.185
    14   6 C    3.971 --    15 C    1.319    13 C    1.318    19 H    0.932
                             1 Zr   0.185
    15   6 C    3.973 --    16 C    1.339    14 C    1.319    20 H    0.939
                             1 Zr   0.170
    16   6 C    3.972 --    15 C    1.339    17 C    1.303    21 H    0.937
                             1 Zr   0.182
    17   6 C    3.972 --    13 C    1.323    16 C    1.303    22 H    0.931
                             1 Zr   0.204
    18   1 H    0.997 --    13 C    0.933
    19   1 H    0.997 --    14 C    0.932
    20   1 H    0.997 --    15 C    0.939
    21   1 H    0.996 --    16 C    0.937
    22   1 H    0.995 --    17 C    0.931
    23   1 H    0.998 --     2 C    0.923
    24   1 H    0.998 --     2 C    0.935
    25   1 H    0.998 --     2 C    0.935
    26   6 C    3.708 --    27 C    1.387    31 H    0.930    30 H    0.924
                             1 Zr   0.352
    27   6 C    3.738 --    26 C    1.387    29 H    0.920    28 H    0.918
                             1 Zr   0.406
    28   1 H    0.990 --    27 C    0.918
    29   1 H    0.990 --    27 C    0.920
    30   1 H    0.991 --    26 C    0.924
    31   1 H    0.992 --    26 C    0.930
 ---------------------------------------------------------------------------

Topologies differ in total number of bonds
Writing topology from bond orders to xtbtopo.mol

molecular dipole:
                 x           y           z       tot (Debye)
 q only:       -0.689      -0.039       0.120
   full:       -0.670      -0.079       0.162       1.763
molecular quadrupole (traceless):
                xx          xy          yy          xz          yz          zz
 q only:        8.746      -0.338      -5.261      -0.960      -1.861      -3.485
  q+dip:       10.195       0.787      -8.520      -3.111      -6.605      -1.675
   full:        9.976       0.443      -7.413      -2.342      -4.043      -2.563

           -------------------------------------------------
          |                Geometry Summary                 |
           -------------------------------------------------

      molecular mass/u    :      264.4982010
   center of mass at/Å    :       -1.2807125      -0.1186107       0.5737744
  moments of inertia/u·Å² :        0.5714368E+03   0.7953923E+03   0.8899120E+03
rotational constants/cm⁻¹ :        0.2950043E-01   0.2119411E-01   0.1894303E-01

 * 39 selected distances

     #   Z          #   Z                                           value/Å
     1  40 Zr       2   6 C                                       2.2555904
     1  40 Zr       3   6 C                                       2.5488228
     1  40 Zr       4   6 C                                       2.5317554
     3   6 C        4   6 C                                       1.4107460
     1  40 Zr       5   6 C                                       2.5459799
     4   6 C        5   6 C                                       1.4125013
     1  40 Zr       6   6 C                                       2.5550126 (max)
     5   6 C        6   6 C                                       1.4075602
     1  40 Zr       7   6 C                                       2.5504817
     3   6 C        7   6 C                                       1.4084345
     6   6 C        7   6 C                                       1.4133121
     3   6 C        8   1 H                                       1.0835677
     4   6 C        9   1 H                                       1.0847521
     5   6 C       10   1 H                                       1.0823705 (min)
     6   6 C       11   1 H                                       1.0837761
     7   6 C       12   1 H                                       1.0844722
     1  40 Zr      13   6 C                                       2.5190199
     1  40 Zr      14   6 C                                       2.5369796
    13   6 C       14   6 C                                       1.4125228
    14   6 C       15   6 C                                       1.4111843
    15   6 C       16   6 C                                       1.4061306
     1  40 Zr      17   6 C                                       2.5216778
    13   6 C       17   6 C                                       1.4092619
    16   6 C       17   6 C                                       1.4138950
    13   6 C       18   1 H                                       1.0840808
    14   6 C       19   1 H                                       1.0851370
    15   6 C       20   1 H                                       1.0830629
    16   6 C       21   1 H                                       1.0829396
    17   6 C       22   1 H                                       1.0837533
     2   6 C       23   1 H                                       1.1055926
     2   6 C       24   1 H                                       1.1027948
     2   6 C       25   1 H                                       1.1026257
     1  40 Zr      26   6 C                                       2.4284008
     1  40 Zr      27   6 C                                       2.3505946
    26   6 C       27   6 C                                       1.4107139
    27   6 C       28   1 H                                       1.0896925
    27   6 C       29   1 H                                       1.0891113
    26   6 C       30   1 H                                       1.0875245
    26   6 C       31   1 H                                       1.0868183

 * 3 distinct bonds (by element types)

   Z      Z             #   av. dist./Å        max./Å        min./Å
   1 H    6 C          17     1.0883572     1.1055926     1.0823705
   6 C    6 C          11     1.4105693     1.4138950     1.4061306
   6 C   40 Zr         11     2.4858469     2.5550126     2.2555904


optimized geometry written to: xtbopt.xyz


           -------------------------------------------------
          | TOTAL ENERGY              -38.017510922796 Eh   |
          | GRADIENT NORM               0.000819157644 Eh/α |
          | HOMO-LUMO GAP               1.035466083799 eV   |
           -------------------------------------------------

------------------------------------------------------------------------
 * finished run on 2026/08/12 at 22:02:43.392     
------------------------------------------------------------------------
 total:
 * wall-time:     0 d,  0 h,  0 min, 18.616 sec
 *  cpu-time:     0 d,  0 h,  1 min, 25.543 sec
 * ratio c/w:     4.595 speedup
 SCF:
 * wall-time:     0 d,  0 h,  0 min,  0.989 sec
 *  cpu-time:     0 d,  0 h,  0 min,  3.576 sec
 * ratio c/w:     3.617 speedup
 ANC optimizer:
 * wall-time:     0 d,  0 h,  0 min, 17.475 sec
 *  cpu-time:     0 d,  0 h,  1 min, 21.449 sec
 * ratio c/w:     4.661 speedup

