31
 energy: -38.017510922796 gnorm: 0.000819157644 xtb: 6.5.1 (b24c23e)
Zr          -1.38552897203727        0.00492407618171        0.37612434021348
C           -0.82323249123246        1.14825958764331       -1.48513697174424
C           -0.35498146709090       -2.21702001117945        1.08141357417018
C            0.34887259415134       -1.78642221941958       -0.06286734532297
C           -0.53824408441730       -1.83955924446315       -1.16075621638021
C           -1.78979675363967       -2.28082699921064       -0.69158239567658
C           -1.67889396450283       -2.50797910875604        0.69894023884448
H            0.07740086230821       -2.42827711141736        2.05225581109116
H            1.41362307067512       -1.58728696057445       -0.12064593255670
H           -0.26742893288469       -1.69449804363574       -2.19861080274831
H           -2.64671651506602       -2.51882683317179       -1.31094895388582
H           -2.42450241674563       -2.97891475854187        1.33010373751042
C            0.24366691672649        0.53315020425017        2.22332711686797
C           -1.01356392952223        0.40297420066635        2.85391818608460
C           -1.81531892786602        1.48969389878292        2.44444303125288
C           -1.07236058405900        2.26773503075132        1.53897748750245
C            0.20353050674141        1.67494296569612        1.39827129047704
H            1.12967957367703       -0.05297830483354        2.43934986355409
H           -1.26270676771481       -0.30655108576767        3.63623768005056
H           -2.77804102261029        1.75984241809557        2.86062928002444
H           -1.37678928225550        3.22014730651268        1.12305433764818
H            1.04529991004064        2.10410698230508        0.86745724001505
H            0.26808517381632        1.08016156454991       -1.64860932155416
H           -1.29895222972969        0.76894709161025       -2.40490265263251
H           -1.06389695331581        2.22330176619075       -1.43878899793303
C           -3.77242106263789       -0.24308166292847        0.74810398274490
C           -3.53627074108964        0.66162239949364       -0.30823736879141
H           -3.65006210879564        1.72990445071341       -0.12587930831555
H           -3.73434955897746        0.33475408336089       -1.32808304189811
H           -4.07575740994900        0.13800321569868        1.72045719739723
H           -4.15542279200898       -1.23071394863478        0.50506923398282
