23
 energy: -37.392788070866 gnorm: 0.000528629038 xtb: 6.5.1 (b24c23e)
Zr          -1.22471360360624       -0.01611511001686        0.41137285143458
Cl          -0.57590331505420        1.04397777514475       -1.55819216156127
Cl          -3.49182164407809        0.31872348497937       -0.00984246825998
C           -0.32969517126340       -2.17027551697459        1.26600168304663
C            0.34278726156765       -1.89436197541514        0.05118513837776
C           -0.60566162695777       -1.98229225163283       -0.99746789375807
C           -1.86181745594582       -2.27523881858899       -0.42995741395409
C           -1.69878330858758       -2.37448260060279        0.97434554356676
H            0.14267887379609       -2.33747521248342        2.22627618505526
H            1.41499349996550       -1.79215165325943       -0.07625845589710
H           -0.38586403039286       -1.92331723990211       -2.05681210180191
H           -2.77491917795623       -2.47817268164344       -0.97736454433998
H           -2.45976736210524       -2.69811770665736        1.67595418340937
C            0.32938778272853        0.66059860130877        2.23859301331616
C           -0.93207389066013        0.43234018350902        2.84471471084435
C           -1.83095815870815        1.40740792779596        2.35805563515278
C           -1.13398883680182        2.22796368791220        1.44122743301866
C            0.20339597023717        1.76910035826475        1.37280877215399
H            1.26030159562942        0.17363202945947        2.50413807373961
H           -1.13486298764169       -0.26141243384989        3.65254343783792
H           -2.84721778657296        1.56299336925609        2.70093551841267
H           -1.52913593181004        3.10970344618988        0.94854033988627
H            1.01098013421618        2.25178812720550        0.83424931031986
