      -----------------------------------------------------------      
     |                   =====================                   |     
     |                           x T B                           |     
     |                   =====================                   |     
     |                         S. Grimme                         |     
     |          Mulliken Center for Theoretical Chemistry        |     
     |                    University of Bonn                     |     
      -----------------------------------------------------------      

   * xtb version 6.5.1 (b24c23e) compiled by 'conda@728c89f4b128' on 2022-07-12

   xtb is free software: you can redistribute it and/or modify it under
   the terms of the GNU Lesser General Public License as published by
   the Free Software Foundation, either version 3 of the License, or
   (at your option) any later version.
   
   xtb is distributed in the hope that it will be useful,
   but WITHOUT ANY WARRANTY; without even the implied warranty of
   MERCHANTABILITY or FITNESS FOR A PARTICULAR PURPOSE.  See the
   GNU Lesser General Public License for more details.
   
   Cite this work as:
   * C. Bannwarth, E. Caldeweyher, S. Ehlert, A. Hansen, P. Pracht,
     J. Seibert, S. Spicher, S. Grimme, WIREs Comput. Mol. Sci., 2020, 11,
     e01493. DOI: 10.1002/wcms.1493
   
   for GFN2-xTB:
   * C. Bannwarth, S. Ehlert and S. Grimme., J. Chem. Theory Comput., 2019,
     15, 1652-1671. DOI: 10.1021/acs.jctc.8b01176
   for GFN1-xTB:
   * S. Grimme, C. Bannwarth, P. Shushkov, J. Chem. Theory Comput., 2017,
     13, 1989-2009. DOI: 10.1021/acs.jctc.7b00118
   for GFN0-xTB:
   * P. Pracht, E. Caldeweyher, S. Ehlert, S. Grimme, ChemRxiv, 2019, preprint.
     DOI: 10.26434/chemrxiv.8326202.v1
   for GFN-FF:
   * S. Spicher and S. Grimme, Angew. Chem. Int. Ed., 2020, 59, 15665-15673.
     DOI: 10.1002/anie.202004239
   
   for ALPB and GBSA implicit solvation:
   * S. Ehlert, M. Stahn, S. Spicher, S. Grimme, J. Chem. Theory Comput.,
     2021, 17, 4250-4261. DOI: 10.1021/acs.jctc.1c00471
   
   for DFT-D4:
   * E. Caldeweyher, C. Bannwarth and S. Grimme, J. Chem. Phys., 2017,
     147, 034112. DOI: 10.1063/1.4993215
   * E. Caldeweyher, S. Ehlert, A. Hansen, H. Neugebauer, S. Spicher,
     C. Bannwarth and S. Grimme, J. Chem. Phys., 2019, 150, 154122.
     DOI: 10.1063/1.5090222
   * E. Caldeweyher, J.-M. Mewes, S. Ehlert and S. Grimme, Phys. Chem. Chem. Phys.
     2020, 22, 8499-8512. DOI: 10.1039/D0CP00502A
   
   for sTDA-xTB:
   * S. Grimme and C. Bannwarth, J. Chem. Phys., 2016, 145, 054103.
     DOI: 10.1063/1.4959605
   
   in the mass-spec context:
   * V. Asgeirsson, C. Bauer and S. Grimme, Chem. Sci., 2017, 8, 4879.
     DOI: 10.1039/c7sc00601b
   * J. Koopman and S. Grimme, ACS Omega 2019, 4, 12, 15120-15133.
     DOI: 10.1021/acsomega.9b02011
   
   for metadynamics refer to:
   * S. Grimme, J. Chem. Theory Comput., 2019, 155, 2847-2862
     DOI: 10.1021/acs.jctc.9b00143
   
   for SPH calculations refer to:
   * S. Spicher and S. Grimme, J. Chem. Theory Comput., 2021, 17, 1701-1714
     DOI: 10.1021/acs.jctc.0c01306
   
   with help from (in alphabetical order)
   P. Atkinson, C. Bannwarth, F. Bohle, G. Brandenburg, E. Caldeweyher
   M. Checinski, S. Dohm, S. Ehlert, S. Ehrlich, I. Gerasimov, C. Hölzer
   A. Katbashev, J. Koopman, C. Lavigne, S. Lehtola, F. März, M. Müller,
   F. Musil, H. Neugebauer, J. Pisarek, C. Plett, P. Pracht, F. Pultar,
   J. Seibert, P. Shushkov, S. Spicher, M. Stahn, M. Steiner, T. Strunk,
   J. Stückrath, T. Rose, and J. Unsleber
   
 * started run on 2026/08/18 at 18:32:42.082     

           -------------------------------------------------
          |                Calculation Setup                |
           -------------------------------------------------

          program call               : /h/332/chchoi/miniconda3/envs/el-agente/bin/xtb ts_like.xyz --opt --gfn 2 -P 4 --chrg 1 --uhf 0 --input detailed_input.inp
          coordinate file            : ts_like.xyz
          omp threads                :                     4

   ID    Z sym.   atoms
    1   40 Zr     1
    2    6 C      2-7, 13-17, 26, 27
    3    1 H      8-12, 18-25, 28-31
constraining bond 2 27 to    1.5400000 Å, actual value:    2.1318544 Å
constraining bond 26 27 to    1.5400000 Å, actual value:    1.4166871 Å
constraining bond 1 26 to    2.2500000 Å, actual value:    2.4504090 Å
constraining bond 1 2 to    3.2000000 Å, actual value:    2.6579416 Å
constraining bond 1 27 to    2.9000000 Å, actual value:    2.5516988 Å

           -------------------------------------------------
          |                 G F N 2 - x T B                 |
           -------------------------------------------------

        Reference                      10.1021/acs.jctc.8b01176
      * Hamiltonian:
        H0-scaling (s, p, d)           1.850000    2.230000    2.230000
        zeta-weighting                 0.500000
      * Dispersion:
        s8                             2.700000
        a1                             0.520000
        a2                             5.000000
        s9                             5.000000
      * Repulsion:
        kExp                           1.500000    1.000000
        rExp                           1.000000
      * Coulomb:
        alpha                          2.000000
        third order                    shell-resolved
        anisotropic                    true
        a3                             3.000000
        a5                             4.000000
        cn-shift                       1.200000
        cn-exp                         4.000000
        max-rad                        5.000000


          ...................................................
          :                      SETUP                      :
          :.................................................:
          :  # basis functions                  79          :
          :  # atomic orbitals                  78          :
          :  # shells                           46          :
          :  # electrons                        72          :
          :  max. iterations                   250          :
          :  Hamiltonian                  GFN2-xTB          :
          :  restarted?                      false          :
          :  GBSA solvation                  false          :
          :  PC potential                    false          :
          :  electronic temp.          300.0000000     K    :
          :  accuracy                    1.0000000          :
          :  -> integral cutoff          0.2500000E+02      :
          :  -> integral neglect         0.1000000E-07      :
          :  -> SCF convergence          0.1000000E-05 Eh   :
          :  -> wf. convergence          0.1000000E-03 e    :
          :  Broyden damping             0.4000000          :
          ...................................................

 iter      E             dE          RMSdq      gap      omega  full diag
   1    -38.1745533 -0.381746E+02  0.375E+00    1.26       0.0  T
   2    -38.2820417 -0.107488E+00  0.290E+00    1.76       1.0  T
   3    -38.2987770 -0.167353E-01  0.183E+00    1.45       1.0  T
   4    -38.2816067  0.171703E-01  0.110E+00    1.38       1.0  T
   5    -38.2997671 -0.181604E-01  0.551E-01    1.41       1.0  T
   6    -38.3026488 -0.288170E-02  0.324E-01    1.36       1.0  T
   7    -38.3027205 -0.717220E-04  0.113E-01    1.40       1.0  T
   8    -38.3029053 -0.184835E-03  0.279E-02    1.41       1.0  T
   9    -38.3029130 -0.769476E-05  0.190E-02    1.40       1.0  T
  10    -38.3029150 -0.200511E-05  0.807E-03    1.40       2.2  T
  11    -38.3029153 -0.265492E-06  0.492E-03    1.40       3.7  T
  12    -38.3029153 -0.312918E-07  0.281E-03    1.40       6.4  T
  13    -38.3029153 -0.229405E-07  0.876E-04    1.40      20.5  T
  14    -38.3029153 -0.456512E-08  0.348E-04    1.40      51.7  T

   *** convergence criteria satisfied after 14 iterations ***

         #    Occupation            Energy/Eh            Energy/eV
      -------------------------------------------------------------
         1        2.0000           -0.8823950             -24.0112
       ...           ...                  ...                  ...
        30        2.0000           -0.5822426             -15.8436
        31        2.0000           -0.5810959             -15.8124
        32        2.0000           -0.5640602             -15.3489
        33        2.0000           -0.5181442             -14.0994
        34        2.0000           -0.5108416             -13.9007
        35        2.0000           -0.5053263             -13.7506
        36        2.0000           -0.5011140             -13.6360 (HOMO)
        37                         -0.4496396             -12.2353 (LUMO)
        38                         -0.4183927             -11.3850
        39                         -0.4159169             -11.3177
        40                         -0.4114206             -11.1953
        41                         -0.4059907             -11.0476
       ...                                ...                  ...
        78                          2.4743143              67.3295
      -------------------------------------------------------------
                  HL-Gap            0.0514744 Eh            1.4007 eV
             Fermi-level           -0.4753709 Eh          -12.9355 eV

 SCC (total)                   0 d,  0 h,  0 min,  0.780 sec
 SCC setup                      ...        0 min,  0.018 sec (  2.318%)
 Dispersion                     ...        0 min,  0.022 sec (  2.838%)
 classical contributions        ...        0 min,  0.009 sec (  1.178%)
 integral evaluation            ...        0 min,  0.025 sec (  3.216%)
 iterations                     ...        0 min,  0.628 sec ( 80.535%)
 molecular gradient             ...        0 min,  0.077 sec (  9.869%)
 printout                       ...        0 min,  0.000 sec (  0.040%)

         :::::::::::::::::::::::::::::::::::::::::::::::::::::
         ::                     SUMMARY                     ::
         :::::::::::::::::::::::::::::::::::::::::::::::::::::
         :: total energy             -35.904700958925 Eh    ::
         :: gradient norm              2.311649172923 Eh/a0 ::
         :: HOMO-LUMO gap              1.400688726860 eV    ::
         ::.................................................::
         :: SCC energy               -38.302915335308 Eh    ::
         :: -> isotropic ES            0.096756337334 Eh    ::
         :: -> anisotropic ES         -0.015328288680 Eh    ::
         :: -> anisotropic XC          0.022871642252 Eh    ::
         :: -> dispersion             -0.032914398876 Eh    ::
         :: repulsion energy           0.638900163058 Eh    ::
         :: add. restraining           1.758683236372 Eh    ::
         :: total charge               1.000000000000 e     ::
         :::::::::::::::::::::::::::::::::::::::::::::::::::::

      ----------------------------------------------------------- 
     |                   =====================                   |
     |                        A N C O P T                        |
     |                   =====================                   |
     |               Approximate Normal Coordinate               |
     |                Rational Function Optimizer                |
      ----------------------------------------------------------- 

          ...................................................
          :                      SETUP                      :
          :.................................................:
          :   optimization level            normal          :
          :   max. optcycles                   200          :
          :   ANC micro-cycles                  20          :
          :   degrees of freedom                87          :
          :.................................................:
          :   RF solver                   davidson          :
          :   write xtbopt.log                true          :
          :   linear?                        false          :
          :   energy convergence         0.5000000E-05 Eh   :
          :   grad. convergence          0.1000000E-02 Eh/α :
          :   maximium RF displ.         1.0000000          :
          :   Hlow (freq-cutoff)         0.1000000E-01      :
          :   Hmax (freq-cutoff)         5.0000000          :
          :   S6 in model hess.         20.0000000          :
          ...................................................

generating ANC from model Hessian ...
Using Lindh-Hessian (1995)
 Shifting diagonal of input Hessian by   0.27529933100057608     
 Lowest  eigenvalues of input Hessian
    0.010000    0.170945    0.000000    0.000000    0.000000    0.000000
    0.000000    0.000000    0.275848    0.276041    0.276797    0.277438
    0.278154    0.281289    0.281609    0.281903    0.282850    0.283983
 Highest eigenvalues
    2.014022    2.017712    2.581680    3.122327    4.069152    5.649850


........................................................................
.............................. CYCLE    1 ..............................
........................................................................
   1    -38.3029153 -0.383029E+02  0.263E-04    1.40       0.0  T
   2    -38.3029153 -0.292040E-09  0.897E-05    1.40     200.3  T
   3    -38.3029153 -0.124913E-09  0.106E-04    1.40     168.8  T
     SCC iter.                  ...        0 min,  0.144 sec
     gradient                   ...        0 min,  0.081 sec
 * total energy  :   -35.9047010 Eh     change       -0.5962377E-09 Eh
   gradient norm :     2.3116495 Eh/α   predicted     0.0000000E+00 (-100.00%)
   displ. norm   :     0.6485744 α      lambda       -0.1415538E+01
   maximum displ.:     0.3284749 α      in ANC's #71, #79, #86, ...

........................................................................
.............................. CYCLE    2 ..............................
........................................................................
   1    -38.2303038 -0.382303E+02  0.118E+00    1.51       0.0  T
   2    -38.2259282  0.437558E-02  0.855E-01    1.37       1.0  T
   3    -38.2335106 -0.758240E-02  0.698E-01    1.47       1.0  T
   4    -38.2382540 -0.474334E-02  0.199E-01    1.51       1.0  T
   5    -38.2384488 -0.194793E-03  0.137E-01    1.45       1.0  T
   6    -38.2385126 -0.638369E-04  0.682E-02    1.46       1.0  T
   7    -38.2385440 -0.313670E-04  0.239E-02    1.45       1.0  T
   8    -38.2385456 -0.157918E-05  0.123E-02    1.45       1.5  T
   9    -38.2385458 -0.220774E-06  0.635E-03    1.45       2.8  T
  10    -38.2385459 -0.137779E-06  0.304E-03    1.45       5.9  T
  11    -38.2385459 -0.206181E-07  0.868E-04    1.45      20.7  T
  12    -38.2385459 -0.524464E-08  0.229E-04    1.45      78.4  T
     SCC iter.                  ...        0 min,  0.491 sec
     gradient                   ...        0 min,  0.090 sec
 * total energy  :   -36.9619572 Eh     change       -0.1057256E+01 Eh
   gradient norm :     1.0683636 Eh/α   predicted    -0.1005529E+01 (  -4.89%)
   displ. norm   :     0.5830024 α      lambda       -0.5804473E+00
   maximum displ.:     0.3141143 α      in ANC's #71, #60, #79, ...

........................................................................
.............................. CYCLE    3 ..............................
........................................................................
   1    -38.0824950 -0.380825E+02  0.169E+00    0.95       0.0  T
   2    -38.0479518  0.345432E-01  0.144E+00    0.81       1.0  T
   3    -38.0926363 -0.446845E-01  0.111E+00    1.04       1.0  T
   4    -38.1073518 -0.147155E-01  0.311E-01    0.85       1.0  T
   5    -38.1083652 -0.101334E-02  0.155E-01    0.93       1.0  T
   6    -38.1085779 -0.212739E-03  0.826E-02    0.91       1.0  T
   7    -38.1085879 -0.997939E-05  0.335E-02    0.91       1.0  T
   8    -38.1085947 -0.684611E-05  0.172E-02    0.91       1.0  T
   9    -38.1085955 -0.711471E-06  0.990E-03    0.91       1.8  T
  10    -38.1085958 -0.318172E-06  0.411E-03    0.91       4.4  T
  11    -38.1085959 -0.164902E-06  0.253E-03    0.91       7.1  T
  12    -38.1085960 -0.343007E-07  0.685E-04    0.91      26.2  T
  13    -38.1085960 -0.138896E-08  0.375E-04    0.91      47.8  T
     SCC iter.                  ...        0 min,  0.437 sec
     gradient                   ...        0 min,  0.097 sec
 * total energy  :   -37.3372351 Eh     change       -0.3752779E+00 Eh
   gradient norm :     0.4017232 Eh/α   predicted    -0.3888985E+00 (   3.63%)
   displ. norm   :     0.4810927 α      lambda       -0.1363369E+00
   maximum displ.:     0.2342699 α      in ANC's #1, #60, #22, ...

........................................................................
.............................. CYCLE    4 ..............................
........................................................................
   1    -38.0417020 -0.380417E+02  0.155E+00    1.19       0.0  T
   2    -38.0536995 -0.119975E-01  0.806E-01    1.12       1.0  T
   3    -38.0562208 -0.252132E-02  0.582E-01    1.00       1.0  T
   4    -38.0576354 -0.141457E-02  0.235E-01    1.10       1.0  T
   5    -38.0587623 -0.112690E-02  0.136E-01    1.03       1.0  T
   6    -38.0589633 -0.200955E-03  0.589E-02    1.05       1.0  T
   7    -38.0589718 -0.855043E-05  0.374E-02    1.05       1.0  T
   8    -38.0589790 -0.721021E-05  0.151E-02    1.05       1.2  T
   9    -38.0589799 -0.868271E-06  0.641E-03    1.05       2.8  T
  10    -38.0589802 -0.356690E-06  0.319E-03    1.05       5.6  T
  11    -38.0589803 -0.114240E-07  0.186E-03    1.05       9.6  T
  12    -38.0589803 -0.300660E-07  0.802E-04    1.05      22.4  T
  13    -38.0589803 -0.173691E-08  0.447E-04    1.05      40.2  T
     SCC iter.                  ...        0 min,  0.363 sec
     gradient                   ...        0 min,  0.009 sec
 * total energy  :   -37.4305898 Eh     change       -0.9335470E-01 Eh
   gradient norm :     0.1770874 Eh/α   predicted    -0.8394604E-01 ( -10.08%)
   displ. norm   :     0.5544779 α      lambda       -0.6538437E-01
   maximum displ.:     0.3073224 α      in ANC's #1, #22, #60, ...

........................................................................
.............................. CYCLE    5 ..............................
........................................................................
   1    -38.0735421 -0.380735E+02  0.646E-01    1.49       0.0  T
   2    -38.0748260 -0.128390E-02  0.388E-01    1.29       1.0  T
   3    -38.0748151  0.109728E-04  0.244E-01    1.24       1.0  T
   4    -38.0749878 -0.172751E-03  0.126E-01    1.23       1.0  T
   5    -38.0750777 -0.898545E-04  0.683E-02    1.24       1.0  T
   6    -38.0750942 -0.164834E-04  0.445E-02    1.24       1.0  T
   7    -38.0751063 -0.121303E-04  0.176E-02    1.25       1.0  T
   8    -38.0751086 -0.235762E-05  0.803E-03    1.25       2.2  T
   9    -38.0751090 -0.369115E-06  0.416E-03    1.25       4.3  T
  10    -38.0751090 -0.276212E-07  0.233E-03    1.25       7.7  T
  11    -38.0751091 -0.215148E-07  0.664E-04    1.25      27.0  T
  12    -38.0751091 -0.424856E-08  0.292E-04    1.25      61.5  T
     SCC iter.                  ...        0 min,  0.281 sec
     gradient                   ...        0 min,  0.006 sec
 * total energy  :   -37.4604309 Eh     change       -0.2984114E-01 Eh
   gradient norm :     0.2178798 Eh/α   predicted    -0.4274345E-01 (  43.24%)
   displ. norm   :     0.7437006 α      lambda       -0.6600767E-01
   maximum displ.:     0.5402912 α      in ANC's #1, #13, #22, ...

........................................................................
.............................. CYCLE    6 ..............................
........................................................................
   1    -38.0882933 -0.380883E+02  0.986E-01    1.77       0.0  T
   2    -38.0891905 -0.897234E-03  0.722E-01    1.79       1.0  T
   3    -38.0884864  0.704166E-03  0.389E-01    1.77       1.0  T
   4    -38.0893847 -0.898282E-03  0.191E-01    1.78       1.0  T
   5    -38.0897692 -0.384496E-03  0.943E-02    1.80       1.0  T
   6    -38.0897892 -0.200769E-04  0.375E-02    1.79       1.0  T
   7    -38.0897931 -0.385496E-05  0.172E-02    1.80       1.0  T
   8    -38.0897951 -0.200678E-05  0.772E-03    1.80       2.3  T
   9    -38.0897953 -0.238860E-06  0.394E-03    1.80       4.6  T
  10    -38.0897954 -0.268135E-07  0.230E-03    1.80       7.8  T
  11    -38.0897954 -0.259450E-07  0.983E-04    1.80      18.3  T
  12    -38.0897954 -0.169309E-08  0.262E-04    1.80      68.5  T
     SCC iter.                  ...        0 min,  0.287 sec
     gradient                   ...        0 min,  0.010 sec
 * total energy  :   -37.4940117 Eh     change       -0.3358072E-01 Eh
   gradient norm :     0.2320998 Eh/α   predicted    -0.5125802E-01 (  52.64%)
   displ. norm   :     0.4195506 α      lambda       -0.5691109E-01
   maximum displ.:     0.1582006 α      in ANC's #13, #22, #23, ...

........................................................................
.............................. CYCLE    7 ..............................
........................................................................
   1    -38.1388020 -0.381388E+02  0.468E-01    1.97       0.0  T
   2    -38.1389560 -0.153973E-03  0.317E-01    1.91       1.0  T
   3    -38.1386185  0.337479E-03  0.165E-01    1.93       1.0  T
   4    -38.1390462 -0.427683E-03  0.402E-02    1.91       1.0  T
   5    -38.1390633 -0.171134E-04  0.395E-02    1.91       1.0  T
   6    -38.1390673 -0.395769E-05  0.126E-02    1.91       1.4  T
   7    -38.1390673 -0.344839E-07  0.657E-03    1.91       2.7  T
   8    -38.1390675 -0.201029E-06  0.310E-03    1.91       5.8  T
   9    -38.1390675 -0.240683E-07  0.164E-03    1.91      10.9  T
  10    -38.1390675  0.519243E-09  0.644E-04    1.91      27.9  T
  11    -38.1390676 -0.855245E-08  0.248E-04    1.91      72.5  T
     SCC iter.                  ...        0 min,  0.329 sec
     gradient                   ...        0 min,  0.064 sec
 * total energy  :   -37.5312277 Eh     change       -0.3721603E-01 Eh
   gradient norm :     0.1420901 Eh/α   predicted    -0.3346440E-01 ( -10.08%)
   displ. norm   :     0.5178370 α      lambda       -0.3506231E-01
   maximum displ.:     0.2212684 α      in ANC's #13, #22, #23, ...

........................................................................
.............................. CYCLE    8 ..............................
........................................................................
   1    -38.1716317 -0.381716E+02  0.394E-01    2.02       0.0  T
   2    -38.1716852 -0.534885E-04  0.259E-01    2.01       1.0  T
   3    -38.1715784  0.106824E-03  0.723E-02    2.02       1.0  T
   4    -38.1717083 -0.129895E-03  0.439E-02    2.01       1.0  T
   5    -38.1717161 -0.780864E-05  0.201E-02    2.01       1.0  T
   6    -38.1717173 -0.126407E-05  0.757E-03    2.01       2.4  T
   7    -38.1717174 -0.837076E-07  0.401E-03    2.01       4.5  T
   8    -38.1717175 -0.673975E-07  0.255E-03    2.01       7.0  T
   9    -38.1717175 -0.317133E-07  0.127E-03    2.01      14.1  T
  10    -38.1717175 -0.576233E-08  0.416E-04    2.01      43.2  T
  11    -38.1717175 -0.117672E-08  0.111E-04    2.01     161.9  T
     SCC iter.                  ...        0 min,  0.262 sec
     gradient                   ...        0 min,  0.104 sec
 * total energy  :   -37.5584468 Eh     change       -0.2721908E-01 Eh
   gradient norm :     0.1202012 Eh/α   predicted    -0.2223230E-01 ( -18.32%)
   displ. norm   :     0.5511772 α      lambda       -0.3100969E-01
   maximum displ.:     0.2302216 α      in ANC's #13, #57, #23, ...

........................................................................
.............................. CYCLE    9 ..............................
........................................................................
   1    -38.1983922 -0.381984E+02  0.415E-01    2.05       0.0  T
   2    -38.1984511 -0.588823E-04  0.276E-01    2.03       1.0  T
   3    -38.1983514  0.996298E-04  0.763E-02    2.05       1.0  T
   4    -38.1984751 -0.123660E-03  0.443E-02    2.03       1.0  T
   5    -38.1984850 -0.986820E-05  0.238E-02    2.03       1.0  T
   6    -38.1984864 -0.138938E-05  0.816E-03    2.04       2.2  T
   7    -38.1984864 -0.680615E-07  0.466E-03    2.04       3.9  T
   8    -38.1984865 -0.821448E-07  0.253E-03    2.04       7.1  T
   9    -38.1984865 -0.333641E-07  0.116E-03    2.04      15.5  T
  10    -38.1984865 -0.387379E-08  0.398E-04    2.04      45.1  T
  11    -38.1984865 -0.146115E-08  0.123E-04    2.04     146.4  T
     SCC iter.                  ...        0 min,  0.238 sec
     gradient                   ...        0 min,  0.084 sec
 * total energy  :   -37.5820319 Eh     change       -0.2358514E-01 Eh
   gradient norm :     0.0783829 Eh/α   predicted    -0.2021518E-01 ( -14.29%)
   displ. norm   :     0.4826759 α      lambda       -0.1995577E-01
   maximum displ.:     0.1859912 α      in ANC's #57, #13, #11, ...

........................................................................
.............................. CYCLE   10 ..............................
........................................................................
   1    -38.2148614 -0.382149E+02  0.320E-01    2.03       0.0  T
   2    -38.2148884 -0.269884E-04  0.196E-01    2.02       1.0  T
   3    -38.2148423  0.460471E-04  0.531E-02    2.03       1.0  T
   4    -38.2149010 -0.586702E-04  0.302E-02    2.02       1.0  T
   5    -38.2149043 -0.328691E-05  0.150E-02    2.02       1.2  T
   6    -38.2149051 -0.812432E-06  0.603E-03    2.02       3.0  T
   7    -38.2149051 -0.879133E-08  0.379E-03    2.02       4.7  T
   8    -38.2149052 -0.731602E-07  0.162E-03    2.02      11.1  T
   9    -38.2149052 -0.588408E-08  0.643E-04    2.02      27.9  T
  10    -38.2149052 -0.333159E-08  0.230E-04    2.02      78.2  T
     SCC iter.                  ...        0 min,  0.219 sec
     gradient                   ...        0 min,  0.006 sec
 * total energy  :   -37.5966458 Eh     change       -0.1461393E-01 Eh
   gradient norm :     0.0662336 Eh/α   predicted    -0.1230250E-01 ( -15.82%)
   displ. norm   :     0.4090466 α      lambda       -0.1145854E-01
   maximum displ.:     0.1620355 α      in ANC's #57, #11, #13, ...

........................................................................
.............................. CYCLE   11 ..............................
........................................................................
   1    -38.2230921 -0.382231E+02  0.261E-01    2.00       0.0  T
   2    -38.2231118 -0.197371E-04  0.158E-01    2.00       1.0  T
   3    -38.2230743  0.374958E-04  0.471E-02    2.00       1.0  T
   4    -38.2231224 -0.480305E-04  0.226E-02    2.00       1.0  T
   5    -38.2231235 -0.110515E-05  0.148E-02    2.00       1.2  T
   6    -38.2231237 -0.247306E-06  0.592E-03    2.00       3.0  T
   7    -38.2231239 -0.205049E-06  0.389E-03    2.00       4.6  T
   8    -38.2231240 -0.461868E-07  0.128E-03    2.00      14.0  T
   9    -38.2231240 -0.624451E-08  0.387E-04    2.00      46.4  T
  10    -38.2231240 -0.259064E-09  0.200E-04    2.00      89.7  T
     SCC iter.                  ...        0 min,  0.305 sec
     gradient                   ...        0 min,  0.083 sec
 * total energy  :   -37.6049482 Eh     change       -0.8302391E-02 Eh
   gradient norm :     0.0522818 Eh/α   predicted    -0.6687899E-02 ( -19.45%)
   displ. norm   :     0.3196756 α      lambda       -0.6920802E-02
   maximum displ.:     0.1256579 α      in ANC's #57, #11, #13, ...

........................................................................
.............................. CYCLE   12 ..............................
........................................................................
   1    -38.2273266 -0.382273E+02  0.218E-01    1.97       0.0  T
   2    -38.2273527 -0.261371E-04  0.137E-01    1.99       1.0  T
   3    -38.2273067  0.459912E-04  0.529E-02    1.98       1.0  T
   4    -38.2273663 -0.595544E-04  0.192E-02    1.99       1.0  T
   5    -38.2273671 -0.844489E-06  0.151E-02    1.99       1.2  T
   6    -38.2273670  0.107303E-06  0.709E-03    1.99       2.5  T
   7    -38.2273674 -0.318929E-06  0.432E-03    1.99       4.2  T
   8    -38.2273674 -0.379031E-07  0.147E-03    1.99      12.3  T
   9    -38.2273674 -0.555470E-08  0.368E-04    1.99      48.8  T
  10    -38.2273674 -0.268230E-09  0.185E-04    1.99      97.2  T
     SCC iter.                  ...        0 min,  0.365 sec
     gradient                   ...        0 min,  0.009 sec
 * total energy  :   -37.6099404 Eh     change       -0.4992214E-02 Eh
   gradient norm :     0.0419537 Eh/α   predicted    -0.3814065E-02 ( -23.60%)
   displ. norm   :     0.2709136 α      lambda       -0.5044017E-02
   maximum displ.:     0.0980914 α      in ANC's #57, #13, #24, ...

........................................................................
.............................. CYCLE   13 ..............................
........................................................................
   1    -38.2289930 -0.382290E+02  0.203E-01    1.96       0.0  T
   2    -38.2290211 -0.280567E-04  0.130E-01    1.98       1.0  T
   3    -38.2289782  0.428629E-04  0.518E-02    1.97       1.0  T
   4    -38.2290339 -0.557154E-04  0.147E-02    1.98       1.2  T
   5    -38.2290349 -0.100154E-05  0.105E-02    1.98       1.7  T
   6    -38.2290349  0.683859E-07  0.620E-03    1.98       2.9  T
   7    -38.2290351 -0.194660E-06  0.426E-03    1.98       4.2  T
   8    -38.2290351 -0.305069E-07  0.150E-03    1.98      12.0  T
   9    -38.2290351 -0.636970E-08  0.428E-04    1.98      41.9  T
  10    -38.2290351 -0.741807E-11  0.177E-04    1.98     101.5  T
     SCC iter.                  ...        0 min,  0.277 sec
     gradient                   ...        0 min,  0.019 sec
 * total energy  :   -37.6136390 Eh     change       -0.3698575E-02 Eh
   gradient norm :     0.0362490 Eh/α   predicted    -0.2707114E-02 ( -26.81%)
   displ. norm   :     0.2615783 α      lambda       -0.4450716E-02
   maximum displ.:     0.0861263 α      in ANC's #22, #38, #24, ...

........................................................................
.............................. CYCLE   14 ..............................
........................................................................
   1    -38.2322386 -0.382322E+02  0.222E-01    1.95       0.0  T
   2    -38.2322809 -0.422731E-04  0.149E-01    1.98       1.0  T
   3    -38.2322321  0.487540E-04  0.609E-02    1.96       1.0  T
   4    -38.2322971 -0.649615E-04  0.179E-02    1.97       1.0  T
   5    -38.2322999 -0.280006E-05  0.119E-02    1.97       1.5  T
   6    -38.2323001 -0.211362E-06  0.522E-03    1.97       3.4  T
   7    -38.2323002 -0.141748E-06  0.380E-03    1.97       4.7  T
   8    -38.2323003 -0.291443E-07  0.156E-03    1.97      11.5  T
   9    -38.2323003 -0.774464E-08  0.798E-04    1.97      22.5  T
  10    -38.2323003  0.217206E-09  0.265E-04    1.97      67.7  T
     SCC iter.                  ...        0 min,  0.412 sec
     gradient                   ...        0 min,  0.023 sec
 * total energy  :   -37.6166109 Eh     change       -0.2971929E-02 Eh
   gradient norm :     0.0332415 Eh/α   predicted    -0.2377638E-02 ( -20.00%)
   displ. norm   :     0.2191634 α      lambda       -0.3023833E-02
   maximum displ.:     0.0697410 α      in ANC's #12, #38, #22, ...

........................................................................
.............................. CYCLE   15 ..............................
........................................................................
   1    -38.2295581 -0.382296E+02  0.197E-01    1.95       0.0  T
   2    -38.2295965 -0.384435E-04  0.130E-01    1.96       1.0  T
   3    -38.2295694  0.271842E-04  0.502E-02    1.95       1.0  T
   4    -38.2296041 -0.347018E-04  0.174E-02    1.96       1.0  T
   5    -38.2296076 -0.355903E-05  0.105E-02    1.96       1.7  T
   6    -38.2296079 -0.263058E-06  0.448E-03    1.96       4.0  T
   7    -38.2296080 -0.945096E-07  0.249E-03    1.96       7.2  T
   8    -38.2296080 -0.217278E-07  0.107E-03    1.96      16.8  T
   9    -38.2296080 -0.211734E-08  0.642E-04    1.96      28.0  T
  10    -38.2296080 -0.153052E-08  0.218E-04    1.96      82.4  T
     SCC iter.                  ...        0 min,  0.258 sec
     gradient                   ...        0 min,  0.013 sec
 * total energy  :   -37.6183446 Eh     change       -0.1733649E-02 Eh
   gradient norm :     0.0325991 Eh/α   predicted    -0.1584549E-02 (  -8.60%)
   displ. norm   :     0.1436799 α      lambda       -0.1829573E-02
   maximum displ.:     0.0598339 α      in ANC's #22, #36, #38, ...

........................................................................
.............................. CYCLE   16 ..............................
........................................................................
   1    -38.2319792 -0.382320E+02  0.119E-01    1.95       0.0  T
   2    -38.2319908 -0.115309E-04  0.788E-02    1.96       1.0  T
   3    -38.2319781  0.126453E-04  0.338E-02    1.95       1.0  T
   4    -38.2319939 -0.157769E-04  0.138E-02    1.96       1.3  T
   5    -38.2319959 -0.196381E-05  0.831E-03    1.95       2.2  T
   6    -38.2319961 -0.223908E-06  0.336E-03    1.95       5.3  T
   7    -38.2319961 -0.296469E-07  0.155E-03    1.95      11.6  T
   8    -38.2319961 -0.822176E-08  0.678E-04    1.95      26.5  T
   9    -38.2319961 -0.979981E-09  0.486E-04    1.95      37.0  T
     SCC iter.                  ...        0 min,  0.242 sec
     gradient                   ...        0 min,  0.012 sec
 * total energy  :   -37.6195393 Eh     change       -0.1194723E-02 Eh
   gradient norm :     0.0219561 Eh/α   predicted    -0.9336750E-03 ( -21.85%)
   displ. norm   :     0.0998107 α      lambda       -0.1173817E-02
   maximum displ.:     0.0306177 α      in ANC's #21, #12, #37, ...

........................................................................
.............................. CYCLE   17 ..............................
........................................................................
   1    -38.2328777 -0.382329E+02  0.799E-02    1.94       0.0  T
   2    -38.2328844 -0.663069E-05  0.492E-02    1.95       1.0  T
   3    -38.2328776  0.679397E-05  0.260E-02    1.94       1.0  T
   4    -38.2328872 -0.965340E-05  0.886E-03    1.95       2.0  T
   5    -38.2328877 -0.445814E-06  0.571E-03    1.95       3.1  T
   6    -38.2328877 -0.423996E-07  0.271E-03    1.95       6.6  T
   7    -38.2328878 -0.399330E-07  0.111E-03    1.95      16.1  T
   8    -38.2328878 -0.321656E-09  0.704E-04    1.95      25.5  T
   9    -38.2328878 -0.163696E-08  0.375E-04    1.95      47.8  T
     SCC iter.                  ...        0 min,  0.233 sec
     gradient                   ...        0 min,  0.009 sec
 * total energy  :   -37.6204293 Eh     change       -0.8899901E-03 Eh
   gradient norm :     0.0214146 Eh/α   predicted    -0.5927699E-03 ( -33.40%)
   displ. norm   :     0.1470091 α      lambda       -0.1409095E-02
   maximum displ.:     0.0478409 α      in ANC's #12, #21, #37, ...

........................................................................
.............................. CYCLE   18 ..............................
........................................................................
   1    -38.2347926 -0.382348E+02  0.115E-01    1.93       0.0  T
   2    -38.2348032 -0.105604E-04  0.673E-02    1.93       1.0  T
   3    -38.2347876  0.156187E-04  0.359E-02    1.93       1.0  T
   4    -38.2348088 -0.212619E-04  0.966E-03    1.93       1.9  T
   5    -38.2348092 -0.368746E-06  0.685E-03    1.93       2.6  T
   6    -38.2348092 -0.422875E-07  0.360E-03    1.93       5.0  T
   7    -38.2348093 -0.638004E-07  0.201E-03    1.93       8.9  T
   8    -38.2348093  0.197558E-08  0.114E-03    1.93      15.7  T
   9    -38.2348093 -0.469030E-08  0.468E-04    1.93      38.4  T
  10    -38.2348093 -0.690605E-09  0.177E-04    1.93     101.3  T
     SCC iter.                  ...        0 min,  0.248 sec
     gradient                   ...        0 min,  0.011 sec
 * total energy  :   -37.6214044 Eh     change       -0.9751357E-03 Eh
   gradient norm :     0.0205963 Eh/α   predicted    -0.7197802E-03 ( -26.19%)
   displ. norm   :     0.1361051 α      lambda       -0.9269719E-03
   maximum displ.:     0.0530156 α      in ANC's #12, #5, #21, ...

........................................................................
.............................. CYCLE   19 ..............................
........................................................................
   1    -38.2347694 -0.382348E+02  0.999E-02    1.90       0.0  T
   2    -38.2347822 -0.127987E-04  0.573E-02    1.91       1.0  T
   3    -38.2347722  0.100581E-04  0.361E-02    1.90       1.0  T
   4    -38.2347898 -0.176255E-04  0.835E-03    1.91       2.2  T
   5    -38.2347900 -0.220033E-06  0.581E-03    1.91       3.1  T
   6    -38.2347901 -0.580975E-07  0.251E-03    1.91       7.2  T
   7    -38.2347901 -0.489577E-07  0.125E-03    1.91      14.4  T
   8    -38.2347901 -0.651568E-11  0.837E-04    1.91      21.5  T
   9    -38.2347901 -0.191899E-08  0.361E-04    1.91      49.7  T
     SCC iter.                  ...        0 min,  0.263 sec
     gradient                   ...        0 min,  0.075 sec
 * total energy  :   -37.6220536 Eh     change       -0.6491148E-03 Eh
   gradient norm :     0.0181819 Eh/α   predicted    -0.4721020E-03 ( -27.27%)
   displ. norm   :     0.1064887 α      lambda       -0.6389664E-03
   maximum displ.:     0.0435305 α      in ANC's #12, #5, #22, ...

........................................................................
.............................. CYCLE   20 ..............................
........................................................................
   1    -38.2355236 -0.382355E+02  0.900E-02    1.88       0.0  T
   2    -38.2355345 -0.109612E-04  0.526E-02    1.89       1.0  T
   3    -38.2355283  0.624459E-05  0.314E-02    1.88       1.0  T
   4    -38.2355390 -0.107056E-04  0.775E-03    1.89       2.3  T
   5    -38.2355392 -0.209052E-06  0.525E-03    1.89       3.4  T
   6    -38.2355393 -0.564690E-07  0.231E-03    1.89       7.8  T
   7    -38.2355393 -0.478265E-07  0.115E-03    1.89      15.6  T
   8    -38.2355393  0.529788E-09  0.825E-04    1.89      21.8  T
   9    -38.2355393 -0.174504E-08  0.364E-04    1.89      49.4  T
     SCC iter.                  ...        0 min,  0.242 sec
     gradient                   ...        0 min,  0.016 sec
 * total energy  :   -37.6224661 Eh     change       -0.4125037E-03 Eh
   gradient norm :     0.0100504 Eh/α   predicted    -0.3231194E-03 ( -21.67%)
   displ. norm   :     0.0619676 α      lambda       -0.3007815E-03
   maximum displ.:     0.0259839 α      in ANC's #12, #5, #55, ...
 * RMSD in coord.:     0.7480998 α      energy gain  -0.1717765E+01 Eh

generating ANC from model Hessian ...
Using Lindh-Hessian (1995)
 Shifting diagonal of input Hessian by    1.0645703839923838E-002
 Lowest  eigenvalues of input Hessian
    0.010000    0.000000    0.000000    0.000000    0.000000    0.000000
    0.000000    0.011033    0.011198    0.011600    0.012107    0.012456
    0.012694    0.013042    0.015796    0.017006    0.017247    0.019772
 Highest eigenvalues
    1.766208    1.823480    2.014441    3.364392    3.764164    5.052326


........................................................................
.............................. CYCLE   21 ..............................
........................................................................
   1    -38.2350946 -0.382351E+02  0.510E-02    1.86       0.0  T
   2    -38.2351046 -0.993940E-05  0.356E-02    1.87       1.0  T
   3    -38.2351064 -0.187098E-05  0.198E-02    1.87       1.0  T
   4    -38.2351076 -0.121394E-05  0.554E-03    1.87       3.2  T
   5    -38.2351079 -0.275898E-06  0.351E-03    1.87       5.1  T
   6    -38.2351080 -0.279514E-07  0.196E-03    1.87       9.2  T
   7    -38.2351080 -0.285514E-07  0.947E-04    1.87      19.0  T
   8    -38.2351080 -0.227118E-09  0.572E-04    1.87      31.4  T
     SCC iter.                  ...        0 min,  0.227 sec
     gradient                   ...        0 min,  0.011 sec
 * total energy  :   -37.6226799 Eh     change       -0.2138119E-03 Eh
   gradient norm :     0.0089805 Eh/α   predicted     0.0000000E+00 (-100.00%)
   displ. norm   :     0.1932774 α      lambda       -0.1036668E-02
   maximum displ.:     0.0850510 α      in ANC's #1, #13, #5, ...

........................................................................
.............................. CYCLE   22 ..............................
........................................................................
   1    -38.2354501 -0.382355E+02  0.150E-01    1.84       0.0  T
   2    -38.2354914 -0.412862E-04  0.102E-01    1.85       1.0  T
   3    -38.2354701  0.213215E-04  0.633E-02    1.85       1.0  T
   4    -38.2355066 -0.365602E-04  0.128E-02    1.85       1.4  T
   5    -38.2355083 -0.172237E-05  0.142E-02    1.85       1.3  T
   6    -38.2355092 -0.817775E-06  0.615E-03    1.85       2.9  T
   7    -38.2355092 -0.329042E-07  0.404E-03    1.85       4.4  T
   8    -38.2355093 -0.630670E-07  0.135E-03    1.85      13.3  T
   9    -38.2355093 -0.685971E-08  0.808E-04    1.85      22.2  T
  10    -38.2355093 -0.222673E-08  0.237E-04    1.85      75.6  T
     SCC iter.                  ...        0 min,  0.248 sec
     gradient                   ...        0 min,  0.006 sec
 * total energy  :   -37.6234067 Eh     change       -0.7268525E-03 Eh
   gradient norm :     0.0095027 Eh/α   predicted    -0.5397467E-03 ( -25.74%)
   displ. norm   :     0.2848875 α      lambda       -0.1037099E-02
   maximum displ.:     0.1431116 α      in ANC's #1, #13, #3, ...

........................................................................
.............................. CYCLE   23 ..............................
........................................................................
   1    -38.2348600 -0.382349E+02  0.182E-01    1.73       0.0  T
   2    -38.2351163 -0.256300E-03  0.166E-01    1.78       1.0  T
   3    -38.2352066 -0.902791E-04  0.104E-01    1.77       1.0  T
   4    -38.2351929  0.137049E-04  0.390E-02    1.79       1.0  T
   5    -38.2352099 -0.170429E-04  0.152E-02    1.77       1.2  T
   6    -38.2352100 -0.120835E-06  0.128E-02    1.78       1.4  T
   7    -38.2352109 -0.868546E-06  0.538E-03    1.78       3.3  T
   8    -38.2352110 -0.102467E-06  0.252E-03    1.78       7.1  T
   9    -38.2352110 -0.255452E-07  0.106E-03    1.78      16.9  T
  10    -38.2352110 -0.297732E-08  0.474E-04    1.78      37.9  T
  11    -38.2352110 -0.498936E-09  0.185E-04    1.78      97.2  T
     SCC iter.                  ...        0 min,  0.250 sec
     gradient                   ...        0 min,  0.066 sec
 * total energy  :   -37.6242076 Eh     change       -0.8008353E-03 Eh
   gradient norm :     0.0159134 Eh/α   predicted    -0.5606365E-03 ( -29.99%)
   displ. norm   :     0.5397437 α      lambda       -0.2002736E-02
   maximum displ.:     0.2778209 α      in ANC's #1, #3, #13, ...

........................................................................
.............................. CYCLE   24 ..............................
........................................................................
   1    -38.2287975 -0.382288E+02  0.385E-01    1.52       0.0  T
   2    -38.2299941 -0.119658E-02  0.579E-01    1.77       1.0  T
   3    -38.2320411 -0.204698E-02  0.419E-01    1.71       1.0  T
   4    -38.2328011 -0.760092E-03  0.155E-01    1.70       1.0  T
   5    -38.2330201 -0.218967E-03  0.402E-02    1.65       1.0  T
   6    -38.2330190  0.111988E-05  0.404E-02    1.67       1.0  T
   7    -38.2330265 -0.751969E-05  0.188E-02    1.66       1.0  T
   8    -38.2330312 -0.471434E-05  0.664E-03    1.65       2.7  T
   9    -38.2330316 -0.338941E-06  0.469E-03    1.65       3.8  T
  10    -38.2330316 -0.589504E-08  0.205E-03    1.66       8.7  T
  11    -38.2330317 -0.886998E-07  0.788E-04    1.65      22.8  T
  12    -38.2330317 -0.298748E-08  0.408E-04    1.65      44.0  T
     SCC iter.                  ...        0 min,  0.289 sec
     gradient                   ...        0 min,  0.005 sec
 * total energy  :   -37.6261635 Eh     change       -0.1955974E-02 Eh
   gradient norm :     0.0373513 Eh/α   predicted    -0.1293092E-02 ( -33.89%)
   displ. norm   :     0.8676641 α      lambda       -0.4300740E-02
   maximum displ.:     0.4022057 α      in ANC's #1, #13, #54, ...

........................................................................
.............................. CYCLE   25 ..............................
........................................................................
   1    -38.1992623 -0.381993E+02  0.806E-01    1.53       0.0  T
   2    -38.1902098  0.905250E-02  0.149E+00    1.72       1.0  T
   3    -38.2131252 -0.229155E-01  0.896E-01    1.69       1.0  T
   4    -38.2193985 -0.627328E-02  0.342E-01    1.65       1.0  T
   5    -38.2202099 -0.811390E-03  0.103E-01    1.62       1.0  T
   6    -38.2203167 -0.106809E-03  0.882E-02    1.63       1.0  T
   7    -38.2203288 -0.120890E-04  0.491E-02    1.63       1.0  T
   8    -38.2203446 -0.158155E-04  0.172E-02    1.62       1.0  T
   9    -38.2203449 -0.250931E-06  0.123E-02    1.62       1.5  T
  10    -38.2203454 -0.523979E-06  0.488E-03    1.62       3.7  T
  11    -38.2203455 -0.824146E-07  0.331E-03    1.62       5.4  T
  12    -38.2203457 -0.199190E-06  0.159E-03    1.62      11.3  T
  13    -38.2203457 -0.113270E-07  0.382E-04    1.62      47.0  T
  14    -38.2203457 -0.216971E-08  0.149E-04    1.62     120.7  T
     SCC iter.                  ...        0 min,  0.342 sec
     gradient                   ...        0 min,  0.006 sec
 * total energy  :   -37.6279264 Eh     change       -0.1762817E-02 Eh
   gradient norm :     0.1363979 Eh/α   predicted    -0.3769268E-02 ( 113.82%)
   displ. norm   :     0.1861915 α      lambda       -0.4405699E-02
   maximum displ.:     0.0675734 α      in ANC's #1, #4, #13, ...

........................................................................
.............................. CYCLE   26 ..............................
........................................................................
   1    -38.2293617 -0.382294E+02  0.113E-01    1.60       0.0  T
   2    -38.2293685 -0.681560E-05  0.708E-02    1.60       1.0  T
   3    -38.2293510  0.175109E-04  0.300E-02    1.60       1.0  T
   4    -38.2293686 -0.175633E-04  0.169E-02    1.60       1.1  T
   5    -38.2293717 -0.315480E-05  0.741E-03    1.60       2.4  T
   6    -38.2293714  0.306881E-06  0.524E-03    1.60       3.4  T
   7    -38.2293719 -0.438211E-06  0.156E-03    1.60      11.5  T
   8    -38.2293719 -0.206821E-07  0.103E-03    1.60      17.5  T
   9    -38.2293719 -0.271903E-08  0.591E-04    1.60      30.4  T
  10    -38.2293719 -0.145028E-08  0.304E-04    1.60      59.1  T
     SCC iter.                  ...        0 min,  0.258 sec
     gradient                   ...        0 min,  0.007 sec
 * total energy  :   -37.6313983 Eh     change       -0.3471980E-02 Eh
   gradient norm :     0.0951928 Eh/α   predicted    -0.2279214E-02 ( -34.35%)
   displ. norm   :     0.4214056 α      lambda       -0.1303398E-01
   maximum displ.:     0.1913311 α      in ANC's #54, #19, #58, ...

........................................................................
.............................. CYCLE   27 ..............................
........................................................................
   1    -38.2385404 -0.382385E+02  0.762E-01    1.68       0.0  T
   2    -38.2306694  0.787092E-02  0.108E+00    1.47       1.0  T
   3    -38.2486459 -0.179765E-01  0.380E-01    1.57       1.0  T
   4    -38.2483679  0.278076E-03  0.236E-01    1.57       1.0  T
   5    -38.2488398 -0.471903E-03  0.121E-01    1.57       1.0  T
   6    -38.2488722 -0.324780E-04  0.948E-02    1.57       1.0  T
   7    -38.2489390 -0.667986E-04  0.450E-02    1.57       1.0  T
   8    -38.2489524 -0.133891E-04  0.171E-02    1.58       1.1  T
   9    -38.2489545 -0.204062E-05  0.690E-03    1.58       2.6  T
  10    -38.2489548 -0.321663E-06  0.281E-03    1.58       6.4  T
  11    -38.2489549 -0.651955E-07  0.124E-03    1.58      14.5  T
  12    -38.2489549 -0.322826E-08  0.457E-04    1.58      39.3  T
  13    -38.2489549 -0.138128E-08  0.292E-04    1.58      61.6  T
     SCC iter.                  ...        0 min,  0.273 sec
     gradient                   ...        0 min,  0.007 sec
 * total energy  :   -37.6435839 Eh     change       -0.1218560E-01 Eh
   gradient norm :     0.0788007 Eh/α   predicted    -0.7674292E-02 ( -37.02%)
   displ. norm   :     0.8614982 α      lambda       -0.2951816E-01
   maximum displ.:     0.3888386 α      in ANC's #54, #6, #39, ...

........................................................................
.............................. CYCLE   28 ..............................
........................................................................
   1    -38.2653324 -0.382653E+02  0.141E+00    1.50       0.0  T
   2    -38.2617676  0.356478E-02  0.173E+00    0.66       1.0  T
   3    -38.2819765 -0.202089E-01  0.783E-01    0.94       1.0  T
   4    -38.2766103  0.536625E-02  0.791E-01    0.77       1.0  T
   5    -38.2817238 -0.511356E-02  0.268E-01    0.86       1.0  T
   6    -38.2819902 -0.266389E-03  0.175E-01    0.89       1.0  T
   7    -38.2821656 -0.175360E-03  0.864E-02    0.90       1.0  T
   8    -38.2821921 -0.265629E-04  0.345E-02    0.92       1.0  T
   9    -38.2821970 -0.480563E-05  0.146E-02    0.92       1.2  T
  10    -38.2821982 -0.120450E-05  0.482E-03    0.92       3.7  T
  11    -38.2821983 -0.163109E-06  0.249E-03    0.92       7.2  T
  12    -38.2821983  0.554067E-09  0.190E-03    0.92       9.5  T
  13    -38.2821983 -0.219467E-07  0.910E-04    0.92      19.7  T
  14    -38.2821984 -0.656395E-08  0.387E-04    0.92      46.5  T
     SCC iter.                  ...        0 min,  0.247 sec
     gradient                   ...        0 min,  0.006 sec
 * total energy  :   -37.6597221 Eh     change       -0.1613821E-01 Eh
   gradient norm :     0.1203834 Eh/α   predicted    -0.2571296E-01 (  59.33%)
   displ. norm   :     0.5267517 α      lambda       -0.2748152E-01
   maximum displ.:     0.3200003 α      in ANC's #1, #54, #6, ...

........................................................................
.............................. CYCLE   29 ..............................
........................................................................
   1    -38.2855410 -0.382855E+02  0.423E-01    1.31       0.0  T
   2    -38.2861508 -0.609858E-03  0.336E-01    1.43       1.0  T
   3    -38.2863309 -0.180065E-03  0.188E-01    1.38       1.0  T
   4    -38.2862900  0.408965E-04  0.955E-02    1.42       1.0  T
   5    -38.2863776 -0.876044E-04  0.383E-02    1.41       1.0  T
   6    -38.2863804 -0.273773E-05  0.268E-02    1.40       1.0  T
   7    -38.2863837 -0.331110E-05  0.101E-02    1.40       1.8  T
   8    -38.2863842 -0.533507E-06  0.416E-03    1.40       4.3  T
   9    -38.2863843 -0.542293E-07  0.208E-03    1.40       8.6  T
  10    -38.2863843 -0.157639E-07  0.106E-03    1.40      17.0  T
  11    -38.2863843 -0.290911E-08  0.392E-04    1.40      45.8  T
  12    -38.2863843 -0.168903E-09  0.201E-04    1.40      89.6  T
     SCC iter.                  ...        0 min,  0.226 sec
     gradient                   ...        0 min,  0.004 sec
 * total energy  :   -37.6629206 Eh     change       -0.3198496E-02 Eh
   gradient norm :     0.1864378 Eh/α   predicted    -0.1755339E-01 ( 448.80%)
   displ. norm   :     0.3505578 α      lambda       -0.2055335E-01
   maximum displ.:     0.1390201 α      in ANC's #8, #54, #1, ...

........................................................................
.............................. CYCLE   30 ..............................
........................................................................
   1    -38.2884259 -0.382884E+02  0.443E-01    1.34       0.0  T
   2    -38.2885668 -0.140856E-03  0.285E-01    1.31       1.0  T
   3    -38.2881908  0.376027E-03  0.173E-01    1.33       1.0  T
   4    -38.2886571 -0.466274E-03  0.569E-02    1.33       1.0  T
   5    -38.2886764 -0.193255E-04  0.399E-02    1.32       1.0  T
   6    -38.2886780 -0.157833E-05  0.238E-02    1.33       1.0  T
   7    -38.2886797 -0.176529E-05  0.834E-03    1.32       2.2  T
   8    -38.2886800 -0.259963E-06  0.470E-03    1.32       3.8  T
   9    -38.2886800 -0.303648E-07  0.177E-03    1.32      10.1  T
  10    -38.2886800 -0.236550E-07  0.689E-04    1.32      26.1  T
  11    -38.2886800 -0.185624E-08  0.394E-04    1.32      45.6  T
     SCC iter.                  ...        0 min,  0.181 sec
     gradient                   ...        0 min,  0.009 sec
 * total energy  :   -37.6748306 Eh     change       -0.1191000E-01 Eh
   gradient norm :     0.0913333 Eh/α   predicted    -0.1153959E-01 (  -3.11%)
   displ. norm   :     0.5742273 α      lambda       -0.1582999E-01
   maximum displ.:     0.2769973 α      in ANC's #1, #6, #54, ...

........................................................................
.............................. CYCLE   31 ..............................
........................................................................
   1    -38.2893959 -0.382894E+02  0.590E-01    1.23       0.0  T
   2    -38.2899310 -0.535129E-03  0.362E-01    1.15       1.0  T
   3    -38.2898335  0.974879E-04  0.168E-01    1.19       1.0  T
   4    -38.2899462 -0.112659E-03  0.865E-02    1.15       1.0  T
   5    -38.2900133 -0.671165E-04  0.357E-02    1.16       1.0  T
   6    -38.2900111  0.222688E-05  0.242E-02    1.16       1.0  T
   7    -38.2900135 -0.246426E-05  0.103E-02    1.17       1.7  T
   8    -38.2900144 -0.890081E-06  0.471E-03    1.17       3.8  T
   9    -38.2900144 -0.102315E-07  0.268E-03    1.17       6.7  T
  10    -38.2900145 -0.443447E-07  0.151E-03    1.17      11.9  T
  11    -38.2900145 -0.489476E-08  0.486E-04    1.17      37.0  T
  12    -38.2900145 -0.151330E-08  0.198E-04    1.17      90.9  T
     SCC iter.                  ...        0 min,  0.264 sec
     gradient                   ...        0 min,  0.099 sec
 * total energy  :   -37.6766138 Eh     change       -0.1783118E-02 Eh
   gradient norm :     0.1067901 Eh/α   predicted    -0.1052486E-01 ( 490.25%)
   displ. norm   :     0.2377029 α      lambda       -0.1606309E-01
   maximum displ.:     0.1163536 α      in ANC's #54, #9, #39, ...

........................................................................
.............................. CYCLE   32 ..............................
........................................................................
   1    -38.2895562 -0.382896E+02  0.244E-01    1.33       0.0  T
   2    -38.2897699 -0.213634E-03  0.152E-01    1.35       1.0  T
   3    -38.2897715 -0.160485E-05  0.793E-02    1.36       1.0  T
   4    -38.2897841 -0.126385E-04  0.351E-02    1.35       1.0  T
   5    -38.2898055 -0.214192E-04  0.170E-02    1.36       1.1  T
   6    -38.2898072 -0.165331E-05  0.104E-02    1.36       1.7  T
   7    -38.2898074 -0.256418E-06  0.369E-03    1.35       4.9  T
   8    -38.2898075 -0.308692E-07  0.257E-03    1.35       7.0  T
   9    -38.2898075 -0.112746E-07  0.965E-04    1.35      18.6  T
  10    -38.2898075 -0.150756E-07  0.638E-04    1.35      28.1  T
     SCC iter.                  ...        0 min,  0.274 sec
     gradient                   ...        0 min,  0.040 sec
 * total energy  :   -37.6839977 Eh     change       -0.7383983E-02 Eh
   gradient norm :     0.0371147 Eh/α   predicted    -0.8485351E-02 (  14.92%)
   displ. norm   :     0.5572357 α      lambda       -0.6470297E-02
   maximum displ.:     0.4067565 α      in ANC's #1, #6, #9, ...

........................................................................
.............................. CYCLE   33 ..............................
........................................................................
   1    -38.2910267 -0.382910E+02  0.315E-01    1.44       0.0  T
   2    -38.2910537 -0.270021E-04  0.210E-01    1.45       1.0  T
   3    -38.2909853  0.684026E-04  0.754E-02    1.44       1.0  T
   4    -38.2910645 -0.792592E-04  0.339E-02    1.45       1.0  T
   5    -38.2910675 -0.301376E-05  0.179E-02    1.45       1.0  T
   6    -38.2910681 -0.554978E-06  0.941E-03    1.45       1.9  T
   7    -38.2910692 -0.109138E-05  0.475E-03    1.45       3.8  T
   8    -38.2910692 -0.261841E-07  0.313E-03    1.45       5.7  T
   9    -38.2910692 -0.337376E-07  0.163E-03    1.45      11.0  T
  10    -38.2910693 -0.231873E-07  0.701E-04    1.45      25.6  T
  11    -38.2910693 -0.147709E-08  0.257E-04    1.45      70.0  T
     SCC iter.                  ...        0 min,  0.168 sec
     gradient                   ...        0 min,  0.004 sec
 * total energy  :   -37.6831968 Eh     change        0.8009877E-03 Eh
   gradient norm :     0.1582802 Eh/α   predicted    -0.4239712E-02 (-629.31%)
   displ. norm   :     0.3916472 α      lambda       -0.1053449E-01
   maximum displ.:     0.2143909 α      in ANC's #19, #13, #9, ...

........................................................................
.............................. CYCLE   34 ..............................
........................................................................
   1    -38.2955055 -0.382955E+02  0.293E-01    1.44       0.0  T
   2    -38.2955506 -0.451005E-04  0.154E-01    1.46       1.0  T
   3    -38.2954667  0.839048E-04  0.112E-01    1.43       1.0  T
   4    -38.2955829 -0.116227E-03  0.263E-02    1.45       1.0  T
   5    -38.2955865 -0.362052E-05  0.186E-02    1.45       1.0  T
   6    -38.2955871 -0.589872E-06  0.958E-03    1.45       1.9  T
   7    -38.2955873 -0.144183E-06  0.381E-03    1.45       4.7  T
   8    -38.2955873 -0.513999E-07  0.309E-03    1.45       5.8  T
   9    -38.2955873 -0.134723E-07  0.143E-03    1.45      12.6  T
  10    -38.2955873 -0.953903E-08  0.105E-03    1.45      17.1  T
  11    -38.2955873 -0.504945E-08  0.260E-04    1.45      69.2  T
  12    -38.2955873 -0.408846E-09  0.588E-05    1.45     305.6  T
     SCC iter.                  ...        0 min,  0.101 sec
     gradient                   ...        0 min,  0.004 sec
 * total energy  :   -37.6890659 Eh     change       -0.5869179E-02 Eh
   gradient norm :     0.0531668 Eh/α   predicted    -0.6075182E-02 (   3.51%)
   displ. norm   :     0.4167704 α      lambda       -0.5602567E-02
   maximum displ.:     0.2454913 α      in ANC's #9, #6, #3, ...

........................................................................
.............................. CYCLE   35 ..............................
........................................................................
   1    -38.2932784 -0.382933E+02  0.273E-01    1.46       0.0  T
   2    -38.2933802 -0.101761E-03  0.167E-01    1.41       1.0  T
   3    -38.2933483  0.318656E-04  0.119E-01    1.46       1.0  T
   4    -38.2934446 -0.963292E-04  0.326E-02    1.43       1.0  T
   5    -38.2934515 -0.683844E-05  0.231E-02    1.43       1.0  T
   6    -38.2934527 -0.122409E-05  0.143E-02    1.44       1.3  T
   7    -38.2934537 -0.106680E-05  0.314E-03    1.44       5.7  T
   8    -38.2934538 -0.889910E-08  0.213E-03    1.44       8.4  T
   9    -38.2934538 -0.119273E-07  0.104E-03    1.44      17.3  T
  10    -38.2934538 -0.759317E-08  0.527E-04    1.44      34.1  T
  11    -38.2934538 -0.314920E-09  0.240E-04    1.44      74.8  T
     SCC iter.                  ...        0 min,  0.031 sec
     gradient                   ...        0 min,  0.004 sec
 * total energy  :   -37.6889442 Eh     change        0.1217618E-03 Eh
   gradient norm :     0.0855616 Eh/α   predicted    -0.3287864E-02 (*******%)
   displ. norm   :     0.3464036 α      lambda       -0.5891339E-02
   maximum displ.:     0.2059932 α      in ANC's #1, #13, #9, ...

........................................................................
.............................. CYCLE   36 ..............................
........................................................................
   1    -38.2976027 -0.382976E+02  0.273E-01    1.47       0.0  T
   2    -38.2976462 -0.435031E-04  0.149E-01    1.50       1.0  T
   3    -38.2975991  0.470951E-04  0.123E-01    1.46       1.0  T
   4    -38.2976666 -0.675182E-04  0.285E-02    1.49       1.0  T
   5    -38.2976704 -0.382206E-05  0.192E-02    1.49       1.0  T
   6    -38.2976704  0.931103E-07  0.112E-02    1.49       1.6  T
   7    -38.2976716 -0.121488E-05  0.411E-03    1.49       4.4  T
   8    -38.2976716 -0.324793E-07  0.242E-03    1.49       7.4  T
   9    -38.2976716 -0.406395E-08  0.145E-03    1.49      12.4  T
  10    -38.2976716 -0.165328E-07  0.431E-04    1.49      41.7  T
  11    -38.2976716 -0.119915E-08  0.152E-04    1.49     118.2  T
     SCC iter.                  ...        0 min,  0.037 sec
     gradient                   ...        0 min,  0.004 sec
 * total energy  :   -37.6924616 Eh     change       -0.3517470E-02 Eh
   gradient norm :     0.0253208 Eh/α   predicted    -0.3299142E-02 (  -6.21%)
   displ. norm   :     0.3804771 α      lambda       -0.2177922E-02
   maximum displ.:     0.1776786 α      in ANC's #1, #6, #9, ...

........................................................................
.............................. CYCLE   37 ..............................
........................................................................
   1    -38.3022935 -0.383023E+02  0.172E-01    1.48       0.0  T
   2    -38.3023137 -0.202264E-04  0.966E-02    1.49       1.0  T
   3    -38.3022778  0.359207E-04  0.625E-02    1.49       1.0  T
   4    -38.3023301 -0.522796E-04  0.191E-02    1.49       1.0  T
   5    -38.3023314 -0.130321E-05  0.164E-02    1.49       1.1  T
   6    -38.3023328 -0.140844E-05  0.568E-03    1.49       3.2  T
   7    -38.3023328 -0.457146E-07  0.294E-03    1.49       6.1  T
   8    -38.3023328 -0.111428E-07  0.141E-03    1.49      12.8  T
   9    -38.3023328 -0.847595E-08  0.610E-04    1.49      29.5  T
  10    -38.3023328 -0.136413E-08  0.335E-04    1.49      53.7  T
     SCC iter.                  ...        0 min,  0.029 sec
     gradient                   ...        0 min,  0.006 sec
 * total energy  :   -37.6934882 Eh     change       -0.1026556E-02 Eh
   gradient norm :     0.0317114 Eh/α   predicted    -0.1246605E-02 (  21.44%)
   displ. norm   :     0.4140716 α      lambda       -0.2008487E-02
   maximum displ.:     0.2581785 α      in ANC's #1, #9, #13, ...

........................................................................
.............................. CYCLE   38 ..............................
........................................................................
   1    -38.3022649 -0.383023E+02  0.245E-01    1.51       0.0  T
   2    -38.3022799 -0.150003E-04  0.151E-01    1.52       1.0  T
   3    -38.3022057  0.741211E-04  0.897E-02    1.51       1.0  T
   4    -38.3022915 -0.857076E-04  0.255E-02    1.52       1.0  T
   5    -38.3022929 -0.148039E-05  0.178E-02    1.52       1.0  T
   6    -38.3022948 -0.191620E-05  0.536E-03    1.52       3.4  T
   7    -38.3022949 -0.415648E-07  0.304E-03    1.52       5.9  T
   8    -38.3022949 -0.315678E-07  0.197E-03    1.52       9.1  T
   9    -38.3022949 -0.115611E-07  0.697E-04    1.52      25.8  T
  10    -38.3022949 -0.721800E-08  0.342E-04    1.52      52.5  T
     SCC iter.                  ...        0 min,  0.038 sec
     gradient                   ...        0 min,  0.004 sec
 * total energy  :   -37.6947762 Eh     change       -0.1288051E-02 Eh
   gradient norm :     0.0367208 Eh/α   predicted    -0.1176426E-02 (  -8.67%)
   displ. norm   :     0.2848055 α      lambda       -0.1172953E-02
   maximum displ.:     0.1429980 α      in ANC's #1, #9, #3, ...

........................................................................
.............................. CYCLE   39 ..............................
........................................................................
   1    -38.3049049 -0.383049E+02  0.144E-01    1.53       0.0  T
   2    -38.3049088 -0.395071E-05  0.911E-02    1.53       1.0  T
   3    -38.3048798  0.290180E-04  0.421E-02    1.54       1.0  T
   4    -38.3049122 -0.324036E-04  0.145E-02    1.53       1.2  T
   5    -38.3049121  0.792190E-07  0.102E-02    1.54       1.8  T
   6    -38.3049128 -0.689289E-06  0.271E-03    1.53       6.6  T
   7    -38.3049128 -0.328887E-07  0.150E-03    1.53      11.9  T
   8    -38.3049128  0.145351E-08  0.115E-03    1.53      15.7  T
   9    -38.3049128 -0.689174E-08  0.389E-04    1.53      46.1  T
  10    -38.3049128 -0.157498E-08  0.191E-04    1.53      94.2  T
     SCC iter.                  ...        0 min,  0.058 sec
     gradient                   ...        0 min,  0.076 sec
 * total energy  :   -37.6956367 Eh     change       -0.8604264E-03 Eh
   gradient norm :     0.0250912 Eh/α   predicted    -0.6340517E-03 ( -26.31%)
   displ. norm   :     0.4573699 α      lambda       -0.1353720E-02
   maximum displ.:     0.2830739 α      in ANC's #1, #3, #9, ...

........................................................................
.............................. CYCLE   40 ..............................
........................................................................
   1    -38.3010963 -0.383011E+02  0.148E-01    1.52       0.0  T
   2    -38.3011063 -0.100256E-04  0.913E-02    1.54       1.0  T
   3    -38.3010950  0.113441E-04  0.507E-02    1.52       1.0  T
   4    -38.3011111 -0.160573E-04  0.130E-02    1.53       1.4  T
   5    -38.3011110  0.792084E-07  0.903E-03    1.53       2.0  T
   6    -38.3011114 -0.401438E-06  0.386E-03    1.53       4.6  T
   7    -38.3011116 -0.215000E-06  0.149E-03    1.53      12.0  T
   8    -38.3011116 -0.144625E-08  0.108E-03    1.53      16.7  T
   9    -38.3011116 -0.197900E-08  0.616E-04    1.53      29.1  T
  10    -38.3011116 -0.279500E-08  0.294E-04    1.53      61.2  T
     SCC iter.                  ...        0 min,  0.172 sec
     gradient                   ...        0 min,  0.074 sec
 * total energy  :   -37.6963214 Eh     change       -0.6847417E-03 Eh
   gradient norm :     0.0258091 Eh/α   predicted    -0.8184536E-03 (  19.53%)
   displ. norm   :     0.2896824 α      lambda       -0.1206161E-02
   maximum displ.:     0.1799500 α      in ANC's #13, #1, #3, ...

........................................................................
.............................. CYCLE   41 ..............................
........................................................................
   1    -38.3078480 -0.383078E+02  0.153E-01    1.56       0.0  T
   2    -38.3078540 -0.608117E-05  0.100E-01    1.54       1.0  T
   3    -38.3078237  0.303228E-04  0.573E-02    1.57       1.0  T
   4    -38.3078591 -0.354136E-04  0.199E-02    1.55       1.0  T
   5    -38.3078578  0.128232E-05  0.150E-02    1.55       1.2  T
   6    -38.3078593 -0.143840E-05  0.498E-03    1.55       3.6  T
   7    -38.3078595 -0.248953E-06  0.237E-03    1.55       7.6  T
   8    -38.3078595 -0.516092E-08  0.145E-03    1.55      12.4  T
   9    -38.3078595 -0.822116E-08  0.612E-04    1.55      29.3  T
  10    -38.3078595 -0.453114E-08  0.197E-04    1.55      91.2  T
     SCC iter.                  ...        0 min,  0.235 sec
     gradient                   ...        0 min,  0.043 sec
 * total energy  :   -37.6969369 Eh     change       -0.6154625E-03 Eh
   gradient norm :     0.0206218 Eh/α   predicted    -0.6536941E-03 (   6.21%)
   displ. norm   :     0.2540519 α      lambda       -0.7407233E-03
   maximum displ.:     0.1371656 α      in ANC's #3, #1, #13, ...

........................................................................
.............................. CYCLE   42 ..............................
........................................................................
   1    -38.3054274 -0.383054E+02  0.121E-01    1.54       0.0  T
   2    -38.3054313 -0.390417E-05  0.770E-02    1.55       1.0  T
   3    -38.3054226  0.868508E-05  0.356E-02    1.53       1.0  T
   4    -38.3054334 -0.107891E-04  0.149E-02    1.54       1.2  T
   5    -38.3054335 -0.855876E-07  0.815E-03    1.54       2.2  T
   6    -38.3054335  0.179024E-07  0.414E-03    1.54       4.3  T
   7    -38.3054338 -0.307673E-06  0.147E-03    1.54      12.3  T
   8    -38.3054338 -0.622840E-09  0.786E-04    1.54      22.9  T
   9    -38.3054338 -0.242125E-08  0.301E-04    1.54      59.6  T
     SCC iter.                  ...        0 min,  0.257 sec
     gradient                   ...        0 min,  0.007 sec
 * total energy  :   -37.6973642 Eh     change       -0.4272936E-03 Eh
   gradient norm :     0.0148143 Eh/α   predicted    -0.3942667E-03 (  -7.73%)
   displ. norm   :     0.3022990 α      lambda       -0.7036270E-03
   maximum displ.:     0.1676172 α      in ANC's #13, #1, #3, ...
 * RMSD in coord.:     1.0086509 α      energy gain  -0.7489811E-01 Eh

generating ANC from model Hessian ...
Using Lindh-Hessian (1995)
 Shifting diagonal of input Hessian by    9.6993276304984423E-003
 Lowest  eigenvalues of input Hessian
    0.000000    0.000000    0.000000    0.000000    0.000000    0.000000
    0.010000    0.010271    0.010464    0.011187    0.011434    0.011700
    0.012312    0.013902    0.016018    0.016248    0.018539    0.019789
 Highest eigenvalues
    1.781506    1.868193    2.088873    3.079557    4.083874    4.769746


........................................................................
.............................. CYCLE   43 ..............................
........................................................................
   1    -38.3072908 -0.383073E+02  0.957E-02    1.55       0.0  T
   2    -38.3072929 -0.212482E-05  0.624E-02    1.55       1.0  T
   3    -38.3072785  0.144374E-04  0.277E-02    1.55       1.0  T
   4    -38.3072945 -0.159932E-04  0.863E-03    1.55       2.1  T
   5    -38.3072948 -0.338823E-06  0.611E-03    1.55       2.9  T
   6    -38.3072950 -0.201933E-06  0.271E-03    1.55       6.6  T
   7    -38.3072951 -0.355739E-07  0.170E-03    1.55      10.5  T
   8    -38.3072950  0.887381E-08  0.111E-03    1.55      16.2  T
   9    -38.3072951 -0.108040E-07  0.271E-04    1.55      66.4  T
  10    -38.3072951 -0.115399E-08  0.146E-04    1.55     123.4  T
     SCC iter.                  ...        0 min,  0.276 sec
     gradient                   ...        0 min,  0.007 sec
 * total energy  :   -37.6978324 Eh     change       -0.4682178E-03 Eh
   gradient norm :     0.0125306 Eh/α   predicted     0.0000000E+00 (-100.00%)
   displ. norm   :     0.1394364 α      lambda       -0.5267545E-03
   maximum displ.:     0.0634463 α      in ANC's #12, #5, #10, ...

........................................................................
.............................. CYCLE   44 ..............................
........................................................................
   1    -38.3089763 -0.383090E+02  0.927E-02    1.54       0.0  T
   2    -38.3089786 -0.234509E-05  0.626E-02    1.54       1.0  T
   3    -38.3089634  0.152703E-04  0.282E-02    1.54       1.0  T
   4    -38.3089801 -0.167297E-04  0.969E-03    1.54       1.9  T
   5    -38.3089804 -0.301696E-06  0.549E-03    1.54       3.3  T
   6    -38.3089804 -0.615428E-07  0.211E-03    1.54       8.5  T
   7    -38.3089805 -0.619785E-07  0.114E-03    1.54      15.8  T
   8    -38.3089805 -0.334717E-08  0.600E-04    1.54      29.9  T
   9    -38.3089805 -0.161094E-09  0.440E-04    1.54      40.8  T
     SCC iter.                  ...        0 min,  0.248 sec
     gradient                   ...        0 min,  0.005 sec
 * total energy  :   -37.6982438 Eh     change       -0.4114266E-03 Eh
   gradient norm :     0.0044272 Eh/α   predicted    -0.2685160E-03 ( -34.74%)
   displ. norm   :     0.3785924 α      lambda       -0.8694062E-03
   maximum displ.:     0.1873895 α      in ANC's #12, #10, #5, ...

........................................................................
.............................. CYCLE   45 ..............................
........................................................................
   1    -38.3087023 -0.383087E+02  0.132E-01    1.54       0.0  T
   2    -38.3087130 -0.107052E-04  0.735E-02    1.53       1.0  T
   3    -38.3086912  0.217988E-04  0.520E-02    1.54       1.0  T
   4    -38.3087186 -0.273665E-04  0.168E-02    1.53       1.1  T
   5    -38.3087187 -0.164584E-06  0.106E-02    1.53       1.7  T
   6    -38.3087186  0.108671E-06  0.445E-03    1.53       4.0  T
   7    -38.3087189 -0.309326E-06  0.194E-03    1.53       9.2  T
   8    -38.3087189 -0.561871E-08  0.141E-03    1.53      12.7  T
   9    -38.3087189  0.515605E-09  0.673E-04    1.53      26.7  T
  10    -38.3087190 -0.583599E-08  0.313E-04    1.53      57.4  T
     SCC iter.                  ...        0 min,  0.267 sec
     gradient                   ...        0 min,  0.022 sec
 * total energy  :   -37.6988744 Eh     change       -0.6305636E-03 Eh
   gradient norm :     0.0125116 Eh/α   predicted    -0.4970103E-03 ( -21.18%)
   displ. norm   :     0.3705782 α      lambda       -0.6307641E-03
   maximum displ.:     0.1816641 α      in ANC's #12, #10, #5, ...

........................................................................
.............................. CYCLE   46 ..............................
........................................................................
   1    -38.3058840 -0.383059E+02  0.111E-01    1.53       0.0  T
   2    -38.3058964 -0.123341E-04  0.631E-02    1.53       1.0  T
   3    -38.3058950  0.140235E-05  0.265E-02    1.54       1.0  T
   4    -38.3058965 -0.153082E-05  0.118E-02    1.53       1.5  T
   5    -38.3058972 -0.724207E-06  0.887E-03    1.54       2.0  T
   6    -38.3058974 -0.144014E-06  0.241E-03    1.53       7.5  T
   7    -38.3058974 -0.513616E-07  0.114E-03    1.53      15.7  T
   8    -38.3058974 -0.518821E-08  0.785E-04    1.53      22.9  T
   9    -38.3058974 -0.191290E-08  0.425E-04    1.53      42.3  T
     SCC iter.                  ...        0 min,  0.233 sec
     gradient                   ...        0 min,  0.006 sec
 * total energy  :   -37.6992134 Eh     change       -0.3390287E-03 Eh
   gradient norm :     0.0215264 Eh/α   predicted    -0.3586931E-03 (   5.80%)
   displ. norm   :     0.1325522 α      lambda       -0.6929471E-03
   maximum displ.:     0.0562772 α      in ANC's #12, #6, #10, ...

........................................................................
.............................. CYCLE   47 ..............................
........................................................................
   1    -38.3080143 -0.383080E+02  0.725E-02    1.54       0.0  T
   2    -38.3080171 -0.287548E-05  0.465E-02    1.54       1.0  T
   3    -38.3080098  0.736712E-05  0.231E-02    1.54       1.0  T
   4    -38.3080180 -0.821961E-05  0.900E-03    1.54       2.0  T
   5    -38.3080183 -0.361089E-06  0.577E-03    1.54       3.1  T
   6    -38.3080183  0.514738E-07  0.242E-03    1.54       7.4  T
   7    -38.3080184 -0.961722E-07  0.849E-04    1.54      21.2  T
   8    -38.3080184 -0.117557E-08  0.503E-04    1.54      35.7  T
     SCC iter.                  ...        0 min,  0.201 sec
     gradient                   ...        0 min,  0.005 sec
 * total energy  :   -37.6997579 Eh     change       -0.5444550E-03 Eh
   gradient norm :     0.0140272 Eh/α   predicted    -0.3527940E-03 ( -35.20%)
   displ. norm   :     0.3650996 α      lambda       -0.9214265E-03
   maximum displ.:     0.1523878 α      in ANC's #10, #12, #9, ...

........................................................................
.............................. CYCLE   48 ..............................
........................................................................
   1    -38.3078455 -0.383078E+02  0.105E-01    1.54       0.0  T
   2    -38.3078477 -0.223877E-05  0.648E-02    1.54       1.0  T
   3    -38.3078224  0.253284E-04  0.346E-02    1.54       1.0  T
   4    -38.3078511 -0.287360E-04  0.793E-03    1.54       2.3  T
   5    -38.3078513 -0.120646E-06  0.570E-03    1.54       3.2  T
   6    -38.3078512  0.337788E-07  0.242E-03    1.54       7.4  T
   7    -38.3078513 -0.631896E-07  0.141E-03    1.54      12.7  T
   8    -38.3078513 -0.434073E-08  0.110E-03    1.54      16.4  T
   9    -38.3078513 -0.824468E-08  0.318E-04    1.54      56.4  T
  10    -38.3078513 -0.166104E-09  0.144E-04    1.54     124.7  T
     SCC iter.                  ...        0 min,  0.252 sec
     gradient                   ...        0 min,  0.033 sec
 * total energy  :   -37.7004228 Eh     change       -0.6649591E-03 Eh
   gradient norm :     0.0101217 Eh/α   predicted    -0.5221788E-03 ( -21.47%)
   displ. norm   :     0.2627580 α      lambda       -0.7444195E-03
   maximum displ.:     0.1089365 α      in ANC's #9, #4, #10, ...

........................................................................
.............................. CYCLE   49 ..............................
........................................................................
   1    -38.3111589 -0.383112E+02  0.879E-02    1.53       0.0  T
   2    -38.3111647 -0.580329E-05  0.495E-02    1.54       1.0  T
   3    -38.3111492  0.155008E-04  0.370E-02    1.53       1.0  T
   4    -38.3111708 -0.215975E-04  0.794E-03    1.54       2.3  T
   5    -38.3111710 -0.140659E-06  0.461E-03    1.54       3.9  T
   6    -38.3111709  0.297130E-07  0.232E-03    1.54       7.7  T
   7    -38.3111710 -0.492793E-07  0.160E-03    1.54      11.2  T
   8    -38.3111710 -0.204747E-08  0.103E-03    1.54      17.5  T
   9    -38.3111710 -0.223799E-08  0.384E-04    1.54      46.8  T
  10    -38.3111710 -0.162945E-08  0.234E-04    1.54      76.8  T
     SCC iter.                  ...        0 min,  0.263 sec
     gradient                   ...        0 min,  0.014 sec
 * total energy  :   -37.7008667 Eh     change       -0.4439130E-03 Eh
   gradient norm :     0.0085882 Eh/α   predicted    -0.3979255E-03 ( -10.36%)
   displ. norm   :     0.5862745 α      lambda       -0.8385112E-03
   maximum displ.:     0.2489729 α      in ANC's #9, #10, #12, ...

........................................................................
.............................. CYCLE   50 ..............................
........................................................................
   1    -38.3018596 -0.383019E+02  0.189E-01    1.53       0.0  T
   2    -38.3019150 -0.554539E-04  0.109E-01    1.54       1.0  T
   3    -38.3018819  0.331324E-04  0.688E-02    1.53       1.0  T
   4    -38.3019245 -0.425547E-04  0.363E-02    1.54       1.0  T
   5    -38.3019276 -0.309804E-05  0.262E-02    1.54       1.0  T
   6    -38.3019274  0.139964E-06  0.588E-03    1.54       3.1  T
   7    -38.3019280 -0.556850E-06  0.286E-03    1.54       6.3  T
   8    -38.3019280 -0.366369E-07  0.244E-03    1.54       7.4  T
   9    -38.3019280 -0.211089E-07  0.101E-03    1.54      17.7  T
  10    -38.3019280 -0.349542E-08  0.621E-04    1.54      28.9  T
  11    -38.3019280 -0.287560E-08  0.141E-04    1.54     127.2  T
     SCC iter.                  ...        0 min,  0.234 sec
     gradient                   ...        0 min,  0.008 sec
 * total energy  :   -37.7005719 Eh     change        0.2947946E-03 Eh
   gradient norm :     0.0237540 Eh/α   predicted    -0.5633667E-03 (-291.10%)
   displ. norm   :     0.2656372 α      lambda       -0.1709376E-02
   maximum displ.:     0.1218340 α      in ANC's #10, #12, #9, ...

........................................................................
.............................. CYCLE   51 ..............................
........................................................................
   1    -38.3110147 -0.383110E+02  0.128E-01    1.54       0.0  T
   2    -38.3110503 -0.356471E-04  0.723E-02    1.53       1.0  T
   3    -38.3110434  0.690463E-05  0.431E-02    1.55       1.0  T
   4    -38.3110534 -0.998943E-05  0.236E-02    1.54       1.0  T
   5    -38.3110548 -0.144025E-05  0.180E-02    1.54       1.0  T
   6    -38.3110548  0.949630E-08  0.499E-03    1.54       3.6  T
   7    -38.3110551 -0.291479E-06  0.200E-03    1.54       9.0  T
   8    -38.3110551 -0.242101E-07  0.140E-03    1.54      12.8  T
   9    -38.3110551 -0.225489E-08  0.752E-04    1.54      23.9  T
  10    -38.3110551 -0.167865E-08  0.392E-04    1.54      45.8  T
     SCC iter.                  ...        0 min,  0.240 sec
     gradient                   ...        0 min,  0.053 sec
 * total energy  :   -37.7012897 Eh     change       -0.7177212E-03 Eh
   gradient norm :     0.0039947 Eh/α   predicted    -0.9149980E-03 (  27.49%)
   displ. norm   :     0.1185056 α      lambda       -0.1416129E-03
   maximum displ.:     0.0496548 α      in ANC's #9, #4, #10, ...

........................................................................
.............................. CYCLE   52 ..............................
........................................................................
   1    -38.3113874 -0.383114E+02  0.406E-02    1.54       0.0  T
   2    -38.3113876 -0.274545E-06  0.267E-02    1.54       1.0  T
   3    -38.3113846  0.307160E-05  0.122E-02    1.54       1.5  T
   4    -38.3113879 -0.333626E-05  0.307E-03    1.54       5.9  T
   5    -38.3113880 -0.589024E-07  0.188E-03    1.54       9.5  T
   6    -38.3113880 -0.126864E-07  0.635E-04    1.54      28.3  T
   7    -38.3113880 -0.456076E-08  0.346E-04    1.54      51.9  T
     SCC iter.                  ...        0 min,  0.161 sec
     gradient                   ...        0 min,  0.005 sec
 * total energy  :   -37.7014129 Eh     change       -0.1232082E-03 Eh
   gradient norm :     0.0034920 Eh/α   predicted    -0.7180409E-04 ( -41.72%)
   displ. norm   :     0.4324502 α      lambda       -0.3971662E-03
   maximum displ.:     0.1719469 α      in ANC's #4, #9, #10, ...

........................................................................
.............................. CYCLE   53 ..............................
........................................................................
   1    -38.3094595 -0.383095E+02  0.146E-01    1.55       0.0  T
   2    -38.3094667 -0.721250E-05  0.939E-02    1.55       1.0  T
   3    -38.3094335  0.331444E-04  0.482E-02    1.55       1.0  T
   4    -38.3094703 -0.367667E-04  0.174E-02    1.55       1.0  T
   5    -38.3094716 -0.131568E-05  0.107E-02    1.55       1.7  T
   6    -38.3094714  0.246236E-06  0.429E-03    1.55       4.2  T
   7    -38.3094717 -0.378220E-06  0.141E-03    1.55      12.8  T
   8    -38.3094717 -0.288971E-08  0.113E-03    1.55      15.8  T
   9    -38.3094717 -0.379462E-08  0.471E-04    1.55      38.1  T
  10    -38.3094717 -0.834262E-09  0.360E-04    1.55      49.9  T
     SCC iter.                  ...        0 min,  0.230 sec
     gradient                   ...        0 min,  0.008 sec
 * total energy  :   -37.7015685 Eh     change       -0.1556114E-03 Eh
   gradient norm :     0.0095710 Eh/α   predicted    -0.2357269E-03 (  51.48%)
   displ. norm   :     0.0695675 α      lambda       -0.1783127E-03
   maximum displ.:     0.0328851 α      in ANC's #9, #10, #8, ...

........................................................................
.............................. CYCLE   54 ..............................
........................................................................
   1    -38.3120190 -0.383120E+02  0.443E-02    1.55       0.0  T
   2    -38.3120223 -0.327228E-05  0.244E-02    1.55       1.0  T
   3    -38.3120217  0.581352E-06  0.145E-02    1.55       1.2  T
   4    -38.3120224 -0.705113E-06  0.771E-03    1.55       2.3  T
   5    -38.3120227 -0.275243E-06  0.465E-03    1.55       3.9  T
   6    -38.3120227 -0.118048E-07  0.119E-03    1.55      15.1  T
   7    -38.3120227 -0.162082E-07  0.624E-04    1.55      28.8  T
   8    -38.3120227 -0.450711E-09  0.489E-04    1.55      36.7  T
     SCC iter.                  ...        0 min,  0.101 sec
     gradient                   ...        0 min,  0.005 sec
 * total energy  :   -37.7016627 Eh     change       -0.9419827E-04 Eh
   gradient norm :     0.0030382 Eh/α   predicted    -0.8958902E-04 (  -4.89%)
   displ. norm   :     0.1175470 α      lambda       -0.6683836E-04
   maximum displ.:     0.0505652 α      in ANC's #4, #1, #12, ...

........................................................................
.............................. CYCLE   55 ..............................
........................................................................
   1    -38.3123240 -0.383123E+02  0.299E-02    1.55       0.0  T
   2    -38.3123242 -0.193267E-06  0.196E-02    1.55       1.0  T
   3    -38.3123231  0.106589E-05  0.693E-03    1.55       2.6  T
   4    -38.3123243 -0.114693E-05  0.282E-03    1.55       6.4  T
   5    -38.3123243 -0.457214E-07  0.185E-03    1.55       9.7  T
   6    -38.3123243 -0.199333E-07  0.659E-04    1.55      27.2  T
   7    -38.3123243 -0.172992E-08  0.354E-04    1.55      50.8  T
     SCC iter.                  ...        0 min,  0.114 sec
     gradient                   ...        0 min,  0.006 sec
 * total energy  :   -37.7017174 Eh     change       -0.5469152E-04 Eh
   gradient norm :     0.0025004 Eh/α   predicted    -0.3388633E-04 ( -38.04%)
   displ. norm   :     0.2323656 α      lambda       -0.1026170E-03
   maximum displ.:     0.0959075 α      in ANC's #1, #4, #12, ...

........................................................................
.............................. CYCLE   56 ..............................
........................................................................
   1    -38.3117539 -0.383118E+02  0.565E-02    1.55       0.0  T
   2    -38.3117547 -0.768777E-06  0.361E-02    1.55       1.0  T
   3    -38.3117528  0.191931E-05  0.126E-02    1.55       1.4  T
   4    -38.3117551 -0.228239E-05  0.723E-03    1.55       2.5  T
   5    -38.3117551 -0.416799E-07  0.487E-03    1.55       3.7  T
   6    -38.3117551 -0.231966E-07  0.194E-03    1.55       9.2  T
   7    -38.3117552 -0.408792E-07  0.702E-04    1.55      25.6  T
   8    -38.3117552 -0.969962E-10  0.352E-04    1.55      51.1  T
     SCC iter.                  ...        0 min,  0.145 sec
     gradient                   ...        0 min,  0.007 sec
 * total energy  :   -37.7017769 Eh     change       -0.5947844E-04 Eh
   gradient norm :     0.0021515 Eh/α   predicted    -0.5410513E-04 (  -9.03%)
   displ. norm   :     0.0649898 α      lambda       -0.2878689E-04
   maximum displ.:     0.0492250 α      in ANC's #1, #12, #10, ...

........................................................................
.............................. CYCLE   57 ..............................
........................................................................
   1    -38.3123650 -0.383124E+02  0.160E-02    1.54       0.0  T
   2    -38.3123652 -0.192020E-06  0.957E-03    1.54       1.9  T
   3    -38.3123646  0.575738E-06  0.641E-03    1.54       2.8  T
   4    -38.3123654 -0.737397E-06  0.173E-03    1.54      10.4  T
   5    -38.3123654 -0.127520E-07  0.119E-03    1.54      15.2  T
   6    -38.3123654  0.190243E-08  0.727E-04    1.54      24.7  T
   7    -38.3123654 -0.213028E-08  0.200E-04    1.54      89.7  T
     SCC iter.                  ...        0 min,  0.163 sec
     gradient                   ...        0 min,  0.006 sec
 * total energy  :   -37.7017959 Eh     change       -0.1900475E-04 Eh
   gradient norm :     0.0010989 Eh/α   predicted    -0.1445193E-04 ( -23.96%)
   displ. norm   :     0.0957207 α      lambda       -0.1418692E-04
   maximum displ.:     0.0725319 α      in ANC's #1, #12, #10, ...

........................................................................
.............................. CYCLE   58 ..............................
........................................................................
   1    -38.3124536 -0.383125E+02  0.275E-02    1.54       0.0  T
   2    -38.3124537 -0.159839E-06  0.168E-02    1.54       1.1  T
   3    -38.3124519  0.180619E-05  0.108E-02    1.54       1.7  T
   4    -38.3124540 -0.212289E-05  0.188E-03    1.54       9.6  T
   5    -38.3124541 -0.257965E-07  0.106E-03    1.54      17.0  T
   6    -38.3124541 -0.108062E-08  0.373E-04    1.54      48.2  T
   7    -38.3124541 -0.800732E-09  0.258E-04    1.54      69.7  T
     SCC iter.                  ...        0 min,  0.190 sec
     gradient                   ...        0 min,  0.068 sec
 * total energy  :   -37.7018054 Eh     change       -0.9538572E-05 Eh
   gradient norm :     0.0018568 Eh/α   predicted    -0.7126670E-05 ( -25.29%)
   displ. norm   :     0.0480781 α      lambda       -0.9563741E-05
   maximum displ.:     0.0392849 α      in ANC's #1, #10, #12, ...

........................................................................
.............................. CYCLE   59 ..............................
........................................................................
   1    -38.3123610 -0.383124E+02  0.146E-02    1.54       0.0  T
   2    -38.3123611 -0.980017E-07  0.874E-03    1.54       2.1  T
   3    -38.3123605  0.531025E-06  0.650E-03    1.54       2.8  T
   4    -38.3123612 -0.687832E-06  0.147E-03    1.54      12.2  T
   5    -38.3123612 -0.836265E-08  0.964E-04    1.54      18.6  T
   6    -38.3123612 -0.277533E-08  0.389E-04    1.54      46.2  T
     SCC iter.                  ...        0 min,  0.132 sec
     gradient                   ...        0 min,  0.004 sec
 * total energy  :   -37.7018120 Eh     change       -0.6559218E-05 Eh
   gradient norm :     0.0013760 Eh/α   predicted    -0.4787424E-05 ( -27.01%)
   displ. norm   :     0.0358903 α      lambda       -0.5943918E-05
   maximum displ.:     0.0170631 α      in ANC's #1, #5, #12, ...

........................................................................
.............................. CYCLE   60 ..............................
........................................................................
   1    -38.3125248 -0.383125E+02  0.134E-02    1.54       0.0  T
   2    -38.3125249 -0.488577E-07  0.894E-03    1.54       2.0  T
   3    -38.3125246  0.320230E-06  0.439E-03    1.54       4.1  T
   4    -38.3125249 -0.371007E-06  0.137E-03    1.54      13.1  T
   5    -38.3125249 -0.130016E-08  0.992E-04    1.54      18.1  T
   6    -38.3125249 -0.296492E-08  0.515E-04    1.54      34.9  T
     SCC iter.                  ...        0 min,  0.100 sec
     gradient                   ...        0 min,  0.006 sec
 * total energy  :   -37.7018182 Eh     change       -0.6196230E-05 Eh
   gradient norm :     0.0012544 Eh/α   predicted    -0.2973984E-05 ( -52.00%)
   displ. norm   :     0.0544227 α      lambda       -0.8794270E-05
   maximum displ.:     0.0311675 α      in ANC's #1, #12, #3, ...

........................................................................
.............................. CYCLE   61 ..............................
........................................................................
   1    -38.3122338 -0.383122E+02  0.151E-02    1.54       0.0  T
   2    -38.3122339 -0.110542E-06  0.900E-03    1.54       2.0  T
   3    -38.3122337  0.193819E-06  0.386E-03    1.54       4.7  T
   4    -38.3122340 -0.260666E-06  0.102E-03    1.54      17.7  T
   5    -38.3122340 -0.134864E-08  0.717E-04    1.54      25.0  T
   6    -38.3122340  0.128423E-09  0.407E-04    1.54      44.2  T
     SCC iter.                  ...        0 min,  0.126 sec
     gradient                   ...        0 min,  0.006 sec
 * total energy  :   -37.7018266 Eh     change       -0.8488679E-05 Eh
   gradient norm :     0.0009222 Eh/α   predicted    -0.4403452E-05 ( -48.13%)
   displ. norm   :     0.0610173 α      lambda       -0.6430233E-05
   maximum displ.:     0.0401335 α      in ANC's #1, #3, #6, ...

........................................................................
.............................. CYCLE   62 ..............................
........................................................................
   1    -38.3122852 -0.383123E+02  0.154E-02    1.54       0.0  T
   2    -38.3122853 -0.728114E-07  0.955E-03    1.54       1.9  T
   3    -38.3122851  0.169262E-06  0.388E-03    1.54       4.6  T
   4    -38.3122853 -0.222256E-06  0.133E-03    1.54      13.5  T
   5    -38.3122853  0.483354E-08  0.981E-04    1.54      18.3  T
   6    -38.3122853 -0.980369E-08  0.395E-04    1.54      45.5  T
     SCC iter.                  ...        0 min,  0.149 sec
     gradient                   ...        0 min,  0.011 sec
 * total energy  :   -37.7018334 Eh     change       -0.6719862E-05 Eh
   gradient norm :     0.0009099 Eh/α   predicted    -0.3222071E-05 ( -52.05%)
   displ. norm   :     0.0473858 α      lambda       -0.6574220E-05
   maximum displ.:     0.0384728 α      in ANC's #1, #3, #2, ...

........................................................................
.............................. CYCLE   63 ..............................
........................................................................
   1    -38.3122297 -0.383122E+02  0.148E-02    1.54       0.0  T
   2    -38.3122298 -0.302360E-07  0.954E-03    1.54       1.9  T
   3    -38.3122295  0.306389E-06  0.450E-03    1.54       4.0  T
   4    -38.3122298 -0.338850E-06  0.937E-04    1.54      19.2  T
   5    -38.3122298 -0.482952E-08  0.582E-04    1.54      30.9  T
     SCC iter.                  ...        0 min,  0.126 sec
     gradient                   ...        0 min,  0.005 sec
 * total energy  :   -37.7018415 Eh     change       -0.8100336E-05 Eh
   gradient norm :     0.0006187 Eh/α   predicted    -0.3294829E-05 ( -59.32%)
   displ. norm   :     0.0556043 α      lambda       -0.7019576E-05
   maximum displ.:     0.0475384 α      in ANC's #1, #4, #2, ...

........................................................................
.............................. CYCLE   64 ..............................
........................................................................
   1    -38.3122409 -0.383122E+02  0.127E-02    1.54       0.0  T
   2    -38.3122410 -0.373380E-07  0.735E-03    1.54       2.4  T
   3    -38.3122408  0.140743E-06  0.415E-03    1.54       4.3  T
   4    -38.3122410 -0.172352E-06  0.138E-03    1.54      13.1  T
   5    -38.3122410 -0.167807E-08  0.909E-04    1.54      19.7  T
   6    -38.3122410 -0.265518E-08  0.285E-04    1.54      63.0  T
     SCC iter.                  ...        0 min,  0.135 sec
     gradient                   ...        0 min,  0.006 sec
 * total energy  :   -37.7018505 Eh     change       -0.9037150E-05 Eh
   gradient norm :     0.0005435 Eh/α   predicted    -0.3516982E-05 ( -61.08%)
   displ. norm   :     0.0459088 α      lambda       -0.5303983E-05
   maximum displ.:     0.0427464 α      in ANC's #1, #2, #4, ...

........................................................................
.............................. CYCLE   65 ..............................
........................................................................
   1    -38.3122724 -0.383123E+02  0.721E-03    1.54       0.0  T
   2    -38.3122724 -0.217107E-07  0.456E-03    1.54       3.9  T
   3    -38.3122724  0.657008E-07  0.201E-03    1.54       8.9  T
   4    -38.3122724 -0.789013E-07  0.792E-04    1.54      22.7  T
   5    -38.3122724 -0.142344E-08  0.592E-04    1.54      30.3  T
     SCC iter.                  ...        0 min,  0.097 sec
     gradient                   ...        0 min,  0.004 sec
 * total energy  :   -37.7018579 Eh     change       -0.7432157E-05 Eh
   gradient norm :     0.0005775 Eh/α   predicted    -0.2655958E-05 ( -64.26%)
   displ. norm   :     0.0369844 α      lambda       -0.4594258E-05
   maximum displ.:     0.0354540 α      in ANC's #1, #2, #3, ...

........................................................................
.............................. CYCLE   66 ..............................
........................................................................
   1    -38.3123050 -0.383123E+02  0.570E-03    1.54       0.0  T
   2    -38.3123050 -0.248083E-07  0.345E-03    1.54       5.2  T
   3    -38.3123050  0.377129E-07  0.185E-03    1.54       9.7  T
   4    -38.3123050 -0.510878E-07  0.571E-04    1.54      31.4  T
   5    -38.3123050 -0.977124E-09  0.386E-04    1.54      46.6  T
     SCC iter.                  ...        0 min,  0.105 sec
     gradient                   ...        0 min,  0.005 sec
 * total energy  :   -37.7018646 Eh     change       -0.6705128E-05 Eh
   gradient norm :     0.0005002 Eh/α   predicted    -0.2301988E-05 ( -65.67%)
   displ. norm   :     0.0376530 α      lambda       -0.4965471E-05
   maximum displ.:     0.0350829 α      in ANC's #1, #3, #9, ...
 * RMSD in coord.:     0.4778566 α      energy gain  -0.4500460E-02 Eh

generating ANC from model Hessian ...
Using Lindh-Hessian (1995)
 Shifting diagonal of input Hessian by    9.6807387285159831E-003
 Lowest  eigenvalues of input Hessian
    0.000000    0.000000    0.000000    0.000000    0.000000    0.000000
    0.010000    0.010248    0.010340    0.011014    0.011248    0.011637
    0.012182    0.013856    0.016016    0.016333    0.018489    0.019742
 Highest eigenvalues
    1.782640    1.863908    2.077529    3.098931    4.067666    4.776512


........................................................................
.............................. CYCLE   67 ..............................
........................................................................
   1    -38.3123047 -0.383123E+02  0.784E-03    1.54       0.0  T
   2    -38.3123047 -0.280237E-07  0.472E-03    1.54       3.8  T
   3    -38.3123047  0.638193E-07  0.288E-03    1.54       6.2  T
   4    -38.3123048 -0.816247E-07  0.740E-04    1.54      24.3  T
   5    -38.3123048  0.162773E-08  0.593E-04    1.54      30.3  T
     SCC iter.                  ...        0 min,  0.105 sec
     gradient                   ...        0 min,  0.004 sec
 * total energy  :   -37.7018720 Eh     change       -0.7351159E-05 Eh
   gradient norm :     0.0003889 Eh/α   predicted     0.0000000E+00 (-100.00%)
   displ. norm   :     0.0307501 α      lambda       -0.2126594E-06
   maximum displ.:     0.0294063 α      in ANC's #1, #11, #2, ...

........................................................................
.............................. CYCLE   68 ..............................
........................................................................
   1    -38.3123637 -0.383124E+02  0.898E-03    1.54       0.0  T
   2    -38.3123637 -0.240740E-07  0.528E-03    1.54       3.4  T
   3    -38.3123636  0.124648E-06  0.326E-03    1.54       5.5  T
   4    -38.3123637 -0.147793E-06  0.659E-04    1.54      27.3  T
   5    -38.3123637 -0.224421E-08  0.437E-04    1.54      41.1  T
     SCC iter.                  ...        0 min,  0.125 sec
     gradient                   ...        0 min,  0.005 sec
 * total energy  :   -37.7018786 Eh     change       -0.6598204E-05 Eh
   gradient norm :     0.0003031 Eh/α   predicted    -0.2380928E-05 ( -63.92%)
   displ. norm   :     0.0383015 α      lambda       -0.5241552E-05
   maximum displ.:     0.0353230 α      in ANC's #1, #2, #11, ...

........................................................................
.............................. CYCLE   69 ..............................
........................................................................
   1    -38.3123966 -0.383124E+02  0.736E-03    1.54       0.0  T
   2    -38.3123966 -0.524840E-07  0.391E-03    1.54       4.6  T
   3    -38.3123965  0.655007E-07  0.318E-03    1.54       5.6  T
   4    -38.3123967 -0.114936E-06  0.725E-04    1.54      24.8  T
   5    -38.3123967 -0.608956E-08  0.352E-04    1.54      51.0  T
     SCC iter.                  ...        0 min,  0.105 sec
     gradient                   ...        0 min,  0.007 sec
 * total energy  :   -37.7018861 Eh     change       -0.7547550E-05 Eh
   gradient norm :     0.0003090 Eh/α   predicted    -0.2623018E-05 ( -65.25%)
   displ. norm   :     0.0453228 α      lambda       -0.5937073E-05
   maximum displ.:     0.0406582 α      in ANC's #1, #2, #3, ...

........................................................................
.............................. CYCLE   70 ..............................
........................................................................
   1    -38.3124059 -0.383124E+02  0.771E-03    1.54       0.0  T
   2    -38.3124060 -0.570673E-07  0.413E-03    1.54       4.3  T
   3    -38.3124059  0.640411E-07  0.341E-03    1.54       5.3  T
   4    -38.3124060 -0.115080E-06  0.740E-04    1.54      24.3  T
   5    -38.3124061 -0.652408E-08  0.374E-04    1.54      48.1  T
     SCC iter.                  ...        0 min,  0.090 sec
     gradient                   ...        0 min,  0.005 sec
 * total energy  :   -37.7018949 Eh     change       -0.8767732E-05 Eh
   gradient norm :     0.0003489 Eh/α   predicted    -0.2972514E-05 ( -66.10%)
   displ. norm   :     0.0545825 α      lambda       -0.7125882E-05
   maximum displ.:     0.0475958 α      in ANC's #1, #2, #3, ...

........................................................................
.............................. CYCLE   71 ..............................
........................................................................
   1    -38.3123921 -0.383124E+02  0.841E-03    1.54       0.0  T
   2    -38.3123922 -0.624529E-07  0.491E-03    1.54       3.7  T
   3    -38.3123921  0.100698E-06  0.361E-03    1.54       5.0  T
   4    -38.3123922 -0.159952E-06  0.944E-04    1.54      19.0  T
   5    -38.3123922 -0.790400E-08  0.581E-04    1.54      30.9  T
     SCC iter.                  ...        0 min,  0.105 sec
     gradient                   ...        0 min,  0.005 sec
 * total energy  :   -37.7019055 Eh     change       -0.1059783E-04 Eh
   gradient norm :     0.0003582 Eh/α   predicted    -0.3568248E-05 ( -66.33%)
   displ. norm   :     0.0731632 α      lambda       -0.9618452E-05
   maximum displ.:     0.0629627 α      in ANC's #1, #2, #3, ...

........................................................................
.............................. CYCLE   72 ..............................
........................................................................
   1    -38.3123420 -0.383123E+02  0.109E-02    1.54       0.0  T
   2    -38.3123421 -0.872735E-07  0.638E-03    1.54       2.8  T
   3    -38.3123419  0.178222E-06  0.472E-03    1.54       3.8  T
   4    -38.3123422 -0.268298E-06  0.110E-03    1.54      16.3  T
   5    -38.3123422 -0.838010E-08  0.739E-04    1.54      24.3  T
   6    -38.3123422 -0.185808E-08  0.153E-04    1.54     117.0  T
     SCC iter.                  ...        0 min,  0.147 sec
     gradient                   ...        0 min,  0.075 sec
 * total energy  :   -37.7019199 Eh     change       -0.1436219E-04 Eh
   gradient norm :     0.0003363 Eh/α   predicted    -0.4825206E-05 ( -66.40%)
   displ. norm   :     0.1042367 α      lambda       -0.1386660E-04
   maximum displ.:     0.0897434 α      in ANC's #1, #2, #3, ...

........................................................................
.............................. CYCLE   73 ..............................
........................................................................
   1    -38.3122465 -0.383122E+02  0.152E-02    1.54       0.0  T
   2    -38.3122466 -0.158517E-06  0.898E-03    1.54       2.0  T
   3    -38.3122463  0.394370E-06  0.644E-03    1.54       2.8  T
   4    -38.3122468 -0.565616E-06  0.165E-03    1.54      10.9  T
   5    -38.3122468 -0.154851E-07  0.113E-03    1.54      15.9  T
   6    -38.3122468 -0.334301E-08  0.307E-04    1.54      58.6  T
   7    -38.3122468 -0.749530E-09  0.169E-04    1.54     106.6  T
     SCC iter.                  ...        0 min,  0.199 sec
     gradient                   ...        0 min,  0.064 sec
 * total energy  :   -37.7019406 Eh     change       -0.2075961E-04 Eh
   gradient norm :     0.0003796 Eh/α   predicted    -0.6969707E-05 ( -66.43%)
   displ. norm   :     0.3486013 α      lambda       -0.4676080E-04
   maximum displ.:     0.3017895 α      in ANC's #1, #2, #3, ...

........................................................................
.............................. CYCLE   74 ..............................
........................................................................
   1    -38.3109886 -0.383110E+02  0.512E-02    1.54       0.0  T
   2    -38.3109904 -0.179716E-05  0.303E-02    1.54       1.0  T
   3    -38.3109860  0.441130E-05  0.213E-02    1.54       1.0  T
   4    -38.3109923 -0.626290E-05  0.536E-03    1.54       3.4  T
   5    -38.3109924 -0.161122E-06  0.369E-03    1.54       4.9  T
   6    -38.3109925 -0.404894E-07  0.107E-03    1.54      16.7  T
   7    -38.3109925 -0.866816E-08  0.550E-04    1.54      32.7  T
   8    -38.3109925 -0.141225E-08  0.380E-04    1.54      47.3  T
     SCC iter.                  ...        0 min,  0.187 sec
     gradient                   ...        0 min,  0.072 sec
 * total energy  :   -37.7020082 Eh     change       -0.6763094E-04 Eh
   gradient norm :     0.0014968 Eh/α   predicted    -0.2464462E-04 ( -63.56%)
   displ. norm   :     0.2671012 α      lambda       -0.3605570E-04
   maximum displ.:     0.2318137 α      in ANC's #1, #2, #3, ...

........................................................................
.............................. CYCLE   75 ..............................
........................................................................
   1    -38.3102226 -0.383102E+02  0.394E-02    1.55       0.0  T
   2    -38.3102237 -0.103657E-05  0.234E-02    1.55       1.0  T
   3    -38.3102210  0.268980E-05  0.166E-02    1.54       1.1  T
   4    -38.3102248 -0.380581E-05  0.415E-03    1.55       4.3  T
   5    -38.3102249 -0.987419E-07  0.281E-03    1.54       6.4  T
   6    -38.3102249 -0.244969E-07  0.830E-04    1.54      21.6  T
   7    -38.3102249 -0.503140E-08  0.429E-04    1.54      41.9  T
     SCC iter.                  ...        0 min,  0.174 sec
     gradient                   ...        0 min,  0.005 sec
 * total energy  :   -37.7020590 Eh     change       -0.5073582E-04 Eh
   gradient norm :     0.0023358 Eh/α   predicted    -0.1860171E-04 ( -63.34%)
   displ. norm   :     0.1113795 α      lambda       -0.2661069E-04
   maximum displ.:     0.0971241 α      in ANC's #1, #2, #3, ...

........................................................................
.............................. CYCLE   76 ..............................
........................................................................
   1    -38.3105355 -0.383105E+02  0.162E-02    1.55       0.0  T
   2    -38.3105357 -0.155622E-06  0.959E-03    1.55       1.9  T
   3    -38.3105352  0.481171E-06  0.704E-03    1.55       2.6  T
   4    -38.3105359 -0.677716E-06  0.168E-03    1.55      10.7  T
   5    -38.3105359 -0.138536E-07  0.118E-03    1.55      15.2  T
   6    -38.3105359 -0.512495E-08  0.281E-04    1.55      63.9  T
   7    -38.3105359 -0.694634E-09  0.168E-04    1.55     107.1  T
     SCC iter.                  ...        0 min,  0.182 sec
     gradient                   ...        0 min,  0.010 sec
 * total energy  :   -37.7020848 Eh     change       -0.2580682E-04 Eh
   gradient norm :     0.0022089 Eh/α   predicted    -0.1347292E-04 ( -47.79%)
   displ. norm   :     0.1212507 α      lambda       -0.3325760E-04
   maximum displ.:     0.1075970 α      in ANC's #1, #2, #3, ...

........................................................................
.............................. CYCLE   77 ..............................
........................................................................
   1    -38.3111698 -0.383112E+02  0.175E-02    1.55       0.0  T
   2    -38.3111700 -0.171503E-06  0.102E-02    1.55       1.8  T
   3    -38.3111694  0.585781E-06  0.774E-03    1.55       2.3  T
   4    -38.3111702 -0.813836E-06  0.181E-03    1.55       9.9  T
   5    -38.3111702 -0.181785E-07  0.122E-03    1.55      14.7  T
   6    -38.3111702 -0.331328E-08  0.288E-04    1.55      62.4  T
   7    -38.3111702 -0.836621E-09  0.174E-04    1.55     103.3  T
     SCC iter.                  ...        0 min,  0.185 sec
     gradient                   ...        0 min,  0.005 sec
 * total energy  :   -37.7021170 Eh     change       -0.3216896E-04 Eh
   gradient norm :     0.0018977 Eh/α   predicted    -0.1687450E-04 ( -47.54%)
   displ. norm   :     0.2865515 α      lambda       -0.5412664E-04
   maximum displ.:     0.2586794 α      in ANC's #1, #2, #3, ...

........................................................................
.............................. CYCLE   78 ..............................
........................................................................
   1    -38.3118203 -0.383118E+02  0.410E-02    1.55       0.0  T
   2    -38.3118213 -0.961600E-06  0.239E-02    1.55       1.0  T
   3    -38.3118182  0.310262E-05  0.179E-02    1.55       1.0  T
   4    -38.3118225 -0.430587E-05  0.408E-03    1.55       4.4  T
   5    -38.3118226 -0.107378E-06  0.267E-03    1.55       6.7  T
   6    -38.3118226 -0.155057E-07  0.656E-04    1.55      27.4  T
   7    -38.3118226 -0.354770E-08  0.396E-04    1.55      45.4  T
     SCC iter.                  ...        0 min,  0.191 sec
     gradient                   ...        0 min,  0.016 sec
 * total energy  :   -37.7021970 Eh     change       -0.8006000E-04 Eh
   gradient norm :     0.0017286 Eh/α   predicted    -0.2805403E-04 ( -64.96%)
   displ. norm   :     1.4422425 α      lambda       -0.2767576E-03
   maximum displ.:     1.3144751 α      in ANC's #1, #2, #3, ...

........................................................................
.............................. CYCLE   79 ..............................
........................................................................
   1    -38.2958690 -0.382959E+02  0.217E-01    1.56       0.0  T
   2    -38.2958989 -0.299466E-04  0.128E-01    1.56       1.0  T
   3    -38.2958173  0.816704E-04  0.906E-02    1.55       1.0  T
   4    -38.2959283 -0.111073E-03  0.212E-02    1.56       1.0  T
   5    -38.2959313 -0.295051E-05  0.139E-02    1.55       1.3  T
   6    -38.2959316 -0.345122E-06  0.544E-03    1.55       3.3  T
   7    -38.2959319 -0.229658E-06  0.215E-03    1.55       8.3  T
   8    -38.2959319 -0.111106E-07  0.161E-03    1.55      11.1  T
   9    -38.2959319 -0.199992E-07  0.693E-04    1.55      25.9  T
  10    -38.2959319 -0.121698E-08  0.346E-04    1.55      52.0  T
     SCC iter.                  ...        0 min,  0.302 sec
     gradient                   ...        0 min,  0.004 sec
 * total energy  :   -37.7020806 Eh     change        0.1163881E-03 Eh
   gradient norm :     0.0165696 Eh/α   predicted    -0.2663105E-03 (-328.81%)
   displ. norm   :     0.4457121 α      lambda       -0.6763479E-03
   maximum displ.:     0.3955504 α      in ANC's #1, #2, #3, ...

........................................................................
.............................. CYCLE   80 ..............................
........................................................................
   1    -38.3064028 -0.383064E+02  0.742E-02    1.55       0.0  T
   2    -38.3064066 -0.382009E-05  0.444E-02    1.55       1.0  T
   3    -38.3063978  0.882311E-05  0.280E-02    1.55       1.0  T
   4    -38.3064092 -0.114431E-04  0.854E-03    1.55       2.1  T
   5    -38.3064095 -0.310754E-06  0.601E-03    1.55       3.0  T
   6    -38.3064094  0.850107E-07  0.311E-03    1.55       5.8  T
   7    -38.3064096 -0.119328E-06  0.876E-04    1.55      20.5  T
   8    -38.3064096 -0.542450E-09  0.609E-04    1.55      29.5  T
     SCC iter.                  ...        0 min,  0.313 sec
     gradient                   ...        0 min,  0.006 sec
 * total energy  :   -37.7024395 Eh     change       -0.3588249E-03 Eh
   gradient norm :     0.0060889 Eh/α   predicted    -0.4053706E-03 (  12.97%)
   displ. norm   :     0.0468025 α      lambda       -0.8239960E-04
   maximum displ.:     0.0300273 α      in ANC's #2, #1, #55, ...

........................................................................
.............................. CYCLE   81 ..............................
........................................................................
   1    -38.3089023 -0.383089E+02  0.163E-02    1.55       0.0  T
   2    -38.3089025 -0.184890E-06  0.900E-03    1.55       2.0  T
   3    -38.3089023  0.234795E-06  0.491E-03    1.55       3.7  T
   4    -38.3089026 -0.318151E-06  0.140E-03    1.55      12.8  T
   5    -38.3089026 -0.309083E-08  0.106E-03    1.55      16.9  T
   6    -38.3089026  0.874138E-09  0.731E-04    1.55      24.6  T
   7    -38.3089026 -0.303699E-08  0.188E-04    1.55      95.4  T
     SCC iter.                  ...        0 min,  0.190 sec
     gradient                   ...        0 min,  0.012 sec
 * total energy  :   -37.7025083 Eh     change       -0.6889167E-04 Eh
   gradient norm :     0.0038336 Eh/α   predicted    -0.4129079E-04 ( -40.06%)
   displ. norm   :     0.2298712 α      lambda       -0.1828479E-03
   maximum displ.:     0.2106108 α      in ANC's #1, #2, #55, ...

........................................................................
.............................. CYCLE   82 ..............................
........................................................................
   1    -38.3135436 -0.383135E+02  0.455E-02    1.56       0.0  T
   2    -38.3135455 -0.185543E-05  0.249E-02    1.56       1.0  T
   3    -38.3135434  0.208770E-05  0.163E-02    1.56       1.1  T
   4    -38.3135466 -0.324740E-05  0.378E-03    1.56       4.8  T
   5    -38.3135467 -0.470779E-07  0.251E-03    1.56       7.1  T
   6    -38.3135467 -0.172425E-08  0.127E-03    1.56      14.2  T
   7    -38.3135467 -0.130825E-07  0.339E-04    1.56      52.9  T
   8    -38.3135467 -0.525937E-09  0.236E-04    1.56      76.0  T
     SCC iter.                  ...        0 min,  0.233 sec
     gradient                   ...        0 min,  0.004 sec
 * total energy  :   -37.7026399 Eh     change       -0.1315169E-03 Eh
   gradient norm :     0.0017656 Eh/α   predicted    -0.9625825E-04 ( -26.81%)
   displ. norm   :     0.6339085 α      lambda       -0.1688382E-03
   maximum displ.:     0.6124418 α      in ANC's #1, #55, #3, ...

........................................................................
.............................. CYCLE   83 ..............................
........................................................................
   1    -38.3136395 -0.383136E+02  0.948E-02    1.56       0.0  T
   2    -38.3136480 -0.845333E-05  0.530E-02    1.56       1.0  T
   3    -38.3136386  0.935021E-05  0.365E-02    1.56       1.0  T
   4    -38.3136539 -0.152926E-04  0.760E-03    1.56       2.4  T
   5    -38.3136541 -0.191883E-06  0.485E-03    1.56       3.7  T
   6    -38.3136542 -0.114828E-06  0.800E-04    1.56      22.4  T
   7    -38.3136542 -0.441801E-08  0.396E-04    1.56      45.4  T
     SCC iter.                  ...        0 min,  0.218 sec
     gradient                   ...        0 min,  0.008 sec
 * total energy  :   -37.7028522 Eh     change       -0.2123648E-03 Eh
   gradient norm :     0.0025623 Eh/α   predicted    -0.9949606E-04 ( -53.15%)
   displ. norm   :     0.5502415 α      lambda       -0.1547866E-03
   maximum displ.:     0.5315544 α      in ANC's #1, #55, #3, ...

........................................................................
.............................. CYCLE   84 ..............................
........................................................................
   1    -38.3076832 -0.383077E+02  0.780E-02    1.56       0.0  T
   2    -38.3076891 -0.594707E-05  0.439E-02    1.56       1.0  T
   3    -38.3076824  0.677810E-05  0.284E-02    1.56       1.0  T
   4    -38.3076933 -0.109017E-04  0.573E-03    1.56       3.1  T
   5    -38.3076934 -0.121214E-06  0.369E-03    1.56       4.9  T
   6    -38.3076934 -0.360619E-07  0.168E-03    1.56      10.7  T
   7    -38.3076934 -0.124869E-07  0.430E-04    1.56      41.8  T
   8    -38.3076934 -0.167103E-08  0.277E-04    1.56      64.7  T
     SCC iter.                  ...        0 min,  0.215 sec
     gradient                   ...        0 min,  0.006 sec
 * total energy  :   -37.7028929 Eh     change       -0.4070295E-04 Eh
   gradient norm :     0.0067278 Eh/α   predicted    -0.1008224E-03 ( 147.70%)
   displ. norm   :     0.1596032 α      lambda       -0.9722693E-04
   maximum displ.:     0.1534615 α      in ANC's #1, #2, #55, ...

........................................................................
.............................. CYCLE   85 ..............................
........................................................................
   1    -38.3113199 -0.383113E+02  0.278E-02    1.56       0.0  T
   2    -38.3113206 -0.710312E-06  0.153E-02    1.56       1.2  T
   3    -38.3113196  0.102298E-05  0.114E-02    1.56       1.6  T
   4    -38.3113211 -0.150548E-05  0.312E-03    1.56       5.8  T
   5    -38.3113211 -0.560747E-07  0.212E-03    1.56       8.5  T
   6    -38.3113211  0.556572E-08  0.126E-03    1.56      14.3  T
   7    -38.3113211 -0.103597E-07  0.245E-04    1.56      73.3  T
   8    -38.3113211 -0.132914E-09  0.160E-04    1.56     111.9  T
     SCC iter.                  ...        0 min,  0.200 sec
     gradient                   ...        0 min,  0.023 sec
 * total energy  :   -37.7029443 Eh     change       -0.5133727E-04 Eh
   gradient norm :     0.0029110 Eh/α   predicted    -0.4986156E-04 (  -2.87%)
   displ. norm   :     0.1062209 α      lambda       -0.3493619E-04
   maximum displ.:     0.0898950 α      in ANC's #1, #2, #55, ...

........................................................................
.............................. CYCLE   86 ..............................
........................................................................
   1    -38.3120973 -0.383121E+02  0.219E-02    1.56       0.0  T
   2    -38.3120975 -0.239509E-06  0.140E-02    1.56       1.3  T
   3    -38.3120964  0.112051E-05  0.905E-03    1.56       2.0  T
   4    -38.3120978 -0.140960E-05  0.214E-03    1.56       8.4  T
   5    -38.3120979 -0.359898E-07  0.125E-03    1.56      14.4  T
   6    -38.3120979 -0.383141E-08  0.294E-04    1.56      61.0  T
   7    -38.3120979 -0.303771E-09  0.141E-04    1.56     127.4  T
     SCC iter.                  ...        0 min,  0.188 sec
     gradient                   ...        0 min,  0.013 sec
 * total energy  :   -37.7029747 Eh     change       -0.3039279E-04 Eh
   gradient norm :     0.0025803 Eh/α   predicted    -0.1766385E-04 ( -41.88%)
   displ. norm   :     0.3826773 α      lambda       -0.9823136E-04
   maximum displ.:     0.3362205 α      in ANC's #1, #2, #55, ...

........................................................................
.............................. CYCLE   87 ..............................
........................................................................
   1    -38.3122655 -0.383123E+02  0.708E-02    1.56       0.0  T
   2    -38.3122680 -0.258994E-05  0.458E-02    1.55       1.0  T
   3    -38.3122558  0.122380E-04  0.282E-02    1.56       1.0  T
   4    -38.3122713 -0.154777E-04  0.627E-03    1.55       2.9  T
   5    -38.3122717 -0.410495E-06  0.344E-03    1.55       5.2  T
   6    -38.3122717 -0.229735E-07  0.775E-04    1.55      23.2  T
   7    -38.3122717 -0.255191E-08  0.378E-04    1.55      47.6  T
     SCC iter.                  ...        0 min,  0.189 sec
     gradient                   ...        0 min,  0.011 sec
 * total energy  :   -37.7030457 Eh     change       -0.7105180E-04 Eh
   gradient norm :     0.0022671 Eh/α   predicted    -0.5627106E-04 ( -20.80%)
   displ. norm   :     0.2846822 α      lambda       -0.4880876E-04
   maximum displ.:     0.2445275 α      in ANC's #1, #2, #55, ...

........................................................................
.............................. CYCLE   88 ..............................
........................................................................
   1    -38.3117483 -0.383117E+02  0.566E-02    1.55       0.0  T
   2    -38.3117495 -0.124345E-05  0.371E-02    1.55       1.0  T
   3    -38.3117402  0.929698E-05  0.243E-02    1.55       1.0  T
   4    -38.3117516 -0.113262E-04  0.575E-03    1.55       3.1  T
   5    -38.3117518 -0.205553E-06  0.339E-03    1.55       5.3  T
   6    -38.3117518 -0.342728E-07  0.795E-04    1.55      22.6  T
   7    -38.3117518 -0.158830E-08  0.445E-04    1.55      40.3  T
     SCC iter.                  ...        0 min,  0.160 sec
     gradient                   ...        0 min,  0.014 sec
 * total energy  :   -37.7030776 Eh     change       -0.3185299E-04 Eh
   gradient norm :     0.0027840 Eh/α   predicted    -0.2637190E-04 ( -17.21%)
   displ. norm   :     0.1174131 α      lambda       -0.2917656E-04
   maximum displ.:     0.0784695 α      in ANC's #1, #2, #55, ...

........................................................................
.............................. CYCLE   89 ..............................
........................................................................
   1    -38.3131379 -0.383131E+02  0.337E-02    1.55       0.0  T
   2    -38.3131381 -0.208345E-06  0.218E-02    1.55       1.0  T
   3    -38.3131345  0.352900E-05  0.150E-02    1.55       1.2  T
   4    -38.3131388 -0.420724E-05  0.216E-03    1.55       8.3  T
   5    -38.3131388 -0.155396E-07  0.152E-03    1.55      11.8  T
   6    -38.3131388 -0.684414E-08  0.440E-04    1.55      40.8  T
   7    -38.3131388 -0.654175E-09  0.290E-04    1.55      61.8  T
     SCC iter.                  ...        0 min,  0.174 sec
     gradient                   ...        0 min,  0.010 sec
 * total energy  :   -37.7030930 Eh     change       -0.1545998E-04 Eh
   gradient norm :     0.0012914 Eh/α   predicted    -0.1479172E-04 (  -4.32%)
   displ. norm   :     0.1332826 α      lambda       -0.8274946E-05
   maximum displ.:     0.1187314 α      in ANC's #1, #55, #2, ...

........................................................................
.............................. CYCLE   90 ..............................
........................................................................
   1    -38.3123037 -0.383123E+02  0.258E-02    1.54       0.0  T
   2    -38.3123040 -0.334226E-06  0.180E-02    1.54       1.0  T
   3    -38.3123023  0.169111E-05  0.108E-02    1.54       1.7  T
   4    -38.3123043 -0.196602E-05  0.391E-03    1.54       4.6  T
   5    -38.3123043 -0.138029E-07  0.264E-03    1.54       6.8  T
   6    -38.3123044 -0.588753E-07  0.803E-04    1.54      22.4  T
   7    -38.3123044 -0.953037E-09  0.389E-04    1.54      46.1  T
     SCC iter.                  ...        0 min,  0.186 sec
     gradient                   ...        0 min,  0.005 sec
 * total energy  :   -37.7030981 Eh     change       -0.5023224E-05 Eh
   gradient norm :     0.0018819 Eh/α   predicted    -0.4171482E-05 ( -16.96%)
   displ. norm   :     0.0417914 α      lambda       -0.5436062E-05
   maximum displ.:     0.0233102 α      in ANC's #1, #2, #10, ...

........................................................................
.............................. CYCLE   91 ..............................
........................................................................
   1    -38.3127508 -0.383128E+02  0.155E-02    1.54       0.0  T
   2    -38.3127509 -0.882937E-07  0.950E-03    1.54       1.9  T
   3    -38.3127502  0.646798E-06  0.712E-03    1.54       2.5  T
   4    -38.3127511 -0.838284E-06  0.150E-03    1.54      12.0  T
   5    -38.3127511 -0.126635E-07  0.844E-04    1.54      21.3  T
   6    -38.3127511 -0.460943E-09  0.209E-04    1.54      85.9  T
     SCC iter.                  ...        0 min,  0.173 sec
     gradient                   ...        0 min,  0.056 sec
 * total energy  :   -37.7031039 Eh     change       -0.5839760E-05 Eh
   gradient norm :     0.0006289 Eh/α   predicted    -0.2721912E-05 ( -53.39%)
   displ. norm   :     0.0592471 α      lambda       -0.4902735E-05
   maximum displ.:     0.0340457 α      in ANC's #2, #10, #12, ...

........................................................................
.............................. CYCLE   92 ..............................
........................................................................
   1    -38.3128166 -0.383128E+02  0.213E-02    1.55       0.0  T
   2    -38.3128168 -0.142800E-06  0.135E-02    1.55       1.3  T
   3    -38.3128156  0.116688E-05  0.104E-02    1.55       1.7  T
   4    -38.3128173 -0.172406E-05  0.169E-03    1.55      10.6  T
   5    -38.3128173 -0.166123E-07  0.108E-03    1.55      16.6  T
   6    -38.3128173 -0.263089E-08  0.312E-04    1.55      57.6  T
   7    -38.3128173  0.258780E-10  0.169E-04    1.55     106.5  T
     SCC iter.                  ...        0 min,  0.189 sec
     gradient                   ...        0 min,  0.008 sec
 * total energy  :   -37.7031089 Eh     change       -0.5028812E-05 Eh
   gradient norm :     0.0007084 Eh/α   predicted    -0.2459067E-05 ( -51.10%)
   displ. norm   :     0.0393028 α      lambda       -0.2564300E-05
   maximum displ.:     0.0208427 α      in ANC's #2, #10, #12, ...
 * RMSD in coord.:     0.7957688 α      energy gain  -0.1244287E-02 Eh

generating ANC from model Hessian ...
Using Lindh-Hessian (1995)
 Shifting diagonal of input Hessian by    9.8341628165838964E-003
 Lowest  eigenvalues of input Hessian
    0.000000    0.000000    0.000000    0.000000    0.000000    0.000000
    0.010000    0.010215    0.010527    0.011016    0.011316    0.011826
    0.012312    0.013812    0.016136    0.016327    0.018532    0.019836
 Highest eigenvalues
    1.783064    1.857257    2.081418    3.085669    4.083468    4.772151


........................................................................
.............................. CYCLE   93 ..............................
........................................................................
   1    -38.3126962 -0.383127E+02  0.131E-02    1.55       0.0  T
   2    -38.3126962 -0.298667E-07  0.854E-03    1.55       2.1  T
   3    -38.3126956  0.592706E-06  0.577E-03    1.55       3.1  T
   4    -38.3126963 -0.697091E-06  0.870E-04    1.55      20.6  T
   5    -38.3126963 -0.158931E-08  0.643E-04    1.55      27.9  T
     SCC iter.                  ...        0 min,  0.127 sec
     gradient                   ...        0 min,  0.029 sec
 * total energy  :   -37.7031117 Eh     change       -0.2777322E-05 Eh
   gradient norm :     0.0007629 Eh/α   predicted     0.0000000E+00 (-100.00%)
   displ. norm   :     0.0143757 α      lambda        0.3014969E-06
   maximum displ.:     0.0099239 α      in ANC's #4, #8, #2, ...

   *** GEOMETRY OPTIMIZATION CONVERGED AFTER 93 ITERATIONS ***

------------------------------------------------------------------------
 total energy gain   :        -1.7984107 Eh    -1128.5198 kcal/mol
 total RMSD          :         1.8280162 a0        0.9673 Å
 total power (kW/mol):       -50.7712554 (step) -206.4444 (real)
------------------------------------------------------------------------

 ANCopt (total)                0 d,  0 h,  0 min, 22.872 sec
 optimizer setup                ...        0 min,  0.003 sec (  0.011%)
 model hessian                  ...        0 min,  0.083 sec (  0.362%)
 ANC generation                 ...        0 min,  0.014 sec (  0.063%)
 coordinate transformation      ...        0 min,  0.001 sec (  0.005%)
 single point calculation       ...        0 min, 22.448 sec ( 98.146%)
 optimization log               ...        0 min,  0.009 sec (  0.038%)
 hessian update                 ...        0 min,  0.161 sec (  0.704%)
 rational function              ...        0 min,  0.145 sec (  0.636%)

================
 final structure:
================
31
 xtb: 6.5.1 (b24c23e)
Zr          -0.64071471924989        0.14878027776491        0.12277847338365
C           -3.37999075431470        1.50324788258722       -0.83076228989398
C           -1.77277954548441       -1.85046163215141        1.44869849041746
C           -0.44547627801716       -2.14589423369753        1.47824932412089
C           -0.05299138795963       -2.70814114966391        0.19014324055098
C           -1.14467427961901       -2.79045525402012       -0.59952989839590
C           -2.32130424088684       -2.15594134713790        0.08040826906385
H           -2.39448589667469       -1.58298798377552        2.29520981952842
H            0.19975535592274       -2.13947801321636        2.35215704426066
H            0.93516147664401       -3.08912524350121       -0.02932809473695
H           -1.19248623981878       -3.19370199262958       -1.59850839969678
H           -3.22731739477935       -2.77364521634605        0.09796406191682
C            1.03680102252182        1.82082542725260        1.07020962697269
C            0.81046760467786        0.83618675263423        2.05567613990788
C           -0.54765194529025        0.91979350974944        2.45630323670829
C           -1.16365900438996        1.95147872413087        1.70091727646549
C           -0.18036371582512        2.50340417360129        0.83963270797224
H            1.99776980571993        2.08548382385252        0.64612224278114
H            1.58259194799326        0.24860637347961        2.54251034408799
H           -0.97488274510474        0.44639029935095        3.33387991744699
H           -2.13590954619423        2.38785774608272        1.90546815240608
H           -0.29924871902007        3.39022135281204        0.22545653726293
H            0.28777314556482        0.10599501189784       -1.32552981970997
H           -3.74811256531091        1.40196974157151       -1.85307738529176
H           -2.31546902574124        1.81930905581300       -0.88414633795411
C           -2.50097174293258       -0.81051192722713       -0.68465854024261
C           -3.53513851440580        0.16107282349696       -0.09274721121012
H           -4.56670471573324       -0.19251082241769       -0.23777433937318
H           -3.38694480866731        0.29844212031339        0.99375532939553
H           -2.74253012366566       -1.01268582841463       -1.73702838564302
H           -3.96559279991443        2.28601051776591       -0.34936522250795

 Bond Distances (Angstroems)
 ---------------------------
Zr1-C3=2.6527        Zr1-C4=2.6723        Zr1-C5=2.9175        Zr1-C6=3.0684        Zr1-C7=2.8527        Zr1-C13=2.5510       
Zr1-C14=2.5129       Zr1-C15=2.4594       Zr1-C16=2.4523       Zr1-C17=2.5040       Zr1-H23=1.7209       Zr1-C26=2.2434       
Zr1-C27=2.9025       C2-H24=1.0913        C2-H25=1.1117        C2-C27=1.5395        C2-H31=1.0897        C3-Zr1=2.6527        
C3-C4=1.3601         C3-C7=1.5055         C3-H8=1.0838         C4-Zr1=2.6723        C4-C3=1.3601         C4-C5=1.4592         
C4-H9=1.0863         C5-Zr1=2.9175        C5-C4=1.4592         C5-C6=1.3499         C5-H10=1.0816        C6-Zr1=3.0684        
C6-C5=1.3499         C6-C7=1.4998         C6-H11=1.0784        C7-Zr1=2.8527        C7-C3=1.5055         C7-C6=1.4998         
C7-H12=1.0967        C7-C26=1.5581        H8-C3=1.0838         H9-C4=1.0863         H10-C5=1.0816        H11-C6=1.0784        
H12-C7=1.0967        C13-Zr1=2.5510       C13-C14=1.4113       C13-C17=1.4144       C13-H18=1.0832       C14-Zr1=2.5129       
C14-C13=1.4113       C14-C15=1.4184       C14-H19=1.0856       C15-Zr1=2.4594       C15-C14=1.4184       C15-C16=1.4193       
C15-H20=1.0848       C16-Zr1=2.4523       C16-C15=1.4193       C16-C17=1.4189       C16-H21=1.0851       C17-Zr1=2.5040       
C17-C13=1.4144       C17-C16=1.4189       C17-H22=1.0853       H18-C13=1.0832       H19-C14=1.0856       H20-C15=1.0848       
H21-C16=1.0851       H22-C17=1.0853       H23-Zr1=1.7209       H24-C2=1.0913        H25-C2=1.1117        C26-Zr1=2.2434       
C26-C7=1.5581        C26-C27=1.5375       C26-H30=1.0985       C27-Zr1=2.9025       C27-C2=1.5395        C27-C26=1.5375       
C27-H28=1.1001       C27-H29=1.1051       H28-C27=1.1001       H29-C27=1.1051       H30-C26=1.0985       H31-C2=1.0897        
 C  H  Rav=1.0904 sigma=0.0091  Rmin=1.0784  Rmax=1.1117    16
 C  C  Rav=1.4532 sigma=0.0660  Rmin=1.3499  Rmax=1.5581    13
 Zr H  Rav=1.7209 sigma=0.0000  Rmin=1.7209  Rmax=1.7209     1
 Zr C  Rav=2.6491 sigma=0.2314  Rmin=2.2434  Rmax=3.0684    12

 selected bond angles (degree)
 --------------------
C4-Zr1-C3= 29.59               C5-Zr1-C3= 48.43               C5-Zr1-C4= 29.85               C6-Zr1-C3= 47.59               
C6-Zr1-C4= 46.28               C6-Zr1-C5= 25.91               C7-Zr1-C3= 31.47               C7-Zr1-C4= 49.97               
C7-Zr1-C5= 47.77               C7-Zr1-C6= 29.05               C13-Zr1-C3=126.09              C13-Zr1-C4=109.05              
C13-Zr1-C5=120.05              C13-Zr1-C6=145.42              C13-Zr1-C7=157.29              C14-Zr1-C3= 93.91              
C14-Zr1-C4= 78.61              C14-Zr1-C5= 97.69              C14-Zr1-C6=122.55              C14-Zr1-C7=124.94              
C14-Zr1-C13= 32.36             C15-Zr1-C3= 77.18              C15-Zr1-C4= 77.59              C15-Zr1-C5=106.11              
C15-Zr1-C6=122.00              C15-Zr1-C7=106.84              C15-Zr1-C13= 54.35             C15-Zr1-C14= 33.13             
C16-Zr1-C3= 98.13              C16-Zr1-C4=108.69              C16-Zr1-C5=138.41              C16-Zr1-C6=145.15              
C16-Zr1-C7=118.54              C16-Zr1-C13= 54.51             C16-Zr1-C14= 55.04             C16-Zr1-C15= 33.59             
C17-Zr1-C3=130.10              C17-Zr1-C4=130.45              C17-Zr1-C5=151.30              C17-Zr1-C6=176.72              
C17-Zr1-C7=150.72              C17-Zr1-C13= 32.48             C17-Zr1-C14= 54.29             C17-Zr1-C15= 55.01             
C17-Zr1-C16= 33.25             H23-Zr1-C3=129.21              H23-Zr1-C4=111.48              H23-Zr1-C5= 83.48              
H23-Zr1-C6= 82.34              H23-Zr1-C7=106.57              H23-Zr1-C13= 88.51             H23-Zr1-C14=110.03             
H23-Zr1-C15=141.81             H23-Zr1-C16=132.45             H23-Zr1-C17= 99.50             C26-Zr1-C3= 60.25              
C26-Zr1-C4= 82.87              C26-Zr1-C5= 75.91              C26-Zr1-C6= 50.91              C26-Zr1-C7= 32.93              
C26-Zr1-C13=163.59             C26-Zr1-C14=150.77             C26-Zr1-C15=120.46             C26-Zr1-C16=111.66             
C26-Zr1-C17=131.12             C26-Zr1-H23= 97.69             C27-Zr1-C3= 67.34              C27-Zr1-C4= 96.56              
C27-Zr1-C5=101.93              C27-Zr1-C6= 79.79              C27-Zr1-C7= 54.18              C27-Zr1-C13=132.89             
C27-Zr1-C14=129.19             C27-Zr1-C15= 96.13             C27-Zr1-C16= 80.33             C27-Zr1-C17=101.57             
C27-Zr1-H23=118.40             C27-Zr1-C26= 31.59             H25-C2-H24=107.72              C27-C2-H24=109.52              
C27-C2-H25=111.55              H31-C2-H24=107.41              H31-C2-H25=109.36              H31-C2-C27=111.12              
C4-C3-Zr1= 76.00               C7-C3-Zr1= 81.61               C7-C3-C4=109.34                H8-C3-Zr1=116.69               
H8-C3-C4=126.61                H8-C3-C7=123.43                C3-C4-Zr1= 74.40               C5-C4-Zr1= 84.42               
C5-C4-C3=109.09                H9-C4-Zr1=116.51               H9-C4-C3=126.57                H9-C4-C5=123.55                
C4-C5-Zr1= 65.73               C6-C5-Zr1= 83.30               C6-C5-C4=108.81                H10-C5-Zr1=121.62              
H10-C5-C4=124.10               H10-C5-C6=126.78               C5-C6-Zr1= 70.79               C7-C6-Zr1= 67.47               
C7-C6-C5=110.09                H11-C6-Zr1=125.70              H11-C6-C5=126.91               H11-C6-C7=122.92               
C3-C7-Zr1= 66.92               C6-C7-Zr1= 83.47               C6-C7-C3=102.24                H12-C7-Zr1=160.31              
H12-C7-C3=113.62               H12-C7-C6=114.65               C26-C7-Zr1= 51.51              C26-C7-C3=108.24               
C26-C7-C6=103.48               C26-C7-H12=113.51              

 selected dihedral angles (degree)
 ---------------------------------
C4-C3-Zr1-C5= 38.22           C4-C3-Zr1-C6= 73.31           C4-C3-Zr1-C7=112.45           C4-C3-Zr1-C13=297.74          
C4-C3-Zr1-C14=301.40          C4-C3-Zr1-C15=272.61          C4-C3-Zr1-C16=246.18          C4-C3-Zr1-C17=256.41          
C4-C3-Zr1-H23= 61.33          C4-C3-Zr1-C26=135.82          C4-C3-Zr1-C27=170.27          C7-C3-Zr1-C4=247.55           
C7-C3-Zr1-C5=285.77           C7-C3-Zr1-C6=320.86           C7-C3-Zr1-C13=185.29          C7-C3-Zr1-C14=188.95          
C7-C3-Zr1-C15=160.16          C7-C3-Zr1-C16=133.73          C7-C3-Zr1-C17=143.96          C7-C3-Zr1-H23=308.88          
C7-C3-Zr1-C26= 23.37          C7-C3-Zr1-C27= 57.82          H8-C3-Zr1-C4=124.24           H8-C3-Zr1-C5=162.46           
H8-C3-Zr1-C6=197.55           H8-C3-Zr1-C7=236.69           H8-C3-Zr1-C13= 61.98          H8-C3-Zr1-C14= 65.64          
H8-C3-Zr1-C15= 36.85          H8-C3-Zr1-C16= 10.42          H8-C3-Zr1-C17= 20.65          H8-C3-Zr1-H23=185.57          
H8-C3-Zr1-C26=260.06          H8-C3-Zr1-C27=294.51          C3-C4-Zr1-C5=248.38           C3-C4-Zr1-C6=281.87           
C3-C4-Zr1-C7=320.94           C3-C4-Zr1-C13=130.82          C3-C4-Zr1-C14=119.70          C3-C4-Zr1-C15= 85.84          
C3-C4-Zr1-C16= 72.94          C3-C4-Zr1-C17=102.27          C3-C4-Zr1-H23=226.93          C3-C4-Zr1-C26=322.43          
C3-C4-Zr1-C27=350.97          C5-C4-Zr1-C3=111.62           C5-C4-Zr1-C6= 33.48           C5-C4-Zr1-C7= 72.55           
C5-C4-Zr1-C13=242.44          C5-C4-Zr1-C14=231.31          C5-C4-Zr1-C15=197.45          C5-C4-Zr1-C16=184.56          
C5-C4-Zr1-C17=213.89          C5-C4-Zr1-H23=338.55          C5-C4-Zr1-C26= 74.04          C5-C4-Zr1-C27=102.58          
H9-C4-Zr1-C3=236.49           H9-C4-Zr1-C5=124.88           H9-C4-Zr1-C6=158.36           H9-C4-Zr1-C7=197.43           
H9-C4-Zr1-C13=  7.32          H9-C4-Zr1-C14=356.19          H9-C4-Zr1-C15=322.33          H9-C4-Zr1-C16=309.43          
H9-C4-Zr1-C17=338.76          H9-C4-Zr1-H23=103.42          H9-C4-Zr1-C26=198.92          H9-C4-Zr1-C27=227.46          
Zr1-C4-C3-C7= 75.71           Zr1-C4-C3-H8=246.95           C5-C4-C3-Zr1=281.74           C5-C4-C3-C7=357.44            
C5-C4-C3-H8=168.69            H9-C4-C3-Zr1=111.71           H9-C4-C3-C7=187.42            H9-C4-C3-H8=358.66            
C4-C5-Zr1-C3=322.14           C4-C5-Zr1-C6=245.85           C4-C5-Zr1-C7=279.41           C4-C5-Zr1-C13= 75.49          
C4-C5-Zr1-C14= 50.55          C4-C5-Zr1-C15= 17.75          C4-C5-Zr1-C16=  6.51          C4-C5-Zr1-C17= 62.08          
C4-C5-Zr1-H23=159.97          C4-C5-Zr1-C26=259.61          C4-C5-Zr1-C27=277.69          C6-C5-Zr1-C3= 76.29           
C6-C5-Zr1-C4=114.15           C6-C5-Zr1-C7= 33.56           C6-C5-Zr1-C13=189.64          C6-C5-Zr1-C14=164.69          
C6-C5-Zr1-C15=131.90          C6-C5-Zr1-C16=120.66          C6-C5-Zr1-C17=176.22          C6-C5-Zr1-H23=274.11          
C6-C5-Zr1-C26= 13.76          C6-C5-Zr1-C27= 31.83          H10-C5-Zr1-C3=205.75          H10-C5-Zr1-C4=243.61          
H10-C5-Zr1-C6=129.46          H10-C5-Zr1-C7=163.02          H10-C5-Zr1-C13=319.10         H10-C5-Zr1-C14=294.15         
H10-C5-Zr1-C15=261.36         H10-C5-Zr1-C16=250.12         H10-C5-Zr1-C17=305.69         H10-C5-Zr1-H23= 43.58         
H10-C5-Zr1-C26=143.22         H10-C5-Zr1-C27=161.30         Zr1-C5-C4-C3= 71.36           Zr1-C5-C4-H9=241.75           
C6-C5-C4-Zr1=286.79           C6-C5-C4-C3=358.15            C6-C5-C4-H9=168.53            H10-C5-C4-Zr1=112.91          
H10-C5-C4-C3=184.27           H10-C5-C4-H9=354.66           Zr1-C6-C5-C4= 61.49           Zr1-C6-C5-H10=235.16          
C7-C6-C5-Zr1=304.01           C7-C6-C5-C4=  5.50            C7-C6-C5-H10=179.18           H11-C6-C5-Zr1=120.75          
H11-C6-C5-C4=182.24           H11-C6-C5-H10=355.91          C3-C7-Zr1-C4= 36.59           C3-C7-Zr1-C5= 76.48           
C3-C7-Zr1-C6=106.31           C3-C7-Zr1-C13= 11.13          C3-C7-Zr1-C14= 10.92          C3-C7-Zr1-C15=339.78          
C3-C7-Zr1-C16=305.48          C3-C7-Zr1-C17=293.03          C3-C7-Zr1-H23=141.00          C3-C7-Zr1-C26=219.31          
C3-C7-Zr1-C27=254.41          C6-C7-Zr1-C3=253.69           C6-C7-Zr1-C4=290.28           C6-C7-Zr1-C5=330.18           
C6-C7-Zr1-C13=264.82          C6-C7-Zr1-C14=264.61          C6-C7-Zr1-C15=233.47          C6-C7-Zr1-C16=199.17          
C6-C7-Zr1-C17=186.72          C6-C7-Zr1-H23= 34.70          C6-C7-Zr1-C26=113.00          C6-C7-Zr1-C27=148.10          
H12-C7-Zr1-C3= 95.85          H12-C7-Zr1-C4=132.44          H12-C7-Zr1-C5=172.33          H12-C7-Zr1-C6=202.16          
H12-C7-Zr1-C13=106.98         H12-C7-Zr1-C14=106.77         H12-C7-Zr1-C15= 75.63         H12-C7-Zr1-C16= 41.33         
H12-C7-Zr1-C17= 28.88         H12-C7-Zr1-H23=236.85         H12-C7-Zr1-C26=315.16         H12-C7-Zr1-C27=350.26         
C26-C7-Zr1-C3=140.69          C26-C7-Zr1-C4=177.28          C26-C7-Zr1-C5=217.17          C26-C7-Zr1-C6=247.00          
C26-C7-Zr1-C13=151.82         C26-C7-Zr1-C14=151.61         C26-C7-Zr1-C15=120.47         C26-C7-Zr1-C16= 86.17         
C26-C7-Zr1-C17= 73.72         C26-C7-Zr1-H23=281.69         C26-C7-Zr1-C27= 35.09         Zr1-C7-C3-C4=288.11           
Zr1-C7-C3-H8=116.54           C6-C7-C3-Zr1= 77.36           C6-C7-C3-C4=  5.47            C6-C7-C3-H8=193.89            
H12-C7-C3-Zr1=201.46          H12-C7-C3-C4=129.58           H12-C7-C3-H8=318.00           C26-C7-C3-Zr1=328.53          
C26-C7-C3-C4=256.64           C26-C7-C3-H8= 85.06           Zr1-C7-C6-C5= 57.93           Zr1-C7-C6-H11=241.05          
C3-C7-C6-Zr1=295.38           C3-C7-C6-C5=353.32            C3-C7-C6-H11=176.43           H12-C7-C6-Zr1=171.96          
H12-C7-C6-C5=229.90           H12-C7-C6-H11= 53.01          C26-C7-C6-Zr1= 47.81          C26-C7-C6-C5=105.74           
C26-C7-C6-H11=288.85          
           -------------------------------------------------
          |                Final Singlepoint                |
           -------------------------------------------------

          ...................................................
          :                      SETUP                      :
          :.................................................:
          :  # basis functions                  79          :
          :  # atomic orbitals                  78          :
          :  # shells                           46          :
          :  # electrons                        72          :
          :  max. iterations                   250          :
          :  Hamiltonian                  GFN2-xTB          :
          :  restarted?                      false          :
          :  GBSA solvation                  false          :
          :  PC potential                    false          :
          :  electronic temp.          300.0000000     K    :
          :  accuracy                    1.0000000          :
          :  -> integral cutoff          0.2500000E+02      :
          :  -> integral neglect         0.1000000E-07      :
          :  -> SCF convergence          0.1000000E-05 Eh   :
          :  -> wf. convergence          0.1000000E-03 e    :
          :  Broyden damping             0.4000000          :
          ...................................................

 iter      E             dE          RMSdq      gap      omega  full diag
   1    -38.3126963 -0.383127E+02  0.144E-04    1.55       0.0  T
   2    -38.3126963 -0.747065E-10  0.973E-05    1.55     184.6  T
   3    -38.3126963 -0.415454E-10  0.654E-05    1.55     274.7  T

   *** convergence criteria satisfied after 3 iterations ***

         #    Occupation            Energy/Eh            Energy/eV
      -------------------------------------------------------------
         1        2.0000           -0.8651693             -23.5425
       ...           ...                  ...                  ...
        30        2.0000           -0.5797551             -15.7759
        31        2.0000           -0.5754631             -15.6591
        32        2.0000           -0.5689620             -15.4822
        33        2.0000           -0.5469704             -14.8838
        34        2.0000           -0.5088595             -13.8468
        35        2.0000           -0.5062682             -13.7763
        36        2.0000           -0.4851842             -13.2025 (HOMO)
        37                         -0.4282833             -11.6542 (LUMO)
        38                         -0.4205363             -11.4434
        39                         -0.4166746             -11.3383
        40                         -0.4095907             -11.1455
        41                         -0.4067429             -11.0680
       ...                                ...                  ...
        78                          1.9387458              52.7560
      -------------------------------------------------------------
                  HL-Gap            0.0569009 Eh            1.5484 eV
             Fermi-level           -0.4567338 Eh          -12.4284 eV

 SCC (total)                   0 d,  0 h,  0 min,  0.098 sec
 SCC setup                      ...        0 min,  0.000 sec (  0.101%)
 Dispersion                     ...        0 min,  0.000 sec (  0.092%)
 classical contributions        ...        0 min,  0.000 sec (  0.028%)
 integral evaluation            ...        0 min,  0.006 sec (  5.815%)
 iterations                     ...        0 min,  0.086 sec ( 87.495%)
 molecular gradient             ...        0 min,  0.006 sec (  6.280%)
 printout                       ...        0 min,  0.000 sec (  0.169%)

         :::::::::::::::::::::::::::::::::::::::::::::::::::::
         ::                     SUMMARY                     ::
         :::::::::::::::::::::::::::::::::::::::::::::::::::::
         :: total energy             -37.703111699503 Eh    ::
         :: gradient norm              0.000763358462 Eh/a0 ::
         :: HOMO-LUMO gap              1.548352412672 eV    ::
         ::.................................................::
         :: SCC energy               -38.312696329872 Eh    ::
         :: -> isotropic ES            0.085578225037 Eh    ::
         :: -> anisotropic ES         -0.014909064371 Eh    ::
         :: -> anisotropic XC          0.019539474982 Eh    ::
         :: -> dispersion             -0.030187812553 Eh    ::
         :: repulsion energy           0.608887267000 Eh    ::
         :: add. restraining           0.000123906938 Eh    ::
         :: total charge               1.000000000000 e     ::
         :::::::::::::::::::::::::::::::::::::::::::::::::::::

           -------------------------------------------------
          |                Property Printout                |
           -------------------------------------------------

    * Orbital Energies and Occupations

         #    Occupation            Energy/Eh            Energy/eV
      -------------------------------------------------------------
         1        2.0000           -0.8651693             -23.5425
       ...           ...                  ...                  ...
        24        2.0000           -0.6032640             -16.4156
        25        2.0000           -0.5926955             -16.1281
        26        2.0000           -0.5911555             -16.0862
        27        2.0000           -0.5894697             -16.0403
        28        2.0000           -0.5843266             -15.9003
        29        2.0000           -0.5822070             -15.8427
        30        2.0000           -0.5797551             -15.7759
        31        2.0000           -0.5754631             -15.6591
        32        2.0000           -0.5689620             -15.4822
        33        2.0000           -0.5469704             -14.8838
        34        2.0000           -0.5088595             -13.8468
        35        2.0000           -0.5062682             -13.7763
        36        2.0000           -0.4851842             -13.2025 (HOMO)
        37                         -0.4282833             -11.6542 (LUMO)
        38                         -0.4205363             -11.4434
        39                         -0.4166746             -11.3383
        40                         -0.4095907             -11.1455
        41                         -0.4067429             -11.0680
        42                         -0.3667945              -9.9810
        43                         -0.3265000              -8.8845
        44                         -0.3037424              -8.2653
        45                         -0.2953396              -8.0366
        46                         -0.0798350              -2.1724
        47                         -0.0788038              -2.1444
       ...                                ...                  ...
        78                          1.9387458              52.7560
      -------------------------------------------------------------
                  HL-Gap            0.0569009 Eh            1.5484 eV
             Fermi-level           -0.4567338 Eh          -12.4284 eV

     #   Z          covCN         q      C6AA      α(0)
     1  40 Zr       7.985     0.986   137.883    17.644
     2   6 C        3.829    -0.128    22.939     6.815
     3   6 C        3.606    -0.058    22.194     6.808
     4   6 C        3.592    -0.042    21.993     6.793
     5   6 C        3.307    -0.043    27.093     8.318
     6   6 C        3.171    -0.024    28.220     8.678
     7   6 C        4.327    -0.021    20.860     6.486
     8   1 H        0.925     0.102     1.767     2.079
     9   1 H        0.925     0.098     1.804     2.101
    10   1 H        0.925     0.095     1.827     2.114
    11   1 H        0.926     0.104     1.751     2.069
    12   1 H        0.924     0.112     1.677     2.025
    13   6 C        3.711    -0.069    21.953     6.695
    14   6 C        3.733    -0.088    22.282     6.738
    15   6 C        3.759    -0.099    22.449     6.755
    16   6 C        3.758    -0.098    22.415     6.750
    17   6 C        3.739    -0.083    22.176     6.719
    18   1 H        0.925     0.080     1.974     2.197
    19   1 H        0.925     0.070     2.088     2.260
    20   1 H        0.925     0.068     2.107     2.270
    21   1 H        0.925     0.078     2.003     2.213
    22   1 H        0.925     0.076     2.022     2.224
    23   1 H        0.854    -0.331    28.867     8.418
    24   1 H        0.924     0.090     1.884     2.146
    25   1 H        0.997     0.083     1.939     2.176
    26   6 C        3.698    -0.212    24.883     7.134
    27   6 C        4.141    -0.074    21.818     6.634
    28   1 H        0.923     0.083     1.949     2.183
    29   1 H        0.925     0.073     2.048     2.238
    30   1 H        0.924     0.089     1.890     2.150
    31   1 H        0.925     0.084     1.942     2.179

 Mol. C6AA /au·bohr⁶  :      10331.742232
 Mol. C8AA /au·bohr⁸  :     339300.100190
 Mol. α(0) /au        :        152.010525


Wiberg/Mayer (AO) data.
largest (>0.10) Wiberg bond orders for each atom

 ---------------------------------------------------------------------------
     #   Z sym  total        # sym  WBO       # sym  WBO       # sym  WBO
 ---------------------------------------------------------------------------
     1  40 Zr   4.049 --    26 C    0.791    23 H    0.738    16 C    0.241
                            17 C    0.241    15 C    0.240    14 C    0.215
                            13 C    0.212     4 C    0.162     3 C    0.161
                             5 C    0.112    27 C    0.110     2 C    0.101
     2   6 C    3.983 --    27 C    0.994    31 H    0.975    24 H    0.973
                            25 H    0.867     1 Zr   0.101
     3   6 C    3.990 --     4 C    1.655     7 C    1.003     8 H    0.922
                             1 Zr   0.161     6 C    0.129
     4   6 C    3.992 --     3 C    1.655     5 C    1.104     9 H    0.923
                             1 Zr   0.162
     5   6 C    3.985 --     6 C    1.716     4 C    1.104    10 H    0.938
                             1 Zr   0.112
     6   6 C    3.976 --     5 C    1.716     7 C    1.017    11 H    0.946
                             3 C    0.129
     7   6 C    3.987 --     6 C    1.017     3 C    1.003    12 H    0.914
                            26 C    0.877
     8   1 H    0.989 --     3 C    0.922
     9   1 H    0.989 --     4 C    0.923
    10   1 H    0.988 --     5 C    0.938
    11   1 H    0.987 --     6 C    0.946
    12   1 H    0.986 --     7 C    0.914
    13   6 C    3.980 --    14 C    1.329    17 C    1.313    18 H    0.930
                             1 Zr   0.212
    14   6 C    3.977 --    13 C    1.329    15 C    1.305    19 H    0.924
                             1 Zr   0.215
    15   6 C    3.977 --    14 C    1.305    16 C    1.295    20 H    0.926
                             1 Zr   0.240
    16   6 C    3.977 --    17 C    1.295    15 C    1.295    21 H    0.921
                             1 Zr   0.241
    17   6 C    3.980 --    13 C    1.313    16 C    1.295    22 H    0.924
                             1 Zr   0.241
    18   1 H    0.990 --    13 C    0.930
    19   1 H    0.992 --    14 C    0.924
    20   1 H    0.995 --    15 C    0.926
    21   1 H    0.993 --    16 C    0.921
    22   1 H    0.991 --    17 C    0.924
    23   1 H    0.891 --     1 Zr   0.738
    24   1 H    0.991 --     2 C    0.973
    25   1 H    0.992 --     2 C    0.867
    26   6 C    3.794 --    27 C    0.975    30 H    0.912     7 C    0.877
                             1 Zr   0.791
    27   6 C    3.993 --     2 C    0.994    26 C    0.975    28 H    0.956
                            29 H    0.901     1 Zr   0.110
    28   1 H    0.992 --    27 C    0.956
    29   1 H    0.994 --    27 C    0.901
    30   1 H    0.989 --    26 C    0.912
    31   1 H    0.991 --     2 C    0.975
 ---------------------------------------------------------------------------

Topologies differ in total number of bonds
Writing topology from bond orders to xtbtopo.mol

molecular dipole:
                 x           y           z       tot (Debye)
 q only:       -3.019      -0.848       0.941
   full:       -2.548      -0.726       1.127       7.317
molecular quadrupole (traceless):
                xx          xy          yy          xz          yz          zz
 q only:       10.079      -0.762       1.131       1.309      -3.033     -11.211
  q+dip:       12.450      -1.325      -2.507       0.790      -3.532      -9.943
   full:        9.913      -2.192      -0.318      -0.098      -4.686      -9.594

           -------------------------------------------------
          |                Geometry Summary                 |
           -------------------------------------------------

      molecular mass/u    :      264.4982010
   center of mass at/Å    :       -1.0099765      -0.0724094       0.4804458
  moments of inertia/u·Å² :        0.5798220E+03   0.8206336E+03   0.1104347E+04
rotational constants/cm⁻¹ :        0.2907380E-01   0.2054222E-01   0.1526479E-01

 * 33 selected distances

     #   Z          #   Z                                           value/Å
     3   6 C        4   6 C                                       1.3601059
     4   6 C        5   6 C                                       1.4592408
     5   6 C        6   6 C                                       1.3498634
     3   6 C        7   6 C                                       1.5054620
     6   6 C        7   6 C                                       1.4997941
     3   6 C        8   1 H                                       1.0838093
     4   6 C        9   1 H                                       1.0863148
     5   6 C       10   1 H                                       1.0815558
     6   6 C       11   1 H                                       1.0783562 (min)
     7   6 C       12   1 H                                       1.0966888
    13   6 C       14   6 C                                       1.4113415
     1  40 Zr      15   6 C                                       2.4593619 (max)
    14   6 C       15   6 C                                       1.4184432
     1  40 Zr      16   6 C                                       2.4522878
    15   6 C       16   6 C                                       1.4193123
    13   6 C       17   6 C                                       1.4144150
    16   6 C       17   6 C                                       1.4189090
    13   6 C       18   1 H                                       1.0832153
    14   6 C       19   1 H                                       1.0855572
    15   6 C       20   1 H                                       1.0847939
    16   6 C       21   1 H                                       1.0851447
    17   6 C       22   1 H                                       1.0852608
     1  40 Zr      23   1 H                                       1.7209061
     2   6 C       24   1 H                                       1.0912833
     2   6 C       25   1 H                                       1.1117334
     1  40 Zr      26   6 C                                       2.2433799
     7   6 C       26   6 C                                       1.5581362
     2   6 C       27   6 C                                       1.5395361
    26   6 C       27   6 C                                       1.5374776
    27   6 C       28   1 H                                       1.1000833
    27   6 C       29   1 H                                       1.1051333
    26   6 C       30   1 H                                       1.0985023
     2   6 C       31   1 H                                       1.0896745

 * 4 distinct bonds (by element types)

   Z      Z             #   av. dist./Å        max./Å        min./Å
   1 H    6 C          16     1.0904442     1.1117334     1.0783562
   6 C    6 C          13     1.4532336     1.5581362     1.3498634
   1 H   40 Zr          1     1.7209061     1.7209061     1.7209061
   6 C   40 Zr          3     2.3850099     2.4593619     2.2433799


optimized geometry written to: xtbopt.xyz


           -------------------------------------------------
          | TOTAL ENERGY              -37.703111699503 Eh   |
          | GRADIENT NORM               0.000763358462 Eh/α |
          | HOMO-LUMO GAP               1.548352412672 eV   |
           -------------------------------------------------

------------------------------------------------------------------------
 * finished run on 2026/08/18 at 18:33:05.973     
------------------------------------------------------------------------
 total:
 * wall-time:     0 d,  0 h,  0 min, 23.891 sec
 *  cpu-time:     0 d,  0 h,  2 min, 58.404 sec
 * ratio c/w:     7.467 speedup
 SCF:
 * wall-time:     0 d,  0 h,  0 min,  0.781 sec
 *  cpu-time:     0 d,  0 h,  0 min,  5.426 sec
 * ratio c/w:     6.951 speedup
 ANC optimizer:
 * wall-time:     0 d,  0 h,  0 min, 22.989 sec
 *  cpu-time:     0 d,  0 h,  2 min, 52.068 sec
 * ratio c/w:     7.485 speedup

