      -----------------------------------------------------------      
     |                   =====================                   |     
     |                           x T B                           |     
     |                   =====================                   |     
     |                         S. Grimme                         |     
     |          Mulliken Center for Theoretical Chemistry        |     
     |                    University of Bonn                     |     
      -----------------------------------------------------------      

   * xtb version 6.5.1 (b24c23e) compiled by 'conda@728c89f4b128' on 2022-07-12

   xtb is free software: you can redistribute it and/or modify it under
   the terms of the GNU Lesser General Public License as published by
   the Free Software Foundation, either version 3 of the License, or
   (at your option) any later version.
   
   xtb is distributed in the hope that it will be useful,
   but WITHOUT ANY WARRANTY; without even the implied warranty of
   MERCHANTABILITY or FITNESS FOR A PARTICULAR PURPOSE.  See the
   GNU Lesser General Public License for more details.
   
   Cite this work as:
   * C. Bannwarth, E. Caldeweyher, S. Ehlert, A. Hansen, P. Pracht,
     J. Seibert, S. Spicher, S. Grimme, WIREs Comput. Mol. Sci., 2020, 11,
     e01493. DOI: 10.1002/wcms.1493
   
   for GFN2-xTB:
   * C. Bannwarth, S. Ehlert and S. Grimme., J. Chem. Theory Comput., 2019,
     15, 1652-1671. DOI: 10.1021/acs.jctc.8b01176
   for GFN1-xTB:
   * S. Grimme, C. Bannwarth, P. Shushkov, J. Chem. Theory Comput., 2017,
     13, 1989-2009. DOI: 10.1021/acs.jctc.7b00118
   for GFN0-xTB:
   * P. Pracht, E. Caldeweyher, S. Ehlert, S. Grimme, ChemRxiv, 2019, preprint.
     DOI: 10.26434/chemrxiv.8326202.v1
   for GFN-FF:
   * S. Spicher and S. Grimme, Angew. Chem. Int. Ed., 2020, 59, 15665-15673.
     DOI: 10.1002/anie.202004239
   
   for ALPB and GBSA implicit solvation:
   * S. Ehlert, M. Stahn, S. Spicher, S. Grimme, J. Chem. Theory Comput.,
     2021, 17, 4250-4261. DOI: 10.1021/acs.jctc.1c00471
   
   for DFT-D4:
   * E. Caldeweyher, C. Bannwarth and S. Grimme, J. Chem. Phys., 2017,
     147, 034112. DOI: 10.1063/1.4993215
   * E. Caldeweyher, S. Ehlert, A. Hansen, H. Neugebauer, S. Spicher,
     C. Bannwarth and S. Grimme, J. Chem. Phys., 2019, 150, 154122.
     DOI: 10.1063/1.5090222
   * E. Caldeweyher, J.-M. Mewes, S. Ehlert and S. Grimme, Phys. Chem. Chem. Phys.
     2020, 22, 8499-8512. DOI: 10.1039/D0CP00502A
   
   for sTDA-xTB:
   * S. Grimme and C. Bannwarth, J. Chem. Phys., 2016, 145, 054103.
     DOI: 10.1063/1.4959605
   
   in the mass-spec context:
   * V. Asgeirsson, C. Bauer and S. Grimme, Chem. Sci., 2017, 8, 4879.
     DOI: 10.1039/c7sc00601b
   * J. Koopman and S. Grimme, ACS Omega 2019, 4, 12, 15120-15133.
     DOI: 10.1021/acsomega.9b02011
   
   for metadynamics refer to:
   * S. Grimme, J. Chem. Theory Comput., 2019, 155, 2847-2862
     DOI: 10.1021/acs.jctc.9b00143
   
   for SPH calculations refer to:
   * S. Spicher and S. Grimme, J. Chem. Theory Comput., 2021, 17, 1701-1714
     DOI: 10.1021/acs.jctc.0c01306
   
   with help from (in alphabetical order)
   P. Atkinson, C. Bannwarth, F. Bohle, G. Brandenburg, E. Caldeweyher
   M. Checinski, S. Dohm, S. Ehlert, S. Ehrlich, I. Gerasimov, C. Hölzer
   A. Katbashev, J. Koopman, C. Lavigne, S. Lehtola, F. März, M. Müller,
   F. Musil, H. Neugebauer, J. Pisarek, C. Plett, P. Pracht, F. Pultar,
   J. Seibert, P. Shushkov, S. Spicher, M. Stahn, M. Steiner, T. Strunk,
   J. Stückrath, T. Rose, and J. Unsleber
   
 * started run on 2026/08/18 at 18:31:58.054     

           -------------------------------------------------
          |                Calculation Setup                |
           -------------------------------------------------

          program call               : /h/332/chchoi/miniconda3/envs/el-agente/bin/xtb product_raw.xyz --opt --gfn 2 -P 4 --chrg 1 --uhf 0
          coordinate file            : product_raw.xyz
          omp threads                :                     4

   ID    Z sym.   atoms
    1   40 Zr     1
    2    6 C      2-7, 13-17, 25, 28
    3    1 H      8-12, 18-24, 26, 27, 29-31

           -------------------------------------------------
          |                 G F N 2 - x T B                 |
           -------------------------------------------------

        Reference                      10.1021/acs.jctc.8b01176
      * Hamiltonian:
        H0-scaling (s, p, d)           1.850000    2.230000    2.230000
        zeta-weighting                 0.500000
      * Dispersion:
        s8                             2.700000
        a1                             0.520000
        a2                             5.000000
        s9                             5.000000
      * Repulsion:
        kExp                           1.500000    1.000000
        rExp                           1.000000
      * Coulomb:
        alpha                          2.000000
        third order                    shell-resolved
        anisotropic                    true
        a3                             3.000000
        a5                             4.000000
        cn-shift                       1.200000
        cn-exp                         4.000000
        max-rad                        5.000000


          ...................................................
          :                      SETUP                      :
          :.................................................:
          :  # basis functions                  79          :
          :  # atomic orbitals                  78          :
          :  # shells                           46          :
          :  # electrons                        72          :
          :  max. iterations                   250          :
          :  Hamiltonian                  GFN2-xTB          :
          :  restarted?                      false          :
          :  GBSA solvation                  false          :
          :  PC potential                    false          :
          :  electronic temp.          300.0000000     K    :
          :  accuracy                    1.0000000          :
          :  -> integral cutoff          0.2500000E+02      :
          :  -> integral neglect         0.1000000E-07      :
          :  -> SCF convergence          0.1000000E-05 Eh   :
          :  -> wf. convergence          0.1000000E-03 e    :
          :  Broyden damping             0.4000000          :
          ...................................................

 iter      E             dE          RMSdq      gap      omega  full diag
   1    -37.6876154 -0.376876E+02  0.115E+01    0.22       0.0  T
   2    -37.8784676 -0.190852E+00  0.530E+00    2.99       1.0  T
   3    -37.9400528 -0.615851E-01  0.564E+00    0.53       1.0  T
   4    -38.0895822 -0.149529E+00  0.174E+00    1.16       1.0  T
   5    -38.1150985 -0.255163E-01  0.677E-01    1.29       1.0  T
   6    -38.1140862  0.101231E-02  0.481E-01    1.36       1.0  T
   7    -38.1162292 -0.214301E-02  0.289E-01    1.31       1.0  T
   8    -38.1166716 -0.442403E-03  0.915E-02    1.21       1.0  T
   9    -38.1167203 -0.487355E-04  0.543E-02    1.23       1.0  T
  10    -38.1167230 -0.270712E-05  0.346E-02    1.24       1.0  T
  11    -38.1167317 -0.865498E-05  0.992E-03    1.24       1.8  T
  12    -38.1167320 -0.340570E-06  0.644E-03    1.24       2.8  T
  13    -38.1167322 -0.173546E-06  0.268E-03    1.24       6.7  T
  14    -38.1167322 -0.271161E-07  0.134E-03    1.24      13.4  T
  15    -38.1167322 -0.525578E-08  0.494E-04    1.24      36.4  T
  16    -38.1167322 -0.797584E-10  0.139E-04    1.24     129.5  T

   *** convergence criteria satisfied after 16 iterations ***

         #    Occupation            Energy/Eh            Energy/eV
      -------------------------------------------------------------
         1        2.0000           -0.8387761             -22.8243
       ...           ...                  ...                  ...
        30        2.0000           -0.5560084             -15.1298
        31        2.0000           -0.5503283             -14.9752
        32        2.0000           -0.5163146             -14.0496
        33        2.0000           -0.5131905             -13.9646
        34        2.0000           -0.5010486             -13.6342
        35        2.0000           -0.4999478             -13.6043
        36        2.0000           -0.4928950             -13.4124 (HOMO)
        37                         -0.4473412             -12.1728 (LUMO)
        38                         -0.4457688             -12.1300
        39                         -0.4429704             -12.0538
        40                         -0.4411737             -12.0049
        41                         -0.4337841             -11.8039
       ...                                ...                  ...
        78                          1.1374292              30.9510
      -------------------------------------------------------------
                  HL-Gap            0.0455538 Eh            1.2396 eV
             Fermi-level           -0.4702052 Eh          -12.7949 eV

 SCC (total)                   0 d,  0 h,  0 min,  0.802 sec
 SCC setup                      ...        0 min,  0.011 sec (  1.345%)
 Dispersion                     ...        0 min,  0.034 sec (  4.205%)
 classical contributions        ...        0 min,  0.014 sec (  1.693%)
 integral evaluation            ...        0 min,  0.031 sec (  3.815%)
 iterations                     ...        0 min,  0.606 sec ( 75.614%)
 molecular gradient             ...        0 min,  0.107 sec ( 13.303%)
 printout                       ...        0 min,  0.000 sec (  0.020%)

         :::::::::::::::::::::::::::::::::::::::::::::::::::::
         ::                     SUMMARY                     ::
         :::::::::::::::::::::::::::::::::::::::::::::::::::::
         :: total energy             -37.573062369683 Eh    ::
         :: gradient norm              0.187110121474 Eh/a0 ::
         :: HOMO-LUMO gap              1.239582763634 eV    ::
         ::.................................................::
         :: SCC energy               -38.116732214617 Eh    ::
         :: -> isotropic ES            0.086027835671 Eh    ::
         :: -> anisotropic ES         -0.002287970968 Eh    ::
         :: -> anisotropic XC          0.006227025319 Eh    ::
         :: -> dispersion             -0.025150846680 Eh    ::
         :: repulsion energy           0.543211838506 Eh    ::
         :: add. restraining           0.000000000000 Eh    ::
         :: total charge               0.999999999984 e     ::
         :::::::::::::::::::::::::::::::::::::::::::::::::::::

      ----------------------------------------------------------- 
     |                   =====================                   |
     |                        A N C O P T                        |
     |                   =====================                   |
     |               Approximate Normal Coordinate               |
     |                Rational Function Optimizer                |
      ----------------------------------------------------------- 

          ...................................................
          :                      SETUP                      :
          :.................................................:
          :   optimization level            normal          :
          :   max. optcycles                   200          :
          :   ANC micro-cycles                  20          :
          :   degrees of freedom                87          :
          :.................................................:
          :   RF solver                   davidson          :
          :   write xtbopt.log                true          :
          :   linear?                        false          :
          :   energy convergence         0.5000000E-05 Eh   :
          :   grad. convergence          0.1000000E-02 Eh/α :
          :   maximium RF displ.         1.0000000          :
          :   Hlow (freq-cutoff)         0.1000000E-01      :
          :   Hmax (freq-cutoff)         5.0000000          :
          :   S6 in model hess.         20.0000000          :
          ...................................................

generating ANC from model Hessian ...
Using Lindh-Hessian (1995)
 Shifting diagonal of input Hessian by    1.5330561009284590E-002
 Lowest  eigenvalues of input Hessian
    0.010000    0.014552    0.000000    0.000000    0.000000    0.000000
    0.000000    0.000000    0.015462    0.015568    0.015622    0.015747
    0.015818    0.015995    0.016194    0.016230    0.016427    0.016619
 Highest eigenvalues
    1.495088    1.495187    1.496316    1.496410    1.496661    1.496724


........................................................................
.............................. CYCLE    1 ..............................
........................................................................
   1    -38.1167322 -0.381167E+02  0.596E-05    1.24       0.0  T
   2    -38.1167322 -0.365219E-11  0.562E-05    1.24     319.5  T
   3    -38.1167322 -0.128608E-11  0.374E-05    1.24     480.8  T
     SCC iter.                  ...        0 min,  0.099 sec
     gradient                   ...        0 min,  0.103 sec
 * total energy  :   -37.5730624 Eh     change       -0.1347544E-09 Eh
   gradient norm :     0.1871102 Eh/α   predicted     0.0000000E+00 (-100.00%)
   displ. norm   :     0.7126490 α      lambda       -0.8657953E-01
   maximum displ.:     0.3847177 α      in ANC's #14, #2, #22, ...

........................................................................
.............................. CYCLE    2 ..............................
........................................................................
   1    -38.2102145 -0.382102E+02  0.899E-01    1.73       0.0  T
   2    -38.2118075 -0.159303E-02  0.909E-01    1.46       1.0  T
   3    -38.2132233 -0.141578E-02  0.610E-01    1.57       1.0  T
   4    -38.2125908  0.632492E-03  0.331E-01    1.48       1.0  T
   5    -38.2133022 -0.711447E-03  0.156E-01    1.55       1.0  T
   6    -38.2133138 -0.115498E-04  0.563E-02    1.57       1.0  T
   7    -38.2133483 -0.345643E-04  0.208E-02    1.58       1.0  T
   8    -38.2133490 -0.651773E-06  0.109E-02    1.58       1.6  T
   9    -38.2133498 -0.802696E-06  0.474E-03    1.58       3.8  T
  10    -38.2133499 -0.794269E-07  0.240E-03    1.58       7.5  T
  11    -38.2133499 -0.151461E-07  0.867E-04    1.58      20.7  T
  12    -38.2133499 -0.549413E-08  0.405E-04    1.58      44.3  T
     SCC iter.                  ...        0 min,  0.483 sec
     gradient                   ...        0 min,  0.121 sec
 * total energy  :   -37.6361133 Eh     change       -0.6305089E-01 Eh
   gradient norm :     0.0655784 Eh/α   predicted    -0.6530093E-01 (   3.57%)
   displ. norm   :     0.5836409 α      lambda       -0.2815588E-01
   maximum displ.:     0.2392424 α      in ANC's #3, #2, #24, ...

........................................................................
.............................. CYCLE    3 ..............................
........................................................................
   1    -38.2604679 -0.382605E+02  0.650E-01    1.88       0.0  T
   2    -38.2609126 -0.444687E-03  0.399E-01    1.75       1.0  T
   3    -38.2609652 -0.525592E-04  0.264E-01    1.85       1.0  T
   4    -38.2611926 -0.227390E-03  0.918E-02    1.80       1.0  T
   5    -38.2612570 -0.644542E-04  0.666E-02    1.80       1.0  T
   6    -38.2612638 -0.678992E-05  0.228E-02    1.81       1.0  T
   7    -38.2612654 -0.162305E-05  0.945E-03    1.81       1.9  T
   8    -38.2612657 -0.245052E-06  0.467E-03    1.81       3.8  T
   9    -38.2612657 -0.565362E-07  0.130E-03    1.81      13.8  T
  10    -38.2612657 -0.486179E-08  0.822E-04    1.81      21.9  T
  11    -38.2612657 -0.474360E-08  0.368E-04    1.81      48.8  T
     SCC iter.                  ...        0 min,  0.419 sec
     gradient                   ...        0 min,  0.122 sec
 * total energy  :   -37.6531470 Eh     change       -0.1703375E-01 Eh
   gradient norm :     0.0391433 Eh/α   predicted    -0.1887341E-01 (  10.80%)
   displ. norm   :     0.6281887 α      lambda       -0.1184469E-01
   maximum displ.:     0.3550178 α      in ANC's #3, #2, #9, ...

........................................................................
.............................. CYCLE    4 ..............................
........................................................................
   1    -38.2675170 -0.382675E+02  0.463E-01    1.64       0.0  T
   2    -38.2677450 -0.228006E-03  0.369E-01    1.60       1.0  T
   3    -38.2677546 -0.960188E-05  0.179E-01    1.61       1.0  T
   4    -38.2677226  0.320251E-04  0.133E-01    1.58       1.0  T
   5    -38.2678415 -0.118943E-03  0.742E-02    1.60       1.0  T
   6    -38.2678437 -0.211967E-05  0.289E-02    1.60       1.0  T
   7    -38.2678485 -0.488633E-05  0.883E-03    1.61       2.0  T
   8    -38.2678490 -0.487055E-06  0.487E-03    1.61       3.7  T
   9    -38.2678491 -0.113849E-06  0.242E-03    1.61       7.4  T
  10    -38.2678492 -0.218760E-07  0.116E-03    1.61      15.4  T
  11    -38.2678492 -0.325664E-08  0.503E-04    1.61      35.7  T
  12    -38.2678492 -0.949420E-09  0.260E-04    1.61      69.1  T
     SCC iter.                  ...        0 min,  0.525 sec
     gradient                   ...        0 min,  0.114 sec
 * total energy  :   -37.6590788 Eh     change       -0.5931742E-02 Eh
   gradient norm :     0.0374145 Eh/α   predicted    -0.8259430E-02 (  39.24%)
   displ. norm   :     0.7404639 α      lambda       -0.1576102E-01
   maximum displ.:     0.3676888 α      in ANC's #1, #3, #9, ...

........................................................................
.............................. CYCLE    5 ..............................
........................................................................
   1    -38.2657331 -0.382657E+02  0.802E-01    1.53       0.0  T
   2    -38.2666059 -0.872807E-03  0.696E-01    1.52       1.0  T
   3    -38.2666461 -0.401637E-04  0.451E-01    1.53       1.0  T
   4    -38.2664173  0.228767E-03  0.206E-01    1.51       1.0  T
   5    -38.2670702 -0.652927E-03  0.104E-01    1.53       1.0  T
   6    -38.2670764 -0.615285E-05  0.361E-02    1.53       1.0  T
   7    -38.2670847 -0.826780E-05  0.139E-02    1.53       1.3  T
   8    -38.2670849 -0.289005E-06  0.612E-03    1.53       2.9  T
   9    -38.2670854 -0.411901E-06  0.317E-03    1.53       5.7  T
  10    -38.2670854 -0.246022E-07  0.145E-03    1.53      12.4  T
  11    -38.2670854 -0.488591E-08  0.490E-04    1.53      36.7  T
  12    -38.2670854 -0.716113E-09  0.264E-04    1.53      68.0  T
     SCC iter.                  ...        0 min,  0.632 sec
     gradient                   ...        0 min,  0.040 sec
 * total energy  :   -37.6552088 Eh     change        0.3869920E-02 Eh
   gradient norm :     0.0889308 Eh/α   predicted    -0.1220130E-01 (-415.29%)
   displ. norm   :     0.5055072 α      lambda       -0.3163854E-01
   maximum displ.:     0.2720670 α      in ANC's #1, #14, #9, ...

........................................................................
.............................. CYCLE    6 ..............................
........................................................................
   1    -38.2821734 -0.382822E+02  0.638E-01    1.87       0.0  T
   2    -38.2829243 -0.750934E-03  0.572E-01    1.91       1.0  T
   3    -38.2830600 -0.135733E-03  0.394E-01    1.90       1.0  T
   4    -38.2829236  0.136421E-03  0.144E-01    1.90       1.0  T
   5    -38.2832767 -0.353127E-03  0.958E-02    1.89       1.0  T
   6    -38.2832918 -0.150723E-04  0.247E-02    1.90       1.0  T
   7    -38.2832938 -0.203564E-05  0.131E-02    1.90       1.4  T
   8    -38.2832944 -0.578544E-06  0.504E-03    1.90       3.6  T
   9    -38.2832947 -0.273364E-06  0.301E-03    1.90       6.0  T
  10    -38.2832947 -0.317848E-07  0.139E-03    1.90      12.9  T
  11    -38.2832947 -0.824119E-08  0.402E-04    1.90      44.6  T
  12    -38.2832947 -0.230621E-09  0.175E-04    1.90     102.7  T
     SCC iter.                  ...        0 min,  0.653 sec
     gradient                   ...        0 min,  0.132 sec
 * total energy  :   -37.6640693 Eh     change       -0.8860465E-02 Eh
   gradient norm :     0.0604416 Eh/α   predicted    -0.1986172E-01 ( 124.16%)
   displ. norm   :     0.3941984 α      lambda       -0.1583462E-01
   maximum displ.:     0.2088907 α      in ANC's #2, #24, #29, ...

........................................................................
.............................. CYCLE    7 ..............................
........................................................................
   1    -38.2856818 -0.382857E+02  0.514E-01    1.70       0.0  T
   2    -38.2860638 -0.381966E-03  0.450E-01    1.65       1.0  T
   3    -38.2861390 -0.751494E-04  0.297E-01    1.64       1.0  T
   4    -38.2860056  0.133338E-03  0.105E-01    1.65       1.0  T
   5    -38.2862362 -0.230538E-03  0.838E-02    1.63       1.0  T
   6    -38.2862488 -0.125982E-04  0.307E-02    1.65       1.0  T
   7    -38.2862510 -0.220789E-05  0.104E-02    1.65       1.7  T
   8    -38.2862512 -0.255445E-06  0.352E-03    1.65       5.1  T
   9    -38.2862514 -0.136872E-06  0.159E-03    1.65      11.3  T
  10    -38.2862514 -0.286013E-07  0.814E-04    1.65      22.1  T
  11    -38.2862514 -0.129526E-08  0.399E-04    1.65      45.0  T
     SCC iter.                  ...        0 min,  0.369 sec
     gradient                   ...        0 min,  0.026 sec
 * total energy  :   -37.6679082 Eh     change       -0.3838919E-02 Eh
   gradient norm :     0.0484202 Eh/α   predicted    -0.9147593E-02 ( 138.29%)
   displ. norm   :     0.3979898 α      lambda       -0.8204641E-02
   maximum displ.:     0.1791997 α      in ANC's #9, #3, #11, ...

........................................................................
.............................. CYCLE    8 ..............................
........................................................................
   1    -38.2886159 -0.382886E+02  0.324E-01    1.68       0.0  T
   2    -38.2887250 -0.109102E-03  0.262E-01    1.69       1.0  T
   3    -38.2887099  0.150468E-04  0.133E-01    1.70       1.0  T
   4    -38.2887210 -0.111062E-04  0.642E-02    1.69       1.0  T
   5    -38.2887729 -0.519068E-04  0.315E-02    1.70       1.0  T
   6    -38.2887739 -0.943858E-06  0.152E-02    1.69       1.2  T
   7    -38.2887752 -0.130093E-05  0.516E-03    1.69       3.5  T
   8    -38.2887752 -0.387092E-07  0.259E-03    1.69       6.9  T
   9    -38.2887753 -0.469636E-07  0.181E-03    1.70       9.9  T
  10    -38.2887753 -0.440424E-08  0.877E-04    1.70      20.5  T
  11    -38.2887753 -0.579142E-09  0.309E-04    1.70      58.1  T
     SCC iter.                  ...        0 min,  0.324 sec
     gradient                   ...        0 min,  0.048 sec
 * total energy  :   -37.6730749 Eh     change       -0.5166647E-02 Eh
   gradient norm :     0.0198203 Eh/α   predicted    -0.4752115E-02 (  -8.02%)
   displ. norm   :     0.5603343 α      lambda       -0.3767243E-02
   maximum displ.:     0.2692258 α      in ANC's #9, #3, #11, ...

........................................................................
.............................. CYCLE    9 ..............................
........................................................................
   1    -38.2913678 -0.382914E+02  0.243E-01    1.77       0.0  T
   2    -38.2914147 -0.468604E-04  0.132E-01    1.74       1.0  T
   3    -38.2913997  0.149449E-04  0.943E-02    1.77       1.0  T
   4    -38.2914462 -0.464928E-04  0.299E-02    1.76       1.0  T
   5    -38.2914489 -0.269321E-05  0.211E-02    1.76       1.0  T
   6    -38.2914502 -0.131313E-05  0.116E-02    1.76       1.6  T
   7    -38.2914507 -0.442137E-06  0.483E-03    1.76       3.7  T
   8    -38.2914508 -0.949341E-07  0.255E-03    1.76       7.1  T
   9    -38.2914508 -0.271673E-07  0.877E-04    1.76      20.5  T
  10    -38.2914508 -0.172733E-08  0.424E-04    1.76      42.3  T
     SCC iter.                  ...        0 min,  0.261 sec
     gradient                   ...        0 min,  0.021 sec
 * total energy  :   -37.6758389 Eh     change       -0.2764055E-02 Eh
   gradient norm :     0.0198238 Eh/α   predicted    -0.2475036E-02 ( -10.46%)
   displ. norm   :     0.6333945 α      lambda       -0.3799665E-02
   maximum displ.:     0.2818808 α      in ANC's #9, #11, #3, ...

........................................................................
.............................. CYCLE   10 ..............................
........................................................................
   1    -38.3004558 -0.383005E+02  0.239E-01    1.81       0.0  T
   2    -38.3005028 -0.470671E-04  0.147E-01    1.79       1.0  T
   3    -38.3004790  0.238665E-04  0.889E-02    1.81       1.0  T
   4    -38.3005294 -0.504342E-04  0.321E-02    1.81       1.0  T
   5    -38.3005332 -0.374931E-05  0.275E-02    1.80       1.0  T
   6    -38.3005364 -0.327536E-05  0.552E-03    1.81       3.3  T
   7    -38.3005364 -0.103732E-07  0.421E-03    1.80       4.3  T
   8    -38.3005365 -0.796690E-07  0.195E-03    1.81       9.2  T
   9    -38.3005365 -0.166202E-07  0.106E-03    1.81      17.0  T
  10    -38.3005365 -0.191243E-08  0.352E-04    1.81      51.1  T
  11    -38.3005365 -0.169145E-09  0.162E-04    1.81     110.6  T
     SCC iter.                  ...        0 min,  0.271 sec
     gradient                   ...        0 min,  0.015 sec
 * total energy  :   -37.6782557 Eh     change       -0.2416747E-02 Eh
   gradient norm :     0.0209383 Eh/α   predicted    -0.2662024E-02 (  10.15%)
   displ. norm   :     0.6281527 α      lambda       -0.3078674E-02
   maximum displ.:     0.3338688 α      in ANC's #9, #3, #11, ...

........................................................................
.............................. CYCLE   11 ..............................
........................................................................
   1    -38.2942247 -0.382942E+02  0.294E-01    1.76       0.0  T
   2    -38.2942795 -0.547604E-04  0.207E-01    1.78       1.0  T
   3    -38.2940807  0.198755E-03  0.103E-01    1.75       1.0  T
   4    -38.2943321 -0.251384E-03  0.266E-02    1.77       1.0  T
   5    -38.2943324 -0.287543E-06  0.194E-02    1.77       1.0  T
   6    -38.2943333 -0.923670E-06  0.599E-03    1.77       3.0  T
   7    -38.2943337 -0.422040E-06  0.379E-03    1.77       4.7  T
   8    -38.2943338 -0.528213E-07  0.177E-03    1.77      10.1  T
   9    -38.2943338 -0.241021E-07  0.113E-03    1.77      15.8  T
  10    -38.2943338 -0.202777E-08  0.500E-04    1.77      35.9  T
  11    -38.2943338 -0.298883E-09  0.141E-04    1.77     127.7  T
     SCC iter.                  ...        0 min,  0.278 sec
     gradient                   ...        0 min,  0.066 sec
 * total energy  :   -37.6804140 Eh     change       -0.2158304E-02 Eh
   gradient norm :     0.0165903 Eh/α   predicted    -0.2146728E-02 (  -0.54%)
   displ. norm   :     0.6013160 α      lambda       -0.2831885E-02
   maximum displ.:     0.2911766 α      in ANC's #12, #11, #7, ...

........................................................................
.............................. CYCLE   12 ..............................
........................................................................
   1    -38.2998711 -0.382999E+02  0.227E-01    1.77       0.0  T
   2    -38.2999044 -0.333568E-04  0.134E-01    1.77       1.0  T
   3    -38.2998706  0.338455E-04  0.824E-02    1.77       1.0  T
   4    -38.2999236 -0.530522E-04  0.213E-02    1.77       1.0  T
   5    -38.2999225  0.108493E-05  0.146E-02    1.77       1.2  T
   6    -38.2999245 -0.195289E-05  0.359E-03    1.77       5.0  T
   7    -38.2999245 -0.440565E-07  0.201E-03    1.77       8.9  T
   8    -38.2999246 -0.105766E-07  0.859E-04    1.77      20.9  T
   9    -38.2999246 -0.779142E-08  0.592E-04    1.77      30.3  T
     SCC iter.                  ...        0 min,  0.225 sec
     gradient                   ...        0 min,  0.009 sec
 * total energy  :   -37.6821777 Eh     change       -0.1763727E-02 Eh
   gradient norm :     0.0214641 Eh/α   predicted    -0.1927921E-02 (   9.31%)
   displ. norm   :     0.6016902 α      lambda       -0.2384363E-02
   maximum displ.:     0.2839193 α      in ANC's #12, #9, #11, ...

........................................................................
.............................. CYCLE   13 ..............................
........................................................................
   1    -38.3018081 -0.383018E+02  0.268E-01    1.80       0.0  T
   2    -38.3018370 -0.288708E-04  0.176E-01    1.79       1.0  T
   3    -38.3017608  0.762434E-04  0.662E-02    1.80       1.0  T
   4    -38.3018548 -0.940604E-04  0.227E-02    1.80       1.0  T
   5    -38.3018563 -0.148267E-05  0.168E-02    1.79       1.1  T
   6    -38.3018575 -0.117802E-05  0.429E-03    1.79       4.2  T
   7    -38.3018575  0.108959E-07  0.287E-03    1.79       6.2  T
   8    -38.3018575 -0.581570E-07  0.143E-03    1.79      12.5  T
   9    -38.3018575 -0.595396E-08  0.696E-04    1.79      25.8  T
  10    -38.3018575 -0.789640E-09  0.339E-04    1.79      53.0  T
     SCC iter.                  ...        0 min,  0.259 sec
     gradient                   ...        0 min,  0.006 sec
 * total energy  :   -37.6838891 Eh     change       -0.1711414E-02 Eh
   gradient norm :     0.0148714 Eh/α   predicted    -0.1623791E-02 (  -5.12%)
   displ. norm   :     0.6023212 α      lambda       -0.1782603E-02
   maximum displ.:     0.2867204 α      in ANC's #12, #9, #6, ...

........................................................................
.............................. CYCLE   14 ..............................
........................................................................
   1    -38.3035136 -0.383035E+02  0.288E-01    1.81       0.0  T
   2    -38.3035455 -0.319161E-04  0.196E-01    1.81       1.0  T
   3    -38.3034466  0.989577E-04  0.671E-02    1.80       1.0  T
   4    -38.3035669 -0.120338E-03  0.243E-02    1.81       1.0  T
   5    -38.3035673 -0.357524E-06  0.172E-02    1.80       1.0  T
   6    -38.3035692 -0.197637E-05  0.458E-03    1.80       3.9  T
   7    -38.3035693 -0.194464E-07  0.249E-03    1.81       7.2  T
   8    -38.3035693 -0.351974E-07  0.138E-03    1.81      13.0  T
   9    -38.3035693 -0.103796E-07  0.729E-04    1.81      24.6  T
  10    -38.3035693 -0.136902E-08  0.267E-04    1.81      67.2  T
     SCC iter.                  ...        0 min,  0.291 sec
     gradient                   ...        0 min,  0.008 sec
 * total energy  :   -37.6850057 Eh     change       -0.1116553E-02 Eh
   gradient norm :     0.0169459 Eh/α   predicted    -0.1214661E-02 (   8.79%)
   displ. norm   :     0.4996680 α      lambda       -0.1444902E-02
   maximum displ.:     0.2572842 α      in ANC's #12, #6, #9, ...

........................................................................
.............................. CYCLE   15 ..............................
........................................................................
   1    -38.3063601 -0.383064E+02  0.244E-01    1.81       0.0  T
   2    -38.3063741 -0.139912E-04  0.153E-01    1.81       1.0  T
   3    -38.3063571  0.169820E-04  0.457E-02    1.81       1.0  T
   4    -38.3063806 -0.234996E-04  0.159E-02    1.81       1.1  T
   5    -38.3063808 -0.139788E-06  0.710E-03    1.81       2.5  T
   6    -38.3063809 -0.153098E-06  0.291E-03    1.81       6.2  T
   7    -38.3063810 -0.777625E-07  0.144E-03    1.81      12.4  T
   8    -38.3063810 -0.186188E-08  0.762E-04    1.81      23.6  T
   9    -38.3063810 -0.216185E-08  0.434E-04    1.81      41.3  T
     SCC iter.                  ...        0 min,  0.442 sec
     gradient                   ...        0 min,  0.087 sec
 * total energy  :   -37.6857628 Eh     change       -0.7571577E-03 Eh
   gradient norm :     0.0163175 Eh/α   predicted    -0.9028259E-03 (  19.24%)
   displ. norm   :     0.3321112 α      lambda       -0.9590063E-03
   maximum displ.:     0.1921365 α      in ANC's #12, #6, #7, ...

........................................................................
.............................. CYCLE   16 ..............................
........................................................................
   1    -38.3122658 -0.383123E+02  0.188E-01    1.80       0.0  T
   2    -38.3122739 -0.803535E-05  0.120E-01    1.80       1.0  T
   3    -38.3122507  0.231278E-04  0.359E-02    1.80       1.0  T
   4    -38.3122779 -0.271487E-04  0.118E-02    1.80       1.5  T
   5    -38.3122781 -0.259880E-06  0.622E-03    1.80       2.9  T
   6    -38.3122782 -0.901857E-07  0.259E-03    1.80       6.9  T
   7    -38.3122783 -0.767412E-07  0.898E-04    1.80      20.0  T
   8    -38.3122783 -0.350719E-08  0.463E-04    1.80      38.8  T
     SCC iter.                  ...        0 min,  0.226 sec
     gradient                   ...        0 min,  0.063 sec
 * total energy  :   -37.6860792 Eh     change       -0.3164179E-03 Eh
   gradient norm :     0.0120953 Eh/α   predicted    -0.5323920E-03 (  68.26%)
   displ. norm   :     0.2556151 α      lambda       -0.6615313E-03
   maximum displ.:     0.1317859 α      in ANC's #12, #9, #2, ...

........................................................................
.............................. CYCLE   17 ..............................
........................................................................
   1    -38.3093131 -0.383093E+02  0.184E-01    1.80       0.0  T
   2    -38.3093348 -0.216450E-04  0.129E-01    1.80       1.0  T
   3    -38.3093026  0.321491E-04  0.505E-02    1.79       1.0  T
   4    -38.3093458 -0.431286E-04  0.142E-02    1.79       1.3  T
   5    -38.3093458 -0.758611E-07  0.757E-03    1.79       2.4  T
   6    -38.3093464 -0.538746E-06  0.263E-03    1.79       6.8  T
   7    -38.3093464 -0.364696E-07  0.130E-03    1.79      13.8  T
   8    -38.3093464  0.498396E-09  0.967E-04    1.79      18.6  T
   9    -38.3093464 -0.447380E-08  0.456E-04    1.79      39.4  T
     SCC iter.                  ...        0 min,  0.231 sec
     gradient                   ...        0 min,  0.065 sec
 * total energy  :   -37.6862976 Eh     change       -0.2183270E-03 Eh
   gradient norm :     0.0093892 Eh/α   predicted    -0.3523836E-03 (  61.40%)
   displ. norm   :     0.0603828 α      lambda       -0.2237522E-03
   maximum displ.:     0.0284665 α      in ANC's #12, #6, #3, ...

........................................................................
.............................. CYCLE   18 ..............................
........................................................................
   1    -38.3087016 -0.383087E+02  0.491E-02    1.79       0.0  T
   2    -38.3087048 -0.319679E-05  0.326E-02    1.79       1.0  T
   3    -38.3087032  0.156370E-05  0.168E-02    1.79       1.1  T
   4    -38.3087065 -0.331526E-05  0.630E-03    1.79       2.8  T
   5    -38.3087066 -0.920248E-07  0.427E-03    1.79       4.2  T
   6    -38.3087067 -0.834235E-07  0.151E-03    1.79      11.9  T
   7    -38.3087067 -0.109570E-07  0.547E-04    1.79      32.9  T
   8    -38.3087067 -0.117194E-08  0.389E-04    1.79      46.1  T
     SCC iter.                  ...        0 min,  0.204 sec
     gradient                   ...        0 min,  0.071 sec
 * total energy  :   -37.6863838 Eh     change       -0.8627446E-04 Eh
   gradient norm :     0.0049536 Eh/α   predicted    -0.1122828E-03 (  30.15%)
   displ. norm   :     0.0773545 α      lambda       -0.1133443E-03
   maximum displ.:     0.0427019 α      in ANC's #11, #9, #10, ...

........................................................................
.............................. CYCLE   19 ..............................
........................................................................
   1    -38.3120261 -0.383120E+02  0.653E-02    1.79       0.0  T
   2    -38.3120288 -0.268910E-05  0.429E-02    1.79       1.0  T
   3    -38.3120255  0.336194E-05  0.178E-02    1.79       1.0  T
   4    -38.3120298 -0.439835E-05  0.475E-03    1.79       3.8  T
   5    -38.3120299 -0.913745E-07  0.295E-03    1.79       6.1  T
   6    -38.3120300 -0.363746E-07  0.112E-03    1.79      16.1  T
   7    -38.3120300 -0.104206E-07  0.403E-04    1.79      44.6  T
   8    -38.3120300 -0.208658E-09  0.255E-04    1.79      70.5  T
     SCC iter.                  ...        0 min,  0.163 sec
     gradient                   ...        0 min,  0.058 sec
 * total energy  :   -37.6864050 Eh     change       -0.2116197E-04 Eh
   gradient norm :     0.0055841 Eh/α   predicted    -0.5701563E-04 ( 169.42%)
   displ. norm   :     0.0763796 α      lambda       -0.8807428E-04
   maximum displ.:     0.0434377 α      in ANC's #12, #9, #3, ...

........................................................................
.............................. CYCLE   20 ..............................
........................................................................
   1    -38.3094998 -0.383095E+02  0.439E-02    1.79       0.0  T
   2    -38.3095013 -0.157723E-05  0.286E-02    1.79       1.0  T
   3    -38.3094997  0.163336E-05  0.143E-02    1.79       1.3  T
   4    -38.3095022 -0.247632E-05  0.367E-03    1.79       4.9  T
   5    -38.3095022 -0.298919E-07  0.267E-03    1.79       6.7  T
   6    -38.3095023 -0.335184E-07  0.765E-04    1.79      23.5  T
   7    -38.3095023 -0.635076E-08  0.331E-04    1.79      54.3  T
     SCC iter.                  ...        0 min,  0.129 sec
     gradient                   ...        0 min,  0.070 sec
 * total energy  :   -37.6864456 Eh     change       -0.4063429E-04 Eh
   gradient norm :     0.0030920 Eh/α   predicted    -0.4429765E-04 (   9.02%)
   displ. norm   :     0.0435810 α      lambda       -0.4098058E-04
   maximum displ.:     0.0210730 α      in ANC's #11, #4, #7, ...
 * RMSD in coord.:     1.1875484 α      energy gain  -0.1133833E+00 Eh

generating ANC from model Hessian ...
Using Lindh-Hessian (1995)
 Shifting diagonal of input Hessian by    9.7268427065904939E-003
 Lowest  eigenvalues of input Hessian
    0.000000    0.000000    0.000000    0.000000    0.000000    0.000000
    0.010000    0.010139    0.010416    0.010700    0.010849    0.011047
    0.011562    0.012227    0.017517    0.017779    0.018161    0.018594
 Highest eigenvalues
    1.665136    1.667040    1.715348    1.717193    1.723359    1.725765


........................................................................
.............................. CYCLE   21 ..............................
........................................................................
   1    -38.3100842 -0.383101E+02  0.305E-02    1.79       0.0  T
   2    -38.3100854 -0.121352E-05  0.197E-02    1.79       1.0  T
   3    -38.3100850  0.333652E-06  0.110E-02    1.79       1.6  T
   4    -38.3100859 -0.837139E-06  0.246E-03    1.79       7.3  T
   5    -38.3100859 -0.120255E-07  0.134E-03    1.79      13.4  T
   6    -38.3100859 -0.153333E-07  0.458E-04    1.79      39.2  T
   7    -38.3100859 -0.931230E-09  0.180E-04    1.79     100.0  T
     SCC iter.                  ...        0 min,  0.151 sec
     gradient                   ...        0 min,  0.079 sec
 * total energy  :   -37.6864639 Eh     change       -0.1831323E-04 Eh
   gradient norm :     0.0024021 Eh/α   predicted     0.0000000E+00 (-100.00%)
   displ. norm   :     0.0343456 α      lambda       -0.2267943E-04
   maximum displ.:     0.0194187 α      in ANC's #5, #1, #6, ...

........................................................................
.............................. CYCLE   22 ..............................
........................................................................
   1    -38.3099820 -0.383100E+02  0.286E-02    1.79       0.0  T
   2    -38.3099822 -0.179075E-06  0.191E-02    1.79       1.0  T
   3    -38.3099819  0.292351E-06  0.449E-03    1.79       4.0  T
   4    -38.3099823 -0.370560E-06  0.162E-03    1.79      11.1  T
   5    -38.3099823 -0.332611E-08  0.794E-04    1.79      22.6  T
   6    -38.3099823 -0.151977E-08  0.352E-04    1.79      51.1  T
     SCC iter.                  ...        0 min,  0.075 sec
     gradient                   ...        0 min,  0.005 sec
 * total energy  :   -37.6864815 Eh     change       -0.1756164E-04 Eh
   gradient norm :     0.0009184 Eh/α   predicted    -0.1154879E-04 ( -34.24%)
   displ. norm   :     0.1061471 α      lambda       -0.2608252E-04
   maximum displ.:     0.0667709 α      in ANC's #5, #1, #8, ...

........................................................................
.............................. CYCLE   23 ..............................
........................................................................
   1    -38.3098121 -0.383098E+02  0.675E-02    1.79       0.0  T
   2    -38.3098126 -0.581290E-06  0.444E-02    1.79       1.0  T
   3    -38.3098118  0.831995E-06  0.861E-03    1.79       2.1  T
   4    -38.3098130 -0.115438E-05  0.359E-03    1.79       5.0  T
   5    -38.3098130 -0.510084E-08  0.155E-03    1.79      11.6  T
   6    -38.3098130 -0.852915E-08  0.741E-04    1.79      24.2  T
   7    -38.3098130 -0.471655E-08  0.343E-04    1.79      52.4  T
     SCC iter.                  ...        0 min,  0.153 sec
     gradient                   ...        0 min,  0.081 sec
 * total energy  :   -37.6865057 Eh     change       -0.2417629E-04 Eh
   gradient norm :     0.0022973 Eh/α   predicted    -0.1310802E-04 ( -45.78%)
   displ. norm   :     0.0549387 α      lambda       -0.1590137E-04
   maximum displ.:     0.0352525 α      in ANC's #5, #1, #8, ...

........................................................................
.............................. CYCLE   24 ..............................
........................................................................
   1    -38.3098295 -0.383098E+02  0.244E-02    1.79       0.0  T
   2    -38.3098295 -0.702153E-07  0.157E-02    1.79       1.1  T
   3    -38.3098294  0.137554E-06  0.349E-03    1.79       5.1  T
   4    -38.3098296 -0.178964E-06  0.139E-03    1.79      12.9  T
   5    -38.3098296  0.117031E-08  0.576E-04    1.79      31.2  T
   6    -38.3098296 -0.375133E-08  0.211E-04    1.79      85.1  T
     SCC iter.                  ...        0 min,  0.155 sec
     gradient                   ...        0 min,  0.013 sec
 * total energy  :   -37.6865208 Eh     change       -0.1514168E-04 Eh
   gradient norm :     0.0021136 Eh/α   predicted    -0.7975141E-05 ( -47.33%)
   displ. norm   :     0.1298240 α      lambda       -0.4146253E-04
   maximum displ.:     0.0820098 α      in ANC's #1, #5, #8, ...

........................................................................
.............................. CYCLE   25 ..............................
........................................................................
   1    -38.3098008 -0.383098E+02  0.470E-02    1.79       0.0  T
   2    -38.3098011 -0.357682E-06  0.301E-02    1.79       1.0  T
   3    -38.3098004  0.731431E-06  0.859E-03    1.79       2.1  T
   4    -38.3098013 -0.913394E-06  0.282E-03    1.79       6.4  T
   5    -38.3098013  0.534510E-08  0.133E-03    1.79      13.5  T
   6    -38.3098013 -0.191396E-07  0.458E-04    1.79      39.2  T
   7    -38.3098013 -0.164713E-08  0.239E-04    1.79      75.0  T
     SCC iter.                  ...        0 min,  0.158 sec
     gradient                   ...        0 min,  0.005 sec
 * total energy  :   -37.6865582 Eh     change       -0.3734253E-04 Eh
   gradient norm :     0.0009964 Eh/α   predicted    -0.2108265E-04 ( -43.54%)
   displ. norm   :     0.3816360 α      lambda       -0.6909185E-04
   maximum displ.:     0.2428260 α      in ANC's #1, #5, #8, ...

........................................................................
.............................. CYCLE   26 ..............................
........................................................................
   1    -38.3082583 -0.383083E+02  0.126E-01    1.79       0.0  T
   2    -38.3082606 -0.236708E-05  0.805E-02    1.80       1.0  T
   3    -38.3082574  0.327870E-05  0.226E-02    1.79       1.0  T
   4    -38.3082617 -0.438119E-05  0.783E-03    1.79       2.3  T
   5    -38.3082617  0.603551E-07  0.331E-03    1.79       5.4  T
   6    -38.3082618 -0.101091E-06  0.143E-03    1.79      12.6  T
   7    -38.3082618 -0.235204E-07  0.654E-04    1.79      27.4  T
   8    -38.3082618 -0.689859E-09  0.327E-04    1.79      54.9  T
     SCC iter.                  ...        0 min,  0.204 sec
     gradient                   ...        0 min,  0.085 sec
 * total energy  :   -37.6866304 Eh     change       -0.7225871E-04 Eh
   gradient norm :     0.0039739 Eh/α   predicted    -0.3678223E-04 ( -49.10%)
   displ. norm   :     0.1715903 α      lambda       -0.4792145E-04
   maximum displ.:     0.1147420 α      in ANC's #1, #5, #8, ...

........................................................................
.............................. CYCLE   27 ..............................
........................................................................
   1    -38.3083722 -0.383084E+02  0.445E-02    1.79       0.0  T
   2    -38.3083724 -0.220241E-06  0.282E-02    1.80       1.0  T
   3    -38.3083722  0.211127E-06  0.589E-03    1.79       3.0  T
   4    -38.3083725 -0.303499E-06  0.253E-03    1.79       7.1  T
   5    -38.3083725  0.385746E-08  0.980E-04    1.79      18.3  T
   6    -38.3083725 -0.101469E-07  0.433E-04    1.79      41.5  T
     SCC iter.                  ...        0 min,  0.137 sec
     gradient                   ...        0 min,  0.082 sec
 * total energy  :   -37.6866728 Eh     change       -0.4234784E-04 Eh
   gradient norm :     0.0041610 Eh/α   predicted    -0.2471350E-04 ( -41.64%)
   displ. norm   :     0.3076650 α      lambda       -0.1089686E-03
   maximum displ.:     0.2088701 α      in ANC's #1, #5, #8, ...

........................................................................
.............................. CYCLE   28 ..............................
........................................................................
   1    -38.3091670 -0.383092E+02  0.675E-02    1.79       0.0  T
   2    -38.3091675 -0.502769E-06  0.423E-02    1.80       1.0  T
   3    -38.3091671  0.478319E-06  0.815E-03    1.79       2.2  T
   4    -38.3091677 -0.656019E-06  0.383E-03    1.80       4.7  T
   5    -38.3091677 -0.314394E-08  0.118E-03    1.79      15.3  T
   6    -38.3091677 -0.868083E-08  0.583E-04    1.80      30.8  T
   7    -38.3091677 -0.382709E-08  0.287E-04    1.79      62.5  T
     SCC iter.                  ...        0 min,  0.122 sec
     gradient                   ...        0 min,  0.005 sec
 * total energy  :   -37.6867640 Eh     change       -0.9118271E-04 Eh
   gradient norm :     0.0031473 Eh/α   predicted    -0.5964511E-04 ( -34.59%)
   displ. norm   :     0.4891713 α      lambda       -0.1393781E-03
   maximum displ.:     0.3308445 α      in ANC's #1, #5, #8, ...

........................................................................
.............................. CYCLE   29 ..............................
........................................................................
   1    -38.3073573 -0.383074E+02  0.107E-01    1.79       0.0  T
   2    -38.3073591 -0.180455E-05  0.671E-02    1.80       1.0  T
   3    -38.3073566  0.242497E-05  0.151E-02    1.79       1.2  T
   4    -38.3073596 -0.292736E-05  0.648E-03    1.80       2.8  T
   5    -38.3073596 -0.165721E-07  0.309E-03    1.79       5.8  T
   6    -38.3073596 -0.420489E-07  0.119E-03    1.80      15.1  T
   7    -38.3073596 -0.258956E-07  0.413E-04    1.80      43.4  T
   8    -38.3073596 -0.619721E-09  0.224E-04    1.80      80.1  T
     SCC iter.                  ...        0 min,  0.031 sec
     gradient                   ...        0 min,  0.005 sec
 * total energy  :   -37.6868617 Eh     change       -0.9774527E-04 Eh
   gradient norm :     0.0044739 Eh/α   predicted    -0.8636907E-04 ( -11.64%)
   displ. norm   :     0.3481969 α      lambda       -0.1753420E-03
   maximum displ.:     0.2411526 α      in ANC's #1, #5, #6, ...

........................................................................
.............................. CYCLE   30 ..............................
........................................................................
   1    -38.3097624 -0.383098E+02  0.874E-02    1.80       0.0  T
   2    -38.3097643 -0.193563E-05  0.525E-02    1.80       1.0  T
   3    -38.3097616  0.268611E-05  0.180E-02    1.80       1.0  T
   4    -38.3097652 -0.351658E-05  0.744E-03    1.80       2.4  T
   5    -38.3097651  0.682796E-07  0.473E-03    1.80       3.8  T
   6    -38.3097652 -0.826114E-07  0.177E-03    1.80      10.2  T
   7    -38.3097652 -0.239867E-07  0.638E-04    1.80      28.1  T
   8    -38.3097652 -0.130161E-08  0.263E-04    1.80      68.3  T
     SCC iter.                  ...        0 min,  0.024 sec
     gradient                   ...        0 min,  0.010 sec
 * total energy  :   -37.6869717 Eh     change       -0.1100313E-03 Eh
   gradient norm :     0.0032895 Eh/α   predicted    -0.9830050E-04 ( -10.66%)
   displ. norm   :     0.4887893 α      lambda       -0.1096855E-03
   maximum displ.:     0.3398792 α      in ANC's #1, #5, #8, ...

........................................................................
.............................. CYCLE   31 ..............................
........................................................................
   1    -38.3063704 -0.383064E+02  0.109E-01    1.79       0.0  T
   2    -38.3063743 -0.392237E-05  0.711E-02    1.80       1.0  T
   3    -38.3063678  0.653641E-05  0.184E-02    1.79       1.0  T
   4    -38.3063751 -0.729350E-05  0.761E-03    1.80       2.4  T
   5    -38.3063755 -0.406578E-06  0.375E-03    1.79       4.8  T
   6    -38.3063755  0.254247E-07  0.145E-03    1.79      12.4  T
   7    -38.3063755 -0.386784E-07  0.442E-04    1.79      40.6  T
   8    -38.3063755 -0.441865E-09  0.201E-04    1.79      89.3  T
     SCC iter.                  ...        0 min,  0.023 sec
     gradient                   ...        0 min,  0.007 sec
 * total energy  :   -37.6870168 Eh     change       -0.4504572E-04 Eh
   gradient norm :     0.0058056 Eh/α   predicted    -0.6794675E-04 (  50.84%)
   displ. norm   :     0.1118616 α      lambda       -0.1362584E-03
   maximum displ.:     0.0674065 α      in ANC's #3, #1, #6, ...

........................................................................
.............................. CYCLE   32 ..............................
........................................................................
   1    -38.3100923 -0.383101E+02  0.498E-02    1.79       0.0  T
   2    -38.3100930 -0.748541E-06  0.312E-02    1.79       1.0  T
   3    -38.3100921  0.881272E-06  0.102E-02    1.79       1.8  T
   4    -38.3100933 -0.119054E-05  0.434E-03    1.79       4.1  T
   5    -38.3100933  0.376792E-07  0.248E-03    1.79       7.2  T
   6    -38.3100933 -0.468015E-07  0.104E-03    1.79      17.2  T
   7    -38.3100933 -0.847098E-08  0.427E-04    1.79      42.1  T
   8    -38.3100933 -0.554579E-09  0.181E-04    1.79      99.5  T
     SCC iter.                  ...        0 min,  0.034 sec
     gradient                   ...        0 min,  0.006 sec
 * total energy  :   -37.6871062 Eh     change       -0.8937490E-04 Eh
   gradient norm :     0.0029812 Eh/α   predicted    -0.6898341E-04 ( -22.82%)
   displ. norm   :     0.3603182 α      lambda       -0.1025054E-03
   maximum displ.:     0.2510411 α      in ANC's #1, #3, #8, ...

........................................................................
.............................. CYCLE   33 ..............................
........................................................................
   1    -38.3103709 -0.383104E+02  0.926E-02    1.79       0.0  T
   2    -38.3103725 -0.165682E-05  0.600E-02    1.80       1.0  T
   3    -38.3103680  0.450056E-05  0.134E-02    1.79       1.3  T
   4    -38.3103730 -0.501017E-05  0.506E-03    1.80       3.6  T
   5    -38.3103732 -0.153675E-06  0.231E-03    1.79       7.8  T
   6    -38.3103732 -0.225804E-07  0.108E-03    1.79      16.6  T
   7    -38.3103732 -0.894089E-08  0.406E-04    1.79      44.2  T
   8    -38.3103732 -0.135820E-09  0.218E-04    1.79      82.5  T
     SCC iter.                  ...        0 min,  0.035 sec
     gradient                   ...        0 min,  0.008 sec
 * total energy  :   -37.6871910 Eh     change       -0.8484119E-04 Eh
   gradient norm :     0.0022064 Eh/α   predicted    -0.5791766E-04 ( -31.73%)
   displ. norm   :     0.4672955 α      lambda       -0.1029765E-03
   maximum displ.:     0.3264235 α      in ANC's #1, #3, #8, ...

........................................................................
.............................. CYCLE   34 ..............................
........................................................................
   1    -38.3085882 -0.383086E+02  0.113E-01    1.79       0.0  T
   2    -38.3085908 -0.262943E-05  0.736E-02    1.80       1.0  T
   3    -38.3085850  0.578376E-05  0.157E-02    1.79       1.1  T
   4    -38.3085914 -0.635114E-05  0.670E-03    1.80       2.7  T
   5    -38.3085916 -0.292211E-06  0.290E-03    1.80       6.2  T
   6    -38.3085916 -0.202875E-08  0.128E-03    1.80      14.0  T
   7    -38.3085917 -0.237816E-07  0.373E-04    1.80      48.2  T
   8    -38.3085917 -0.171347E-09  0.203E-04    1.80      88.4  T
     SCC iter.                  ...        0 min,  0.028 sec
     gradient                   ...        0 min,  0.006 sec
 * total energy  :   -37.6872619 Eh     change       -0.7088270E-04 Eh
   gradient norm :     0.0029127 Eh/α   predicted    -0.6273470E-04 ( -11.50%)
   displ. norm   :     0.2407704 α      lambda       -0.8149462E-04
   maximum displ.:     0.1492766 α      in ANC's #1, #3, #8, ...

........................................................................
.............................. CYCLE   35 ..............................
........................................................................
   1    -38.3104280 -0.383104E+02  0.607E-02    1.80       0.0  T
   2    -38.3104286 -0.602202E-06  0.383E-02    1.80       1.0  T
   3    -38.3104277  0.926733E-06  0.855E-03    1.80       2.1  T
   4    -38.3104289 -0.114831E-05  0.330E-03    1.80       5.4  T
   5    -38.3104289 -0.191962E-07  0.154E-03    1.80      11.7  T
   6    -38.3104289 -0.795083E-08  0.587E-04    1.80      30.6  T
   7    -38.3104289 -0.419666E-08  0.257E-04    1.80      70.0  T
     SCC iter.                  ...        0 min,  0.022 sec
     gradient                   ...        0 min,  0.006 sec
 * total energy  :   -37.6873096 Eh     change       -0.4770025E-04 Eh
   gradient norm :     0.0027690 Eh/α   predicted    -0.4311271E-04 (  -9.62%)
   displ. norm   :     0.3067778 α      lambda       -0.4985919E-04
   maximum displ.:     0.2073891 α      in ANC's #1, #3, #8, ...

........................................................................
.............................. CYCLE   36 ..............................
........................................................................
   1    -38.3090696 -0.383091E+02  0.690E-02    1.80       0.0  T
   2    -38.3090708 -0.120950E-05  0.461E-02    1.80       1.0  T
   3    -38.3090692  0.163073E-05  0.103E-02    1.80       1.7  T
   4    -38.3090710 -0.185067E-05  0.514E-03    1.80       3.5  T
   5    -38.3090711 -0.116222E-06  0.256E-03    1.80       7.0  T
   6    -38.3090711  0.108007E-07  0.887E-04    1.80      20.2  T
   7    -38.3090711 -0.179423E-07  0.259E-04    1.80      69.3  T
     SCC iter.                  ...        0 min,  0.025 sec
     gradient                   ...        0 min,  0.004 sec
 * total energy  :   -37.6873451 Eh     change       -0.3548421E-04 Eh
   gradient norm :     0.0025049 Eh/α   predicted    -0.2727611E-04 ( -23.13%)
   displ. norm   :     0.1907843 α      lambda       -0.4230296E-04
   maximum displ.:     0.1165555 α      in ANC's #3, #1, #4, ...

........................................................................
.............................. CYCLE   37 ..............................
........................................................................
   1    -38.3101001 -0.383101E+02  0.412E-02    1.80       0.0  T
   2    -38.3101005 -0.397833E-06  0.272E-02    1.80       1.0  T
   3    -38.3100998  0.712543E-06  0.569E-03    1.80       3.2  T
   4    -38.3101006 -0.848961E-06  0.352E-03    1.80       5.1  T
   5    -38.3101007 -0.412238E-07  0.124E-03    1.80      14.5  T
   6    -38.3101007 -0.270855E-08  0.455E-04    1.80      39.4  T
   7    -38.3101007 -0.278879E-08  0.210E-04    1.80      85.6  T
     SCC iter.                  ...        0 min,  0.023 sec
     gradient                   ...        0 min,  0.006 sec
 * total energy  :   -37.6873734 Eh     change       -0.2836879E-04 Eh
   gradient norm :     0.0017163 Eh/α   predicted    -0.2192522E-04 ( -22.71%)
   displ. norm   :     0.3309351 α      lambda       -0.2982537E-04
   maximum displ.:     0.2045215 α      in ANC's #1, #3, #4, ...

........................................................................
.............................. CYCLE   38 ..............................
........................................................................
   1    -38.3096075 -0.383096E+02  0.788E-02    1.80       0.0  T
   2    -38.3096088 -0.128388E-05  0.528E-02    1.80       1.0  T
   3    -38.3096057  0.304845E-05  0.122E-02    1.80       1.5  T
   4    -38.3096093 -0.351727E-05  0.606E-03    1.80       3.0  T
   5    -38.3096094 -0.114339E-06  0.274E-03    1.80       6.6  T
   6    -38.3096094 -0.168580E-07  0.883E-04    1.80      20.3  T
   7    -38.3096094 -0.139526E-07  0.481E-04    1.80      37.4  T
     SCC iter.                  ...        0 min,  0.028 sec
     gradient                   ...        0 min,  0.004 sec
 * total energy  :   -37.6873904 Eh     change       -0.1692434E-04 Eh
   gradient norm :     0.0025081 Eh/α   predicted    -0.1564112E-04 (  -7.58%)
   displ. norm   :     0.0384681 α      lambda       -0.1483012E-04
   maximum displ.:     0.0311567 α      in ANC's #3, #1, #4, ...

........................................................................
.............................. CYCLE   39 ..............................
........................................................................
   1    -38.3106574 -0.383107E+02  0.167E-02    1.80       0.0  T
   2    -38.3106576 -0.182981E-06  0.968E-03    1.80       1.9  T
   3    -38.3106576  0.484843E-07  0.539E-03    1.80       3.3  T
   4    -38.3106577 -0.941180E-07  0.158E-03    1.80      11.4  T
   5    -38.3106577 -0.700439E-09  0.930E-04    1.80      19.3  T
   6    -38.3106577  0.506262E-10  0.260E-04    1.80      69.1  T
     SCC iter.                  ...        0 min,  0.018 sec
     gradient                   ...        0 min,  0.006 sec
 * total energy  :   -37.6873991 Eh     change       -0.8693917E-05 Eh
   gradient norm :     0.0011541 Eh/α   predicted    -0.7426583E-05 ( -14.58%)
   displ. norm   :     0.0917470 α      lambda       -0.5174327E-05
   maximum displ.:     0.0538189 α      in ANC's #1, #3, #8, ...

........................................................................
.............................. CYCLE   40 ..............................
........................................................................
   1    -38.3105917 -0.383106E+02  0.261E-02    1.80       0.0  T
   2    -38.3105919 -0.261884E-06  0.168E-02    1.80       1.1  T
   3    -38.3105911  0.832426E-06  0.589E-03    1.80       3.0  T
   4    -38.3105920 -0.951174E-06  0.185E-03    1.80       9.7  T
   5    -38.3105921 -0.208373E-07  0.965E-04    1.80      18.6  T
   6    -38.3105921 -0.191290E-08  0.538E-04    1.80      33.4  T
     SCC iter.                  ...        0 min,  0.018 sec
     gradient                   ...        0 min,  0.008 sec
 * total energy  :   -37.6874040 Eh     change       -0.4922878E-05 Eh
   gradient norm :     0.0006405 Eh/α   predicted    -0.2597318E-05 ( -47.24%)
   displ. norm   :     0.0732367 α      lambda       -0.4119056E-05
   maximum displ.:     0.0434107 α      in ANC's #3, #1, #6, ...

   *** GEOMETRY OPTIMIZATION CONVERGED AFTER 40 ITERATIONS ***

------------------------------------------------------------------------
 total energy gain   :        -0.1143416 Eh      -71.7504 kcal/mol
 total RMSD          :         1.5195231 a0        0.8041 Å
 total power (kW/mol):        -7.5050962 (step)  -27.9197 (real)
------------------------------------------------------------------------

 ANCopt (total)                0 d,  0 h,  0 min, 10.752 sec
 optimizer setup                ...        0 min,  0.000 sec (  0.002%)
 model hessian                  ...        0 min,  0.016 sec (  0.145%)
 ANC generation                 ...        0 min,  0.004 sec (  0.036%)
 coordinate transformation      ...        0 min,  0.000 sec (  0.005%)
 single point calculation       ...        0 min, 10.537 sec ( 97.999%)
 optimization log               ...        0 min,  0.004 sec (  0.038%)
 hessian update                 ...        0 min,  0.136 sec (  1.268%)
 rational function              ...        0 min,  0.052 sec (  0.485%)

================
 final structure:
================
31
 xtb: 6.5.1 (b24c23e)
Zr          -0.60339674870865        0.11137665671441        0.14553476510335
C           -0.20788725606125        1.14171833625146       -1.73145268171754
C           -0.19925319932178       -2.14496263919174        1.02988766402285
C            0.48396760570257       -2.01735510661489       -0.20605300226735
C           -0.49532659484456       -1.87834713545739       -1.23052218008005
C           -1.77643264521023       -1.87917366495444       -0.61694019925829
C           -1.59080414368512       -2.04752321721362        0.77904650528348
H            0.25492118970665       -2.40930408550304        1.97893702974891
H            1.54181130230430       -2.20319190270427       -0.36908189392593
H           -0.30244368643695       -1.93501896131729       -2.29531534618033
H           -2.72694938854802       -1.93597738432958       -1.13888315567881
H           -2.37863382984253       -2.24524685090466        1.49881403002764
C            0.29643871840011        0.90972282560605        2.27436558859098
C           -1.04827841733560        0.55355273440789        2.53793677663629
C           -1.89140841281110        1.39712225861054        1.77080582090585
C           -1.06481370741990        2.30720676557510        1.06125055077261
C            0.29116366726752        1.99688861716609        1.35964070650812
H            1.16538673593985        0.53881803319141        2.80897206637134
H           -1.37779129913409       -0.14289414845738        3.30057111070540
H           -2.97118735530295        1.46924523364134        1.86883006530962
H           -1.40542922614979        3.17798562437768        0.51221550841145
H            1.15046961621090        2.60233774820927        1.08934965711653
H            0.41490393988001        0.68235949083176       -2.51572606037406
H            0.13605238142767        2.18557426078956       -1.62449644128869
C           -1.68343174646476        1.16825104953182       -2.21911688990592
H           -1.91707973398421        0.24090665594522       -2.76271760637656
H           -2.39615558796259        1.25475825182257       -1.35283012731990
C           -1.95590425398919        2.34877876658068       -3.16205622786707
H           -1.29080428278389        2.29753286711142       -4.02144320241134
H           -2.98160890589477        2.33229709007309       -3.52190976371545
H           -1.78762690495338        3.29505523022367       -2.65023148714743

 Bond Distances (Angstroems)
 ---------------------------
Zr1-C2=2.1774        Zr1-C3=2.4569        Zr1-C4=2.4161        Zr1-C5=2.4216        Zr1-C6=2.4330        Zr1-C7=2.4571        
Zr1-C13=2.4452       Zr1-C14=2.4733       Zr1-C15=2.4400       Zr1-C16=2.4235       Zr1-C17=2.4144       Zr1-C25=2.8062       
C2-Zr1=2.1774        C2-H23=1.1018        C2-H24=1.1043        C2-C25=1.5543        C3-Zr1=2.4569        C3-C4=1.4180         
C3-C7=1.4173         C3-H8=1.0848         C4-Zr1=2.4161        C4-C3=1.4180         C4-C5=1.4240         C4-H9=1.0863         
C5-Zr1=2.4216        C5-C4=1.4240         C5-C6=1.4205         C5-H10=1.0836        C6-Zr1=2.4330        C6-C5=1.4205         
C6-C7=1.4183         C6-H11=1.0859        C7-Zr1=2.4571        C7-C3=1.4173         C7-C6=1.4183         C7-H12=1.0853        
H8-C3=1.0848         H9-C4=1.0863         H10-C5=1.0836        H11-C6=1.0859        H12-C7=1.0853        C13-Zr1=2.4452       
C13-C14=1.4158       C13-C17=1.4208       C13-H18=1.0856       C14-Zr1=2.4733       C14-C13=1.4158       C14-C15=1.4181       
C14-H19=1.0841       C15-Zr1=2.4400       C15-C14=1.4181       C15-C16=1.4195       C15-H20=1.0866       C16-Zr1=2.4235       
C16-C15=1.4195       C16-C17=1.4227       C16-H21=1.0843       C17-Zr1=2.4144       C17-C13=1.4208       C17-C16=1.4227       
C17-H22=1.0854       H18-C13=1.0856       H19-C14=1.0841       H20-C15=1.0866       H21-C16=1.0843       H22-C17=1.0854       
H23-C2=1.1018        H24-C2=1.1043        C25-Zr1=2.8062       C25-C2=1.5543        C25-H26=1.1000       C25-H27=1.1251       
C25-C28=1.5353       H26-C25=1.1000       H27-C25=1.1251       C28-C25=1.5353       C28-H29=1.0879       C28-H30=1.0871       
C28-H31=1.0889       H29-C28=1.0879       H30-C28=1.0871       H31-C28=1.0889       
 C  H  Rav=1.0910 sigma=0.0106  Rmin=1.0836  Rmax=1.1251    17
 C  C  Rav=1.4404 sigma=0.0469  Rmin=1.4158  Rmax=1.5543    12
 Zr C  Rav=2.4471 sigma=0.1311  Rmin=2.1774  Rmax=2.8062    12

 selected bond angles (degree)
 --------------------
C3-Zr1-C2=135.64               C4-Zr1-C2=102.11               C4-Zr1-C3= 33.82               C5-Zr1-C2= 83.73               
C5-Zr1-C3= 56.13               C5-Zr1-C4= 34.24               C6-Zr1-C2=101.80               C6-Zr1-C3= 56.00               
C6-Zr1-C4= 56.67               C6-Zr1-C5= 34.03               C7-Zr1-C2=135.32               C7-Zr1-C3= 33.53               
C7-Zr1-C4= 56.24               C7-Zr1-C5= 56.12               C7-Zr1-C6= 33.72               C13-Zr1-C2=121.95              
C13-Zr1-C3= 85.75              C13-Zr1-C4=104.40              C13-Zr1-C5=138.29              C13-Zr1-C6=135.84              
C13-Zr1-C7=102.14              C14-Zr1-C2=141.44              C14-Zr1-C3= 81.12              C14-Zr1-C4=112.29              
C14-Zr1-C5=134.80              C14-Zr1-C6=111.27              C14-Zr1-C7= 80.53              C14-Zr1-C13= 33.45             
C15-Zr1-C2=114.88              C15-Zr1-C3=109.33              C15-Zr1-C4=143.01              C15-Zr1-C5=146.62              
C15-Zr1-C6=112.67              C15-Zr1-C7= 94.54              C15-Zr1-C13= 56.10             C15-Zr1-C14= 33.54             
C16-Zr1-C2= 86.08              C16-Zr1-C3=136.67              C16-Zr1-C4=159.88              C16-Zr1-C5=165.40              
C16-Zr1-C6=140.17              C16-Zr1-C7=128.48              C16-Zr1-C13= 56.31             C16-Zr1-C14= 55.82             
C16-Zr1-C15= 33.94             C17-Zr1-C2= 89.81              C17-Zr1-C3=118.37              C17-Zr1-C4=126.48              
C17-Zr1-C5=155.63              C17-Zr1-C6=167.19              C17-Zr1-C7=134.86              C17-Zr1-C13= 33.99             
C17-Zr1-C14= 55.99             C17-Zr1-C15= 56.57             C17-Zr1-C16= 34.20             C25-Zr1-C2= 33.42              
C25-Zr1-C3=135.44              C25-Zr1-C4=112.48              C25-Zr1-C5= 81.25              C25-Zr1-C6= 81.87              
C25-Zr1-C7=113.17              C25-Zr1-C13=138.79             C25-Zr1-C14=132.73             C25-Zr1-C15= 99.19             
C25-Zr1-C16= 84.48             C25-Zr1-C17=105.80             H23-C2-Zr1=121.26              H24-C2-Zr1=114.86              
H24-C2-H23=106.68              C25-C2-Zr1= 96.09              C25-C2-H23=108.69              C25-C2-H24=108.06              
C4-C3-Zr1= 71.51               C7-C3-Zr1= 73.24               C7-C3-C4=108.22                H8-C3-Zr1=127.41               
H8-C3-C4=125.64                H8-C3-C7=125.64                C3-C4-Zr1= 74.67               C5-C4-Zr1= 73.09               
C5-C4-C3=107.73                H9-C4-Zr1=127.65               H9-C4-C3=125.77                H9-C4-C5=125.34                
C4-C5-Zr1= 72.67               C6-C5-Zr1= 73.43               C6-C5-C4=108.02                H10-C5-Zr1=127.54              
H10-C5-C4=125.41               H10-C5-C6=125.80               C5-C6-Zr1= 72.55               C7-C6-Zr1= 74.07               
C7-C6-C5=107.89                H11-C6-Zr1=127.99              H11-C6-C5=125.58               H11-C6-C7=125.55               
C3-C7-Zr1= 73.23               C6-C7-Zr1= 72.21               C6-C7-C3=108.11                H12-C7-Zr1=128.52              
H12-C7-C3=125.65               H12-C7-C6=125.41               

 selected dihedral angles (degree)
 ---------------------------------
H23-C2-Zr1-C3=351.27          H23-C2-Zr1-C4=356.43          H23-C2-Zr1-C5=327.38          H23-C2-Zr1-C6=298.39          
H23-C2-Zr1-C7=302.69          H23-C2-Zr1-C13=112.13         H23-C2-Zr1-C14=149.46         H23-C2-Zr1-C15=176.32         
H23-C2-Zr1-C16=157.85         H23-C2-Zr1-C17=123.83         H23-C2-Zr1-C25=243.78         H24-C2-Zr1-C3=220.63          
H24-C2-Zr1-C4=225.79          H24-C2-Zr1-C5=196.73          H24-C2-Zr1-C6=167.74          H24-C2-Zr1-C7=172.05          
H24-C2-Zr1-C13=341.48         H24-C2-Zr1-C14= 18.82         H24-C2-Zr1-C15= 45.68         H24-C2-Zr1-C16= 27.21         
H24-C2-Zr1-C17=353.18         H24-C2-Zr1-C25=113.14         C25-C2-Zr1-C3=107.49          C25-C2-Zr1-C4=112.65          
C25-C2-Zr1-C5= 83.59          C25-C2-Zr1-C6= 54.60          C25-C2-Zr1-C7= 58.91          C25-C2-Zr1-C13=228.34         
C25-C2-Zr1-C14=265.68         C25-C2-Zr1-C15=292.54         C25-C2-Zr1-C16=274.07         C25-C2-Zr1-C17=240.04         
C4-C3-Zr1-C2=  9.09           C4-C3-Zr1-C5= 38.10           C4-C3-Zr1-C6= 79.40           C4-C3-Zr1-C7=116.42           
C4-C3-Zr1-C13=236.01          C4-C3-Zr1-C14=202.65          C4-C3-Zr1-C15=184.24          C4-C3-Zr1-C16=208.81          
C4-C3-Zr1-C17=245.94          C4-C3-Zr1-C25= 57.56          C7-C3-Zr1-C2=252.67           C7-C3-Zr1-C4=243.58           
C7-C3-Zr1-C5=281.68           C7-C3-Zr1-C6=322.98           C7-C3-Zr1-C13=119.59          C7-C3-Zr1-C14= 86.23          
C7-C3-Zr1-C15= 67.82          C7-C3-Zr1-C16= 92.39          C7-C3-Zr1-C17=129.52          C7-C3-Zr1-C25=301.14          
H8-C3-Zr1-C2=130.28           H8-C3-Zr1-C4=121.19           H8-C3-Zr1-C5=159.29           H8-C3-Zr1-C6=200.59           
H8-C3-Zr1-C7=237.61           H8-C3-Zr1-C13=357.20          H8-C3-Zr1-C14=323.84          H8-C3-Zr1-C15=305.42          
H8-C3-Zr1-C16=330.00          H8-C3-Zr1-C17=  7.13          H8-C3-Zr1-C25=178.75          C3-C4-Zr1-C2=186.49           
C3-C4-Zr1-C5=245.59           C3-C4-Zr1-C6=282.77           C3-C4-Zr1-C7=323.49           C3-C4-Zr1-C13= 58.62          
C3-C4-Zr1-C14= 24.28          C3-C4-Zr1-C15=  6.65          C3-C4-Zr1-C16= 74.03          C3-C4-Zr1-C17= 87.61          
C3-C4-Zr1-C25=219.86          C5-C4-Zr1-C2=300.90           C5-C4-Zr1-C3=114.41           C5-C4-Zr1-C6= 37.18           
C5-C4-Zr1-C7= 77.90           C5-C4-Zr1-C13=173.03          C5-C4-Zr1-C14=138.69          C5-C4-Zr1-C15=121.07          
C5-C4-Zr1-C16=188.44          C5-C4-Zr1-C17=202.03          C5-C4-Zr1-C25=334.27          H9-C4-Zr1-C2= 62.84           
H9-C4-Zr1-C3=236.35           H9-C4-Zr1-C5=121.94           H9-C4-Zr1-C6=159.12           H9-C4-Zr1-C7=199.84           
H9-C4-Zr1-C13=294.97          H9-C4-Zr1-C14=260.63          H9-C4-Zr1-C15=243.00          H9-C4-Zr1-C16=310.38          
H9-C4-Zr1-C17=323.96          H9-C4-Zr1-C25= 96.21          Zr1-C4-C3-C7= 64.52           Zr1-C4-C3-H8=236.74           
C5-C4-C3-Zr1=293.84           C5-C4-C3-C7=358.37            C5-C4-C3-H8=170.58            H9-C4-C3-Zr1=125.67           
H9-C4-C3-C7=190.19            H9-C4-C3-H8=  2.40            C4-C5-Zr1-C2=122.43           C4-C5-Zr1-C3=322.38           
C4-C5-Zr1-C6=244.47           C4-C5-Zr1-C7=281.72           C4-C5-Zr1-C13=349.83          C4-C5-Zr1-C14=300.60          
C4-C5-Zr1-C15=249.49          C4-C5-Zr1-C16=168.45          C4-C5-Zr1-C17= 46.94          C4-C5-Zr1-C25=156.06          
C6-C5-Zr1-C2=237.97           C6-C5-Zr1-C3= 77.91           C6-C5-Zr1-C4=115.53           C6-C5-Zr1-C7= 37.25           
C6-C5-Zr1-C13=105.36          C6-C5-Zr1-C14= 56.14          C6-C5-Zr1-C15=  5.03          C6-C5-Zr1-C16=283.98          
C6-C5-Zr1-C17=162.48          C6-C5-Zr1-C25=271.59          H10-C5-Zr1-C2=  0.72          H10-C5-Zr1-C3=200.67          
H10-C5-Zr1-C4=238.29          H10-C5-Zr1-C6=122.75          H10-C5-Zr1-C7=160.01          H10-C5-Zr1-C13=228.12         
H10-C5-Zr1-C14=178.89         H10-C5-Zr1-C15=127.78         H10-C5-Zr1-C16= 46.74         H10-C5-Zr1-C17=285.23         
H10-C5-Zr1-C25= 34.35         Zr1-C5-C4-C3= 67.21           Zr1-C5-C4-H9=235.45           C6-C5-C4-Zr1=294.57           
C6-C5-C4-C3=  1.78            C6-C5-C4-H9=170.02            H10-C5-C4-Zr1=124.14          H10-C5-C4-C3=191.36           
H10-C5-C4-H9=359.60           C5-C6-Zr1-C2= 59.42           C5-C6-Zr1-C3=281.68           C5-C6-Zr1-C4=322.58           
C5-C6-Zr1-C7=244.87           C5-C6-Zr1-C13=247.05          C5-C6-Zr1-C14=219.22          C5-C6-Zr1-C15=182.99          
C5-C6-Zr1-C16=157.54          C5-C6-Zr1-C17=214.10          C5-C6-Zr1-C25= 86.39          C7-C6-Zr1-C2=174.54           
C7-C6-Zr1-C3= 36.80           C7-C6-Zr1-C4= 77.71           C7-C6-Zr1-C5=115.13           C7-C6-Zr1-C13=  2.18          
C7-C6-Zr1-C14=334.35          C7-C6-Zr1-C15=298.12          C7-C6-Zr1-C16=272.67          C7-C6-Zr1-C17=329.23          
C7-C6-Zr1-C25=201.51          H11-C6-Zr1-C2=297.52          H11-C6-Zr1-C3=159.78          H11-C6-Zr1-C4=200.69          
H11-C6-Zr1-C5=238.10          H11-C6-Zr1-C7=122.98          H11-C6-Zr1-C13=125.15         H11-C6-Zr1-C14= 97.32         
H11-C6-Zr1-C15= 61.10         H11-C6-Zr1-C16= 35.65         H11-C6-Zr1-C17= 92.21         H11-C6-Zr1-C25=324.49         
Zr1-C6-C5-C4= 64.93           Zr1-C6-C5-H10=235.31          C7-C6-C5-Zr1=293.82           C7-C6-C5-C4=358.75            
C7-C6-C5-H10=169.12           H11-C6-C5-Zr1=124.63          H11-C6-C5-C4=189.57           H11-C6-C5-H10=359.94          
C3-C7-Zr1-C2=108.34           C3-C7-Zr1-C4= 36.84           C3-C7-Zr1-C5= 78.34           C3-C7-Zr1-C6=115.95           
C3-C7-Zr1-C13=297.50          C3-C7-Zr1-C14=271.81          C3-C7-Zr1-C15=241.23          C3-C7-Zr1-C16=241.13          
C3-C7-Zr1-C17=286.75          C3-C7-Zr1-C25=139.21          C6-C7-Zr1-C2=352.39           C6-C7-Zr1-C3=244.05           
C6-C7-Zr1-C4=280.89           C6-C7-Zr1-C5=322.39           C6-C7-Zr1-C13=181.55          C6-C7-Zr1-C14=155.85          
C6-C7-Zr1-C15=125.27          C6-C7-Zr1-C16=125.18          C6-C7-Zr1-C17=170.79          C6-C7-Zr1-C25= 23.26          
H12-C7-Zr1-C2=230.90          H12-C7-Zr1-C3=122.56          H12-C7-Zr1-C4=159.40          H12-C7-Zr1-C5=200.90          
H12-C7-Zr1-C6=238.51          H12-C7-Zr1-C13= 60.06         H12-C7-Zr1-C14= 34.36         H12-C7-Zr1-C15=  3.78         
H12-C7-Zr1-C16=  3.69         H12-C7-Zr1-C17= 49.30         H12-C7-Zr1-C25=261.77         Zr1-C7-C3-C4=296.60           
Zr1-C7-C3-H8=124.39           C6-C7-C3-Zr1= 64.26           C6-C7-C3-C4=  0.86            C6-C7-C3-H8=188.65            
H12-C7-C3-Zr1=234.24          H12-C7-C3-C4=170.84           H12-C7-C3-H8=358.63           Zr1-C7-C6-C5= 65.17           
Zr1-C7-C6-H11=234.36          C3-C7-C6-Zr1=295.07           C3-C7-C6-C5=  0.24            C3-C7-C6-H11=169.43           
H12-C7-C6-Zr1=125.06          H12-C7-C6-C5=190.23           H12-C7-C6-H11=359.42          
           -------------------------------------------------
          |                Final Singlepoint                |
           -------------------------------------------------

          ...................................................
          :                      SETUP                      :
          :.................................................:
          :  # basis functions                  79          :
          :  # atomic orbitals                  78          :
          :  # shells                           46          :
          :  # electrons                        72          :
          :  max. iterations                   250          :
          :  Hamiltonian                  GFN2-xTB          :
          :  restarted?                      false          :
          :  GBSA solvation                  false          :
          :  PC potential                    false          :
          :  electronic temp.          300.0000000     K    :
          :  accuracy                    1.0000000          :
          :  -> integral cutoff          0.2500000E+02      :
          :  -> integral neglect         0.1000000E-07      :
          :  -> SCF convergence          0.1000000E-05 Eh   :
          :  -> wf. convergence          0.1000000E-03 e    :
          :  Broyden damping             0.4000000          :
          ...................................................

 iter      E             dE          RMSdq      gap      omega  full diag
   1    -38.3105921 -0.383106E+02  0.209E-04    1.80       0.0  T
   2    -38.3105921 -0.458442E-10  0.143E-04    1.80     125.9  T
   3    -38.3105921  0.751257E-10  0.897E-05    1.80     200.2  T

   *** convergence criteria satisfied after 3 iterations ***

         #    Occupation            Energy/Eh            Energy/eV
      -------------------------------------------------------------
         1        2.0000           -0.8731650             -23.7600
       ...           ...                  ...                  ...
        30        2.0000           -0.5622273             -15.2990
        31        2.0000           -0.5545599             -15.0903
        32        2.0000           -0.5330959             -14.5063
        33        2.0000           -0.5279871             -14.3673
        34        2.0000           -0.5186002             -14.1118
        35        2.0000           -0.5130969             -13.9621
        36        2.0000           -0.4951943             -13.4749 (HOMO)
        37                         -0.4290031             -11.6738 (LUMO)
        38                         -0.4253019             -11.5731
        39                         -0.4141931             -11.2708
        40                         -0.4058485             -11.0437
        41                         -0.3802372             -10.3468
       ...                                ...                  ...
        78                          2.5403606              69.1267
      -------------------------------------------------------------
                  HL-Gap            0.0661912 Eh            1.8012 eV
             Fermi-level           -0.4620987 Eh          -12.5743 eV

 SCC (total)                   0 d,  0 h,  0 min,  0.017 sec
 SCC setup                      ...        0 min,  0.000 sec (  0.639%)
 Dispersion                     ...        0 min,  0.000 sec (  0.648%)
 classical contributions        ...        0 min,  0.000 sec (  0.185%)
 integral evaluation            ...        0 min,  0.002 sec (  8.645%)
 iterations                     ...        0 min,  0.011 sec ( 64.683%)
 molecular gradient             ...        0 min,  0.004 sec ( 24.266%)
 printout                       ...        0 min,  0.000 sec (  0.844%)

         :::::::::::::::::::::::::::::::::::::::::::::::::::::
         ::                     SUMMARY                     ::
         :::::::::::::::::::::::::::::::::::::::::::::::::::::
         :: total energy             -37.687403977328 Eh    ::
         :: gradient norm              0.000640866895 Eh/a0 ::
         :: HOMO-LUMO gap              1.801154446819 eV    ::
         ::.................................................::
         :: SCC energy               -38.310592058928 Eh    ::
         :: -> isotropic ES            0.086545135587 Eh    ::
         :: -> anisotropic ES         -0.011028759019 Eh    ::
         :: -> anisotropic XC          0.016246927273 Eh    ::
         :: -> dispersion             -0.026135373317 Eh    ::
         :: repulsion energy           0.622670456428 Eh    ::
         :: add. restraining           0.000000000000 Eh    ::
         :: total charge               1.000000000000 e     ::
         :::::::::::::::::::::::::::::::::::::::::::::::::::::

           -------------------------------------------------
          |                Property Printout                |
           -------------------------------------------------

    * Orbital Energies and Occupations

         #    Occupation            Energy/Eh            Energy/eV
      -------------------------------------------------------------
         1        2.0000           -0.8731650             -23.7600
       ...           ...                  ...                  ...
        24        2.0000           -0.5991083             -16.3026
        25        2.0000           -0.5970965             -16.2478
        26        2.0000           -0.5967774             -16.2391
        27        2.0000           -0.5958375             -16.2136
        28        2.0000           -0.5954524             -16.2031
        29        2.0000           -0.5755763             -15.6622
        30        2.0000           -0.5622273             -15.2990
        31        2.0000           -0.5545599             -15.0903
        32        2.0000           -0.5330959             -14.5063
        33        2.0000           -0.5279871             -14.3673
        34        2.0000           -0.5186002             -14.1118
        35        2.0000           -0.5130969             -13.9621
        36        2.0000           -0.4951943             -13.4749 (HOMO)
        37                         -0.4290031             -11.6738 (LUMO)
        38                         -0.4253019             -11.5731
        39                         -0.4141931             -11.2708
        40                         -0.4058485             -11.0437
        41                         -0.3802372             -10.3468
        42                         -0.3149785              -8.5710
        43                         -0.3134271              -8.5288
        44                         -0.3128702              -8.5136
        45                         -0.3105022              -8.4492
        46                         -0.0779396              -2.1208
        47                         -0.0363352              -0.9887
       ...                                ...                  ...
        78                          2.5403606              69.1267
      -------------------------------------------------------------
                  HL-Gap            0.0661912 Eh            1.8012 eV
             Fermi-level           -0.4620987 Eh          -12.5743 eV

     #   Z          covCN         q      C6AA      α(0)
     1  40 Zr       8.953     0.948   138.897    17.709
     2   6 C        3.626    -0.281    26.803     7.459
     3   6 C        3.755    -0.081    22.105     6.704
     4   6 C        3.765    -0.088    22.214     6.718
     5   6 C        3.768    -0.082    22.096     6.699
     6   6 C        3.760    -0.090    22.259     6.726
     7   6 C        3.754    -0.084    22.161     6.713
     8   1 H        0.925     0.090     1.879     2.144
     9   1 H        0.925     0.085     1.927     2.171
    10   1 H        0.925     0.098     1.800     2.098
    11   1 H        0.925     0.083     1.946     2.182
    12   1 H        0.925     0.087     1.912     2.162
    13   6 C        3.757    -0.085    22.179     6.715
    14   6 C        3.750    -0.080    22.087     6.703
    15   6 C        3.757    -0.090    22.266     6.728
    16   6 C        3.768    -0.084    22.134     6.705
    17   6 C        3.767    -0.084    22.149     6.707
    18   1 H        0.925     0.085     1.932     2.173
    19   1 H        0.925     0.091     1.869     2.138
    20   1 H        0.925     0.080     1.983     2.202
    21   1 H        0.925     0.095     1.830     2.116
    22   1 H        0.925     0.091     1.867     2.137
    23   1 H        0.924     0.077     2.009     2.217
    24   1 H        0.927     0.082     1.958     2.188
    25   6 C        4.250    -0.056    21.486     6.583
    26   1 H        0.923     0.073     2.055     2.242
    27   1 H        0.977     0.056     2.235     2.336
    28   6 C        3.750    -0.114    22.750     6.802
    29   1 H        0.925     0.067     2.119     2.276
    30   1 H        0.925     0.055     2.261     2.351
    31   1 H        0.925     0.055     2.255     2.348

 Mol. C6AA /au·bohr⁶  :       9467.551693
 Mol. C8AA /au·bohr⁸  :     320596.988877
 Mol. α(0) /au        :        143.150936


Wiberg/Mayer (AO) data.
largest (>0.10) Wiberg bond orders for each atom

 ---------------------------------------------------------------------------
     #   Z sym  total        # sym  WBO       # sym  WBO       # sym  WBO
 ---------------------------------------------------------------------------
     1  40 Zr   4.264 --     2 C    0.867    17 C    0.279     4 C    0.278
                             5 C    0.265    16 C    0.260     6 C    0.259
                            15 C    0.254    13 C    0.248     7 C    0.240
                             3 C    0.230    14 C    0.227    25 C    0.156
                            27 H    0.106
     2   6 C    3.837 --    25 C    0.977    23 H    0.912    24 H    0.906
                             1 Zr   0.867
     3   6 C    3.980 --     7 C    1.311     4 C    1.304     8 H    0.922
                             1 Zr   0.230
     4   6 C    3.980 --     3 C    1.304     5 C    1.274     9 H    0.916
                             1 Zr   0.278
     5   6 C    3.981 --     6 C    1.293     4 C    1.274    10 H    0.922
                             1 Zr   0.265
     6   6 C    3.979 --     7 C    1.300     5 C    1.293    11 H    0.918
                             1 Zr   0.259
     7   6 C    3.980 --     3 C    1.311     6 C    1.300    12 H    0.920
                             1 Zr   0.240
     8   1 H    0.990 --     3 C    0.922
     9   1 H    0.990 --     4 C    0.916
    10   1 H    0.987 --     5 C    0.922
    11   1 H    0.991 --     6 C    0.918
    12   1 H    0.991 --     7 C    0.920
    13   6 C    3.979 --    14 C    1.315    17 C    1.287    18 H    0.919
                             1 Zr   0.248
    14   6 C    3.981 --    13 C    1.315    15 C    1.304    19 H    0.924
                             1 Zr   0.227
    15   6 C    3.979 --    14 C    1.304    16 C    1.296    20 H    0.917
                             1 Zr   0.254
    16   6 C    3.980 --    15 C    1.296    17 C    1.283    21 H    0.920
                             1 Zr   0.260
    17   6 C    3.981 --    13 C    1.287    16 C    1.283    22 H    0.917
                             1 Zr   0.279
    18   1 H    0.991 --    13 C    0.919
    19   1 H    0.989 --    14 C    0.924
    20   1 H    0.992 --    15 C    0.917
    21   1 H    0.988 --    16 C    0.920
    22   1 H    0.989 --    17 C    0.917
    23   1 H    0.993 --     2 C    0.912
    24   1 H    0.992 --     2 C    0.906
    25   6 C    3.986 --    28 C    1.002     2 C    0.977    26 H    0.940
                            27 H    0.855     1 Zr   0.156
    26   1 H    0.993 --    25 C    0.940
    27   1 H    0.996 --    25 C    0.855     1 Zr   0.106
    28   6 C    3.988 --    25 C    1.002    30 H    0.983    29 H    0.981
                            31 H    0.980
    29   1 H    0.995 --    28 C    0.981
    30   1 H    0.997 --    28 C    0.983
    31   1 H    0.996 --    28 C    0.980
 ---------------------------------------------------------------------------

Topologies differ in total number of bonds
Writing topology from bond orders to xtbtopo.mol

molecular dipole:
                 x           y           z       tot (Debye)
 q only:       -1.469       0.397      -0.089
   full:       -1.513       0.302       0.086       3.927
molecular quadrupole (traceless):
                xx          xy          yy          xz          yz          zz
 q only:        1.478      -2.246      -3.267       2.871      -4.445       1.789
  q+dip:        4.086      -2.022      -7.112       2.218      -7.427       3.026
   full:        7.097      -2.324      -7.113       2.695      -5.467       0.015

           -------------------------------------------------
          |                Geometry Summary                 |
           -------------------------------------------------

      molecular mass/u    :      264.4982010
   center of mass at/Å    :       -0.7647321       0.1577667       0.0899342
  moments of inertia/u·Å² :        0.6594251E+03   0.7555895E+03   0.1135724E+04
rotational constants/cm⁻¹ :        0.2556413E-01   0.2231057E-01   0.1484307E-01

 * 40 selected distances

     #   Z          #   Z                                           value/Å
     1  40 Zr       2   6 C                                       2.1774100
     1  40 Zr       3   6 C                                       2.4569249
     1  40 Zr       4   6 C                                       2.4160868
     3   6 C        4   6 C                                       1.4179648
     1  40 Zr       5   6 C                                       2.4216139
     4   6 C        5   6 C                                       1.4240358
     1  40 Zr       6   6 C                                       2.4330378
     5   6 C        6   6 C                                       1.4204635
     1  40 Zr       7   6 C                                       2.4570633
     3   6 C        7   6 C                                       1.4173320
     6   6 C        7   6 C                                       1.4183014
     3   6 C        8   1 H                                       1.0848252
     4   6 C        9   1 H                                       1.0863458
     5   6 C       10   1 H                                       1.0836052 (min)
     6   6 C       11   1 H                                       1.0858791
     7   6 C       12   1 H                                       1.0852814
     1  40 Zr      13   6 C                                       2.4451958
     1  40 Zr      14   6 C                                       2.4732626 (max)
    13   6 C       14   6 C                                       1.4158360
     1  40 Zr      15   6 C                                       2.4400047
    14   6 C       15   6 C                                       1.4180860
     1  40 Zr      16   6 C                                       2.4234504
    15   6 C       16   6 C                                       1.4195005
     1  40 Zr      17   6 C                                       2.4144250
    13   6 C       17   6 C                                       1.4208023
    16   6 C       17   6 C                                       1.4226767
    13   6 C       18   1 H                                       1.0855622
    14   6 C       19   1 H                                       1.0840795
    15   6 C       20   1 H                                       1.0866155
    16   6 C       21   1 H                                       1.0843037
    17   6 C       22   1 H                                       1.0853722
     2   6 C       23   1 H                                       1.1018005
     2   6 C       24   1 H                                       1.1042507
     2   6 C       25   6 C                                       1.5542691
    25   6 C       26   1 H                                       1.1000277
    25   6 C       27   1 H                                       1.1251274
    25   6 C       28   6 C                                       1.5352596
    28   6 C       29   1 H                                       1.0879018
    28   6 C       30   1 H                                       1.0871230
    28   6 C       31   1 H                                       1.0889083

 * 3 distinct bonds (by element types)

   Z      Z             #   av. dist./Å        max./Å        min./Å
   1 H    6 C          17     1.0910005     1.1251274     1.0836052
   6 C    6 C          12     1.4403773     1.5542691     1.4158360
   6 C   40 Zr         11     2.4144068     2.4732626     2.1774100


optimized geometry written to: xtbopt.xyz


           -------------------------------------------------
          | TOTAL ENERGY              -37.687403977328 Eh   |
          | GRADIENT NORM               0.000640866895 Eh/α |
          | HOMO-LUMO GAP               1.801154446819 eV   |
           -------------------------------------------------

------------------------------------------------------------------------
 * finished run on 2026/08/18 at 18:32:09.745     
------------------------------------------------------------------------
 total:
 * wall-time:     0 d,  0 h,  0 min, 11.691 sec
 *  cpu-time:     0 d,  0 h,  1 min,  8.185 sec
 * ratio c/w:     5.832 speedup
 SCF:
 * wall-time:     0 d,  0 h,  0 min,  0.802 sec
 *  cpu-time:     0 d,  0 h,  0 min,  3.161 sec
 * ratio c/w:     3.941 speedup
 ANC optimizer:
 * wall-time:     0 d,  0 h,  0 min, 10.779 sec
 *  cpu-time:     0 d,  0 h,  1 min,  4.626 sec
 * ratio c/w:     5.995 speedup

