31
 energy: -37.687403977328 gnorm: 0.000640866895 xtb: 6.5.1 (b24c23e)
Zr          -0.60339674870865        0.11137665671441        0.14553476510335
C           -0.20788725606125        1.14171833625146       -1.73145268171754
C           -0.19925319932178       -2.14496263919174        1.02988766402285
C            0.48396760570257       -2.01735510661489       -0.20605300226735
C           -0.49532659484456       -1.87834713545739       -1.23052218008005
C           -1.77643264521023       -1.87917366495444       -0.61694019925829
C           -1.59080414368512       -2.04752321721362        0.77904650528348
H            0.25492118970665       -2.40930408550304        1.97893702974891
H            1.54181130230430       -2.20319190270427       -0.36908189392593
H           -0.30244368643695       -1.93501896131729       -2.29531534618033
H           -2.72694938854802       -1.93597738432958       -1.13888315567881
H           -2.37863382984253       -2.24524685090466        1.49881403002764
C            0.29643871840011        0.90972282560605        2.27436558859098
C           -1.04827841733560        0.55355273440789        2.53793677663629
C           -1.89140841281110        1.39712225861054        1.77080582090585
C           -1.06481370741990        2.30720676557510        1.06125055077261
C            0.29116366726752        1.99688861716609        1.35964070650812
H            1.16538673593985        0.53881803319141        2.80897206637134
H           -1.37779129913409       -0.14289414845738        3.30057111070540
H           -2.97118735530295        1.46924523364134        1.86883006530962
H           -1.40542922614979        3.17798562437768        0.51221550841145
H            1.15046961621090        2.60233774820927        1.08934965711653
H            0.41490393988001        0.68235949083176       -2.51572606037406
H            0.13605238142767        2.18557426078956       -1.62449644128869
C           -1.68343174646476        1.16825104953182       -2.21911688990592
H           -1.91707973398421        0.24090665594522       -2.76271760637656
H           -2.39615558796259        1.25475825182257       -1.35283012731990
C           -1.95590425398919        2.34877876658068       -3.16205622786707
H           -1.29080428278389        2.29753286711142       -4.02144320241134
H           -2.98160890589477        2.33229709007309       -3.52190976371545
H           -1.78762690495338        3.29505523022367       -2.65023148714743
