31
 energy: -37.703111699503 gnorm: 0.000763358462 xtb: 6.5.1 (b24c23e)
Zr          -0.64071471924989        0.14878027776491        0.12277847338365
C           -3.37999075431470        1.50324788258722       -0.83076228989398
C           -1.77277954548441       -1.85046163215141        1.44869849041746
C           -0.44547627801716       -2.14589423369753        1.47824932412089
C           -0.05299138795963       -2.70814114966391        0.19014324055098
C           -1.14467427961901       -2.79045525402012       -0.59952989839590
C           -2.32130424088684       -2.15594134713790        0.08040826906385
H           -2.39448589667469       -1.58298798377552        2.29520981952842
H            0.19975535592274       -2.13947801321636        2.35215704426066
H            0.93516147664401       -3.08912524350121       -0.02932809473695
H           -1.19248623981878       -3.19370199262958       -1.59850839969678
H           -3.22731739477935       -2.77364521634605        0.09796406191682
C            1.03680102252182        1.82082542725260        1.07020962697269
C            0.81046760467786        0.83618675263423        2.05567613990788
C           -0.54765194529025        0.91979350974944        2.45630323670829
C           -1.16365900438996        1.95147872413087        1.70091727646549
C           -0.18036371582512        2.50340417360129        0.83963270797224
H            1.99776980571993        2.08548382385252        0.64612224278114
H            1.58259194799326        0.24860637347961        2.54251034408799
H           -0.97488274510474        0.44639029935095        3.33387991744699
H           -2.13590954619423        2.38785774608272        1.90546815240608
H           -0.29924871902007        3.39022135281204        0.22545653726293
H            0.28777314556482        0.10599501189784       -1.32552981970997
H           -3.74811256531091        1.40196974157151       -1.85307738529176
H           -2.31546902574124        1.81930905581300       -0.88414633795411
C           -2.50097174293258       -0.81051192722713       -0.68465854024261
C           -3.53513851440580        0.16107282349696       -0.09274721121012
H           -4.56670471573324       -0.19251082241769       -0.23777433937318
H           -3.38694480866731        0.29844212031339        0.99375532939553
H           -2.74253012366566       -1.01268582841463       -1.73702838564302
H           -3.96559279991443        2.28601051776591       -0.34936522250795
