      -----------------------------------------------------------      
     |                   =====================                   |     
     |                           x T B                           |     
     |                   =====================                   |     
     |                         S. Grimme                         |     
     |          Mulliken Center for Theoretical Chemistry        |     
     |                    University of Bonn                     |     
      -----------------------------------------------------------      

   * xtb version 6.5.1 (b24c23e) compiled by 'conda@728c89f4b128' on 2022-07-12

   xtb is free software: you can redistribute it and/or modify it under
   the terms of the GNU Lesser General Public License as published by
   the Free Software Foundation, either version 3 of the License, or
   (at your option) any later version.
   
   xtb is distributed in the hope that it will be useful,
   but WITHOUT ANY WARRANTY; without even the implied warranty of
   MERCHANTABILITY or FITNESS FOR A PARTICULAR PURPOSE.  See the
   GNU Lesser General Public License for more details.
   
   Cite this work as:
   * C. Bannwarth, E. Caldeweyher, S. Ehlert, A. Hansen, P. Pracht,
     J. Seibert, S. Spicher, S. Grimme, WIREs Comput. Mol. Sci., 2020, 11,
     e01493. DOI: 10.1002/wcms.1493
   
   for GFN2-xTB:
   * C. Bannwarth, S. Ehlert and S. Grimme., J. Chem. Theory Comput., 2019,
     15, 1652-1671. DOI: 10.1021/acs.jctc.8b01176
   for GFN1-xTB:
   * S. Grimme, C. Bannwarth, P. Shushkov, J. Chem. Theory Comput., 2017,
     13, 1989-2009. DOI: 10.1021/acs.jctc.7b00118
   for GFN0-xTB:
   * P. Pracht, E. Caldeweyher, S. Ehlert, S. Grimme, ChemRxiv, 2019, preprint.
     DOI: 10.26434/chemrxiv.8326202.v1
   for GFN-FF:
   * S. Spicher and S. Grimme, Angew. Chem. Int. Ed., 2020, 59, 15665-15673.
     DOI: 10.1002/anie.202004239
   
   for ALPB and GBSA implicit solvation:
   * S. Ehlert, M. Stahn, S. Spicher, S. Grimme, J. Chem. Theory Comput.,
     2021, 17, 4250-4261. DOI: 10.1021/acs.jctc.1c00471
   
   for DFT-D4:
   * E. Caldeweyher, C. Bannwarth and S. Grimme, J. Chem. Phys., 2017,
     147, 034112. DOI: 10.1063/1.4993215
   * E. Caldeweyher, S. Ehlert, A. Hansen, H. Neugebauer, S. Spicher,
     C. Bannwarth and S. Grimme, J. Chem. Phys., 2019, 150, 154122.
     DOI: 10.1063/1.5090222
   * E. Caldeweyher, J.-M. Mewes, S. Ehlert and S. Grimme, Phys. Chem. Chem. Phys.
     2020, 22, 8499-8512. DOI: 10.1039/D0CP00502A
   
   for sTDA-xTB:
   * S. Grimme and C. Bannwarth, J. Chem. Phys., 2016, 145, 054103.
     DOI: 10.1063/1.4959605
   
   in the mass-spec context:
   * V. Asgeirsson, C. Bauer and S. Grimme, Chem. Sci., 2017, 8, 4879.
     DOI: 10.1039/c7sc00601b
   * J. Koopman and S. Grimme, ACS Omega 2019, 4, 12, 15120-15133.
     DOI: 10.1021/acsomega.9b02011
   
   for metadynamics refer to:
   * S. Grimme, J. Chem. Theory Comput., 2019, 155, 2847-2862
     DOI: 10.1021/acs.jctc.9b00143
   
   for SPH calculations refer to:
   * S. Spicher and S. Grimme, J. Chem. Theory Comput., 2021, 17, 1701-1714
     DOI: 10.1021/acs.jctc.0c01306
   
   with help from (in alphabetical order)
   P. Atkinson, C. Bannwarth, F. Bohle, G. Brandenburg, E. Caldeweyher
   M. Checinski, S. Dohm, S. Ehlert, S. Ehrlich, I. Gerasimov, C. Hölzer
   A. Katbashev, J. Koopman, C. Lavigne, S. Lehtola, F. März, M. Müller,
   F. Musil, H. Neugebauer, J. Pisarek, C. Plett, P. Pracht, F. Pultar,
   J. Seibert, P. Shushkov, S. Spicher, M. Stahn, M. Steiner, T. Strunk,
   J. Stückrath, T. Rose, and J. Unsleber
   
 * started run on 2026/08/18 at 18:28:53.860     

           -------------------------------------------------
          |                Calculation Setup                |
           -------------------------------------------------

          program call               : /h/332/chchoi/miniconda3/envs/el-agente/bin/xtb reactant_raw.xyz --opt --gfn 2 -P 4 --chrg 1 --uhf 0 --input detailed_input.inp
          coordinate file            : reactant_raw.xyz
          omp threads                :                     4

   ID    Z sym.   atoms
    1   40 Zr     1
    2    6 C      2-7, 13-17, 26, 27
    3    1 H      8-12, 18-25, 28-31
constraining bond 1 2 to    2.4700000 Å, actual value:    2.4750002 Å
constraining bond 1 26 to    2.5600000 Å, actual value:    2.5634266 Å
constraining bond 1 27 to    2.5600000 Å, actual value:    2.5634266 Å
constraining bond 26 27 to    1.3350000 Å, actual value:    1.3349601 Å
constraining bond 2 27 to    3.9000000 Å, actual value:    3.9015773 Å

molecular fragmentation (1/2 indicates fragments):
1111111111111111111111111222222
# atoms in fragment 1/2:    25     6
 fragment masses (1/2) :      236.44       28.05
CMA distance (Bohr)    :   5.713
constraining FC (au)   :  0.5000

           -------------------------------------------------
          |                 G F N 2 - x T B                 |
           -------------------------------------------------

        Reference                      10.1021/acs.jctc.8b01176
      * Hamiltonian:
        H0-scaling (s, p, d)           1.850000    2.230000    2.230000
        zeta-weighting                 0.500000
      * Dispersion:
        s8                             2.700000
        a1                             0.520000
        a2                             5.000000
        s9                             5.000000
      * Repulsion:
        kExp                           1.500000    1.000000
        rExp                           1.000000
      * Coulomb:
        alpha                          2.000000
        third order                    shell-resolved
        anisotropic                    true
        a3                             3.000000
        a5                             4.000000
        cn-shift                       1.200000
        cn-exp                         4.000000
        max-rad                        5.000000


          ...................................................
          :                      SETUP                      :
          :.................................................:
          :  # basis functions                  79          :
          :  # atomic orbitals                  78          :
          :  # shells                           46          :
          :  # electrons                        72          :
          :  max. iterations                   250          :
          :  Hamiltonian                  GFN2-xTB          :
          :  restarted?                      false          :
          :  GBSA solvation                  false          :
          :  PC potential                    false          :
          :  electronic temp.          300.0000000     K    :
          :  accuracy                    1.0000000          :
          :  -> integral cutoff          0.2500000E+02      :
          :  -> integral neglect         0.1000000E-07      :
          :  -> SCF convergence          0.1000000E-05 Eh   :
          :  -> wf. convergence          0.1000000E-03 e    :
          :  Broyden damping             0.4000000          :
          ...................................................

 iter      E             dE          RMSdq      gap      omega  full diag
   1    -37.9601354 -0.379601E+02  0.424E+00    0.57       0.0  T
   2    -38.0666125 -0.106477E+00  0.367E+00    1.52       1.0  T
   3    -38.1191899 -0.525774E-01  0.295E+00    0.94       1.0  T
   4    -38.1164784  0.271147E-02  0.140E+00    0.99       1.0  T
   5    -38.1137949  0.268351E-02  0.793E-01    0.73       1.0  T
   6    -38.1202114 -0.641645E-02  0.383E-01    0.95       1.0  T
   7    -38.1212743 -0.106294E-02  0.247E-01    0.88       1.0  T
   8    -38.1213143 -0.400100E-04  0.137E-01    0.87       1.0  T
   9    -38.1213019  0.124517E-04  0.649E-02    0.91       1.0  T
  10    -38.1213409 -0.390356E-04  0.371E-02    0.90       1.0  T
  11    -38.1213579 -0.169922E-04  0.152E-02    0.89       1.2  T
  12    -38.1213590 -0.111221E-05  0.447E-03    0.89       4.0  T
  13    -38.1213590 -0.387946E-07  0.188E-03    0.89       9.6  T
  14    -38.1213591 -0.224945E-07  0.122E-03    0.89      14.7  T
  15    -38.1213591 -0.155101E-07  0.446E-04    0.89      40.3  T
  16    -38.1213591 -0.213873E-10  0.258E-04    0.89      69.5  T

   *** convergence criteria satisfied after 16 iterations ***

         #    Occupation            Energy/Eh            Energy/eV
      -------------------------------------------------------------
         1        2.0000           -0.8637396             -23.5035
       ...           ...                  ...                  ...
        30        2.0000           -0.5741030             -15.6221
        31        2.0000           -0.5713656             -15.5476
        32        2.0000           -0.5095815             -13.8664
        33        2.0000           -0.5047474             -13.7349
        34        2.0000           -0.4945029             -13.4561
        35        2.0000           -0.4921678             -13.3926
        36        2.0000           -0.4861161             -13.2279 (HOMO)
        37                         -0.4533385             -12.3360 (LUMO)
        38                         -0.4377844             -11.9127
        39                         -0.4352875             -11.8448
        40                         -0.4313603             -11.7379
        41                         -0.4233749             -11.5206
       ...                                ...                  ...
        78                          1.3827423              37.6263
      -------------------------------------------------------------
                  HL-Gap            0.0327776 Eh            0.8919 eV
             Fermi-level           -0.4697264 Eh          -12.7819 eV

 SCC (total)                   0 d,  0 h,  0 min,  0.605 sec
 SCC setup                      ...        0 min,  0.009 sec (  1.494%)
 Dispersion                     ...        0 min,  0.013 sec (  2.191%)
 classical contributions        ...        0 min,  0.007 sec (  1.221%)
 integral evaluation            ...        0 min,  0.017 sec (  2.730%)
 iterations                     ...        0 min,  0.481 sec ( 79.451%)
 molecular gradient             ...        0 min,  0.078 sec ( 12.883%)
 printout                       ...        0 min,  0.000 sec (  0.027%)

         :::::::::::::::::::::::::::::::::::::::::::::::::::::
         ::                     SUMMARY                     ::
         :::::::::::::::::::::::::::::::::::::::::::::::::::::
         :: total energy             -37.560759518804 Eh    ::
         :: gradient norm              0.191883247099 Eh/a0 ::
         :: HOMO-LUMO gap              0.891924041258 eV    ::
         ::.................................................::
         :: SCC energy               -38.121359078810 Eh    ::
         :: -> isotropic ES            0.097382457233 Eh    ::
         :: -> anisotropic ES         -0.002946632308 Eh    ::
         :: -> anisotropic XC          0.021570818862 Eh    ::
         :: -> dispersion             -0.027694242490 Eh    ::
         :: repulsion energy           0.559701657130 Eh    ::
         :: add. restraining           0.000091016581 Eh    ::
         :: total charge               1.000000000120 e     ::
         :::::::::::::::::::::::::::::::::::::::::::::::::::::

      ----------------------------------------------------------- 
     |                   =====================                   |
     |                        A N C O P T                        |
     |                   =====================                   |
     |               Approximate Normal Coordinate               |
     |                Rational Function Optimizer                |
      ----------------------------------------------------------- 

          ...................................................
          :                      SETUP                      :
          :.................................................:
          :   optimization level            normal          :
          :   max. optcycles                   200          :
          :   ANC micro-cycles                  20          :
          :   degrees of freedom                87          :
          :.................................................:
          :   RF solver                   davidson          :
          :   write xtbopt.log                true          :
          :   linear?                        false          :
          :   energy convergence         0.5000000E-05 Eh   :
          :   grad. convergence          0.1000000E-02 Eh/α :
          :   maximium RF displ.         1.0000000          :
          :   Hlow (freq-cutoff)         0.1000000E-01      :
          :   Hmax (freq-cutoff)         5.0000000          :
          :   S6 in model hess.         20.0000000          :
          ...................................................

generating ANC from model Hessian ...
Using Lindh-Hessian (1995)
 Shifting diagonal of input Hessian by    1.1873448201503142E-002
 Lowest  eigenvalues of input Hessian
    0.010000    0.011761    0.000000    0.000000    0.000000    0.000000
    0.000000    0.000000    0.012188    0.012326    0.012355    0.012496
    0.012559    0.012674    0.012839    0.012984    0.013071    0.013121
 Highest eigenvalues
    1.493250    1.493339    1.586359    2.940768    3.328584    4.089315


........................................................................
.............................. CYCLE    1 ..............................
........................................................................
   1    -38.1213591 -0.381214E+02  0.101E-04    0.89       0.0  T
   2    -38.1213591  0.884626E-11  0.118E-04    0.89     152.1  T
   3    -38.1213591 -0.117296E-09  0.649E-05    0.89     276.6  T
     SCC iter.                  ...        0 min,  0.087 sec
     gradient                   ...        0 min,  0.078 sec
 * total energy  :   -37.5607595 Eh     change       -0.4173089E-09 Eh
   gradient norm :     0.1918828 Eh/α   predicted     0.0000000E+00 (-100.00%)
   displ. norm   :     0.6169004 α      lambda       -0.6848906E-01
   maximum displ.:     0.4285680 α      in ANC's #23, #55, #6, ...

........................................................................
.............................. CYCLE    2 ..............................
........................................................................
   1    -38.2149057 -0.382149E+02  0.673E-01    1.18       0.0  T
   2    -38.2152394 -0.333751E-03  0.574E-01    1.10       1.0  T
   3    -38.2156563 -0.416887E-03  0.367E-01    1.19       1.0  T
   4    -38.2156665 -0.101535E-04  0.886E-02    1.14       1.0  T
   5    -38.2157258 -0.592799E-04  0.785E-02    1.18       1.0  T
   6    -38.2157818 -0.560091E-04  0.313E-02    1.16       1.0  T
   7    -38.2157865 -0.474710E-05  0.119E-02    1.16       1.5  T
   8    -38.2157868 -0.304848E-06  0.587E-03    1.16       3.1  T
   9    -38.2157868  0.394247E-07  0.320E-03    1.16       5.6  T
  10    -38.2157869 -0.945381E-07  0.180E-03    1.16      10.0  T
  11    -38.2157869 -0.100129E-07  0.441E-04    1.16      40.7  T
  12    -38.2157869 -0.122913E-08  0.205E-04    1.16      87.7  T
     SCC iter.                  ...        0 min,  0.049 sec
     gradient                   ...        0 min,  0.004 sec
 * total energy  :   -37.6099244 Eh     change       -0.4916489E-01 Eh
   gradient norm :     0.0670966 Eh/α   predicted    -0.4727684E-01 (  -3.84%)
   displ. norm   :     0.7255512 α      lambda       -0.3559717E-01
   maximum displ.:     0.3128641 α      in ANC's #26, #23, #24, ...

........................................................................
.............................. CYCLE    3 ..............................
........................................................................
   1    -38.2684726 -0.382685E+02  0.735E-01    1.09       0.0  T
   2    -38.2688405 -0.367958E-03  0.617E-01    1.06       1.0  T
   3    -38.2687648  0.756903E-04  0.343E-01    1.15       1.0  T
   4    -38.2690770 -0.312189E-03  0.929E-02    1.08       1.0  T
   5    -38.2691259 -0.488208E-04  0.802E-02    1.10       1.0  T
   6    -38.2691437 -0.178832E-04  0.254E-02    1.10       1.0  T
   7    -38.2691472 -0.351206E-05  0.167E-02    1.10       1.1  T
   8    -38.2691474 -0.110287E-06  0.121E-02    1.10       1.5  T
   9    -38.2691479 -0.585368E-06  0.361E-03    1.09       5.0  T
  10    -38.2691480 -0.968675E-07  0.180E-03    1.09      10.0  T
  11    -38.2691480 -0.244269E-08  0.772E-04    1.09      23.3  T
  12    -38.2691480 -0.116430E-08  0.293E-04    1.09      61.3  T
     SCC iter.                  ...        0 min,  0.043 sec
     gradient                   ...        0 min,  0.007 sec
 * total energy  :   -37.6237756 Eh     change       -0.1385119E-01 Eh
   gradient norm :     0.0826619 Eh/α   predicted    -0.2716820E-01 (  96.14%)
   displ. norm   :     0.4702176 α      lambda       -0.1194253E-01
   maximum displ.:     0.2874594 α      in ANC's #11, #6, #8, ...

........................................................................
.............................. CYCLE    4 ..............................
........................................................................
   1    -38.2658040 -0.382658E+02  0.299E-01    1.10       0.0  T
   2    -38.2658649 -0.609280E-04  0.197E-01    1.14       1.0  T
   3    -38.2657174  0.147559E-03  0.126E-01    1.09       1.0  T
   4    -38.2659178 -0.200382E-03  0.254E-02    1.13       1.0  T
   5    -38.2659197 -0.192758E-05  0.171E-02    1.13       1.0  T
   6    -38.2659210 -0.127676E-05  0.877E-03    1.13       2.0  T
   7    -38.2659212 -0.231482E-06  0.524E-03    1.13       3.4  T
   8    -38.2659213 -0.801262E-07  0.358E-03    1.13       5.0  T
   9    -38.2659213 -0.302446E-07  0.251E-03    1.13       7.2  T
  10    -38.2659213 -0.216792E-07  0.933E-04    1.13      19.2  T
  11    -38.2659213 -0.332873E-08  0.380E-04    1.13      47.3  T
     SCC iter.                  ...        0 min,  0.055 sec
     gradient                   ...        0 min,  0.008 sec
 * total energy  :   -37.6313365 Eh     change       -0.7560939E-02 Eh
   gradient norm :     0.0179469 Eh/α   predicted    -0.7291552E-02 (  -3.56%)
   displ. norm   :     0.5095239 α      lambda       -0.4485496E-02
   maximum displ.:     0.3467987 α      in ANC's #11, #6, #8, ...

........................................................................
.............................. CYCLE    5 ..............................
........................................................................
   1    -38.2792306 -0.382792E+02  0.258E-01    1.09       0.0  T
   2    -38.2793382 -0.107613E-03  0.218E-01    1.11       1.0  T
   3    -38.2793426 -0.436177E-05  0.129E-01    1.12       1.0  T
   4    -38.2793423  0.305952E-06  0.547E-02    1.12       1.0  T
   5    -38.2793833 -0.409978E-04  0.312E-02    1.12       1.0  T
   6    -38.2793844 -0.114569E-05  0.137E-02    1.12       1.3  T
   7    -38.2793853 -0.814244E-06  0.415E-03    1.12       4.3  T
   8    -38.2793853 -0.246018E-07  0.278E-03    1.12       6.5  T
   9    -38.2793853 -0.167599E-07  0.141E-03    1.12      12.8  T
  10    -38.2793853 -0.388186E-08  0.847E-04    1.12      21.2  T
  11    -38.2793853 -0.284714E-08  0.253E-04    1.12      71.0  T
     SCC iter.                  ...        0 min,  0.052 sec
     gradient                   ...        0 min,  0.005 sec
 * total energy  :   -37.6332056 Eh     change       -0.1869107E-02 Eh
   gradient norm :     0.0307099 Eh/α   predicted    -0.2824976E-02 (  51.14%)
   displ. norm   :     0.6532952 α      lambda       -0.7283397E-02
   maximum displ.:     0.3959231 α      in ANC's #11, #6, #1, ...

........................................................................
.............................. CYCLE    6 ..............................
........................................................................
   1    -38.2919496 -0.382919E+02  0.485E-01    1.10       0.0  T
   2    -38.2923902 -0.440681E-03  0.446E-01    1.15       1.0  T
   3    -38.2924826 -0.923556E-04  0.310E-01    1.13       1.0  T
   4    -38.2924009  0.816633E-04  0.120E-01    1.17       1.0  T
   5    -38.2925383 -0.137383E-03  0.819E-02    1.13       1.0  T
   6    -38.2925501 -0.118008E-04  0.329E-02    1.14       1.0  T
   7    -38.2925548 -0.469397E-05  0.142E-02    1.14       1.3  T
   8    -38.2925548  0.657666E-07  0.597E-03    1.14       3.0  T
   9    -38.2925552 -0.480363E-06  0.356E-03    1.14       5.1  T
  10    -38.2925553 -0.206108E-07  0.146E-03    1.14      12.3  T
  11    -38.2925553 -0.102856E-07  0.570E-04    1.14      31.5  T
  12    -38.2925553 -0.154530E-08  0.158E-04    1.14     113.7  T
     SCC iter.                  ...        0 min,  0.053 sec
     gradient                   ...        0 min,  0.005 sec
 * total energy  :   -37.6315595 Eh     change        0.1646182E-02 Eh
   gradient norm :     0.0578931 Eh/α   predicted    -0.5195884E-02 (-415.63%)
   displ. norm   :     0.2387411 α      lambda       -0.8307720E-02
   maximum displ.:     0.1467384 α      in ANC's #1, #18, #13, ...

........................................................................
.............................. CYCLE    7 ..............................
........................................................................
   1    -38.2804778 -0.382805E+02  0.295E-01    1.15       0.0  T
   2    -38.2806635 -0.185713E-03  0.266E-01    1.12       1.0  T
   3    -38.2807077 -0.442130E-04  0.186E-01    1.13       1.0  T
   4    -38.2806865  0.211987E-04  0.606E-02    1.11       1.0  T
   5    -38.2807237 -0.371893E-04  0.420E-02    1.13       1.0  T
   6    -38.2807301 -0.633537E-05  0.189E-02    1.12       1.0  T
   7    -38.2807316 -0.151413E-05  0.882E-03    1.12       2.0  T
   8    -38.2807315  0.218774E-07  0.432E-03    1.12       4.2  T
   9    -38.2807317 -0.160838E-06  0.189E-03    1.12       9.5  T
  10    -38.2807317 -0.135320E-07  0.105E-03    1.12      17.0  T
  11    -38.2807317 -0.246980E-08  0.451E-04    1.12      39.8  T
  12    -38.2807317 -0.147783E-08  0.119E-04    1.12     151.3  T
     SCC iter.                  ...        0 min,  0.111 sec
     gradient                   ...        0 min,  0.004 sec
 * total energy  :   -37.6358369 Eh     change       -0.4277442E-02 Eh
   gradient norm :     0.0171499 Eh/α   predicted    -0.4390730E-02 (   2.65%)
   displ. norm   :     0.1669026 α      lambda       -0.8922996E-03
   maximum displ.:     0.0765757 α      in ANC's #18, #10, #12, ...

........................................................................
.............................. CYCLE    8 ..............................
........................................................................
   1    -38.2814937 -0.382815E+02  0.118E-01    1.12       0.0  T
   2    -38.2815161 -0.224620E-04  0.744E-02    1.11       1.0  T
   3    -38.2815157  0.416197E-06  0.504E-02    1.12       1.0  T
   4    -38.2815236 -0.785491E-05  0.145E-02    1.12       1.2  T
   5    -38.2815241 -0.497489E-06  0.124E-02    1.12       1.5  T
   6    -38.2815248 -0.757401E-06  0.616E-03    1.12       2.9  T
   7    -38.2815249 -0.682140E-07  0.222E-03    1.12       8.1  T
   8    -38.2815249  0.136691E-07  0.177E-03    1.12      10.2  T
   9    -38.2815249 -0.211765E-07  0.995E-04    1.12      18.1  T
  10    -38.2815249 -0.360536E-08  0.504E-04    1.12      35.7  T
     SCC iter.                  ...        0 min,  0.276 sec
     gradient                   ...        0 min,  0.006 sec
 * total energy  :   -37.6362120 Eh     change       -0.3751363E-03 Eh
   gradient norm :     0.0105441 Eh/α   predicted    -0.4585694E-03 (  22.24%)
   displ. norm   :     0.1812002 α      lambda       -0.4652554E-03
   maximum displ.:     0.1018400 α      in ANC's #10, #11, #12, ...

........................................................................
.............................. CYCLE    9 ..............................
........................................................................
   1    -38.2820171 -0.382820E+02  0.720E-02    1.12       0.0  T
   2    -38.2820211 -0.402091E-05  0.450E-02    1.12       1.0  T
   3    -38.2820170  0.415745E-05  0.229E-02    1.11       1.0  T
   4    -38.2820231 -0.613621E-05  0.517E-03    1.12       3.5  T
   5    -38.2820231 -0.429178E-08  0.407E-03    1.11       4.4  T
   6    -38.2820232 -0.711862E-07  0.167E-03    1.12      10.8  T
   7    -38.2820232 -0.614157E-08  0.970E-04    1.12      18.5  T
   8    -38.2820232 -0.520833E-08  0.581E-04    1.12      30.9  T
     SCC iter.                  ...        0 min,  0.217 sec
     gradient                   ...        0 min,  0.071 sec
 * total energy  :   -37.6365318 Eh     change       -0.3197230E-03 Eh
   gradient norm :     0.0073747 Eh/α   predicted    -0.2402660E-03 ( -24.85%)
   displ. norm   :     0.3061576 α      lambda       -0.4846488E-03
   maximum displ.:     0.1915835 α      in ANC's #10, #4, #3, ...

........................................................................
.............................. CYCLE   10 ..............................
........................................................................
   1    -38.2781936 -0.382782E+02  0.119E-01    1.11       0.0  T
   2    -38.2782011 -0.749101E-05  0.742E-02    1.12       1.0  T
   3    -38.2781871  0.140345E-04  0.426E-02    1.11       1.0  T
   4    -38.2782057 -0.186507E-04  0.104E-02    1.12       1.7  T
   5    -38.2782054  0.319462E-06  0.102E-02    1.12       1.8  T
   6    -38.2782060 -0.600680E-06  0.294E-03    1.12       6.1  T
   7    -38.2782060 -0.197088E-07  0.136E-03    1.12      13.2  T
   8    -38.2782060 -0.571396E-08  0.600E-04    1.12      29.9  T
   9    -38.2782060 -0.865292E-09  0.305E-04    1.12      58.9  T
     SCC iter.                  ...        0 min,  0.372 sec
     gradient                   ...        0 min,  0.085 sec
 * total energy  :   -37.6367982 Eh     change       -0.2664405E-03 Eh
   gradient norm :     0.0111512 Eh/α   predicted    -0.2650358E-03 (  -0.53%)
   displ. norm   :     0.2442568 α      lambda       -0.3686084E-03
   maximum displ.:     0.1606737 α      in ANC's #10, #3, #4, ...

........................................................................
.............................. CYCLE   11 ..............................
........................................................................
   1    -38.2797688 -0.382798E+02  0.878E-02    1.13       0.0  T
   2    -38.2797731 -0.426392E-05  0.571E-02    1.13       1.0  T
   3    -38.2797667  0.644803E-05  0.271E-02    1.13       1.0  T
   4    -38.2797754 -0.872821E-05  0.565E-03    1.13       3.2  T
   5    -38.2797755 -0.922474E-07  0.376E-03    1.13       4.8  T
   6    -38.2797755 -0.438029E-07  0.169E-03    1.13      10.7  T
   7    -38.2797755 -0.296259E-07  0.651E-04    1.13      27.6  T
   8    -38.2797756 -0.131264E-08  0.329E-04    1.13      54.6  T
     SCC iter.                  ...        0 min,  0.209 sec
     gradient                   ...        0 min,  0.090 sec
 * total energy  :   -37.6370736 Eh     change       -0.2754325E-03 Eh
   gradient norm :     0.0119472 Eh/α   predicted    -0.1952991E-03 ( -29.09%)
   displ. norm   :     0.3713941 α      lambda       -0.6198432E-03
   maximum displ.:     0.2048009 α      in ANC's #3, #10, #4, ...

........................................................................
.............................. CYCLE   12 ..............................
........................................................................
   1    -38.2822797 -0.382823E+02  0.132E-01    1.15       0.0  T
   2    -38.2822851 -0.538403E-05  0.784E-02    1.14       1.0  T
   3    -38.2822604  0.247299E-04  0.469E-02    1.15       1.0  T
   4    -38.2822896 -0.291961E-04  0.890E-03    1.14       2.0  T
   5    -38.2822900 -0.398180E-06  0.712E-03    1.15       2.5  T
   6    -38.2822901 -0.110899E-06  0.158E-03    1.14      11.4  T
   7    -38.2822901 -0.353443E-07  0.908E-04    1.14      19.8  T
   8    -38.2822901 -0.234273E-08  0.500E-04    1.14      35.9  T
     SCC iter.                  ...        0 min,  0.196 sec
     gradient                   ...        0 min,  0.079 sec
 * total energy  :   -37.6375644 Eh     change       -0.4907285E-03 Eh
   gradient norm :     0.0120173 Eh/α   predicted    -0.3526694E-03 ( -28.13%)
   displ. norm   :     0.5029845 α      lambda       -0.7896005E-03
   maximum displ.:     0.2827270 α      in ANC's #3, #4, #10, ...

........................................................................
.............................. CYCLE   13 ..............................
........................................................................
   1    -38.2822820 -0.382823E+02  0.155E-01    1.16       0.0  T
   2    -38.2822888 -0.683265E-05  0.900E-02    1.16       1.0  T
   3    -38.2822619  0.269064E-04  0.446E-02    1.17       1.0  T
   4    -38.2822941 -0.322096E-04  0.828E-03    1.16       2.2  T
   5    -38.2822942 -0.750353E-07  0.726E-03    1.17       2.5  T
   6    -38.2822943 -0.116258E-06  0.240E-03    1.16       7.5  T
   7    -38.2822944 -0.416844E-07  0.136E-03    1.16      13.2  T
   8    -38.2822944 -0.225909E-08  0.102E-03    1.16      17.6  T
   9    -38.2822944 -0.218927E-08  0.445E-04    1.16      40.3  T
  10    -38.2822944 -0.535046E-09  0.235E-04    1.16      76.3  T
     SCC iter.                  ...        0 min,  0.194 sec
     gradient                   ...        0 min,  0.009 sec
 * total energy  :   -37.6381958 Eh     change       -0.6314428E-03 Eh
   gradient norm :     0.0153713 Eh/α   predicted    -0.4946749E-03 ( -21.66%)
   displ. norm   :     0.5329935 α      lambda       -0.1089777E-02
   maximum displ.:     0.3069253 α      in ANC's #3, #4, #10, ...

........................................................................
.............................. CYCLE   14 ..............................
........................................................................
   1    -38.2862074 -0.382862E+02  0.173E-01    1.19       0.0  T
   2    -38.2862177 -0.102845E-04  0.984E-02    1.18       1.0  T
   3    -38.2861914  0.263440E-04  0.801E-02    1.20       1.0  T
   4    -38.2862270 -0.355878E-04  0.151E-02    1.19       1.2  T
   5    -38.2862274 -0.407858E-06  0.134E-02    1.19       1.3  T
   6    -38.2862277 -0.383954E-06  0.501E-03    1.19       3.6  T
   7    -38.2862280 -0.254805E-06  0.187E-03    1.19       9.6  T
   8    -38.2862280 -0.419148E-08  0.129E-03    1.19      13.9  T
   9    -38.2862280 -0.119850E-08  0.666E-04    1.19      27.0  T
  10    -38.2862280 -0.309402E-08  0.239E-04    1.19      75.1  T
     SCC iter.                  ...        0 min,  0.034 sec
     gradient                   ...        0 min,  0.004 sec
 * total energy  :   -37.6388894 Eh     change       -0.6935715E-03 Eh
   gradient norm :     0.0152529 Eh/α   predicted    -0.6996603E-03 (   0.88%)
   displ. norm   :     0.7607475 α      lambda       -0.1331950E-02
   maximum displ.:     0.4406711 α      in ANC's #10, #4, #3, ...

........................................................................
.............................. CYCLE   15 ..............................
........................................................................
   1    -38.2702266 -0.382702E+02  0.270E-01    1.17       0.0  T
   2    -38.2702577 -0.310779E-04  0.154E-01    1.22       1.0  T
   3    -38.2702308  0.269479E-04  0.132E-01    1.17       1.0  T
   4    -38.2702951 -0.643408E-04  0.248E-02    1.20       1.0  T
   5    -38.2702955 -0.398487E-06  0.240E-02    1.19       1.0  T
   6    -38.2702972 -0.172213E-05  0.879E-03    1.20       2.0  T
   7    -38.2702979 -0.685827E-06  0.260E-03    1.20       6.9  T
   8    -38.2702979 -0.154207E-07  0.186E-03    1.20       9.6  T
   9    -38.2702979 -0.367050E-08  0.940E-04    1.20      19.1  T
  10    -38.2702979 -0.435342E-08  0.475E-04    1.20      37.8  T
     SCC iter.                  ...        0 min,  0.038 sec
     gradient                   ...        0 min,  0.004 sec
 * total energy  :   -37.6389109 Eh     change       -0.2147508E-04 Eh
   gradient norm :     0.0349571 Eh/α   predicted    -0.1051362E-02 (4795.73%)
   displ. norm   :     0.1805140 α      lambda       -0.2166423E-02
   maximum displ.:     0.0991412 α      in ANC's #10, #12, #11, ...

........................................................................
.............................. CYCLE   16 ..............................
........................................................................
   1    -38.2841254 -0.382841E+02  0.181E-01    1.23       0.0  T
   2    -38.2841453 -0.198628E-04  0.875E-02    1.19       1.0  T
   3    -38.2841488 -0.358549E-05  0.927E-02    1.23       1.0  T
   4    -38.2841773 -0.284590E-04  0.227E-02    1.21       1.0  T
   5    -38.2841781 -0.776164E-06  0.189E-02    1.21       1.0  T
   6    -38.2841784 -0.324055E-06  0.667E-03    1.21       2.7  T
   7    -38.2841789 -0.473547E-06  0.217E-03    1.21       8.3  T
   8    -38.2841789 -0.172913E-07  0.174E-03    1.21      10.3  T
   9    -38.2841789 -0.919892E-08  0.108E-03    1.21      16.7  T
  10    -38.2841789 -0.267174E-08  0.410E-04    1.21      43.8  T
  11    -38.2841789 -0.502325E-09  0.191E-04    1.21      94.0  T
     SCC iter.                  ...        0 min,  0.036 sec
     gradient                   ...        0 min,  0.004 sec
 * total energy  :   -37.6398828 Eh     change       -0.9719669E-03 Eh
   gradient norm :     0.0135622 Eh/α   predicted    -0.1118532E-02 (  15.08%)
   displ. norm   :     0.2678971 α      lambda       -0.7381177E-03
   maximum displ.:     0.1468929 α      in ANC's #3, #4, #7, ...

........................................................................
.............................. CYCLE   17 ..............................
........................................................................
   1    -38.2831335 -0.382831E+02  0.125E-01    1.21       0.0  T
   2    -38.2831403 -0.677615E-05  0.753E-02    1.21       1.0  T
   3    -38.2831306  0.976113E-05  0.530E-02    1.22       1.0  T
   4    -38.2831439 -0.133891E-04  0.960E-03    1.21       1.9  T
   5    -38.2831440 -0.878975E-07  0.116E-02    1.21       1.5  T
   6    -38.2831446 -0.556742E-06  0.388E-03    1.21       4.6  T
   7    -38.2831448 -0.168283E-06  0.175E-03    1.21      10.3  T
   8    -38.2831448 -0.267315E-08  0.107E-03    1.21      16.9  T
   9    -38.2831448 -0.582888E-08  0.576E-04    1.21      31.2  T
  10    -38.2831448 -0.148074E-08  0.205E-04    1.21      87.5  T
     SCC iter.                  ...        0 min,  0.049 sec
     gradient                   ...        0 min,  0.008 sec
 * total energy  :   -37.6402460 Eh     change       -0.3631844E-03 Eh
   gradient norm :     0.0207212 Eh/α   predicted    -0.3955916E-03 (   8.92%)
   displ. norm   :     0.3647540 α      lambda       -0.9595580E-03
   maximum displ.:     0.2215903 α      in ANC's #10, #3, #4, ...

........................................................................
.............................. CYCLE   18 ..............................
........................................................................
   1    -38.2857554 -0.382858E+02  0.154E-01    1.23       0.0  T
   2    -38.2857680 -0.126136E-04  0.856E-02    1.25       1.0  T
   3    -38.2857528  0.152375E-04  0.825E-02    1.22       1.0  T
   4    -38.2857777 -0.249018E-04  0.193E-02    1.24       1.0  T
   5    -38.2857773  0.446840E-06  0.223E-02    1.23       1.0  T
   6    -38.2857786 -0.131728E-05  0.816E-03    1.24       2.2  T
   7    -38.2857791 -0.509397E-06  0.116E-03    1.24      15.4  T
   8    -38.2857791 -0.345349E-08  0.826E-04    1.24      21.7  T
   9    -38.2857791 -0.342027E-08  0.398E-04    1.24      45.1  T
     SCC iter.                  ...        0 min,  0.043 sec
     gradient                   ...        0 min,  0.004 sec
 * total energy  :   -37.6404626 Eh     change       -0.2165673E-03 Eh
   gradient norm :     0.0192618 Eh/α   predicted    -0.5437646E-03 ( 151.08%)
   displ. norm   :     0.3907663 α      lambda       -0.9705840E-03
   maximum displ.:     0.2192942 α      in ANC's #4, #3, #10, ...

........................................................................
.............................. CYCLE   19 ..............................
........................................................................
   1    -38.2773883 -0.382774E+02  0.143E-01    1.22       0.0  T
   2    -38.2773931 -0.486284E-05  0.945E-02    1.23       1.0  T
   3    -38.2773716  0.215465E-04  0.323E-02    1.23       1.0  T
   4    -38.2773947 -0.231294E-04  0.178E-02    1.23       1.0  T
   5    -38.2773960 -0.128419E-05  0.990E-03    1.23       1.8  T
   6    -38.2773966 -0.595670E-06  0.273E-03    1.23       6.6  T
   7    -38.2773966 -0.506550E-07  0.138E-03    1.23      13.0  T
   8    -38.2773966  0.169980E-08  0.809E-04    1.23      22.2  T
   9    -38.2773966 -0.620629E-08  0.394E-04    1.23      45.5  T
     SCC iter.                  ...        0 min,  0.532 sec
     gradient                   ...        0 min,  0.132 sec
 * total energy  :   -37.6408014 Eh     change       -0.3388561E-03 Eh
   gradient norm :     0.0233589 Eh/α   predicted    -0.5594905E-03 (  65.11%)
   displ. norm   :     0.1394405 α      lambda       -0.6671237E-03
   maximum displ.:     0.0935847 α      in ANC's #10, #4, #3, ...

........................................................................
.............................. CYCLE   20 ..............................
........................................................................
   1    -38.2858529 -0.382859E+02  0.100E-01    1.24       0.0  T
   2    -38.2858614 -0.851781E-05  0.456E-02    1.22       1.0  T
   3    -38.2858638 -0.236806E-05  0.509E-02    1.24       1.0  T
   4    -38.2858722 -0.839090E-05  0.124E-02    1.23       1.5  T
   5    -38.2858722  0.267127E-07  0.108E-02    1.23       1.7  T
   6    -38.2858725 -0.368270E-06  0.388E-03    1.23       4.6  T
   7    -38.2858726 -0.119186E-06  0.130E-03    1.23      13.9  T
   8    -38.2858726 -0.950244E-09  0.116E-03    1.23      15.4  T
   9    -38.2858727 -0.385872E-08  0.673E-04    1.23      26.7  T
  10    -38.2858727 -0.189064E-08  0.220E-04    1.23      81.7  T
     SCC iter.                  ...        0 min,  0.719 sec
     gradient                   ...        0 min,  0.084 sec
 * total energy  :   -37.6410063 Eh     change       -0.2049211E-03 Eh
   gradient norm :     0.0101927 Eh/α   predicted    -0.3399812E-03 (  65.91%)
   displ. norm   :     0.2680761 α      lambda       -0.4334872E-03
   maximum displ.:     0.1426607 α      in ANC's #3, #10, #4, ...
 * RMSD in coord.:     0.8366561 α      energy gain  -0.8024683E-01 Eh

generating ANC from model Hessian ...
Using Lindh-Hessian (1995)
 Shifting diagonal of input Hessian by    1.0622553870141747E-002
 Lowest  eigenvalues of input Hessian
    0.010000    0.000000    0.000000    0.000000    0.000000    0.000000
    0.000000    0.010786    0.011178    0.011721    0.011945    0.012309
    0.012339    0.012774    0.014436    0.015136    0.015602    0.017517
 Highest eigenvalues
    1.743502    1.747734    1.782980    2.839718    3.277352    4.172788


........................................................................
.............................. CYCLE   21 ..............................
........................................................................
   1    -38.2852496 -0.382852E+02  0.907E-02    1.23       0.0  T
   2    -38.2852516 -0.199034E-05  0.537E-02    1.24       1.0  T
   3    -38.2852453  0.635386E-05  0.394E-02    1.23       1.0  T
   4    -38.2852531 -0.785171E-05  0.806E-03    1.24       2.2  T
   5    -38.2852530  0.118257E-06  0.823E-03    1.24       2.2  T
   6    -38.2852532 -0.185681E-06  0.308E-03    1.24       5.8  T
   7    -38.2852533 -0.705866E-07  0.604E-04    1.24      29.7  T
   8    -38.2852533 -0.196124E-08  0.390E-04    1.24      46.0  T
     SCC iter.                  ...        0 min,  0.567 sec
     gradient                   ...        0 min,  0.144 sec
 * total energy  :   -37.6412933 Eh     change       -0.2869770E-03 Eh
   gradient norm :     0.0094356 Eh/α   predicted     0.0000000E+00 (-100.00%)
   displ. norm   :     0.1114100 α      lambda       -0.2261216E-03
   maximum displ.:     0.0884689 α      in ANC's #5, #4, #2, ...

........................................................................
.............................. CYCLE   22 ..............................
........................................................................
   1    -38.2868250 -0.382868E+02  0.464E-02    1.25       0.0  T
   2    -38.2868255 -0.461757E-06  0.297E-02    1.24       1.0  T
   3    -38.2868240  0.149006E-05  0.190E-02    1.25       1.0  T
   4    -38.2868261 -0.212656E-05  0.412E-03    1.25       4.4  T
   5    -38.2868262 -0.865935E-07  0.219E-03    1.25       8.2  T
   6    -38.2868262 -0.352870E-07  0.923E-04    1.25      19.5  T
   7    -38.2868263 -0.992855E-08  0.352E-04    1.25      51.0  T
     SCC iter.                  ...        0 min,  0.494 sec
     gradient                   ...        0 min,  0.170 sec
 * total energy  :   -37.6414790 Eh     change       -0.1856273E-03 Eh
   gradient norm :     0.0027829 Eh/α   predicted    -0.1144701E-03 ( -38.33%)
   displ. norm   :     0.2419419 α      lambda       -0.3202083E-03
   maximum displ.:     0.1863545 α      in ANC's #5, #4, #2, ...

........................................................................
.............................. CYCLE   23 ..............................
........................................................................
   1    -38.2873507 -0.382874E+02  0.865E-02    1.26       0.0  T
   2    -38.2873522 -0.140280E-05  0.551E-02    1.25       1.0  T
   3    -38.2873467  0.545294E-05  0.193E-02    1.26       1.0  T
   4    -38.2873528 -0.614734E-05  0.726E-03    1.26       2.5  T
   5    -38.2873530 -0.186874E-06  0.354E-03    1.26       5.1  T
   6    -38.2873531 -0.761387E-07  0.181E-03    1.26       9.9  T
   7    -38.2873531 -0.261954E-07  0.803E-04    1.26      22.4  T
   8    -38.2873531  0.891632E-09  0.806E-04    1.26      22.3  T
     SCC iter.                  ...        0 min,  0.602 sec
     gradient                   ...        0 min,  0.205 sec
 * total energy  :   -37.6417367 Eh     change       -0.2577734E-03 Eh
   gradient norm :     0.0038640 Eh/α   predicted    -0.1694826E-03 ( -34.25%)
   displ. norm   :     0.2701290 α      lambda       -0.2642630E-03
   maximum displ.:     0.1972221 α      in ANC's #5, #4, #2, ...

........................................................................
.............................. CYCLE   24 ..............................
........................................................................
   1    -38.2863241 -0.382863E+02  0.997E-02    1.26       0.0  T
   2    -38.2863253 -0.121932E-05  0.644E-02    1.26       1.0  T
   3    -38.2863196  0.576754E-05  0.164E-02    1.26       1.1  T
   4    -38.2863260 -0.645722E-05  0.656E-03    1.26       2.7  T
   5    -38.2863262 -0.141060E-06  0.336E-03    1.26       5.3  T
   6    -38.2863263 -0.997583E-07  0.158E-03    1.26      11.4  T
   7    -38.2863263 -0.977685E-08  0.821E-04    1.26      21.9  T
   8    -38.2863263  0.193459E-08  0.685E-04    1.26      26.2  T
     SCC iter.                  ...        0 min,  0.743 sec
     gradient                   ...        0 min,  0.252 sec
 * total energy  :   -37.6419591 Eh     change       -0.2223334E-03 Eh
   gradient norm :     0.0064198 Eh/α   predicted    -0.1417740E-03 ( -36.23%)
   displ. norm   :     0.3535285 α      lambda       -0.3183692E-03
   maximum displ.:     0.2475066 α      in ANC's #5, #4, #2, ...

........................................................................
.............................. CYCLE   25 ..............................
........................................................................
   1    -38.2844347 -0.382844E+02  0.124E-01    1.26       0.0  T
   2    -38.2844363 -0.165481E-05  0.813E-02    1.25       1.0  T
   3    -38.2844228  0.134781E-04  0.247E-02    1.25       1.0  T
   4    -38.2844377 -0.148563E-04  0.755E-03    1.25       2.4  T
   5    -38.2844378 -0.796172E-07  0.503E-03    1.25       3.6  T
   6    -38.2844378 -0.672351E-07  0.170E-03    1.26      10.6  T
   7    -38.2844379 -0.393206E-07  0.976E-04    1.25      18.4  T
   8    -38.2844379 -0.434717E-09  0.640E-04    1.26      28.1  T
     SCC iter.                  ...        0 min,  0.771 sec
     gradient                   ...        0 min,  0.192 sec
 * total energy  :   -37.6422004 Eh     change       -0.2413391E-03 Eh
   gradient norm :     0.0113207 Eh/α   predicted    -0.1790826E-03 ( -25.80%)
   displ. norm   :     0.3469447 α      lambda       -0.3220438E-03
   maximum displ.:     0.2359436 α      in ANC's #5, #2, #4, ...

........................................................................
.............................. CYCLE   26 ..............................
........................................................................
   1    -38.2834522 -0.382835E+02  0.124E-01    1.25       0.0  T
   2    -38.2834536 -0.140813E-05  0.816E-02    1.25       1.0  T
   3    -38.2834353  0.183595E-04  0.311E-02    1.24       1.0  T
   4    -38.2834553 -0.200314E-04  0.605E-03    1.25       3.0  T
   5    -38.2834553  0.166070E-07  0.509E-03    1.25       3.5  T
   6    -38.2834554 -0.994208E-07  0.147E-03    1.25      12.2  T
   7    -38.2834554 -0.232332E-07  0.877E-04    1.25      20.5  T
   8    -38.2834554  0.889457E-10  0.604E-04    1.25      29.7  T
     SCC iter.                  ...        0 min,  0.832 sec
     gradient                   ...        0 min,  0.211 sec
 * total energy  :   -37.6424327 Eh     change       -0.2323478E-03 Eh
   gradient norm :     0.0128569 Eh/α   predicted    -0.1804042E-03 ( -22.36%)
   displ. norm   :     0.2540092 α      lambda       -0.3654673E-03
   maximum displ.:     0.1470093 α      in ANC's #2, #5, #4, ...

........................................................................
.............................. CYCLE   27 ..............................
........................................................................
   1    -38.2867659 -0.382868E+02  0.939E-02    1.25       0.0  T
   2    -38.2867677 -0.180713E-05  0.613E-02    1.25       1.0  T
   3    -38.2867616  0.609719E-05  0.317E-02    1.25       1.0  T
   4    -38.2867686 -0.701816E-05  0.633E-03    1.25       2.8  T
   5    -38.2867689 -0.315371E-06  0.344E-03    1.25       5.2  T
   6    -38.2867690 -0.500517E-07  0.152E-03    1.25      11.8  T
   7    -38.2867690 -0.262431E-07  0.725E-04    1.25      24.8  T
   8    -38.2867690  0.277652E-09  0.791E-04    1.25      22.7  T
     SCC iter.                  ...        0 min,  0.866 sec
     gradient                   ...        0 min,  0.263 sec
 * total energy  :   -37.6426660 Eh     change       -0.2332545E-03 Eh
   gradient norm :     0.0043026 Eh/α   predicted    -0.1945891E-03 ( -16.58%)
   displ. norm   :     0.4588273 α      lambda       -0.2609058E-03
   maximum displ.:     0.2740057 α      in ANC's #5, #2, #4, ...

........................................................................
.............................. CYCLE   28 ..............................
........................................................................
   1    -38.2833511 -0.382834E+02  0.171E-01    1.22       0.0  T
   2    -38.2833538 -0.265801E-05  0.112E-01    1.23       1.0  T
   3    -38.2833283  0.254653E-04  0.455E-02    1.22       1.0  T
   4    -38.2833565 -0.281279E-04  0.109E-02    1.23       1.6  T
   5    -38.2833563  0.115911E-06  0.877E-03    1.22       2.0  T
   6    -38.2833568 -0.466768E-06  0.247E-03    1.23       7.3  T
   7    -38.2833568 -0.316625E-07  0.146E-03    1.23      12.3  T
   8    -38.2833568 -0.299522E-09  0.681E-04    1.23      26.4  T
   9    -38.2833568 -0.390587E-08  0.306E-04    1.23      58.8  T
     SCC iter.                  ...        0 min,  0.760 sec
     gradient                   ...        0 min,  0.172 sec
 * total energy  :   -37.6427826 Eh     change       -0.1166468E-03 Eh
   gradient norm :     0.0202153 Eh/α   predicted    -0.1579263E-03 (  35.39%)
   displ. norm   :     0.0902945 α      lambda       -0.2100942E-03
   maximum displ.:     0.0716101 α      in ANC's #2, #5, #1, ...

........................................................................
.............................. CYCLE   29 ..............................
........................................................................
   1    -38.2870193 -0.382870E+02  0.379E-02    1.24       0.0  T
   2    -38.2870198 -0.483219E-06  0.273E-02    1.24       1.0  T
   3    -38.2870175  0.226210E-05  0.125E-02    1.24       1.4  T
   4    -38.2870201 -0.256281E-05  0.479E-03    1.24       3.8  T
   5    -38.2870201 -0.640342E-07  0.230E-03    1.24       7.8  T
   6    -38.2870202 -0.114075E-07  0.755E-04    1.24      23.8  T
   7    -38.2870202 -0.719960E-08  0.304E-04    1.24      59.1  T
     SCC iter.                  ...        0 min,  0.794 sec
     gradient                   ...        0 min,  0.004 sec
 * total energy  :   -37.6429232 Eh     change       -0.1405979E-03 Eh
   gradient norm :     0.0070964 Eh/α   predicted    -0.1059043E-03 ( -24.68%)
   displ. norm   :     0.3374297 α      lambda       -0.2232526E-03
   maximum displ.:     0.2402984 α      in ANC's #2, #4, #5, ...

........................................................................
.............................. CYCLE   30 ..............................
........................................................................
   1    -38.2887121 -0.382887E+02  0.123E-01    1.24       0.0  T
   2    -38.2887160 -0.382964E-05  0.857E-02    1.23       1.0  T
   3    -38.2887076  0.835758E-05  0.516E-02    1.25       1.0  T
   4    -38.2887198 -0.121977E-04  0.682E-03    1.23       2.6  T
   5    -38.2887203 -0.473825E-06  0.735E-03    1.24       2.4  T
   6    -38.2887205 -0.205915E-06  0.367E-03    1.24       4.9  T
   7    -38.2887206 -0.874566E-07  0.970E-04    1.23      18.5  T
   8    -38.2887206 -0.909452E-09  0.715E-04    1.23      25.1  T
     SCC iter.                  ...        0 min,  0.465 sec
     gradient                   ...        0 min,  0.118 sec
 * total energy  :   -37.6430881 Eh     change       -0.1648773E-03 Eh
   gradient norm :     0.0085652 Eh/α   predicted    -0.1243388E-03 ( -24.59%)
   displ. norm   :     0.6331686 α      lambda       -0.3061449E-03
   maximum displ.:     0.4452515 α      in ANC's #2, #5, #4, ...

........................................................................
.............................. CYCLE   31 ..............................
........................................................................
   1    -38.2829278 -0.382829E+02  0.232E-01    1.22       0.0  T
   2    -38.2829352 -0.735719E-05  0.155E-01    1.21       1.0  T
   3    -38.2828848  0.503957E-04  0.457E-02    1.21       1.0  T
   4    -38.2829402 -0.553954E-04  0.154E-02    1.21       1.2  T
   5    -38.2829407 -0.475575E-06  0.115E-02    1.21       1.6  T
   6    -38.2829411 -0.448497E-06  0.372E-03    1.21       4.8  T
   7    -38.2829412 -0.515953E-07  0.195E-03    1.21       9.2  T
   8    -38.2829412 -0.182615E-07  0.944E-04    1.21      19.0  T
   9    -38.2829412 -0.268972E-08  0.349E-04    1.21      51.4  T
     SCC iter.                  ...        0 min,  0.775 sec
     gradient                   ...        0 min,  0.305 sec
 * total energy  :   -37.6431988 Eh     change       -0.1106594E-03 Eh
   gradient norm :     0.0220765 Eh/α   predicted    -0.2144416E-03 (  93.79%)
   displ. norm   :     0.1352043 α      lambda       -0.4254358E-03
   maximum displ.:     0.1004988 α      in ANC's #2, #1, #8, ...

........................................................................
.............................. CYCLE   32 ..............................
........................................................................
   1    -38.2885382 -0.382885E+02  0.835E-02    1.24       0.0  T
   2    -38.2885410 -0.278569E-05  0.656E-02    1.23       1.0  T
   3    -38.2885422 -0.117603E-05  0.388E-02    1.24       1.0  T
   4    -38.2885443 -0.212794E-05  0.851E-03    1.23       2.1  T
   5    -38.2885450 -0.668874E-06  0.449E-03    1.23       4.0  T
   6    -38.2885451 -0.110539E-06  0.126E-03    1.23      14.2  T
   7    -38.2885451 -0.213563E-07  0.765E-04    1.23      23.5  T
   8    -38.2885451 -0.996444E-09  0.506E-04    1.23      35.5  T
     SCC iter.                  ...        0 min,  0.856 sec
     gradient                   ...        0 min,  0.270 sec
 * total energy  :   -37.6434224 Eh     change       -0.2236510E-03 Eh
   gradient norm :     0.0051185 Eh/α   predicted    -0.2166109E-03 (  -3.15%)
   displ. norm   :     0.4382939 α      lambda       -0.2686756E-03
   maximum displ.:     0.3564640 α      in ANC's #2, #4, #5, ...

........................................................................
.............................. CYCLE   33 ..............................
........................................................................
   1    -38.2870237 -0.382870E+02  0.171E-01    1.21       0.0  T
   2    -38.2870293 -0.563715E-05  0.119E-01    1.21       1.0  T
   3    -38.2870099  0.194452E-04  0.470E-02    1.22       1.0  T
   4    -38.2870329 -0.229801E-04  0.999E-03    1.21       1.8  T
   5    -38.2870328  0.159080E-07  0.925E-03    1.21       1.9  T
   6    -38.2870332 -0.411124E-06  0.383E-03    1.21       4.7  T
   7    -38.2870334 -0.140293E-06  0.189E-03    1.21       9.5  T
   8    -38.2870334 -0.241873E-08  0.980E-04    1.21      18.3  T
   9    -38.2870334 -0.103990E-07  0.421E-04    1.21      42.6  T
     SCC iter.                  ...        0 min,  1.151 sec
     gradient                   ...        0 min,  0.238 sec
 * total energy  :   -37.6436251 Eh     change       -0.2026809E-03 Eh
   gradient norm :     0.0142245 Eh/α   predicted    -0.1601657E-03 ( -20.98%)
   displ. norm   :     0.5662960 α      lambda       -0.3306905E-03
   maximum displ.:     0.4688250 α      in ANC's #2, #5, #4, ...

........................................................................
.............................. CYCLE   34 ..............................
........................................................................
   1    -38.2827686 -0.382828E+02  0.185E-01    1.18       0.0  T
   2    -38.2827735 -0.493559E-05  0.121E-01    1.18       1.0  T
   3    -38.2827197  0.538213E-04  0.561E-02    1.16       1.0  T
   4    -38.2827789 -0.591938E-04  0.131E-02    1.18       1.4  T
   5    -38.2827794 -0.492600E-06  0.981E-03    1.17       1.8  T
   6    -38.2827796 -0.145073E-06  0.382E-03    1.18       4.7  T
   7    -38.2827796 -0.808984E-07  0.179E-03    1.18      10.0  T
   8    -38.2827797 -0.140201E-07  0.891E-04    1.18      20.2  T
   9    -38.2827797 -0.310238E-08  0.361E-04    1.18      49.7  T
     SCC iter.                  ...        0 min,  1.118 sec
     gradient                   ...        0 min,  0.167 sec
 * total energy  :   -37.6438216 Eh     change       -0.1964638E-03 Eh
   gradient norm :     0.0204584 Eh/α   predicted    -0.2183681E-03 (  11.15%)
   displ. norm   :     0.2439811 α      lambda       -0.4336530E-03
   maximum displ.:     0.2069941 α      in ANC's #2, #6, #10, ...

........................................................................
.............................. CYCLE   35 ..............................
........................................................................
   1    -38.2891024 -0.382891E+02  0.790E-02    1.17       0.0  T
   2    -38.2891051 -0.269673E-05  0.463E-02    1.18       1.0  T
   3    -38.2890987  0.647019E-05  0.327E-02    1.17       1.0  T
   4    -38.2891069 -0.823932E-05  0.636E-03    1.17       2.8  T
   5    -38.2891069  0.234218E-07  0.774E-03    1.17       2.3  T
   6    -38.2891071 -0.193550E-06  0.312E-03    1.17       5.8  T
   7    -38.2891072 -0.722260E-07  0.104E-03    1.17      17.2  T
   8    -38.2891072 -0.278824E-08  0.583E-04    1.17      30.8  T
   9    -38.2891072 -0.657202E-09  0.282E-04    1.17      63.6  T
     SCC iter.                  ...        0 min,  1.071 sec
     gradient                   ...        0 min,  0.307 sec
 * total energy  :   -37.6440539 Eh     change       -0.2323296E-03 Eh
   gradient norm :     0.0140718 Eh/α   predicted    -0.2297369E-03 (  -1.12%)
   displ. norm   :     0.5591166 α      lambda       -0.6140289E-03
   maximum displ.:     0.4845679 α      in ANC's #2, #1, #57, ...

........................................................................
.............................. CYCLE   36 ..............................
........................................................................
   1    -38.2880483 -0.382880E+02  0.240E-01    1.15       0.0  T
   2    -38.2880548 -0.657084E-05  0.160E-01    1.14       1.0  T
   3    -38.2880205  0.343552E-04  0.502E-02    1.16       1.0  T
   4    -38.2880592 -0.386976E-04  0.151E-02    1.15       1.2  T
   5    -38.2880592  0.100738E-07  0.985E-03    1.15       1.8  T
   6    -38.2880596 -0.442013E-06  0.353E-03    1.15       5.1  T
   7    -38.2880598 -0.162243E-06  0.177E-03    1.15      10.2  T
   8    -38.2880598 -0.420286E-09  0.128E-03    1.15      14.0  T
   9    -38.2880598 -0.132243E-07  0.582E-04    1.15      30.9  T
  10    -38.2880598 -0.500954E-09  0.328E-04    1.15      54.8  T
     SCC iter.                  ...        0 min,  1.065 sec
     gradient                   ...        0 min,  0.248 sec
 * total energy  :   -37.6444166 Eh     change       -0.3627019E-03 Eh
   gradient norm :     0.0151260 Eh/α   predicted    -0.4029944E-03 (  11.11%)
   displ. norm   :     0.4450462 α      lambda       -0.5259857E-03
   maximum displ.:     0.3906415 α      in ANC's #2, #57, #1, ...

........................................................................
.............................. CYCLE   37 ..............................
........................................................................
   1    -38.2868387 -0.382868E+02  0.124E-01    1.14       0.0  T
   2    -38.2868427 -0.395701E-05  0.790E-02    1.14       1.0  T
   3    -38.2868249  0.177908E-04  0.295E-02    1.14       1.0  T
   4    -38.2868454 -0.204403E-04  0.790E-03    1.14       2.3  T
   5    -38.2868457 -0.309817E-06  0.544E-03    1.14       3.3  T
   6    -38.2868458 -0.137826E-06  0.166E-03    1.14      10.8  T
   7    -38.2868458 -0.116223E-07  0.114E-03    1.14      15.7  T
   8    -38.2868458 -0.699096E-08  0.581E-04    1.14      30.9  T
   9    -38.2868458  0.267761E-09  0.479E-04    1.14      37.5  T
     SCC iter.                  ...        0 min,  0.791 sec
     gradient                   ...        0 min,  0.312 sec
 * total energy  :   -37.6447730 Eh     change       -0.3563836E-03 Eh
   gradient norm :     0.0157466 Eh/α   predicted    -0.3150860E-03 ( -11.59%)
   displ. norm   :     0.4403065 α      lambda       -0.5610654E-03
   maximum displ.:     0.3913699 α      in ANC's #2, #57, #1, ...

........................................................................
.............................. CYCLE   38 ..............................
........................................................................
   1    -38.2891332 -0.382891E+02  0.155E-01    1.15       0.0  T
   2    -38.2891370 -0.386678E-05  0.101E-01    1.14       1.0  T
   3    -38.2891183  0.187813E-04  0.401E-02    1.15       1.0  T
   4    -38.2891397 -0.214665E-04  0.104E-02    1.14       1.7  T
   5    -38.2891399 -0.124182E-06  0.680E-03    1.14       2.6  T
   6    -38.2891400 -0.173500E-06  0.195E-03    1.14       9.2  T
   7    -38.2891401 -0.228833E-07  0.149E-03    1.14      12.1  T
   8    -38.2891401 -0.149530E-07  0.767E-04    1.14      23.4  T
   9    -38.2891401 -0.141114E-08  0.397E-04    1.14      45.3  T
     SCC iter.                  ...        0 min,  1.105 sec
     gradient                   ...        0 min,  0.371 sec
 * total energy  :   -37.6451607 Eh     change       -0.3876581E-03 Eh
   gradient norm :     0.0138522 Eh/α   predicted    -0.3349250E-03 ( -13.60%)
   displ. norm   :     0.6314735 α      lambda       -0.6422703E-03
   maximum displ.:     0.5338734 α      in ANC's #2, #1, #57, ...

........................................................................
.............................. CYCLE   39 ..............................
........................................................................
   1    -38.2862387 -0.382862E+02  0.211E-01    1.12       0.0  T
   2    -38.2862467 -0.802050E-05  0.132E-01    1.11       1.0  T
   3    -38.2862184  0.282787E-04  0.431E-02    1.12       1.0  T
   4    -38.2862516 -0.332200E-04  0.166E-02    1.11       1.1  T
   5    -38.2862516  0.929671E-07  0.113E-02    1.11       1.6  T
   6    -38.2862517 -0.187664E-06  0.358E-03    1.11       5.0  T
   7    -38.2862519 -0.188251E-06  0.180E-03    1.11      10.0  T
   8    -38.2862519 -0.214127E-08  0.117E-03    1.11      15.3  T
   9    -38.2862519 -0.107299E-07  0.379E-04    1.11      47.3  T
  10    -38.2862519 -0.190852E-10  0.219E-04    1.11      82.0  T
     SCC iter.                  ...        0 min,  1.307 sec
     gradient                   ...        0 min,  0.245 sec
 * total energy  :   -37.6455856 Eh     change       -0.4249343E-03 Eh
   gradient norm :     0.0109922 Eh/α   predicted    -0.4491952E-03 (   5.71%)
   displ. norm   :     0.3973393 α      lambda       -0.9392596E-03
   maximum displ.:     0.2284098 α      in ANC's #5, #2, #3, ...

........................................................................
.............................. CYCLE   40 ..............................
........................................................................
   1    -38.3125506 -0.383126E+02  0.208E-01    1.14       0.0  T
   2    -38.3125668 -0.162589E-04  0.129E-01    1.14       1.0  T
   3    -38.3125347  0.321716E-04  0.470E-02    1.16       1.0  T
   4    -38.3125705 -0.357852E-04  0.327E-02    1.14       1.0  T
   5    -38.3125732 -0.277714E-05  0.182E-02    1.14       1.0  T
   6    -38.3125735 -0.279630E-06  0.739E-03    1.14       2.4  T
   7    -38.3125740 -0.443076E-06  0.145E-03    1.14      12.4  T
   8    -38.3125740 -0.375395E-08  0.100E-03    1.14      17.9  T
   9    -38.3125740 -0.367150E-08  0.608E-04    1.14      29.6  T
  10    -38.3125740 -0.602228E-09  0.354E-04    1.14      50.7  T
     SCC iter.                  ...        0 min,  0.967 sec
     gradient                   ...        0 min,  0.076 sec
 * total energy  :   -37.6445806 Eh     change        0.1004945E-02 Eh
   gradient norm :     0.0723759 Eh/α   predicted    -0.5437802E-03 (-154.11%)
   displ. norm   :     0.2787844 α      lambda       -0.2757584E-02
   maximum displ.:     0.2284313 α      in ANC's #2, #5, #4, ...

........................................................................
.............................. CYCLE   41 ..............................
........................................................................
   1    -38.2952291 -0.382952E+02  0.176E-01    1.09       0.0  T
   2    -38.2952394 -0.102528E-04  0.113E-01    1.10       1.0  T
   3    -38.2952055  0.338933E-04  0.742E-02    1.08       1.0  T
   4    -38.2952471 -0.415648E-04  0.186E-02    1.10       1.0  T
   5    -38.2952483 -0.124486E-05  0.102E-02    1.10       1.8  T
   6    -38.2952485 -0.158703E-06  0.475E-03    1.10       3.8  T
   7    -38.2952487 -0.181231E-06  0.199E-03    1.10       9.0  T
   8    -38.2952487  0.170292E-08  0.163E-03    1.10      11.0  T
   9    -38.2952487 -0.592240E-08  0.956E-04    1.10      18.8  T
  10    -38.2952487 -0.451593E-08  0.224E-04    1.10      80.2  T
     SCC iter.                  ...        0 min,  1.167 sec
     gradient                   ...        0 min,  0.162 sec
 * total energy  :   -37.6460732 Eh     change       -0.1492607E-02 Eh
   gradient norm :     0.0106525 Eh/α   predicted    -0.1485953E-02 (  -0.45%)
   displ. norm   :     0.5960751 α      lambda       -0.5201582E-03
   maximum displ.:     0.5126628 α      in ANC's #2, #1, #57, ...

........................................................................
.............................. CYCLE   42 ..............................
........................................................................
   1    -38.2846521 -0.382847E+02  0.192E-01    1.08       0.0  T
   2    -38.2846577 -0.561454E-05  0.122E-01    1.08       1.0  T
   3    -38.2846039  0.538309E-04  0.605E-02    1.06       1.0  T
   4    -38.2846637 -0.598010E-04  0.168E-02    1.08       1.1  T
   5    -38.2846641 -0.389287E-06  0.119E-02    1.08       1.5  T
   6    -38.2846641  0.640460E-08  0.512E-03    1.08       3.5  T
   7    -38.2846644 -0.254288E-06  0.154E-03    1.08      11.7  T
   8    -38.2846644 -0.122533E-07  0.952E-04    1.08      18.9  T
   9    -38.2846644 -0.748763E-09  0.421E-04    1.08      42.7  T
     SCC iter.                  ...        0 min,  1.140 sec
     gradient                   ...        0 min,  0.088 sec
 * total energy  :   -37.6463524 Eh     change       -0.2791516E-03 Eh
   gradient norm :     0.0145149 Eh/α   predicted    -0.3524875E-03 (  26.27%)
   displ. norm   :     0.2309212 α      lambda       -0.3216506E-03
   maximum displ.:     0.1873854 α      in ANC's #2, #1, #57, ...
 * RMSD in coord.:     1.2386366 α      energy gain  -0.5346050E-02 Eh

generating ANC from model Hessian ...
Using Lindh-Hessian (1995)
 Shifting diagonal of input Hessian by    1.0442639708800066E-002
 Lowest  eigenvalues of input Hessian
    0.010000    0.000000    0.000000    0.000000    0.000000    0.000000
    0.000000    0.010662    0.010931    0.011571    0.011887    0.012066
    0.012214    0.012593    0.014193    0.014997    0.015437    0.017490
 Highest eigenvalues
    1.730098    1.741967    1.944702    2.713216    2.918319    4.491596


........................................................................
.............................. CYCLE   43 ..............................
........................................................................
   1    -38.2865980 -0.382866E+02  0.966E-02    1.08       0.0  T
   2    -38.2865995 -0.150135E-05  0.638E-02    1.08       1.0  T
   3    -38.2865906  0.890901E-05  0.190E-02    1.08       1.0  T
   4    -38.2866004 -0.986840E-05  0.520E-03    1.08       3.5  T
   5    -38.2866005 -0.302580E-07  0.470E-03    1.08       3.8  T
   6    -38.2866006 -0.138320E-06  0.143E-03    1.08      12.5  T
   7    -38.2866006 -0.637332E-08  0.808E-04    1.08      22.2  T
   8    -38.2866006  0.528935E-09  0.681E-04    1.08      26.4  T
     SCC iter.                  ...        0 min,  0.739 sec
     gradient                   ...        0 min,  0.137 sec
 * total energy  :   -37.6466035 Eh     change       -0.2511245E-03 Eh
   gradient norm :     0.0125164 Eh/α   predicted     0.0000000E+00 (-100.00%)
   displ. norm   :     0.0930510 α      lambda       -0.2570113E-03
   maximum displ.:     0.0446355 α      in ANC's #3, #10, #5, ...

........................................................................
.............................. CYCLE   44 ..............................
........................................................................
   1    -38.2920132 -0.382920E+02  0.531E-02    1.09       0.0  T
   2    -38.2920148 -0.159691E-05  0.410E-02    1.08       1.0  T
   3    -38.2920145  0.323683E-06  0.226E-02    1.09       1.0  T
   4    -38.2920164 -0.187300E-05  0.500E-03    1.08       3.6  T
   5    -38.2920165 -0.145086E-06  0.287E-03    1.09       6.3  T
   6    -38.2920165 -0.239518E-07  0.122E-03    1.08      14.8  T
   7    -38.2920166 -0.163676E-07  0.690E-04    1.08      26.0  T
   8    -38.2920166 -0.168761E-08  0.513E-04    1.08      35.0  T
     SCC iter.                  ...        0 min,  1.205 sec
     gradient                   ...        0 min,  0.218 sec
 * total energy  :   -37.6467777 Eh     change       -0.1741367E-03 Eh
   gradient norm :     0.0023175 Eh/α   predicted    -0.1296227E-03 ( -25.56%)
   displ. norm   :     0.1403530 α      lambda       -0.1473908E-03
   maximum displ.:     0.0837433 α      in ANC's #3, #5, #1, ...

........................................................................
.............................. CYCLE   45 ..............................
........................................................................
   1    -38.2952563 -0.382953E+02  0.486E-02    1.09       0.0  T
   2    -38.2952581 -0.178920E-05  0.351E-02    1.09       1.0  T
   3    -38.2952560  0.211945E-05  0.158E-02    1.09       1.1  T
   4    -38.2952593 -0.334921E-05  0.442E-03    1.09       4.1  T
   5    -38.2952594 -0.705757E-07  0.285E-03    1.09       6.3  T
   6    -38.2952594 -0.217542E-07  0.114E-03    1.09      15.8  T
   7    -38.2952594 -0.139119E-07  0.491E-04    1.09      36.6  T
   8    -38.2952594 -0.418190E-09  0.384E-04    1.09      46.8  T
     SCC iter.                  ...        0 min,  1.069 sec
     gradient                   ...        0 min,  0.138 sec
 * total energy  :   -37.6468894 Eh     change       -0.1117203E-03 Eh
   gradient norm :     0.0037058 Eh/α   predicted    -0.7520096E-04 ( -32.69%)
   displ. norm   :     0.2397149 α      lambda       -0.1737050E-03
   maximum displ.:     0.1414596 α      in ANC's #3, #5, #2, ...

........................................................................
.............................. CYCLE   46 ..............................
........................................................................
   1    -38.2962897 -0.382963E+02  0.782E-02    1.08       0.0  T
   2    -38.2962931 -0.343768E-05  0.504E-02    1.08       1.0  T
   3    -38.2962801  0.130113E-04  0.284E-02    1.08       1.0  T
   4    -38.2962959 -0.157818E-04  0.799E-03    1.08       2.2  T
   5    -38.2962963 -0.459818E-06  0.506E-03    1.08       3.5  T
   6    -38.2962964 -0.427167E-07  0.174E-03    1.08      10.4  T
   7    -38.2962964 -0.181454E-07  0.110E-03    1.08      16.3  T
   8    -38.2962964  0.251553E-09  0.737E-04    1.08      24.4  T
   9    -38.2962964 -0.275321E-08  0.205E-04    1.08      87.8  T
     SCC iter.                  ...        0 min,  1.090 sec
     gradient                   ...        0 min,  0.133 sec
 * total energy  :   -37.6470387 Eh     change       -0.1492810E-03 Eh
   gradient norm :     0.0047903 Eh/α   predicted    -0.9184359E-04 ( -38.48%)
   displ. norm   :     0.4146654 α      lambda       -0.2736086E-03
   maximum displ.:     0.2410252 α      in ANC's #3, #5, #2, ...

........................................................................
.............................. CYCLE   47 ..............................
........................................................................
   1    -38.2938038 -0.382938E+02  0.135E-01    1.06       0.0  T
   2    -38.2938102 -0.643639E-05  0.845E-02    1.07       1.0  T
   3    -38.2937688  0.414367E-04  0.535E-02    1.05       1.0  T
   4    -38.2938173 -0.485372E-04  0.135E-02    1.07       1.3  T
   5    -38.2938183 -0.981092E-06  0.829E-03    1.06       2.2  T
   6    -38.2938184 -0.831583E-07  0.295E-03    1.06       6.1  T
   7    -38.2938184 -0.562388E-07  0.163E-03    1.06      11.0  T
   8    -38.2938184 -0.445996E-08  0.101E-03    1.06      17.8  T
   9    -38.2938184 -0.494807E-08  0.339E-04    1.06      53.0  T
  10    -38.2938184 -0.403084E-09  0.170E-04    1.06     105.4  T
     SCC iter.                  ...        0 min,  1.248 sec
     gradient                   ...        0 min,  0.339 sec
 * total energy  :   -37.6472631 Eh     change       -0.2244543E-03 Eh
   gradient norm :     0.0077828 Eh/α   predicted    -0.1603295E-03 ( -28.57%)
   displ. norm   :     0.4032515 α      lambda       -0.2416689E-03
   maximum displ.:     0.2444127 α      in ANC's #3, #2, #4, ...

........................................................................
.............................. CYCLE   48 ..............................
........................................................................
   1    -38.2897474 -0.382897E+02  0.131E-01    1.05       0.0  T
   2    -38.2897503 -0.295411E-05  0.812E-02    1.05       1.0  T
   3    -38.2897151  0.352236E-04  0.538E-02    1.04       1.0  T
   4    -38.2897556 -0.404775E-04  0.112E-02    1.05       1.6  T
   5    -38.2897560 -0.443943E-06  0.773E-03    1.05       2.3  T
   6    -38.2897562 -0.132985E-06  0.240E-03    1.05       7.5  T
   7    -38.2897562 -0.365251E-07  0.152E-03    1.05      11.8  T
   8    -38.2897562 -0.182078E-08  0.962E-04    1.05      18.7  T
   9    -38.2897562 -0.541819E-08  0.316E-04    1.05      56.8  T
     SCC iter.                  ...        0 min,  1.204 sec
     gradient                   ...        0 min,  0.212 sec
 * total energy  :   -37.6474362 Eh     change       -0.1730661E-03 Eh
   gradient norm :     0.0133098 Eh/α   predicted    -0.1404884E-03 ( -18.82%)
   displ. norm   :     0.2384596 α      lambda       -0.2234232E-03
   maximum displ.:     0.1635021 α      in ANC's #3, #2, #4, ...

........................................................................
.............................. CYCLE   49 ..............................
........................................................................
   1    -38.2887497 -0.382887E+02  0.684E-02    1.05       0.0  T
   2    -38.2887501 -0.380841E-06  0.418E-02    1.05       1.0  T
   3    -38.2887463  0.381596E-05  0.196E-02    1.05       1.0  T
   4    -38.2887505 -0.424720E-05  0.337E-03    1.05       5.3  T
   5    -38.2887505 -0.331551E-07  0.245E-03    1.05       7.3  T
   6    -38.2887506 -0.185885E-07  0.702E-04    1.05      25.6  T
   7    -38.2887506 -0.228925E-08  0.487E-04    1.05      36.8  T
     SCC iter.                  ...        0 min,  1.079 sec
     gradient                   ...        0 min,  0.337 sec
 * total energy  :   -37.6476207 Eh     change       -0.1845083E-03 Eh
   gradient norm :     0.0097909 Eh/α   predicted    -0.1180674E-03 ( -36.01%)
   displ. norm   :     0.3867848 α      lambda       -0.3861853E-03
   maximum displ.:     0.2709221 α      in ANC's #3, #2, #4, ...

........................................................................
.............................. CYCLE   50 ..............................
........................................................................
   1    -38.2889805 -0.382890E+02  0.126E-01    1.05       0.0  T
   2    -38.2889841 -0.362562E-05  0.767E-02    1.05       1.0  T
   3    -38.2889688  0.152617E-04  0.310E-02    1.06       1.0  T
   4    -38.2889865 -0.177075E-04  0.778E-03    1.05       2.3  T
   5    -38.2889867 -0.164559E-06  0.541E-03    1.05       3.3  T
   6    -38.2889868 -0.643360E-07  0.253E-03    1.06       7.1  T
   7    -38.2889868 -0.513413E-07  0.113E-03    1.05      15.9  T
   8    -38.2889868 -0.325386E-09  0.985E-04    1.05      18.2  T
   9    -38.2889868 -0.307899E-08  0.285E-04    1.05      63.0  T
     SCC iter.                  ...        0 min,  1.124 sec
     gradient                   ...        0 min,  0.260 sec
 * total energy  :   -37.6479312 Eh     change       -0.3105291E-03 Eh
   gradient norm :     0.0095043 Eh/α   predicted    -0.2219803E-03 ( -28.52%)
   displ. norm   :     0.5207299 α      lambda       -0.4411035E-03
   maximum displ.:     0.3683636 α      in ANC's #3, #4, #2, ...

........................................................................
.............................. CYCLE   51 ..............................
........................................................................
   1    -38.2879638 -0.382880E+02  0.167E-01    1.05       0.0  T
   2    -38.2879731 -0.928965E-05  0.989E-02    1.05       1.0  T
   3    -38.2879360  0.370366E-04  0.580E-02    1.05       1.0  T
   4    -38.2879805 -0.444875E-04  0.144E-02    1.06       1.3  T
   5    -38.2879815 -0.938976E-06  0.932E-03    1.05       1.9  T
   6    -38.2879817 -0.225331E-06  0.558E-03    1.05       3.2  T
   7    -38.2879818 -0.164380E-06  0.164E-03    1.05      11.0  T
   8    -38.2879819 -0.514311E-08  0.149E-03    1.05      12.1  T
   9    -38.2879819 -0.397505E-08  0.430E-04    1.05      41.8  T
  10    -38.2879819 -0.831918E-09  0.241E-04    1.05      74.4  T
     SCC iter.                  ...        0 min,  1.356 sec
     gradient                   ...        0 min,  0.005 sec
 * total energy  :   -37.6482826 Eh     change       -0.3513806E-03 Eh
   gradient norm :     0.0132424 Eh/α   predicted    -0.2803565E-03 ( -20.21%)
   displ. norm   :     0.4720230 α      lambda       -0.6382574E-03
   maximum displ.:     0.3527493 α      in ANC's #3, #4, #12, ...

........................................................................
.............................. CYCLE   52 ..............................
........................................................................
   1    -38.2968504 -0.382969E+02  0.147E-01    1.07       0.0  T
   2    -38.2968773 -0.269524E-04  0.809E-02    1.07       1.0  T
   3    -38.2968538  0.235887E-04  0.557E-02    1.08       1.0  T
   4    -38.2968961 -0.422993E-04  0.181E-02    1.07       1.0  T
   5    -38.2968969 -0.803288E-06  0.921E-03    1.07       1.9  T
   6    -38.2968968  0.939230E-07  0.534E-03    1.07       3.4  T
   7    -38.2968969 -0.132461E-06  0.182E-03    1.07       9.9  T
   8    -38.2968969 -0.228932E-07  0.997E-04    1.07      18.0  T
   9    -38.2968969  0.523642E-09  0.538E-04    1.07      33.4  T
     SCC iter.                  ...        0 min,  1.286 sec
     gradient                   ...        0 min,  0.391 sec
 * total energy  :   -37.6485314 Eh     change       -0.2487786E-03 Eh
   gradient norm :     0.0155513 Eh/α   predicted    -0.3902338E-03 (  56.86%)
   displ. norm   :     0.6146022 α      lambda       -0.7273210E-03
   maximum displ.:     0.4343601 α      in ANC's #3, #4, #2, ...

........................................................................
.............................. CYCLE   53 ..............................
........................................................................
   1    -38.2871134 -0.382871E+02  0.203E-01    1.05       0.0  T
   2    -38.2871214 -0.805153E-05  0.130E-01    1.07       1.0  T
   3    -38.2870376  0.838020E-04  0.100E-01    1.05       1.0  T
   4    -38.2871426 -0.105007E-03  0.303E-02    1.07       1.0  T
   5    -38.2871453 -0.266741E-05  0.162E-02    1.06       1.1  T
   6    -38.2871468 -0.153350E-05  0.616E-03    1.06       2.9  T
   7    -38.2871471 -0.233757E-06  0.255E-03    1.06       7.0  T
   8    -38.2871471 -0.161697E-08  0.191E-03    1.06       9.4  T
   9    -38.2871471 -0.117344E-07  0.621E-04    1.06      28.9  T
  10    -38.2871471 -0.602213E-09  0.308E-04    1.06      58.3  T
     SCC iter.                  ...        0 min,  1.848 sec
     gradient                   ...        0 min,  0.399 sec
 * total energy  :   -37.6488710 Eh     change       -0.3396643E-03 Eh
   gradient norm :     0.0241064 Eh/α   predicted    -0.5010309E-03 (  47.51%)
   displ. norm   :     0.0993047 α      lambda       -0.3664424E-03
   maximum displ.:     0.0559686 α      in ANC's #12, #4, #14, ...

........................................................................
.............................. CYCLE   54 ..............................
........................................................................
   1    -38.2920308 -0.382920E+02  0.528E-02    1.07       0.0  T
   2    -38.2920346 -0.376381E-05  0.361E-02    1.07       1.0  T
   3    -38.2920338  0.856285E-06  0.219E-02    1.07       1.0  T
   4    -38.2920368 -0.301241E-05  0.625E-03    1.07       2.9  T
   5    -38.2920371 -0.288179E-06  0.503E-03    1.07       3.6  T
   6    -38.2920371 -0.862435E-07  0.146E-03    1.07      12.3  T
   7    -38.2920372 -0.101116E-07  0.734E-04    1.07      24.5  T
   8    -38.2920372 -0.239559E-08  0.474E-04    1.07      37.9  T
     SCC iter.                  ...        0 min,  1.195 sec
     gradient                   ...        0 min,  0.281 sec
 * total energy  :   -37.6491308 Eh     change       -0.2597297E-03 Eh
   gradient norm :     0.0112706 Eh/α   predicted    -0.1850296E-03 ( -28.76%)
   displ. norm   :     0.4620030 α      lambda       -0.5327671E-03
   maximum displ.:     0.3848751 α      in ANC's #3, #1, #4, ...

........................................................................
.............................. CYCLE   55 ..............................
........................................................................
   1    -38.2933896 -0.382934E+02  0.103E-01    1.07       0.0  T
   2    -38.2933951 -0.550295E-05  0.611E-02    1.08       1.0  T
   3    -38.2933710  0.240911E-04  0.558E-02    1.07       1.0  T
   4    -38.2934051 -0.340408E-04  0.118E-02    1.08       1.5  T
   5    -38.2934066 -0.151582E-05  0.683E-03    1.07       2.6  T
   6    -38.2934066 -0.157432E-07  0.293E-03    1.07       6.1  T
   7    -38.2934067 -0.767225E-07  0.161E-03    1.07      11.2  T
   8    -38.2934067  0.392647E-08  0.131E-03    1.07      13.7  T
   9    -38.2934067 -0.678047E-08  0.435E-04    1.07      41.3  T
  10    -38.2934067 -0.114949E-08  0.183E-04    1.07      98.2  T
     SCC iter.                  ...        0 min,  1.065 sec
     gradient                   ...        0 min,  0.311 sec
 * total energy  :   -37.6495580 Eh     change       -0.4272189E-03 Eh
   gradient norm :     0.0059250 Eh/α   predicted    -0.3232473E-03 ( -24.34%)
   displ. norm   :     0.6226839 α      lambda       -0.5910254E-03
   maximum displ.:     0.5204481 α      in ANC's #3, #4, #1, ...

........................................................................
.............................. CYCLE   56 ..............................
........................................................................
   1    -38.2929576 -0.382930E+02  0.123E-01    1.07       0.0  T
   2    -38.2929652 -0.761820E-05  0.752E-02    1.08       1.0  T
   3    -38.2929371  0.281032E-04  0.659E-02    1.07       1.0  T
   4    -38.2929833 -0.462181E-04  0.183E-02    1.08       1.0  T
   5    -38.2929854 -0.208949E-05  0.969E-03    1.08       1.9  T
   6    -38.2929855 -0.145835E-06  0.487E-03    1.08       3.7  T
   7    -38.2929856 -0.100430E-06  0.267E-03    1.08       6.7  T
   8    -38.2929856 -0.281585E-08  0.205E-03    1.08       8.8  T
   9    -38.2929857 -0.917348E-08  0.653E-04    1.08      27.5  T
  10    -38.2929857 -0.197270E-08  0.324E-04    1.08      55.4  T
     SCC iter.                  ...        0 min,  1.105 sec
     gradient                   ...        0 min,  0.194 sec
 * total energy  :   -37.6500289 Eh     change       -0.4709535E-03 Eh
   gradient norm :     0.0132733 Eh/α   predicted    -0.4100963E-03 ( -12.92%)
   displ. norm   :     0.6353174 α      lambda       -0.5636713E-03
   maximum displ.:     0.5559567 α      in ANC's #3, #4, #1, ...

........................................................................
.............................. CYCLE   57 ..............................
........................................................................
   1    -38.2891540 -0.382892E+02  0.113E-01    1.08       0.0  T
   2    -38.2891608 -0.670699E-05  0.702E-02    1.09       1.0  T
   3    -38.2891339  0.268559E-04  0.567E-02    1.07       1.0  T
   4    -38.2891709 -0.370021E-04  0.158E-02    1.09       1.1  T
   5    -38.2891723 -0.136128E-05  0.850E-03    1.08       2.1  T
   6    -38.2891725 -0.245601E-06  0.528E-03    1.08       3.4  T
   7    -38.2891726 -0.524113E-07  0.296E-03    1.08       6.1  T
   8    -38.2891726 -0.169300E-07  0.213E-03    1.08       8.4  T
   9    -38.2891726 -0.122857E-07  0.616E-04    1.08      29.1  T
  10    -38.2891726 -0.794977E-09  0.312E-04    1.08      57.5  T
     SCC iter.                  ...        0 min,  0.722 sec
     gradient                   ...        0 min,  0.147 sec
 * total energy  :   -37.6504511 Eh     change       -0.4221177E-03 Eh
   gradient norm :     0.0121083 Eh/α   predicted    -0.3955990E-03 (  -6.28%)
   displ. norm   :     0.4483220 α      lambda       -0.6053111E-03
   maximum displ.:     0.3747111 α      in ANC's #3, #12, #54, ...

........................................................................
.............................. CYCLE   58 ..............................
........................................................................
   1    -38.3000601 -0.383001E+02  0.119E-01    1.09       0.0  T
   2    -38.3000698 -0.975383E-05  0.683E-02    1.09       1.0  T
   3    -38.3000597  0.101461E-04  0.450E-02    1.10       1.0  T
   4    -38.3000764 -0.166700E-04  0.807E-03    1.09       2.2  T
   5    -38.3000764 -0.852773E-07  0.430E-03    1.09       4.2  T
   6    -38.3000765 -0.586058E-07  0.195E-03    1.09       9.2  T
   7    -38.3000765 -0.217245E-07  0.961E-04    1.09      18.7  T
   8    -38.3000765 -0.973156E-08  0.477E-04    1.09      37.7  T
     SCC iter.                  ...        0 min,  0.504 sec
     gradient                   ...        0 min,  0.124 sec
 * total energy  :   -37.6506962 Eh     change       -0.2451195E-03 Eh
   gradient norm :     0.0151837 Eh/α   predicted    -0.3634881E-03 (  48.29%)
   displ. norm   :     0.6081174 α      lambda       -0.7924278E-03
   maximum displ.:     0.5144196 α      in ANC's #3, #4, #1, ...

........................................................................
.............................. CYCLE   59 ..............................
........................................................................
   1    -38.2905046 -0.382905E+02  0.131E-01    1.08       0.0  T
   2    -38.2905089 -0.422951E-05  0.875E-02    1.09       1.0  T
   3    -38.2904723  0.365192E-04  0.630E-02    1.07       1.0  T
   4    -38.2905219 -0.496035E-04  0.218E-02    1.09       1.0  T
   5    -38.2905231 -0.118458E-05  0.111E-02    1.08       1.6  T
   6    -38.2905237 -0.598581E-06  0.669E-03    1.09       2.7  T
   7    -38.2905238 -0.120377E-06  0.201E-03    1.08       8.9  T
   8    -38.2905239 -0.307878E-07  0.108E-03    1.08      16.7  T
   9    -38.2905239 -0.179279E-08  0.523E-04    1.08      34.4  T
  10    -38.2905239 -0.593189E-09  0.262E-04    1.08      68.4  T
     SCC iter.                  ...        0 min,  0.445 sec
     gradient                   ...        0 min,  0.049 sec
 * total energy  :   -37.6511542 Eh     change       -0.4579792E-03 Eh
   gradient norm :     0.0170524 Eh/α   predicted    -0.5427368E-03 (  18.51%)
   displ. norm   :     0.1801506 α      lambda       -0.4243069E-03
   maximum displ.:     0.1221009 α      in ANC's #3, #5, #7, ...

........................................................................
.............................. CYCLE   60 ..............................
........................................................................
   1    -38.2937116 -0.382937E+02  0.645E-02    1.09       0.0  T
   2    -38.2937142 -0.261487E-05  0.409E-02    1.09       1.0  T
   3    -38.2937052  0.900253E-05  0.229E-02    1.09       1.0  T
   4    -38.2937158 -0.105759E-04  0.120E-02    1.09       1.5  T
   5    -38.2937164 -0.602964E-06  0.549E-03    1.09       3.3  T
   6    -38.2937164 -0.660319E-07  0.359E-03    1.09       5.0  T
   7    -38.2937165 -0.527582E-07  0.632E-04    1.09      28.4  T
   8    -38.2937165 -0.404878E-08  0.332E-04    1.09      54.2  T
     SCC iter.                  ...        0 min,  0.379 sec
     gradient                   ...        0 min,  0.122 sec
 * total energy  :   -37.6513826 Eh     change       -0.2284066E-03 Eh
   gradient norm :     0.0102706 Eh/α   predicted    -0.2190443E-03 (  -4.10%)
   displ. norm   :     0.4870307 α      lambda       -0.4829526E-03
   maximum displ.:     0.4152342 α      in ANC's #3, #5, #54, ...

........................................................................
.............................. CYCLE   61 ..............................
........................................................................
   1    -38.2933343 -0.382933E+02  0.707E-02    1.09       0.0  T
   2    -38.2933384 -0.411489E-05  0.432E-02    1.09       1.0  T
   3    -38.2933320  0.638058E-05  0.261E-02    1.09       1.0  T
   4    -38.2933418 -0.978796E-05  0.639E-03    1.09       2.8  T
   5    -38.2933420 -0.181776E-06  0.505E-03    1.09       3.6  T
   6    -38.2933421 -0.142825E-06  0.235E-03    1.09       7.6  T
   7    -38.2933422 -0.292118E-07  0.122E-03    1.09      14.7  T
   8    -38.2933422 -0.256077E-08  0.688E-04    1.09      26.1  T
   9    -38.2933422 -0.732371E-09  0.441E-04    1.09      40.7  T
     SCC iter.                  ...        0 min,  0.532 sec
     gradient                   ...        0 min,  0.171 sec
 * total energy  :   -37.6517575 Eh     change       -0.3749468E-03 Eh
   gradient norm :     0.0075616 Eh/α   predicted    -0.2987566E-03 ( -20.32%)
   displ. norm   :     0.4672596 α      lambda       -0.5261837E-03
   maximum displ.:     0.3567547 α      in ANC's #3, #5, #54, ...

........................................................................
.............................. CYCLE   62 ..............................
........................................................................
   1    -38.3002393 -0.383002E+02  0.103E-01    1.09       0.0  T
   2    -38.3002463 -0.700407E-05  0.624E-02    1.09       1.0  T
   3    -38.3002324  0.138844E-04  0.390E-02    1.10       1.0  T
   4    -38.3002521 -0.196798E-04  0.104E-02    1.09       1.7  T
   5    -38.3002523 -0.220359E-06  0.662E-03    1.09       2.7  T
   6    -38.3002523  0.242424E-07  0.177E-03    1.09      10.1  T
   7    -38.3002523 -0.378041E-07  0.734E-04    1.09      24.5  T
   8    -38.3002523  0.219309E-09  0.467E-04    1.09      38.4  T
     SCC iter.                  ...        0 min,  0.464 sec
     gradient                   ...        0 min,  0.168 sec
 * total energy  :   -37.6520219 Eh     change       -0.2643954E-03 Eh
   gradient norm :     0.0094156 Eh/α   predicted    -0.3205346E-03 (  21.23%)
   displ. norm   :     0.6478113 α      lambda       -0.4991810E-03
   maximum displ.:     0.5608631 α      in ANC's #3, #1, #54, ...

........................................................................
.............................. CYCLE   63 ..............................
........................................................................
   1    -38.2879708 -0.382880E+02  0.103E-01    1.09       0.0  T
   2    -38.2879773 -0.650135E-05  0.679E-02    1.09       1.0  T
   3    -38.2879603  0.169627E-04  0.379E-02    1.08       1.0  T
   4    -38.2879814 -0.210270E-04  0.174E-02    1.09       1.0  T
   5    -38.2879833 -0.196122E-05  0.800E-03    1.09       2.2  T
   6    -38.2879833  0.214486E-07  0.612E-03    1.09       2.9  T
   7    -38.2879835 -0.188862E-06  0.112E-03    1.09      16.0  T
   8    -38.2879835 -0.254727E-07  0.505E-04    1.09      35.5  T
   9    -38.2879835 -0.115463E-09  0.229E-04    1.09      78.3  T
     SCC iter.                  ...        0 min,  0.620 sec
     gradient                   ...        0 min,  0.202 sec
 * total energy  :   -37.6522180 Eh     change       -0.1960404E-03 Eh
   gradient norm :     0.0160515 Eh/α   predicted    -0.3543337E-03 (  80.75%)
   displ. norm   :     0.1127304 α      lambda       -0.4756344E-03
   maximum displ.:     0.0524963 α      in ANC's #4, #7, #3, ...

........................................................................
.............................. CYCLE   64 ..............................
........................................................................
   1    -38.2992839 -0.382993E+02  0.838E-02    1.11       0.0  T
   2    -38.2992872 -0.328768E-05  0.563E-02    1.09       1.0  T
   3    -38.2992861  0.117511E-05  0.397E-02    1.11       1.0  T
   4    -38.2992949 -0.882022E-05  0.115E-02    1.10       1.6  T
   5    -38.2992959 -0.100226E-05  0.630E-03    1.10       2.9  T
   6    -38.2992960 -0.901715E-07  0.323E-03    1.10       5.6  T
   7    -38.2992960 -0.515655E-07  0.134E-03    1.10      13.4  T
   8    -38.2992960  0.809983E-09  0.920E-04    1.10      19.5  T
   9    -38.2992960 -0.486555E-08  0.378E-04    1.10      47.5  T
     SCC iter.                  ...        0 min,  0.632 sec
     gradient                   ...        0 min,  0.009 sec
 * total energy  :   -37.6523265 Eh     change       -0.1085372E-03 Eh
   gradient norm :     0.0132922 Eh/α   predicted    -0.2408381E-03 ( 121.89%)
   displ. norm   :     0.2228555 α      lambda       -0.4364267E-03
   maximum displ.:     0.1670551 α      in ANC's #3, #1, #4, ...

........................................................................
.............................. CYCLE   65 ..............................
........................................................................
   1    -38.3003754 -0.383004E+02  0.982E-02    1.08       0.0  T
   2    -38.3003772 -0.180862E-05  0.666E-02    1.09       1.0  T
   3    -38.3003538  0.233904E-04  0.525E-02    1.08       1.0  T
   4    -38.3003836 -0.297972E-04  0.124E-02    1.09       1.4  T
   5    -38.3003843 -0.717489E-06  0.738E-03    1.09       2.4  T
   6    -38.3003845 -0.196501E-06  0.261E-03    1.09       6.9  T
   7    -38.3003846 -0.398394E-07  0.168E-03    1.09      10.7  T
   8    -38.3003846 -0.670397E-08  0.101E-03    1.09      17.7  T
   9    -38.3003846 -0.361062E-08  0.374E-04    1.09      48.0  T
  10    -38.3003846 -0.300908E-09  0.199E-04    1.09      90.3  T
     SCC iter.                  ...        0 min,  0.634 sec
     gradient                   ...        0 min,  0.108 sec
 * total energy  :   -37.6525645 Eh     change       -0.2380390E-03 Eh
   gradient norm :     0.0063710 Eh/α   predicted    -0.2290560E-03 (  -3.77%)
   displ. norm   :     0.4314529 α      lambda       -0.2662577E-03
   maximum displ.:     0.3587147 α      in ANC's #3, #54, #1, ...

........................................................................
.............................. CYCLE   66 ..............................
........................................................................
   1    -38.2952810 -0.382953E+02  0.726E-02    1.08       0.0  T
   2    -38.2952838 -0.275209E-05  0.467E-02    1.09       1.0  T
   3    -38.2952756  0.815144E-05  0.343E-02    1.08       1.0  T
   4    -38.2952887 -0.130431E-04  0.670E-03    1.09       2.7  T
   5    -38.2952893 -0.600499E-06  0.441E-03    1.09       4.1  T
   6    -38.2952894 -0.671446E-07  0.208E-03    1.09       8.7  T
   7    -38.2952894 -0.130804E-07  0.944E-04    1.09      19.0  T
   8    -38.2952894 -0.624592E-08  0.460E-04    1.09      39.1  T
     SCC iter.                  ...        0 min,  0.639 sec
     gradient                   ...        0 min,  0.200 sec
 * total energy  :   -37.6527005 Eh     change       -0.1360046E-03 Eh
   gradient norm :     0.0080734 Eh/α   predicted    -0.1579131E-03 (  16.11%)
   displ. norm   :     0.3202528 α      lambda       -0.1802733E-03
   maximum displ.:     0.2485806 α      in ANC's #3, #1, #54, ...
 * RMSD in coord.:     1.4742353 α      energy gain  -0.6348132E-02 Eh

generating ANC from model Hessian ...
Using Lindh-Hessian (1995)
 Shifting diagonal of input Hessian by    1.0409863117482569E-002
 Lowest  eigenvalues of input Hessian
    0.010000    0.000000    0.000000    0.000000    0.000000    0.000000
    0.000000    0.010607    0.010883    0.011876    0.011953    0.012025
    0.012221    0.012606    0.014427    0.014970    0.015687    0.018068
 Highest eigenvalues
    1.730313    1.734317    1.965987    2.640108    2.760137    4.740976


........................................................................
.............................. CYCLE   67 ..............................
........................................................................
   1    -38.2946253 -0.382946E+02  0.764E-02    1.08       0.0  T
   2    -38.2946277 -0.239079E-05  0.489E-02    1.08       1.0  T
   3    -38.2946165  0.111676E-04  0.290E-02    1.08       1.0  T
   4    -38.2946294 -0.129123E-04  0.105E-02    1.08       1.7  T
   5    -38.2946300 -0.631650E-06  0.499E-03    1.08       3.6  T
   6    -38.2946301 -0.579156E-07  0.311E-03    1.08       5.8  T
   7    -38.2946301 -0.141602E-07  0.163E-03    1.08      11.0  T
   8    -38.2946301 -0.111539E-07  0.683E-04    1.08      26.3  T
   9    -38.2946301 -0.174713E-08  0.177E-04    1.08     101.4  T
     SCC iter.                  ...        0 min,  0.964 sec
     gradient                   ...        0 min,  0.095 sec
 * total energy  :   -37.6527942 Eh     change       -0.9370626E-04 Eh
   gradient norm :     0.0105797 Eh/α   predicted     0.0000000E+00 (-100.00%)
   displ. norm   :     0.0839205 α      lambda       -0.1856852E-03
   maximum displ.:     0.0456360 α      in ANC's #3, #4, #5, ...

........................................................................
.............................. CYCLE   68 ..............................
........................................................................
   1    -38.2992593 -0.382993E+02  0.368E-02    1.09       0.0  T
   2    -38.2992595 -0.236574E-06  0.284E-02    1.08       1.0  T
   3    -38.2992583  0.122137E-05  0.162E-02    1.09       1.1  T
   4    -38.2992603 -0.205017E-05  0.473E-03    1.08       3.8  T
   5    -38.2992605 -0.134585E-06  0.237E-03    1.08       7.6  T
   6    -38.2992605 -0.140261E-07  0.162E-03    1.08      11.1  T
   7    -38.2992605 -0.177814E-07  0.390E-04    1.08      46.0  T
   8    -38.2992605 -0.280991E-09  0.263E-04    1.08      68.3  T
     SCC iter.                  ...        0 min,  0.797 sec
     gradient                   ...        0 min,  0.126 sec
 * total energy  :   -37.6529302 Eh     change       -0.1360116E-03 Eh
   gradient norm :     0.0017633 Eh/α   predicted    -0.9350191E-04 ( -31.25%)
   displ. norm   :     0.2603623 α      lambda       -0.1698372E-03
   maximum displ.:     0.1506021 α      in ANC's #3, #4, #5, ...

........................................................................
.............................. CYCLE   69 ..............................
........................................................................
   1    -38.3038646 -0.383039E+02  0.679E-02    1.09       0.0  T
   2    -38.3038655 -0.935686E-06  0.447E-02    1.09       1.0  T
   3    -38.3038556  0.996729E-05  0.305E-02    1.10       1.0  T
   4    -38.3038673 -0.117714E-04  0.557E-03    1.09       3.2  T
   5    -38.3038676 -0.253333E-06  0.238E-03    1.09       7.6  T
   6    -38.3038676 -0.199399E-07  0.157E-03    1.09      11.5  T
   7    -38.3038676 -0.891416E-08  0.460E-04    1.09      39.1  T
   8    -38.3038676 -0.220086E-08  0.238E-04    1.09      75.5  T
     SCC iter.                  ...        0 min,  0.776 sec
     gradient                   ...        0 min,  0.220 sec
 * total energy  :   -37.6530997 Eh     change       -0.1694950E-03 Eh
   gradient norm :     0.0049487 Eh/α   predicted    -0.8748627E-04 ( -48.38%)
   displ. norm   :     0.1947099 α      lambda       -0.1388409E-03
   maximum displ.:     0.1131080 α      in ANC's #3, #4, #5, ...

........................................................................
.............................. CYCLE   70 ..............................
........................................................................
   1    -38.3026296 -0.383026E+02  0.564E-02    1.09       0.0  T
   2    -38.3026303 -0.739363E-06  0.338E-02    1.09       1.0  T
   3    -38.3026270  0.333247E-05  0.179E-02    1.09       1.0  T
   4    -38.3026309 -0.392913E-05  0.425E-03    1.09       4.2  T
   5    -38.3026309 -0.351629E-07  0.333E-03    1.09       5.4  T
   6    -38.3026310 -0.514237E-07  0.126E-03    1.09      14.2  T
   7    -38.3026310 -0.450773E-08  0.874E-04    1.09      20.5  T
   8    -38.3026310 -0.892840E-09  0.656E-04    1.09      27.4  T
     SCC iter.                  ...        0 min,  0.808 sec
     gradient                   ...        0 min,  0.304 sec
 * total energy  :   -37.6532186 Eh     change       -0.1188195E-03 Eh
   gradient norm :     0.0036494 Eh/α   predicted    -0.7205261E-04 ( -39.36%)
   displ. norm   :     0.2775313 α      lambda       -0.1746865E-03
   maximum displ.:     0.1688846 α      in ANC's #3, #4, #5, ...

........................................................................
.............................. CYCLE   71 ..............................
........................................................................
   1    -38.2991105 -0.382991E+02  0.659E-02    1.09       0.0  T
   2    -38.2991121 -0.156590E-05  0.386E-02    1.09       1.0  T
   3    -38.2991048  0.726461E-05  0.256E-02    1.09       1.0  T
   4    -38.2991140 -0.911165E-05  0.480E-03    1.09       3.7  T
   5    -38.2991141 -0.189863E-06  0.439E-03    1.09       4.1  T
   6    -38.2991142 -0.498658E-07  0.203E-03    1.09       8.8  T
   7    -38.2991142 -0.102630E-07  0.723E-04    1.09      24.8  T
   8    -38.2991142 -0.191789E-08  0.502E-04    1.09      35.8  T
     SCC iter.                  ...        0 min,  1.119 sec
     gradient                   ...        0 min,  0.193 sec
 * total energy  :   -37.6533348 Eh     change       -0.1162058E-03 Eh
   gradient norm :     0.0058098 Eh/α   predicted    -0.9407965E-04 ( -19.04%)
   displ. norm   :     0.1272671 α      lambda       -0.6284589E-04
   maximum displ.:     0.0897382 α      in ANC's #3, #4, #5, ...

........................................................................
.............................. CYCLE   72 ..............................
........................................................................
   1    -38.2983131 -0.382983E+02  0.424E-02    1.09       0.0  T
   2    -38.2983136 -0.476259E-06  0.249E-02    1.09       1.0  T
   3    -38.2983111  0.246835E-05  0.135E-02    1.09       1.3  T
   4    -38.2983140 -0.290443E-05  0.380E-03    1.09       4.7  T
   5    -38.2983141 -0.583030E-07  0.230E-03    1.09       7.8  T
   6    -38.2983141 -0.129220E-07  0.111E-03    1.09      16.2  T
   7    -38.2983141 -0.420810E-08  0.537E-04    1.09      33.5  T
   8    -38.2983141 -0.288431E-09  0.451E-04    1.09      39.8  T
     SCC iter.                  ...        0 min,  0.935 sec
     gradient                   ...        0 min,  0.284 sec
 * total energy  :   -37.6533777 Eh     change       -0.4297524E-04 Eh
   gradient norm :     0.0030019 Eh/α   predicted    -0.3193385E-04 ( -25.69%)
   displ. norm   :     0.0798113 α      lambda       -0.3172885E-04
   maximum displ.:     0.0607050 α      in ANC's #3, #4, #9, ...

........................................................................
.............................. CYCLE   73 ..............................
........................................................................
   1    -38.2990961 -0.382991E+02  0.269E-02    1.10       0.0  T
   2    -38.2990963 -0.162401E-06  0.170E-02    1.09       1.1  T
   3    -38.2990947  0.157043E-05  0.117E-02    1.10       1.5  T
   4    -38.2990966 -0.191536E-05  0.268E-03    1.09       6.7  T
   5    -38.2990966 -0.370148E-07  0.154E-03    1.09      11.6  T
   6    -38.2990966 -0.777364E-08  0.713E-04    1.09      25.2  T
   7    -38.2990966 -0.211498E-08  0.264E-04    1.09      68.1  T
     SCC iter.                  ...        0 min,  0.753 sec
     gradient                   ...        0 min,  0.274 sec
 * total energy  :   -37.6534007 Eh     change       -0.2291599E-04 Eh
   gradient norm :     0.0015927 Eh/α   predicted    -0.1596655E-04 ( -30.33%)
   displ. norm   :     0.1137459 α      lambda       -0.1852569E-04
   maximum displ.:     0.0863124 α      in ANC's #3, #4, #9, ...

........................................................................
.............................. CYCLE   74 ..............................
........................................................................
   1    -38.3004543 -0.383005E+02  0.309E-02    1.10       0.0  T
   2    -38.3004547 -0.310715E-06  0.182E-02    1.10       1.0  T
   3    -38.3004525  0.211451E-05  0.129E-02    1.10       1.4  T
   4    -38.3004551 -0.255228E-05  0.266E-03    1.10       6.8  T
   5    -38.3004551 -0.502714E-07  0.142E-03    1.10      12.7  T
   6    -38.3004552 -0.396034E-08  0.748E-04    1.10      24.0  T
   7    -38.3004552 -0.231718E-08  0.334E-04    1.10      53.8  T
     SCC iter.                  ...        0 min,  0.840 sec
     gradient                   ...        0 min,  0.275 sec
 * total energy  :   -37.6534162 Eh     change       -0.1549061E-04 Eh
   gradient norm :     0.0009038 Eh/α   predicted    -0.9317162E-05 ( -39.85%)
   displ. norm   :     0.0292857 α      lambda       -0.4144820E-05
   maximum displ.:     0.0238448 α      in ANC's #3, #2, #6, ...

........................................................................
.............................. CYCLE   75 ..............................
........................................................................
   1    -38.3007760 -0.383008E+02  0.910E-03    1.10       0.0  T
   2    -38.3007760 -0.305756E-07  0.534E-03    1.10       3.4  T
   3    -38.3007759  0.137796E-06  0.398E-03    1.10       4.5  T
   4    -38.3007761 -0.164266E-06  0.970E-04    1.10      18.5  T
   5    -38.3007761 -0.309281E-08  0.547E-04    1.10      32.8  T
     SCC iter.                  ...        0 min,  0.506 sec
     gradient                   ...        0 min,  0.223 sec
 * total energy  :   -37.6534210 Eh     change       -0.4836150E-05 Eh
   gradient norm :     0.0010004 Eh/α   predicted    -0.2074458E-05 ( -57.11%)
   displ. norm   :     0.0466289 α      lambda       -0.5849753E-05
   maximum displ.:     0.0298981 α      in ANC's #3, #2, #9, ...

........................................................................
.............................. CYCLE   76 ..............................
........................................................................
   1    -38.3008177 -0.383008E+02  0.172E-02    1.10       0.0  T
   2    -38.3008178 -0.739415E-07  0.102E-02    1.10       1.8  T
   3    -38.3008175  0.302895E-06  0.539E-03    1.10       3.3  T
   4    -38.3008178 -0.360881E-06  0.120E-03    1.10      14.9  T
   5    -38.3008178 -0.159827E-08  0.953E-04    1.10      18.8  T
   6    -38.3008178 -0.324896E-09  0.354E-04    1.10      50.7  T
     SCC iter.                  ...        0 min,  0.627 sec
     gradient                   ...        0 min,  0.286 sec
 * total energy  :   -37.6534268 Eh     change       -0.5801519E-05 Eh
   gradient norm :     0.0009210 Eh/α   predicted    -0.2930339E-05 ( -49.49%)
   displ. norm   :     0.0500927 α      lambda       -0.4470996E-05
   maximum displ.:     0.0304808 α      in ANC's #3, #2, #4, ...

........................................................................
.............................. CYCLE   77 ..............................
........................................................................
   1    -38.3007641 -0.383008E+02  0.167E-02    1.09       0.0  T
   2    -38.3007642 -0.461288E-07  0.107E-02    1.10       1.7  T
   3    -38.3007637  0.447863E-06  0.518E-03    1.09       3.5  T
   4    -38.3007642 -0.495769E-06  0.159E-03    1.10      11.3  T
   5    -38.3007642 -0.106316E-07  0.871E-04    1.09      20.6  T
   6    -38.3007642 -0.340996E-08  0.426E-04    1.10      42.2  T
     SCC iter.                  ...        0 min,  0.648 sec
     gradient                   ...        0 min,  0.188 sec
 * total energy  :   -37.6534317 Eh     change       -0.4923711E-05 Eh
   gradient norm :     0.0014140 Eh/α   predicted    -0.2239943E-05 ( -54.51%)
   displ. norm   :     0.0617726 α      lambda       -0.4912142E-05
   maximum displ.:     0.0343987 α      in ANC's #3, #2, #4, ...

........................................................................
.............................. CYCLE   78 ..............................
........................................................................
   1    -38.3006512 -0.383007E+02  0.137E-02    1.09       0.0  T
   2    -38.3006512 -0.631620E-07  0.863E-03    1.10       2.1  T
   3    -38.3006507  0.480038E-06  0.584E-03    1.09       3.1  T
   4    -38.3006513 -0.577274E-06  0.162E-03    1.10      11.1  T
   5    -38.3006513 -0.179471E-07  0.616E-04    1.09      29.2  T
   6    -38.3006513 -0.107427E-09  0.315E-04    1.09      57.1  T
     SCC iter.                  ...        0 min,  0.810 sec
     gradient                   ...        0 min,  0.121 sec
 * total energy  :   -37.6534378 Eh     change       -0.6130543E-05 Eh
   gradient norm :     0.0017443 Eh/α   predicted    -0.2461217E-05 ( -59.85%)
   displ. norm   :     0.0972204 α      lambda       -0.7596691E-05
   maximum displ.:     0.0575538 α      in ANC's #3, #2, #4, ...

........................................................................
.............................. CYCLE   79 ..............................
........................................................................
   1    -38.3002406 -0.383002E+02  0.206E-02    1.09       0.0  T
   2    -38.3002408 -0.190419E-06  0.154E-02    1.10       1.2  T
   3    -38.3002402  0.529732E-06  0.945E-03    1.09       1.9  T
   4    -38.3002412 -0.960555E-06  0.344E-03    1.09       5.2  T
   5    -38.3002413 -0.790957E-07  0.129E-03    1.09      13.9  T
   6    -38.3002413 -0.619950E-08  0.714E-04    1.09      25.1  T
   7    -38.3002413 -0.875460E-09  0.245E-04    1.09      73.2  T
     SCC iter.                  ...        0 min,  0.855 sec
     gradient                   ...        0 min,  0.339 sec
 * total energy  :   -37.6534464 Eh     change       -0.8570750E-05 Eh
   gradient norm :     0.0004099 Eh/α   predicted    -0.3816069E-05 ( -55.48%)
   displ. norm   :     0.0924902 α      lambda       -0.4902293E-05
   maximum displ.:     0.0551478 α      in ANC's #3, #2, #4, ...

........................................................................
.............................. CYCLE   80 ..............................
........................................................................
   1    -38.3002094 -0.383002E+02  0.171E-02    1.09       0.0  T
   2    -38.3002096 -0.169598E-06  0.117E-02    1.10       1.5  T
   3    -38.3002091  0.476784E-06  0.817E-03    1.09       2.2  T
   4    -38.3002099 -0.761030E-06  0.273E-03    1.10       6.6  T
   5    -38.3002099 -0.584354E-07  0.101E-03    1.09      17.7  T
   6    -38.3002099 -0.201556E-08  0.530E-04    1.09      33.9  T
   7    -38.3002099 -0.693824E-09  0.232E-04    1.09      77.5  T
     SCC iter.                  ...        0 min,  0.901 sec
     gradient                   ...        0 min,  0.310 sec
 * total energy  :   -37.6534517 Eh     change       -0.5304829E-05 Eh
   gradient norm :     0.0006386 Eh/α   predicted    -0.2464557E-05 ( -53.54%)
   displ. norm   :     0.0638943 α      lambda       -0.2784099E-05
   maximum displ.:     0.0423557 α      in ANC's #3, #2, #4, ...

........................................................................
.............................. CYCLE   81 ..............................
........................................................................
   1    -38.3001822 -0.383002E+02  0.114E-02    1.10       0.0  T
   2    -38.3001823 -0.840365E-07  0.783E-03    1.10       2.3  T
   3    -38.3001820  0.261318E-06  0.435E-03    1.09       4.1  T
   4    -38.3001824 -0.321333E-06  0.216E-03    1.10       8.3  T
   5    -38.3001824 -0.293726E-07  0.978E-04    1.10      18.4  T
   6    -38.3001824 -0.271824E-08  0.355E-04    1.10      50.5  T
     SCC iter.                  ...        0 min,  0.693 sec
     gradient                   ...        0 min,  0.310 sec
 * total energy  :   -37.6534550 Eh     change       -0.3237049E-05 Eh
   gradient norm :     0.0008482 Eh/α   predicted    -0.1394843E-05 ( -56.91%)
   displ. norm   :     0.0609707 α      lambda       -0.2655038E-05
   maximum displ.:     0.0419504 α      in ANC's #3, #2, #6, ...

   *** GEOMETRY OPTIMIZATION CONVERGED AFTER 81 ITERATIONS ***

------------------------------------------------------------------------
 total energy gain   :        -0.0926954 Eh      -58.1673 kcal/mol
 total RMSD          :         2.5485845 a0        1.3487 Å
 total power (kW/mol):        -3.0045906 (step)   -2.9935 (real)
------------------------------------------------------------------------

 ANCopt (total)                0 d,  0 h,  1 min, 21.299 sec
 optimizer setup                ...        0 min,  0.000 sec (  0.000%)
 model hessian                  ...        0 min,  0.191 sec (  0.235%)
 ANC generation                 ...        0 min,  0.067 sec (  0.082%)
 coordinate transformation      ...        0 min,  0.001 sec (  0.002%)
 single point calculation       ...        1 min, 19.538 sec ( 97.834%)
 optimization log               ...        0 min,  0.015 sec (  0.018%)
 hessian update                 ...        0 min,  1.146 sec (  1.410%)
 rational function              ...        0 min,  0.333 sec (  0.410%)

================
 final structure:
================
31
 xtb: 6.5.1 (b24c23e)
Zr          -1.29764306859596       -0.05326717086703        0.45782925651960
C           -1.25545176855943        0.77214421268399       -1.85274002868727
C           -1.14464103421064       -2.25624827746247        1.56051849742954
C            0.13603025223798       -1.98779809063041        1.01701517594506
C            0.01623377065507       -1.93278421508691       -0.39063554170253
C           -1.33727852074634       -2.20967935912376       -0.72346876914632
C           -2.04919474064332       -2.41587522022917        0.48116255450045
H           -1.35142222339566       -2.49206726105688        2.59945456858037
H            1.06860924758084       -1.97261221994141        1.56911900372809
H            0.83792258640717       -1.86930950624987       -1.09607261426692
H           -1.70818977545946       -2.40350668426012       -1.72242645686229
H           -3.05604955166639       -2.81150210686974        0.55435428283514
C            0.67033968915267        1.10600806770256        1.38275295333237
C           -0.06888658722068        0.66023411254355        2.50456261148194
C           -1.31443877791315        1.32780150187589        2.50679347131952
C           -1.33924900775182        2.21037699925324        1.39323182476062
C           -0.10946649220466        2.07550778730337        0.70339651289392
H            1.70957207608843        0.87629714305985        1.17163520067664
H            0.30900076013884        0.03588267160845        3.30572644976962
H           -2.02170807235699        1.31822447625178        3.32910098649655
H           -2.08023538774640        2.97837553254178        1.20156084121597
H            0.24057630849461        2.71766982084699       -0.09542798341595
H           -0.20053386633362        0.73195337548020       -2.16374211020900
H           -1.82956189990716        0.17515662325952       -2.56874610559883
H           -1.58843679067835        1.81250941916519       -1.94259021502746
C           -3.73504882682713        0.26726699846882       -0.26158821256758
C           -3.77105640608084        0.21899720521208        1.07582462997531
H           -3.88896625943336       -0.72018351436367        1.62047411487240
H           -3.94134176192849        1.12544962519812        1.65192255353342
H           -3.83214582958614       -0.63085030498289       -0.87241789912742
H           -3.85241839146166        1.21536332862751       -0.78349524325698

 Bond Distances (Angstroems)
 ---------------------------
Zr1-C2=2.4539        Zr1-C3=2.4683        Zr1-C4=2.4719        Zr1-C5=2.4451        Zr1-C6=2.4591        Zr1-C7=2.4794        
Zr1-C13=2.4642       Zr1-C14=2.4916       Zr1-C15=2.4710       Zr1-C16=2.4497       Zr1-C17=2.4503       Zr1-C26=2.5615       
Zr1-C27=2.5639       C2-Zr1=2.4539        C2-H23=1.1005        C2-H24=1.0948        C2-H25=1.0960        C3-Zr1=2.4683        
C3-C4=1.4169         C3-C7=1.4173         C3-H8=1.0852         C4-Zr1=2.4719        C4-C3=1.4169         C4-C5=1.4138         
C4-H9=1.0839         C5-Zr1=2.4451        C5-C4=1.4138         C5-C6=1.4211         C5-H10=1.0848        C6-Zr1=2.4591        
C6-C5=1.4211         C6-C7=1.4144         C6-H11=1.0831        C7-Zr1=2.4794        C7-C3=1.4173         C7-C6=1.4144         
C7-H12=1.0843        H8-C3=1.0852         H9-C4=1.0839         H10-C5=1.0848        H11-C6=1.0831        H12-C7=1.0843        
C13-Zr1=2.4642       C13-C14=1.4155       C13-C17=1.4176       C13-H18=1.0851       C14-Zr1=2.4916       C14-C13=1.4155       
C14-C15=1.4132       C14-H19=1.0837       C15-Zr1=2.4710       C15-C14=1.4132       C15-C16=1.4211       C15-H20=1.0847       
C16-Zr1=2.4497       C16-C15=1.4211       C16-C17=1.4165       C16-H21=1.0843       C17-Zr1=2.4503       C17-C13=1.4176       
C17-C16=1.4165       C17-H22=1.0831       H18-C13=1.0851       H19-C14=1.0837       H20-C15=1.0847       H21-C16=1.0843       
H22-C17=1.0831       H23-C2=1.1005        H24-C2=1.0948        H25-C2=1.0960        C26-Zr1=2.5615       C26-C27=1.3388       
C26-H30=1.0905       C26-H31=1.0886       C27-Zr1=2.5639       C27-C26=1.3388       C27-H28=1.0921       C27-H29=1.0874       
H28-C27=1.0921       H29-C27=1.0874       H30-C26=1.0905       H31-C26=1.0886       
 C  H  Rav=1.0878 sigma=0.0051  Rmin=1.0831  Rmax=1.1005    17
 C  C  Rav=1.4096 sigma=0.0225  Rmin=1.3388  Rmax=1.4211    11
 Zr C  Rav=2.4792 sigma=0.0377  Rmin=2.4451  Rmax=2.5639    13

 selected bond angles (degree)
 --------------------
C3-Zr1-C2=136.04               C4-Zr1-C2=117.79               C4-Zr1-C3= 33.33               C5-Zr1-C2= 85.56               
C5-Zr1-C3= 55.64               C5-Zr1-C4= 33.41               C6-Zr1-C2= 80.96               C6-Zr1-C3= 55.46               
C6-Zr1-C4= 55.37               C6-Zr1-C5= 33.69               C7-Zr1-C2=109.55               C7-Zr1-C3= 33.29               
C7-Zr1-C4= 55.11               C7-Zr1-C5= 55.51               C7-Zr1-C6= 33.28               C13-Zr1-C2=100.45              
C13-Zr1-C3=101.69              C13-Zr1-C4= 79.63              C13-Zr1-C5= 93.60              C13-Zr1-C6=127.28              
C13-Zr1-C7=133.38              C14-Zr1-C2=131.96              C14-Zr1-C3= 81.84              C14-Zr1-C4= 75.66              
C14-Zr1-C5=103.90              C14-Zr1-C6=130.82              C14-Zr1-C7=114.50              C14-Zr1-C13= 33.19             
C15-Zr1-C2=126.36              C15-Zr1-C3= 97.40              C15-Zr1-C4=104.70              C15-Zr1-C5=136.14              
C15-Zr1-C6=152.66              C15-Zr1-C7=121.52              C15-Zr1-C13= 55.34             C15-Zr1-C14= 33.09             
C16-Zr1-C2= 92.81              C16-Zr1-C3=130.94              C16-Zr1-C4=130.29              C16-Zr1-C5=148.42              
C16-Zr1-C6=173.46              C16-Zr1-C7=150.67              C16-Zr1-C13= 55.63             C16-Zr1-C14= 55.26             
C16-Zr1-C15= 33.57             C17-Zr1-C2= 78.10              C17-Zr1-C3=134.47              C17-Zr1-C4=112.09              
C17-Zr1-C5=116.23              C17-Zr1-C6=144.87              C17-Zr1-C7=166.89              C17-Zr1-C13= 33.53             
C17-Zr1-C14= 55.23             C17-Zr1-C15= 55.57             C17-Zr1-C16= 33.61             C26-Zr1-C2= 73.13              
C26-Zr1-C3=107.23              C26-Zr1-C4=135.51              C26-Zr1-C5=120.67              C26-Zr1-C6= 87.68              
C26-Zr1-C7= 80.41              C26-Zr1-C13=143.75             C26-Zr1-C14=131.62             C26-Zr1-C15= 99.00             
C26-Zr1-C16= 88.59             C26-Zr1-C17=112.39             C27-Zr1-C2=101.99              C27-Zr1-C3= 92.69              
C27-Zr1-C4=126.02              C27-Zr1-C5=133.13              C27-Zr1-C6=101.15              C27-Zr1-C7= 78.84              
C27-Zr1-C13=129.05             C27-Zr1-C14=104.32             C27-Zr1-C15= 74.59             C27-Zr1-C16= 78.08             
C27-Zr1-C17=110.57             C27-Zr1-C26= 30.28             H23-C2-Zr1=105.68              H24-C2-Zr1=115.05              
H24-C2-H23=107.33              H25-C2-Zr1=113.03              H25-C2-H23=107.62              H25-C2-H24=107.74              
C4-C3-Zr1= 73.47               C7-C3-Zr1= 73.78               C7-C3-C4=107.82                H8-C3-Zr1=127.58               
H8-C3-C4=125.49                H8-C3-C7=125.66                C3-C4-Zr1= 73.19               C5-C4-Zr1= 72.25               
C5-C4-C3=108.22                H9-C4-Zr1=127.11               H9-C4-C3=125.80                H9-C4-C5=125.42                
C4-C5-Zr1= 74.33               C6-C5-Zr1= 73.70               C6-C5-C4=107.84                H10-C5-Zr1=125.99              
H10-C5-C4=125.84               H10-C5-C6=125.49               C5-C6-Zr1= 72.62               C7-C6-Zr1= 74.15               
C7-C6-C5=107.96                H11-C6-Zr1=127.27              H11-C6-C5=125.24               H11-C6-C7=125.95               
C3-C7-Zr1= 72.93               C6-C7-Zr1= 72.57               C6-C7-C3=108.12                H12-C7-Zr1=129.04              
H12-C7-C3=125.62               H12-C7-C6=125.32               

 selected dihedral angles (degree)
 ---------------------------------
H23-C2-Zr1-C3=283.88          H23-C2-Zr1-C4=319.39          H23-C2-Zr1-C5=310.25          H23-C2-Zr1-C6=276.64          
H23-C2-Zr1-C7=259.33          H23-C2-Zr1-C13= 43.10         H23-C2-Zr1-C14= 54.98         H23-C2-Zr1-C15= 97.49         
H23-C2-Zr1-C16= 98.65         H23-C2-Zr1-C17= 68.25         H23-C2-Zr1-C26=186.33         H23-C2-Zr1-C27=177.06         
H24-C2-Zr1-C3= 42.09          H24-C2-Zr1-C4= 77.60          H24-C2-Zr1-C5= 68.47          H24-C2-Zr1-C6= 34.85          
H24-C2-Zr1-C7= 17.54          H24-C2-Zr1-C13=161.31         H24-C2-Zr1-C14=173.19         H24-C2-Zr1-C15=215.70         
H24-C2-Zr1-C16=216.87         H24-C2-Zr1-C17=186.47         H24-C2-Zr1-C26=304.54         H24-C2-Zr1-C27=295.27         
H25-C2-Zr1-C3=166.43          H25-C2-Zr1-C4=201.94          H25-C2-Zr1-C5=192.80          H25-C2-Zr1-C6=159.18          
H25-C2-Zr1-C7=141.88          H25-C2-Zr1-C13=285.65         H25-C2-Zr1-C14=297.53         H25-C2-Zr1-C15=340.03         
H25-C2-Zr1-C16=341.20         H25-C2-Zr1-C17=310.80         H25-C2-Zr1-C26= 68.88         H25-C2-Zr1-C27= 59.61         
C4-C3-Zr1-C2= 69.26           C4-C3-Zr1-C5= 36.81           C4-C3-Zr1-C6= 77.95           C4-C3-Zr1-C7=114.76           
C4-C3-Zr1-C13=310.47          C4-C3-Zr1-C14=283.73          C4-C3-Zr1-C15=254.44          C4-C3-Zr1-C16=256.17          
C4-C3-Zr1-C17=302.26          C4-C3-Zr1-C26=152.59          C4-C3-Zr1-C27=179.64          C7-C3-Zr1-C2=314.50           
C7-C3-Zr1-C4=245.24           C7-C3-Zr1-C5=282.05           C7-C3-Zr1-C6=323.19           C7-C3-Zr1-C13=195.71          
C7-C3-Zr1-C14=168.97          C7-C3-Zr1-C15=139.69          C7-C3-Zr1-C16=141.41          C7-C3-Zr1-C17=187.51          
C7-C3-Zr1-C26= 37.83          C7-C3-Zr1-C27= 64.89          H8-C3-Zr1-C2=191.66           H8-C3-Zr1-C4=122.40           
H8-C3-Zr1-C5=159.21           H8-C3-Zr1-C6=200.35           H8-C3-Zr1-C7=237.16           H8-C3-Zr1-C13= 72.87          
H8-C3-Zr1-C14= 46.14          H8-C3-Zr1-C15= 16.85          H8-C3-Zr1-C16= 18.57          H8-C3-Zr1-C17= 64.67          
H8-C3-Zr1-C26=274.99          H8-C3-Zr1-C27=302.05          C3-C4-Zr1-C2=227.21           C3-C4-Zr1-C5=243.92           
C3-C4-Zr1-C6=281.78           C3-C4-Zr1-C7=322.58           C3-C4-Zr1-C13=130.77          C3-C4-Zr1-C14= 97.01          
C3-C4-Zr1-C15= 80.99          C3-C4-Zr1-C16=105.92          C3-C4-Zr1-C17=139.37          C3-C4-Zr1-C26=321.13          
C3-C4-Zr1-C27=359.56          C5-C4-Zr1-C2=343.29           C5-C4-Zr1-C3=116.08           C5-C4-Zr1-C6= 37.86           
C5-C4-Zr1-C7= 78.66           C5-C4-Zr1-C13=246.86          C5-C4-Zr1-C14=213.10          C5-C4-Zr1-C15=197.08          
C5-C4-Zr1-C16=222.00          C5-C4-Zr1-C17=255.45          C5-C4-Zr1-C26= 77.22          C5-C4-Zr1-C27=115.64          
H9-C4-Zr1-C2=104.68           H9-C4-Zr1-C3=237.47           H9-C4-Zr1-C5=121.39           H9-C4-Zr1-C6=159.25           
H9-C4-Zr1-C7=200.05           H9-C4-Zr1-C13=  8.25          H9-C4-Zr1-C14=334.49          H9-C4-Zr1-C15=318.47          
H9-C4-Zr1-C16=343.39          H9-C4-Zr1-C17= 16.84          H9-C4-Zr1-C26=198.61          H9-C4-Zr1-C27=237.03          
Zr1-C4-C3-C7= 66.34           Zr1-C4-C3-H8=235.27           C5-C4-C3-Zr1=295.77           C5-C4-C3-C7=  2.10            
C5-C4-C3-H8=171.04            H9-C4-C3-Zr1=124.00           H9-C4-C3-C7=190.33            H9-C4-C3-H8=359.27            
C4-C5-Zr1-C2=165.22           C4-C5-Zr1-C3=323.28           C4-C5-Zr1-C6=245.57           C4-C5-Zr1-C7=282.64           
C4-C5-Zr1-C13= 65.00          C4-C5-Zr1-C14= 33.02          C4-C5-Zr1-C15= 24.20          C4-C5-Zr1-C16= 77.08          
C4-C5-Zr1-C17= 90.82          C4-C5-Zr1-C26=232.61          C4-C5-Zr1-C27=267.51          C6-C5-Zr1-C2=279.65           
C6-C5-Zr1-C3= 77.71           C6-C5-Zr1-C4=114.43           C6-C5-Zr1-C7= 37.07           C6-C5-Zr1-C13=179.42          
C6-C5-Zr1-C14=147.45          C6-C5-Zr1-C15=138.62          C6-C5-Zr1-C16=191.51          C6-C5-Zr1-C17=205.24          
C6-C5-Zr1-C26=347.04          C6-C5-Zr1-C27= 21.94          H10-C5-Zr1-C2= 42.00          H10-C5-Zr1-C3=200.06          
H10-C5-Zr1-C4=236.78          H10-C5-Zr1-C6=122.35          H10-C5-Zr1-C7=159.42          H10-C5-Zr1-C13=301.78         
H10-C5-Zr1-C14=269.80         H10-C5-Zr1-C15=260.98         H10-C5-Zr1-C16=313.86         H10-C5-Zr1-C17=327.59         
H10-C5-Zr1-C26=109.39         H10-C5-Zr1-C27=144.29         Zr1-C5-C4-C3= 64.85           Zr1-C5-C4-H9=236.66           
C6-C5-C4-Zr1=293.36           C6-C5-C4-C3=358.21            C6-C5-C4-H9=170.02            H10-C5-C4-Zr1=123.39          
H10-C5-C4-C3=188.24           H10-C5-C4-H9=  0.05           C5-C6-Zr1-C2= 95.58           C5-C6-Zr1-C3=281.68           
C5-C6-Zr1-C4=322.46           C5-C6-Zr1-C7=244.86           C5-C6-Zr1-C13=359.28          C5-C6-Zr1-C14=316.36          
C5-C6-Zr1-C15=274.09          C5-C6-Zr1-C16=113.56          C5-C6-Zr1-C17= 41.66          C5-C6-Zr1-C26=168.87          
C5-C6-Zr1-C27=196.14          C7-C6-Zr1-C2=210.72           C7-C6-Zr1-C3= 36.82           C7-C6-Zr1-C4= 77.59           
C7-C6-Zr1-C5=115.14           C7-C6-Zr1-C13=114.41          C7-C6-Zr1-C14= 71.49          C7-C6-Zr1-C15= 29.23          
C7-C6-Zr1-C16=228.70          C7-C6-Zr1-C17=156.79          C7-C6-Zr1-C26=284.00          C7-C6-Zr1-C27=311.27          
H11-C6-Zr1-C2=334.14          H11-C6-Zr1-C3=160.24          H11-C6-Zr1-C4=201.01          H11-C6-Zr1-C5=238.56          
H11-C6-Zr1-C7=123.42          H11-C6-Zr1-C13=237.84         H11-C6-Zr1-C14=194.91         H11-C6-Zr1-C15=152.65         
H11-C6-Zr1-C16=352.12         H11-C6-Zr1-C17=280.22         H11-C6-Zr1-C26= 47.42         H11-C6-Zr1-C27= 74.69         
Zr1-C6-C5-C4= 67.06           Zr1-C6-C5-H10=237.08          C7-C6-C5-Zr1=293.73           C7-C6-C5-C4=  0.79            
C7-C6-C5-H10=170.81           H11-C6-C5-Zr1=123.76          H11-C6-C5-C4=190.83           H11-C6-C5-H10=  0.84          
C3-C7-Zr1-C2=148.30           C3-C7-Zr1-C4= 37.47           C3-C7-Zr1-C5= 78.40           C3-C7-Zr1-C6=115.94           
C3-C7-Zr1-C13= 21.40          C3-C7-Zr1-C14=347.99          C3-C7-Zr1-C15=311.18          C3-C7-Zr1-C16=285.87          
C3-C7-Zr1-C17= 24.26          C3-C7-Zr1-C26=216.45          C3-C7-Zr1-C27=247.21          C6-C7-Zr1-C2= 32.37           
C6-C7-Zr1-C3=244.06           C6-C7-Zr1-C4=281.54           C6-C7-Zr1-C5=322.47           C6-C7-Zr1-C13=265.47          
C6-C7-Zr1-C14=232.06          C6-C7-Zr1-C15=195.25          C6-C7-Zr1-C16=169.94          C6-C7-Zr1-C17=268.33          
C6-C7-Zr1-C26=100.51          C6-C7-Zr1-C27=131.27          H12-C7-Zr1-C2=270.66          H12-C7-Zr1-C3=122.36          
H12-C7-Zr1-C4=159.83          H12-C7-Zr1-C5=200.76          H12-C7-Zr1-C6=238.30          H12-C7-Zr1-C13=143.76         
H12-C7-Zr1-C14=110.35         H12-C7-Zr1-C15= 73.55         H12-C7-Zr1-C16= 48.23         H12-C7-Zr1-C17=146.62         
H12-C7-Zr1-C26=338.81         H12-C7-Zr1-C27=  9.57         Zr1-C7-C3-C4=293.87           Zr1-C7-C3-H8=124.96           
C6-C7-C3-Zr1= 64.52           C6-C7-C3-C4=358.39            C6-C7-C3-H8=189.48            H12-C7-C3-Zr1=233.81          
H12-C7-C3-C4=167.68           H12-C7-C3-H8=358.77           Zr1-C7-C6-C5= 65.26           Zr1-C7-C6-H11=235.14          
C3-C7-C6-Zr1=295.25           C3-C7-C6-C5=  0.51            C3-C7-C6-H11=170.38           H12-C7-C6-Zr1=125.92          
H12-C7-C6-C5=191.18           H12-C7-C6-H11=  1.05          

 CMA Distance (Angstroems)
 ---------------------------
R(CMA):  2.8704
           -------------------------------------------------
          |                Final Singlepoint                |
           -------------------------------------------------

          ...................................................
          :                      SETUP                      :
          :.................................................:
          :  # basis functions                  79          :
          :  # atomic orbitals                  78          :
          :  # shells                           46          :
          :  # electrons                        72          :
          :  max. iterations                   250          :
          :  Hamiltonian                  GFN2-xTB          :
          :  restarted?                      false          :
          :  GBSA solvation                  false          :
          :  PC potential                    false          :
          :  electronic temp.          300.0000000     K    :
          :  accuracy                    1.0000000          :
          :  -> integral cutoff          0.2500000E+02      :
          :  -> integral neglect         0.1000000E-07      :
          :  -> SCF convergence          0.1000000E-05 Eh   :
          :  -> wf. convergence          0.1000000E-03 e    :
          :  Broyden damping             0.4000000          :
          ...................................................

 iter      E             dE          RMSdq      gap      omega  full diag
   1    -38.3001824 -0.383002E+02  0.164E-04    1.10       0.0  T
   2    -38.3001824 -0.400746E-11  0.107E-04    1.10     168.3  T
   3    -38.3001824 -0.421281E-10  0.105E-04    1.10     171.7  T

   *** convergence criteria satisfied after 3 iterations ***

         #    Occupation            Energy/Eh            Energy/eV
      -------------------------------------------------------------
         1        2.0000           -0.8712963             -23.7092
       ...           ...                  ...                  ...
        30        2.0000           -0.5677915             -15.4504
        31        2.0000           -0.5667600             -15.4223
        32        2.0000           -0.5231265             -14.2350
        33        2.0000           -0.5192490             -14.1295
        34        2.0000           -0.5089849             -13.8502
        35        2.0000           -0.5039929             -13.7143
        36        2.0000           -0.4804502             -13.0737 (HOMO)
        37                         -0.4401862             -11.9781 (LUMO)
        38                         -0.4094758             -11.1424
        39                         -0.4082574             -11.1092
        40                         -0.4038970             -10.9906
        41                         -0.3952081             -10.7542
       ...                                ...                  ...
        78                          2.4805759              67.4999
      -------------------------------------------------------------
                  HL-Gap            0.0402640 Eh            1.0956 eV
             Fermi-level           -0.4603182 Eh          -12.5259 eV

 SCC (total)                   0 d,  0 h,  0 min,  0.846 sec
 SCC setup                      ...        0 min,  0.026 sec (  3.064%)
 Dispersion                     ...        0 min,  0.042 sec (  4.993%)
 classical contributions        ...        0 min,  0.019 sec (  2.223%)
 integral evaluation            ...        0 min,  0.089 sec ( 10.580%)
 iterations                     ...        0 min,  0.377 sec ( 44.561%)
 molecular gradient             ...        0 min,  0.292 sec ( 34.491%)
 printout                       ...        0 min,  0.001 sec (  0.084%)

         :::::::::::::::::::::::::::::::::::::::::::::::::::::
         ::                     SUMMARY                     ::
         :::::::::::::::::::::::::::::::::::::::::::::::::::::
         :: total energy             -37.653454956364 Eh    ::
         :: gradient norm              0.000847124274 Eh/a0 ::
         :: HOMO-LUMO gap              1.095640248304 eV    ::
         ::.................................................::
         :: SCC energy               -38.300182385012 Eh    ::
         :: -> isotropic ES            0.093607131651 Eh    ::
         :: -> anisotropic ES         -0.013269554940 Eh    ::
         :: -> anisotropic XC          0.021706211464 Eh    ::
         :: -> dispersion             -0.027874285413 Eh    ::
         :: repulsion energy           0.645491664760 Eh    ::
         :: add. restraining           0.000517760537 Eh    ::
         :: total charge               1.000000000000 e     ::
         :::::::::::::::::::::::::::::::::::::::::::::::::::::

           -------------------------------------------------
          |                Property Printout                |
           -------------------------------------------------

    * Orbital Energies and Occupations

         #    Occupation            Energy/Eh            Energy/eV
      -------------------------------------------------------------
         1        2.0000           -0.8712963             -23.7092
       ...           ...                  ...                  ...
        24        2.0000           -0.5935535             -16.1514
        25        2.0000           -0.5926551             -16.1270
        26        2.0000           -0.5891347             -16.0312
        27        2.0000           -0.5884753             -16.0132
        28        2.0000           -0.5874669             -15.9858
        29        2.0000           -0.5869326             -15.9712
        30        2.0000           -0.5677915             -15.4504
        31        2.0000           -0.5667600             -15.4223
        32        2.0000           -0.5231265             -14.2350
        33        2.0000           -0.5192490             -14.1295
        34        2.0000           -0.5089849             -13.8502
        35        2.0000           -0.5039929             -13.7143
        36        2.0000           -0.4804502             -13.0737 (HOMO)
        37                         -0.4401862             -11.9781 (LUMO)
        38                         -0.4094758             -11.1424
        39                         -0.4082574             -11.1092
        40                         -0.4038970             -10.9906
        41                         -0.3952081             -10.7542
        42                         -0.3918025             -10.6615
        43                         -0.3063573              -8.3364
        44                         -0.3056148              -8.3162
        45                         -0.3025778              -8.2336
        46                         -0.3022513              -8.2247
        47                         -0.0685274              -1.8647
       ...                                ...                  ...
        78                          2.4805759              67.4999
      -------------------------------------------------------------
                  HL-Gap            0.0402640 Eh            1.0956 eV
             Fermi-level           -0.4603182 Eh          -12.5259 eV

     #   Z          covCN         q      C6AA      α(0)
     1  40 Zr       9.671     0.919   139.668    17.758
     2   6 C        3.527    -0.310    28.580     7.865
     3   6 C        3.753    -0.092    22.312     6.736
     4   6 C        3.754    -0.082    22.117     6.706
     5   6 C        3.762    -0.084    22.151     6.709
     6   6 C        3.759    -0.087    22.219     6.720
     7   6 C        3.750    -0.098    22.428     6.754
     8   1 H        0.925     0.076     2.020     2.223
     9   1 H        0.925     0.082     1.954     2.186
    10   1 H        0.925     0.088     1.898     2.154
    11   1 H        0.925     0.086     1.918     2.166
    12   1 H        0.925     0.066     2.128     2.281
    13   6 C        3.756    -0.086    22.202     6.718
    14   6 C        3.745    -0.081    22.123     6.710
    15   6 C        3.752    -0.095    22.378     6.746
    16   6 C        3.761    -0.096    22.375     6.743
    17   6 C        3.761    -0.079    22.062     6.696
    18   1 H        0.925     0.082     1.962     2.191
    19   1 H        0.925     0.082     1.954     2.186
    20   1 H        0.925     0.071     2.075     2.253
    21   1 H        0.925     0.074     2.040     2.233
    22   1 H        0.925     0.093     1.845     2.124
    23   1 H        0.924     0.051     2.307     2.376
    24   1 H        0.924     0.046     2.369     2.407
    25   1 H        0.924     0.044     2.398     2.421
    26   6 C        3.529    -0.084    23.433     7.117
    27   6 C        3.527    -0.100    23.780     7.173
    28   1 H        0.926     0.117     1.636     2.000
    29   1 H        0.925     0.121     1.604     1.980
    30   1 H        0.926     0.135     1.495     1.912
    31   1 H        0.925     0.140     1.461     1.890

 Mol. C6AA /au·bohr⁶  :       9521.573775
 Mol. C8AA /au·bohr⁸  :     323246.273183
 Mol. α(0) /au        :        144.135245


Wiberg/Mayer (AO) data.
largest (>0.10) Wiberg bond orders for each atom

 ---------------------------------------------------------------------------
     #   Z sym  total        # sym  WBO       # sym  WBO       # sym  WBO
 ---------------------------------------------------------------------------
     1  40 Zr   4.305 --     2 C    0.829     5 C    0.263    17 C    0.254
                            13 C    0.249     6 C    0.247    16 C    0.243
                             3 C    0.235    15 C    0.230     4 C    0.228
                             7 C    0.224    14 C    0.221    26 C    0.207
                            27 C    0.205
     2   6 C    3.845 --    24 H    0.941    25 H    0.939    23 H    0.918
                             1 Zr   0.829
     3   6 C    3.978 --     4 C    1.305     7 C    1.300     8 H    0.924
                             1 Zr   0.235
     4   6 C    3.981 --     5 C    1.312     3 C    1.305     9 H    0.925
                             1 Zr   0.228
     5   6 C    3.981 --     4 C    1.312     6 C    1.279    10 H    0.919
                             1 Zr   0.263
     6   6 C    3.980 --     7 C    1.312     5 C    1.279    11 H    0.926
                             1 Zr   0.247
     7   6 C    3.977 --     6 C    1.312     3 C    1.300    12 H    0.930
                             1 Zr   0.224
     8   1 H    0.992 --     3 C    0.924
     9   1 H    0.991 --     4 C    0.925
    10   1 H    0.990 --     5 C    0.919
    11   1 H    0.990 --     6 C    0.926
    12   1 H    0.993 --     7 C    0.930
    13   6 C    3.980 --    14 C    1.309    17 C    1.292    18 H    0.922
                             1 Zr   0.249
    14   6 C    3.981 --    15 C    1.315    13 C    1.309    19 H    0.927
                             1 Zr   0.221
    15   6 C    3.978 --    14 C    1.315    16 C    1.286    20 H    0.927
                             1 Zr   0.230
    16   6 C    3.978 --    17 C    1.302    15 C    1.286    21 H    0.927
                             1 Zr   0.243
    17   6 C    3.983 --    16 C    1.302    13 C    1.292    22 H    0.923
                             1 Zr   0.254
    18   1 H    0.991 --    13 C    0.922
    19   1 H    0.991 --    14 C    0.927
    20   1 H    0.993 --    15 C    0.927
    21   1 H    0.991 --    16 C    0.927
    22   1 H    0.989 --    17 C    0.923
    23   1 H    0.997 --     2 C    0.918
    24   1 H    0.996 --     2 C    0.941
    25   1 H    0.996 --     2 C    0.939
    26   6 C    3.978 --    27 C    1.812    31 H    0.918    30 H    0.905
                             1 Zr   0.207
    27   6 C    3.988 --    26 C    1.812    29 H    0.926    28 H    0.905
                             1 Zr   0.205
    28   1 H    0.986 --    27 C    0.905
    29   1 H    0.984 --    27 C    0.926
    30   1 H    0.980 --    26 C    0.905
    31   1 H    0.979 --    26 C    0.918
 ---------------------------------------------------------------------------

Topologies differ in total number of bonds
Writing topology from bond orders to xtbtopo.mol

molecular dipole:
                 x           y           z       tot (Debye)
 q only:       -3.868      -0.052       1.196
   full:       -3.874      -0.098       1.384      10.459
molecular quadrupole (traceless):
                xx          xy          yy          xz          yz          zz
 q only:       21.890      -1.613     -13.010      -5.938      -0.464      -8.880
  q+dip:       20.498      -1.630     -16.560      -8.092      -3.849      -3.938
   full:       22.233      -1.307     -15.238      -8.409      -2.245      -6.995

           -------------------------------------------------
          |                Geometry Summary                 |
           -------------------------------------------------

      molecular mass/u    :      264.4982010
   center of mass at/Å    :       -1.2383852      -0.1163089       0.6065516
  moments of inertia/u·Å² :        0.5981502E+03   0.7628777E+03   0.8838692E+03
rotational constants/cm⁻¹ :        0.2818294E-01   0.2209742E-01   0.1907254E-01

 * 41 selected distances

     #   Z          #   Z                                           value/Å
     1  40 Zr       2   6 C                                       2.4539388
     1  40 Zr       3   6 C                                       2.4682909
     1  40 Zr       4   6 C                                       2.4719464
     3   6 C        4   6 C                                       1.4168912
     1  40 Zr       5   6 C                                       2.4451483
     4   6 C        5   6 C                                       1.4138100
     1  40 Zr       6   6 C                                       2.4590955
     5   6 C        6   6 C                                       1.4210717
     1  40 Zr       7   6 C                                       2.4793734
     3   6 C        7   6 C                                       1.4172889
     6   6 C        7   6 C                                       1.4143827
     3   6 C        8   1 H                                       1.0852453
     4   6 C        9   1 H                                       1.0838603
     5   6 C       10   1 H                                       1.0848241
     6   6 C       11   1 H                                       1.0830793
     7   6 C       12   1 H                                       1.0842668
     1  40 Zr      13   6 C                                       2.4642159
     1  40 Zr      14   6 C                                       2.4915949
    13   6 C       14   6 C                                       1.4154954
     1  40 Zr      15   6 C                                       2.4710096
    14   6 C       15   6 C                                       1.4131708
     1  40 Zr      16   6 C                                       2.4496520
    15   6 C       16   6 C                                       1.4211175
     1  40 Zr      17   6 C                                       2.4502553
    13   6 C       17   6 C                                       1.4175870
    16   6 C       17   6 C                                       1.4164843
    13   6 C       18   1 H                                       1.0850539
    14   6 C       19   1 H                                       1.0837330
    15   6 C       20   1 H                                       1.0846711
    16   6 C       21   1 H                                       1.0842604
    17   6 C       22   1 H                                       1.0830618 (min)
     2   6 C       23   1 H                                       1.1005406
     2   6 C       24   1 H                                       1.0948340
     2   6 C       25   1 H                                       1.0960438
     1  40 Zr      26   6 C                                       2.5614940
     1  40 Zr      27   6 C                                       2.5639464 (max)
    26   6 C       27   6 C                                       1.3387681
    27   6 C       28   1 H                                       1.0920652
    27   6 C       29   1 H                                       1.0874475
    26   6 C       30   1 H                                       1.0904841
    26   6 C       31   1 H                                       1.0885998

 * 3 distinct bonds (by element types)

   Z      Z             #   av. dist./Å        max./Å        min./Å
   1 H    6 C          17     1.0877689     1.1005406     1.0830618
   6 C    6 C          11     1.4096425     1.4211175     1.3387681
   6 C   40 Zr         13     2.4792278     2.5639464     2.4451483


optimized geometry written to: xtbopt.xyz


           -------------------------------------------------
          | TOTAL ENERGY              -37.653454956364 Eh   |
          | GRADIENT NORM               0.000847124274 Eh/α |
          | HOMO-LUMO GAP               1.095640248304 eV   |
           -------------------------------------------------

------------------------------------------------------------------------
 * finished run on 2026/08/18 at 18:30:16.713     
------------------------------------------------------------------------
 total:
 * wall-time:     0 d,  0 h,  1 min, 22.853 sec
 *  cpu-time:     0 d,  0 h,  2 min, 37.133 sec
 * ratio c/w:     1.897 speedup
 SCF:
 * wall-time:     0 d,  0 h,  0 min,  0.605 sec
 *  cpu-time:     0 d,  0 h,  0 min,  4.737 sec
 * ratio c/w:     7.825 speedup
 ANC optimizer:
 * wall-time:     0 d,  0 h,  1 min, 22.154 sec
 *  cpu-time:     0 d,  0 h,  2 min, 32.019 sec
 * ratio c/w:     1.850 speedup

