31
 energy: -37.653454956364 gnorm: 0.000847124274 xtb: 6.5.1 (b24c23e)
Zr          -1.29764306859596       -0.05326717086703        0.45782925651960
C           -1.25545176855943        0.77214421268399       -1.85274002868727
C           -1.14464103421064       -2.25624827746247        1.56051849742954
C            0.13603025223798       -1.98779809063041        1.01701517594506
C            0.01623377065507       -1.93278421508691       -0.39063554170253
C           -1.33727852074634       -2.20967935912376       -0.72346876914632
C           -2.04919474064332       -2.41587522022917        0.48116255450045
H           -1.35142222339566       -2.49206726105688        2.59945456858037
H            1.06860924758084       -1.97261221994141        1.56911900372809
H            0.83792258640717       -1.86930950624987       -1.09607261426692
H           -1.70818977545946       -2.40350668426012       -1.72242645686229
H           -3.05604955166639       -2.81150210686974        0.55435428283514
C            0.67033968915267        1.10600806770256        1.38275295333237
C           -0.06888658722068        0.66023411254355        2.50456261148194
C           -1.31443877791315        1.32780150187589        2.50679347131952
C           -1.33924900775182        2.21037699925324        1.39323182476062
C           -0.10946649220466        2.07550778730337        0.70339651289392
H            1.70957207608843        0.87629714305985        1.17163520067664
H            0.30900076013884        0.03588267160845        3.30572644976962
H           -2.02170807235699        1.31822447625178        3.32910098649655
H           -2.08023538774640        2.97837553254178        1.20156084121597
H            0.24057630849461        2.71766982084699       -0.09542798341595
H           -0.20053386633362        0.73195337548020       -2.16374211020900
H           -1.82956189990716        0.17515662325952       -2.56874610559883
H           -1.58843679067835        1.81250941916519       -1.94259021502746
C           -3.73504882682713        0.26726699846882       -0.26158821256758
C           -3.77105640608084        0.21899720521208        1.07582462997531
H           -3.88896625943336       -0.72018351436367        1.62047411487240
H           -3.94134176192849        1.12544962519812        1.65192255353342
H           -3.83214582958614       -0.63085030498289       -0.87241789912742
H           -3.85241839146166        1.21536332862751       -0.78349524325698
