      -----------------------------------------------------------      
     |                   =====================                   |     
     |                           x T B                           |     
     |                   =====================                   |     
     |                         S. Grimme                         |     
     |          Mulliken Center for Theoretical Chemistry        |     
     |                    University of Bonn                     |     
      -----------------------------------------------------------      

   * xtb version 6.5.1 (b24c23e) compiled by 'conda@728c89f4b128' on 2022-07-12

   xtb is free software: you can redistribute it and/or modify it under
   the terms of the GNU Lesser General Public License as published by
   the Free Software Foundation, either version 3 of the License, or
   (at your option) any later version.
   
   xtb is distributed in the hope that it will be useful,
   but WITHOUT ANY WARRANTY; without even the implied warranty of
   MERCHANTABILITY or FITNESS FOR A PARTICULAR PURPOSE.  See the
   GNU Lesser General Public License for more details.
   
   Cite this work as:
   * C. Bannwarth, E. Caldeweyher, S. Ehlert, A. Hansen, P. Pracht,
     J. Seibert, S. Spicher, S. Grimme, WIREs Comput. Mol. Sci., 2020, 11,
     e01493. DOI: 10.1002/wcms.1493
   
   for GFN2-xTB:
   * C. Bannwarth, S. Ehlert and S. Grimme., J. Chem. Theory Comput., 2019,
     15, 1652-1671. DOI: 10.1021/acs.jctc.8b01176
   for GFN1-xTB:
   * S. Grimme, C. Bannwarth, P. Shushkov, J. Chem. Theory Comput., 2017,
     13, 1989-2009. DOI: 10.1021/acs.jctc.7b00118
   for GFN0-xTB:
   * P. Pracht, E. Caldeweyher, S. Ehlert, S. Grimme, ChemRxiv, 2019, preprint.
     DOI: 10.26434/chemrxiv.8326202.v1
   for GFN-FF:
   * S. Spicher and S. Grimme, Angew. Chem. Int. Ed., 2020, 59, 15665-15673.
     DOI: 10.1002/anie.202004239
   
   for ALPB and GBSA implicit solvation:
   * S. Ehlert, M. Stahn, S. Spicher, S. Grimme, J. Chem. Theory Comput.,
     2021, 17, 4250-4261. DOI: 10.1021/acs.jctc.1c00471
   
   for DFT-D4:
   * E. Caldeweyher, C. Bannwarth and S. Grimme, J. Chem. Phys., 2017,
     147, 034112. DOI: 10.1063/1.4993215
   * E. Caldeweyher, S. Ehlert, A. Hansen, H. Neugebauer, S. Spicher,
     C. Bannwarth and S. Grimme, J. Chem. Phys., 2019, 150, 154122.
     DOI: 10.1063/1.5090222
   * E. Caldeweyher, J.-M. Mewes, S. Ehlert and S. Grimme, Phys. Chem. Chem. Phys.
     2020, 22, 8499-8512. DOI: 10.1039/D0CP00502A
   
   for sTDA-xTB:
   * S. Grimme and C. Bannwarth, J. Chem. Phys., 2016, 145, 054103.
     DOI: 10.1063/1.4959605
   
   in the mass-spec context:
   * V. Asgeirsson, C. Bauer and S. Grimme, Chem. Sci., 2017, 8, 4879.
     DOI: 10.1039/c7sc00601b
   * J. Koopman and S. Grimme, ACS Omega 2019, 4, 12, 15120-15133.
     DOI: 10.1021/acsomega.9b02011
   
   for metadynamics refer to:
   * S. Grimme, J. Chem. Theory Comput., 2019, 155, 2847-2862
     DOI: 10.1021/acs.jctc.9b00143
   
   for SPH calculations refer to:
   * S. Spicher and S. Grimme, J. Chem. Theory Comput., 2021, 17, 1701-1714
     DOI: 10.1021/acs.jctc.0c01306
   
   with help from (in alphabetical order)
   P. Atkinson, C. Bannwarth, F. Bohle, G. Brandenburg, E. Caldeweyher
   M. Checinski, S. Dohm, S. Ehlert, S. Ehrlich, I. Gerasimov, C. Hölzer
   A. Katbashev, J. Koopman, C. Lavigne, S. Lehtola, F. März, M. Müller,
   F. Musil, H. Neugebauer, J. Pisarek, C. Plett, P. Pracht, F. Pultar,
   J. Seibert, P. Shushkov, S. Spicher, M. Stahn, M. Steiner, T. Strunk,
   J. Stückrath, T. Rose, and J. Unsleber
   
 * started run on 2026/08/18 at 18:42:54.136     

           -------------------------------------------------
          |                Calculation Setup                |
           -------------------------------------------------

          program call               : /h/332/chchoi/miniconda3/envs/el-agente/bin/xtb reactant.xyz --opt --gfn 2 -P 4 --chrg 1 --uhf 0 --input detailed_input.inp
          coordinate file            : reactant.xyz
          omp threads                :                     4

   ID    Z sym.   atoms
    1   40 Zr     1
    2    6 C      2-7, 13-17, 26, 27
    3    1 H      8-12, 18-25, 28-31
constraining bond 2 26 to    2.1000000 Å, actual value:    2.9891585 Å
constraining bond 2 27 to    3.2000000 Å, actual value:    3.9000939 Å
constraining bond 1 2 to    2.6500000 Å, actual value:    2.4539388 Å
constraining bond 1 26 to    2.4500000 Å, actual value:    2.5614940 Å
constraining bond 1 27 to    2.5500000 Å, actual value:    2.5639464 Å
constraining bond 26 27 to    1.4200000 Å, actual value:    1.3387681 Å

           -------------------------------------------------
          |                 G F N 2 - x T B                 |
           -------------------------------------------------

        Reference                      10.1021/acs.jctc.8b01176
      * Hamiltonian:
        H0-scaling (s, p, d)           1.850000    2.230000    2.230000
        zeta-weighting                 0.500000
      * Dispersion:
        s8                             2.700000
        a1                             0.520000
        a2                             5.000000
        s9                             5.000000
      * Repulsion:
        kExp                           1.500000    1.000000
        rExp                           1.000000
      * Coulomb:
        alpha                          2.000000
        third order                    shell-resolved
        anisotropic                    true
        a3                             3.000000
        a5                             4.000000
        cn-shift                       1.200000
        cn-exp                         4.000000
        max-rad                        5.000000


          ...................................................
          :                      SETUP                      :
          :.................................................:
          :  # basis functions                  79          :
          :  # atomic orbitals                  78          :
          :  # shells                           46          :
          :  # electrons                        72          :
          :  max. iterations                   250          :
          :  Hamiltonian                  GFN2-xTB          :
          :  restarted?                      false          :
          :  GBSA solvation                  false          :
          :  PC potential                    false          :
          :  electronic temp.          300.0000000     K    :
          :  accuracy                    1.0000000          :
          :  -> integral cutoff          0.2500000E+02      :
          :  -> integral neglect         0.1000000E-07      :
          :  -> SCF convergence          0.1000000E-05 Eh   :
          :  -> wf. convergence          0.1000000E-03 e    :
          :  Broyden damping             0.4000000          :
          ...................................................

 iter      E             dE          RMSdq      gap      omega  full diag
   1    -38.1743796 -0.381744E+02  0.431E+00    1.21       0.0  T
   2    -38.2843709 -0.109991E+00  0.387E+00    1.24       1.0  T
   3    -38.2990128 -0.146419E-01  0.292E+00    1.06       1.0  T
   4    -38.2927702  0.624256E-02  0.667E-01    1.31       1.0  T
   5    -38.2991862 -0.641598E-02  0.487E-01    0.99       1.0  T
   6    -38.3001240 -0.937826E-03  0.219E-01    1.07       1.0  T
   7    -38.3000364  0.876012E-04  0.157E-01    1.06       1.0  T
   8    -38.3001622 -0.125827E-03  0.416E-02    1.09       1.0  T
   9    -38.3001776 -0.153731E-04  0.383E-02    1.09       1.0  T
  10    -38.3001806 -0.293832E-05  0.130E-02    1.10       1.4  T
  11    -38.3001823 -0.175616E-05  0.371E-03    1.10       4.8  T
  12    -38.3001824 -0.364219E-07  0.182E-03    1.10       9.9  T
  13    -38.3001824 -0.309639E-07  0.550E-04    1.10      32.7  T
  14    -38.3001824 -0.122708E-08  0.247E-04    1.10      72.7  T

   *** convergence criteria satisfied after 14 iterations ***

         #    Occupation            Energy/Eh            Energy/eV
      -------------------------------------------------------------
         1        2.0000           -0.8712953             -23.7092
       ...           ...                  ...                  ...
        30        2.0000           -0.5677918             -15.4504
        31        2.0000           -0.5667602             -15.4223
        32        2.0000           -0.5231261             -14.2350
        33        2.0000           -0.5192487             -14.1295
        34        2.0000           -0.5089844             -13.8502
        35        2.0000           -0.5039927             -13.7143
        36        2.0000           -0.4804500             -13.0737 (HOMO)
        37                         -0.4401848             -11.9780 (LUMO)
        38                         -0.4094748             -11.1424
        39                         -0.4082564             -11.1092
        40                         -0.4038960             -10.9906
        41                         -0.3952067             -10.7541
       ...                                ...                  ...
        78                          2.4805778              67.5000
      -------------------------------------------------------------
                  HL-Gap            0.0402652 Eh            1.0957 eV
             Fermi-level           -0.4603174 Eh          -12.5259 eV

 SCC (total)                   0 d,  0 h,  0 min,  0.820 sec
 SCC setup                      ...        0 min,  0.007 sec (  0.798%)
 Dispersion                     ...        0 min,  0.040 sec (  4.845%)
 classical contributions        ...        0 min,  0.015 sec (  1.820%)
 integral evaluation            ...        0 min,  0.044 sec (  5.354%)
 iterations                     ...        0 min,  0.640 sec ( 78.092%)
 molecular gradient             ...        0 min,  0.074 sec (  9.063%)
 printout                       ...        0 min,  0.000 sec (  0.024%)

         :::::::::::::::::::::::::::::::::::::::::::::::::::::
         ::                     SUMMARY                     ::
         :::::::::::::::::::::::::::::::::::::::::::::::::::::
         :: total energy             -33.830367957870 Eh    ::
         :: gradient norm              5.726424998841 Eh/a0 ::
         :: HOMO-LUMO gap              1.095671768452 eV    ::
         ::.................................................::
         :: SCC energy               -38.300182384372 Eh    ::
         :: -> isotropic ES            0.093609547573 Eh    ::
         :: -> anisotropic ES         -0.013269672228 Eh    ::
         :: -> anisotropic XC          0.021706405659 Eh    ::
         :: -> dispersion             -0.027874301446 Eh    ::
         :: repulsion energy           0.645491664760 Eh    ::
         :: add. restraining           3.823604758390 Eh    ::
         :: total charge               1.000000000000 e     ::
         :::::::::::::::::::::::::::::::::::::::::::::::::::::

      ----------------------------------------------------------- 
     |                   =====================                   |
     |                        A N C O P T                        |
     |                   =====================                   |
     |               Approximate Normal Coordinate               |
     |                Rational Function Optimizer                |
      ----------------------------------------------------------- 

          ...................................................
          :                      SETUP                      :
          :.................................................:
          :   optimization level            normal          :
          :   max. optcycles                   200          :
          :   ANC micro-cycles                  20          :
          :   degrees of freedom                87          :
          :.................................................:
          :   RF solver                   davidson          :
          :   write xtbopt.log                true          :
          :   linear?                        false          :
          :   energy convergence         0.5000000E-05 Eh   :
          :   grad. convergence          0.1000000E-02 Eh/α :
          :   maximium RF displ.         1.0000000          :
          :   Hlow (freq-cutoff)         0.1000000E-01      :
          :   Hmax (freq-cutoff)         5.0000000          :
          :   S6 in model hess.         20.0000000          :
          ...................................................

generating ANC from model Hessian ...
Using Lindh-Hessian (1995)
 Shifting diagonal of input Hessian by    2.0092012166677539E-002
 Lowest  eigenvalues of input Hessian
    0.010000    0.000000    0.000000    0.000000    0.000000    0.000000
    0.000000    0.020582    0.020836    0.021667    0.021688    0.023648
    0.023937    0.024240    0.027795    0.028034    0.028285    0.029616
 Highest eigenvalues
    1.959639    2.511134    3.020531    4.323077    5.862227    6.999414


........................................................................
.............................. CYCLE    1 ..............................
........................................................................
   1    -38.3001824 -0.383002E+02  0.106E-04    1.10       0.0  T
   2    -38.3001824 -0.580442E-10  0.938E-05    1.10     191.5  T
   3    -38.3001824 -0.541931E-10  0.467E-05    1.10     385.0  T
     SCC iter.                  ...        0 min,  0.110 sec
     gradient                   ...        0 min,  0.037 sec
 * total energy  :   -33.8303680 Eh     change       -0.6947118E-09 Eh
   gradient norm :     5.7264252 Eh/α   predicted     0.0000000E+00 (-100.00%)
   displ. norm   :     0.7028530 α      lambda       -0.3966919E+01
   maximum displ.:     0.4066533 α      in ANC's #86, #87, #83, ...

........................................................................
.............................. CYCLE    2 ..............................
........................................................................
   1    -38.2354707 -0.382355E+02  0.118E+00    1.37       0.0  T
   2    -38.2349771  0.493567E-03  0.114E+00    1.71       1.0  T
   3    -38.2436915 -0.871432E-02  0.604E-01    1.51       1.0  T
   4    -38.2435079  0.183522E-03  0.198E-01    1.51       1.0  T
   5    -38.2439274 -0.419444E-03  0.119E-01    1.52       1.0  T
   6    -38.2439207  0.667157E-05  0.817E-02    1.52       1.0  T
   7    -38.2439417 -0.210062E-04  0.280E-02    1.52       1.0  T
   8    -38.2439466 -0.483642E-05  0.118E-02    1.51       1.5  T
   9    -38.2439469 -0.333268E-06  0.570E-03    1.51       3.2  T
  10    -38.2439470 -0.100044E-06  0.201E-03    1.51       8.9  T
  11    -38.2439470 -0.329098E-07  0.159E-03    1.51      11.3  T
  12    -38.2439470 -0.961671E-08  0.406E-04    1.51      44.3  T
  13    -38.2439470 -0.485237E-09  0.156E-04    1.51     115.0  T
     SCC iter.                  ...        0 min,  0.524 sec
     gradient                   ...        0 min,  0.067 sec
 * total energy  :   -36.6203623 Eh     change       -0.2789994E+01 Eh
   gradient norm :     2.4020928 Eh/α   predicted    -0.2965552E+01 (   6.29%)
   displ. norm   :     0.5672637 α      lambda       -0.1276544E+01
   maximum displ.:     0.3799087 α      in ANC's #83, #84, #87, ...

........................................................................
.............................. CYCLE    3 ..............................
........................................................................
   1    -38.1398025 -0.381398E+02  0.173E+00    1.54       0.0  T
   2    -38.1175993  0.222032E-01  0.208E+00    1.68       1.0  T
   3    -38.1764148 -0.588155E-01  0.994E-01    1.55       1.0  T
   4    -38.1753982  0.101662E-02  0.399E-01    1.51       1.0  T
   5    -38.1778848 -0.248655E-02  0.177E-01    1.54       1.0  T
   6    -38.1780438 -0.159054E-03  0.873E-02    1.51       1.0  T
   7    -38.1780365  0.730633E-05  0.498E-02    1.53       1.0  T
   8    -38.1780595 -0.230176E-04  0.136E-02    1.52       1.3  T
   9    -38.1780612 -0.165925E-05  0.876E-03    1.52       2.1  T
  10    -38.1780617 -0.547712E-06  0.356E-03    1.52       5.1  T
  11    -38.1780618 -0.170242E-07  0.268E-03    1.52       6.7  T
  12    -38.1780618 -0.216749E-07  0.116E-03    1.52      15.5  T
  13    -38.1780618 -0.585522E-08  0.391E-04    1.52      45.9  T
  14    -38.1780618 -0.470891E-09  0.153E-04    1.52     117.1  T
     SCC iter.                  ...        0 min,  0.607 sec
     gradient                   ...        0 min,  0.075 sec
 * total energy  :   -37.4320377 Eh     change       -0.8116754E+00 Eh
   gradient norm :     0.7056134 Eh/α   predicted    -0.8436610E+00 (   3.94%)
   displ. norm   :     0.3891148 α      lambda       -0.1687116E+00
   maximum displ.:     0.1672757 α      in ANC's #24, #83, #21, ...

........................................................................
.............................. CYCLE    4 ..............................
........................................................................
   1    -38.1757778 -0.381758E+02  0.662E-01    1.37       0.0  T
   2    -38.1719466  0.383120E-02  0.824E-01    1.41       1.0  T
   3    -38.1816597 -0.971304E-02  0.360E-01    1.39       1.0  T
   4    -38.1814830  0.176627E-03  0.123E-01    1.38       1.0  T
   5    -38.1817949 -0.311878E-03  0.492E-02    1.39       1.0  T
   6    -38.1817935  0.144578E-05  0.283E-02    1.38       1.0  T
   7    -38.1817980 -0.457126E-05  0.139E-02    1.38       1.3  T
   8    -38.1818001 -0.204758E-05  0.489E-03    1.38       3.7  T
   9    -38.1818003 -0.214397E-06  0.273E-03    1.38       6.6  T
  10    -38.1818003 -0.479607E-07  0.132E-03    1.38      13.6  T
  11    -38.1818003 -0.269901E-08  0.735E-04    1.38      24.4  T
  12    -38.1818004 -0.251949E-08  0.170E-04    1.38     105.8  T
     SCC iter.                  ...        0 min,  0.320 sec
     gradient                   ...        0 min,  0.006 sec
 * total energy  :   -37.5331552 Eh     change       -0.1011174E+00 Eh
   gradient norm :     0.1419745 Eh/α   predicted    -0.9712824E-01 (  -3.95%)
   displ. norm   :     0.5637249 α      lambda       -0.4307503E-01
   maximum displ.:     0.3004108 α      in ANC's #21, #24, #23, ...

........................................................................
.............................. CYCLE    5 ..............................
........................................................................
   1    -38.2117561 -0.382118E+02  0.574E-01    1.30       0.0  T
   2    -38.2116853  0.708338E-04  0.443E-01    1.31       1.0  T
   3    -38.2114441  0.241114E-03  0.266E-01    1.30       1.0  T
   4    -38.2124009 -0.956746E-03  0.954E-02    1.32       1.0  T
   5    -38.2125189 -0.118047E-03  0.432E-02    1.31       1.0  T
   6    -38.2125140  0.493679E-05  0.186E-02    1.31       1.0  T
   7    -38.2125201 -0.610324E-05  0.630E-03    1.31       2.9  T
   8    -38.2125203 -0.184737E-06  0.620E-03    1.31       2.9  T
   9    -38.2125205 -0.182486E-06  0.194E-03    1.31       9.3  T
  10    -38.2125205  0.123847E-08  0.114E-03    1.31      15.8  T
  11    -38.2125205 -0.854534E-08  0.338E-04    1.31      53.1  T
  12    -38.2125205 -0.433701E-09  0.128E-04    1.31     140.2  T
     SCC iter.                  ...        0 min,  0.299 sec
     gradient                   ...        0 min,  0.006 sec
 * total energy  :   -37.5658630 Eh     change       -0.3270784E-01 Eh
   gradient norm :     0.0942275 Eh/α   predicted    -0.2838208E-01 ( -13.23%)
   displ. norm   :     0.5865311 α      lambda       -0.3336193E-01
   maximum displ.:     0.2110067 α      in ANC's #15, #24, #13, ...

........................................................................
.............................. CYCLE    6 ..............................
........................................................................
   1    -38.2227669 -0.382228E+02  0.729E-01    1.21       0.0  T
   2    -38.2225545  0.212316E-03  0.555E-01    1.21       1.0  T
   3    -38.2218218  0.732698E-03  0.319E-01    1.21       1.0  T
   4    -38.2237134 -0.189157E-02  0.963E-02    1.22       1.0  T
   5    -38.2238123 -0.989166E-04  0.437E-02    1.22       1.0  T
   6    -38.2238086  0.372463E-05  0.225E-02    1.22       1.0  T
   7    -38.2238160 -0.741402E-05  0.110E-02    1.21       1.6  T
   8    -38.2238165 -0.463171E-06  0.665E-03    1.22       2.7  T
   9    -38.2238168 -0.311815E-06  0.214E-03    1.21       8.4  T
  10    -38.2238168 -0.227301E-07  0.108E-03    1.21      16.7  T
  11    -38.2238168 -0.545711E-08  0.483E-04    1.21      37.2  T
  12    -38.2238168 -0.677716E-09  0.186E-04    1.21      96.3  T
     SCC iter.                  ...        0 min,  0.317 sec
     gradient                   ...        0 min,  0.006 sec
 * total energy  :   -37.5904251 Eh     change       -0.2456211E-01 Eh
   gradient norm :     0.1041355 Eh/α   predicted    -0.2241955E-01 (  -8.72%)
   displ. norm   :     0.6126421 α      lambda       -0.2466049E-01
   maximum displ.:     0.3021334 α      in ANC's #15, #21, #59, ...

........................................................................
.............................. CYCLE    7 ..............................
........................................................................
   1    -38.2376104 -0.382376E+02  0.783E-01    1.17       0.0  T
   2    -38.2378044 -0.194002E-03  0.441E-01    1.13       1.0  T
   3    -38.2375292  0.275192E-03  0.217E-01    1.20       1.0  T
   4    -38.2378229 -0.293690E-03  0.516E-02    1.14       1.0  T
   5    -38.2378666 -0.437752E-04  0.448E-02    1.16       1.0  T
   6    -38.2378766 -0.100035E-04  0.187E-02    1.16       1.0  T
   7    -38.2378778 -0.113062E-05  0.152E-02    1.15       1.2  T
   8    -38.2378792 -0.142719E-05  0.559E-03    1.16       3.2  T
   9    -38.2378796 -0.398906E-06  0.175E-03    1.16      10.3  T
  10    -38.2378796 -0.230363E-07  0.735E-04    1.16      24.4  T
  11    -38.2378796 -0.365869E-08  0.369E-04    1.16      48.7  T
     SCC iter.                  ...        0 min,  0.262 sec
     gradient                   ...        0 min,  0.004 sec
 * total energy  :   -37.6089724 Eh     change       -0.1854730E-01 Eh
   gradient norm :     0.0850212 Eh/α   predicted    -0.1695817E-01 (  -8.57%)
   displ. norm   :     0.5253905 α      lambda       -0.1530486E-01
   maximum displ.:     0.2444686 α      in ANC's #15, #6, #13, ...

........................................................................
.............................. CYCLE    8 ..............................
........................................................................
   1    -38.2447077 -0.382447E+02  0.713E-01    1.13       0.0  T
   2    -38.2447942 -0.865527E-04  0.433E-01    1.08       1.0  T
   3    -38.2443757  0.418548E-03  0.220E-01    1.18       1.0  T
   4    -38.2448513 -0.475672E-03  0.540E-02    1.09       1.0  T
   5    -38.2448782 -0.268435E-04  0.256E-02    1.11       1.0  T
   6    -38.2448793 -0.115336E-05  0.160E-02    1.11       1.1  T
   7    -38.2448801 -0.808624E-06  0.109E-02    1.10       1.6  T
   8    -38.2448806 -0.473806E-06  0.790E-03    1.11       2.3  T
   9    -38.2448812 -0.578236E-06  0.151E-03    1.11      11.9  T
  10    -38.2448812  0.679364E-09  0.938E-04    1.11      19.1  T
  11    -38.2448812 -0.393741E-08  0.411E-04    1.11      43.7  T
     SCC iter.                  ...        0 min,  0.065 sec
     gradient                   ...        0 min,  0.004 sec
 * total energy  :   -37.6149210 Eh     change       -0.5948615E-02 Eh
   gradient norm :     0.0736887 Eh/α   predicted    -0.9764811E-02 (  64.15%)
   displ. norm   :     0.2650141 α      lambda       -0.7631156E-02
   maximum displ.:     0.1571253 α      in ANC's #7, #6, #8, ...

........................................................................
.............................. CYCLE    9 ..............................
........................................................................
   1    -38.2447668 -0.382448E+02  0.320E-01    1.11       0.0  T
   2    -38.2447843 -0.175113E-04  0.177E-01    1.14       1.0  T
   3    -38.2446119  0.172393E-03  0.154E-01    1.11       1.0  T
   4    -38.2448743 -0.262368E-03  0.459E-02    1.12       1.0  T
   5    -38.2448974 -0.231055E-04  0.181E-02    1.13       1.0  T
   6    -38.2448963  0.113552E-05  0.140E-02    1.12       1.3  T
   7    -38.2448978 -0.152570E-05  0.645E-03    1.12       2.8  T
   8    -38.2448980 -0.217961E-06  0.416E-03    1.12       4.3  T
   9    -38.2448980 -0.110663E-07  0.330E-03    1.12       5.4  T
  10    -38.2448980 -0.200233E-07  0.152E-03    1.12      11.8  T
  11    -38.2448980 -0.215778E-08  0.377E-04    1.12      47.6  T
  12    -38.2448980 -0.517673E-09  0.101E-04    1.12     178.1  T
     SCC iter.                  ...        0 min,  0.207 sec
     gradient                   ...        0 min,  0.007 sec
 * total energy  :   -37.6192557 Eh     change       -0.4334637E-02 Eh
   gradient norm :     0.0308576 Eh/α   predicted    -0.4083513E-02 (  -5.79%)
   displ. norm   :     0.2963449 α      lambda       -0.2868281E-02
   maximum displ.:     0.1350067 α      in ANC's #1, #15, #7, ...

........................................................................
.............................. CYCLE   10 ..............................
........................................................................
   1    -38.2442204 -0.382442E+02  0.178E-01    1.10       0.0  T
   2    -38.2442271 -0.663082E-05  0.126E-01    1.09       1.0  T
   3    -38.2441431  0.839074E-04  0.928E-02    1.10       1.0  T
   4    -38.2442727 -0.129561E-03  0.293E-02    1.09       1.0  T
   5    -38.2442756 -0.285466E-05  0.178E-02    1.09       1.0  T
   6    -38.2442783 -0.270866E-05  0.101E-02    1.09       1.8  T
   7    -38.2442789 -0.615898E-06  0.441E-03    1.09       4.1  T
   8    -38.2442790 -0.738053E-07  0.327E-03    1.09       5.5  T
   9    -38.2442790 -0.194202E-07  0.155E-03    1.09      11.6  T
  10    -38.2442790 -0.503434E-08  0.750E-04    1.09      23.9  T
  11    -38.2442790 -0.970481E-09  0.202E-04    1.09      88.9  T
     SCC iter.                  ...        0 min,  0.322 sec
     gradient                   ...        0 min,  0.011 sec
 * total energy  :   -37.6208237 Eh     change       -0.1568074E-02 Eh
   gradient norm :     0.0383144 Eh/α   predicted    -0.1560098E-02 (  -0.51%)
   displ. norm   :     0.4394892 α      lambda       -0.3517454E-02
   maximum displ.:     0.1741912 α      in ANC's #5, #15, #7, ...

........................................................................
.............................. CYCLE   11 ..............................
........................................................................
   1    -38.2469344 -0.382469E+02  0.306E-01    1.11       0.0  T
   2    -38.2468975  0.368612E-04  0.262E-01    1.08       1.0  T
   3    -38.2470548 -0.157241E-03  0.145E-01    1.10       1.0  T
   4    -38.2471886 -0.133841E-03  0.507E-02    1.09       1.0  T
   5    -38.2472026 -0.140198E-04  0.266E-02    1.09       1.0  T
   6    -38.2472082 -0.556101E-05  0.154E-02    1.09       1.2  T
   7    -38.2472095 -0.128235E-05  0.546E-03    1.09       3.3  T
   8    -38.2472096 -0.903873E-07  0.503E-03    1.09       3.6  T
   9    -38.2472096 -0.730955E-07  0.272E-03    1.09       6.6  T
  10    -38.2472096 -0.846337E-08  0.179E-03    1.09      10.0  T
  11    -38.2472097 -0.573309E-08  0.323E-04    1.09      55.6  T
  12    -38.2472097 -0.886104E-09  0.135E-04    1.09     133.4  T
     SCC iter.                  ...        0 min,  0.326 sec
     gradient                   ...        0 min,  0.070 sec
 * total energy  :   -37.6221567 Eh     change       -0.1332934E-02 Eh
   gradient norm :     0.0372025 Eh/α   predicted    -0.2098413E-02 (  57.43%)
   displ. norm   :     0.1182328 α      lambda       -0.1213051E-02
   maximum displ.:     0.0465023 α      in ANC's #5, #7, #4, ...

........................................................................
.............................. CYCLE   12 ..............................
........................................................................
   1    -38.2504039 -0.382504E+02  0.103E-01    1.09       0.0  T
   2    -38.2504126 -0.874492E-05  0.582E-02    1.07       1.0  T
   3    -38.2504044  0.824854E-05  0.499E-02    1.09       1.0  T
   4    -38.2504196 -0.152180E-04  0.147E-02    1.07       1.2  T
   5    -38.2504211 -0.152109E-05  0.953E-03    1.08       1.9  T
   6    -38.2504210  0.134514E-06  0.539E-03    1.08       3.3  T
   7    -38.2504213 -0.365373E-06  0.239E-03    1.08       7.5  T
   8    -38.2504214 -0.680424E-07  0.122E-03    1.08      14.7  T
   9    -38.2504214 -0.204948E-08  0.954E-04    1.08      18.8  T
  10    -38.2504214 -0.222315E-08  0.480E-04    1.08      37.4  T
     SCC iter.                  ...        0 min,  0.242 sec
     gradient                   ...        0 min,  0.006 sec
 * total energy  :   -37.6229686 Eh     change       -0.8119128E-03 Eh
   gradient norm :     0.0130530 Eh/α   predicted    -0.6150144E-03 ( -24.25%)
   displ. norm   :     0.1758487 α      lambda       -0.5612025E-03
   maximum displ.:     0.0704700 α      in ANC's #7, #15, #4, ...

........................................................................
.............................. CYCLE   13 ..............................
........................................................................
   1    -38.2504290 -0.382504E+02  0.788E-02    1.07       0.0  T
   2    -38.2504271  0.185806E-05  0.542E-02    1.06       1.0  T
   3    -38.2504249  0.225857E-05  0.428E-02    1.07       1.0  T
   4    -38.2504450 -0.201392E-04  0.894E-03    1.06       2.0  T
   5    -38.2504457 -0.694809E-06  0.693E-03    1.06       2.6  T
   6    -38.2504457  0.347405E-07  0.408E-03    1.06       4.4  T
   7    -38.2504459 -0.202982E-06  0.147E-03    1.06      12.2  T
   8    -38.2504459 -0.258983E-07  0.101E-03    1.06      17.7  T
   9    -38.2504459 -0.372767E-08  0.508E-04    1.06      35.3  T
  10    -38.2504459 -0.529141E-09  0.143E-04    1.06     125.9  T
     SCC iter.                  ...        0 min,  0.228 sec
     gradient                   ...        0 min,  0.004 sec
 * total energy  :   -37.6232546 Eh     change       -0.2860659E-03 Eh
   gradient norm :     0.0135013 Eh/α   predicted    -0.2892805E-03 (   1.12%)
   displ. norm   :     0.1155691 α      lambda       -0.2319223E-03
   maximum displ.:     0.0472193 α      in ANC's #5, #3, #15, ...

........................................................................
.............................. CYCLE   14 ..............................
........................................................................
   1    -38.2526048 -0.382526E+02  0.489E-02    1.06       0.0  T
   2    -38.2526065 -0.165562E-05  0.356E-02    1.06       1.0  T
   3    -38.2526055  0.101975E-05  0.215E-02    1.07       1.0  T
   4    -38.2526093 -0.389008E-05  0.736E-03    1.06       2.4  T
   5    -38.2526101 -0.788884E-06  0.315E-03    1.06       5.7  T
   6    -38.2526101  0.222233E-07  0.243E-03    1.06       7.4  T
   7    -38.2526102 -0.666401E-07  0.105E-03    1.06      17.2  T
   8    -38.2526102 -0.981582E-08  0.748E-04    1.06      24.0  T
   9    -38.2526102 -0.969557E-09  0.450E-04    1.06      39.9  T
     SCC iter.                  ...        0 min,  0.230 sec
     gradient                   ...        0 min,  0.005 sec
 * total energy  :   -37.6233616 Eh     change       -0.1069490E-03 Eh
   gradient norm :     0.0093056 Eh/α   predicted    -0.1175145E-03 (   9.88%)
   displ. norm   :     0.0591353 α      lambda       -0.9712668E-04
   maximum displ.:     0.0311349 α      in ANC's #1, #3, #6, ...

........................................................................
.............................. CYCLE   15 ..............................
........................................................................
   1    -38.2520987 -0.382521E+02  0.393E-02    1.06       0.0  T
   2    -38.2520991 -0.353922E-06  0.251E-02    1.06       1.0  T
   3    -38.2520964  0.266520E-05  0.121E-02    1.07       1.5  T
   4    -38.2520994 -0.295967E-05  0.531E-03    1.06       3.4  T
   5    -38.2520995 -0.763045E-07  0.250E-03    1.06       7.2  T
   6    -38.2520994  0.142592E-07  0.133E-03    1.06      13.5  T
   7    -38.2520995 -0.303724E-07  0.507E-04    1.06      35.4  T
   8    -38.2520995 -0.313278E-10  0.523E-04    1.06      34.3  T
     SCC iter.                  ...        0 min,  0.181 sec
     gradient                   ...        0 min,  0.020 sec
 * total energy  :   -37.6234286 Eh     change       -0.6698739E-04 Eh
   gradient norm :     0.0042603 Eh/α   predicted    -0.4873559E-04 ( -27.25%)
   displ. norm   :     0.0741208 α      lambda       -0.7632924E-04
   maximum displ.:     0.0421185 α      in ANC's #3, #1, #6, ...

........................................................................
.............................. CYCLE   16 ..............................
........................................................................
   1    -38.2521469 -0.382521E+02  0.457E-02    1.07       0.0  T
   2    -38.2521473 -0.366861E-06  0.305E-02    1.07       1.0  T
   3    -38.2521404  0.694392E-05  0.188E-02    1.07       1.0  T
   4    -38.2521480 -0.766440E-05  0.586E-03    1.07       3.1  T
   5    -38.2521484 -0.346810E-06  0.298E-03    1.07       6.0  T
   6    -38.2521484 -0.219874E-07  0.171E-03    1.07      10.5  T
   7    -38.2521484 -0.138809E-07  0.781E-04    1.07      23.0  T
   8    -38.2521484 -0.230320E-08  0.586E-04    1.07      30.7  T
     SCC iter.                  ...        0 min,  0.234 sec
     gradient                   ...        0 min,  0.060 sec
 * total energy  :   -37.6234762 Eh     change       -0.4765293E-04 Eh
   gradient norm :     0.0042218 Eh/α   predicted    -0.3837892E-04 ( -19.46%)
   displ. norm   :     0.0648594 α      lambda       -0.4542519E-04
   maximum displ.:     0.0431415 α      in ANC's #3, #1, #9, ...

........................................................................
.............................. CYCLE   17 ..............................
........................................................................
   1    -38.2513994 -0.382514E+02  0.308E-02    1.07       0.0  T
   2    -38.2513997 -0.274170E-06  0.207E-02    1.07       1.0  T
   3    -38.2513964  0.328682E-05  0.142E-02    1.07       1.3  T
   4    -38.2514001 -0.376196E-05  0.429E-03    1.07       4.2  T
   5    -38.2514003 -0.206960E-06  0.215E-03    1.07       8.3  T
   6    -38.2514003  0.583660E-08  0.141E-03    1.07      12.7  T
   7    -38.2514003 -0.139317E-07  0.748E-04    1.07      24.0  T
   8    -38.2514003 -0.188318E-08  0.361E-04    1.07      49.7  T
     SCC iter.                  ...        0 min,  0.212 sec
     gradient                   ...        0 min,  0.007 sec
 * total energy  :   -37.6235060 Eh     change       -0.2976848E-04 Eh
   gradient norm :     0.0039499 Eh/α   predicted    -0.2281173E-04 ( -23.37%)
   displ. norm   :     0.0737821 α      lambda       -0.4577209E-04
   maximum displ.:     0.0533774 α      in ANC's #3, #9, #7, ...

........................................................................
.............................. CYCLE   18 ..............................
........................................................................
   1    -38.2516591 -0.382517E+02  0.277E-02    1.07       0.0  T
   2    -38.2516589  0.215321E-06  0.214E-02    1.07       1.0  T
   3    -38.2516596 -0.729942E-06  0.141E-02    1.07       1.3  T
   4    -38.2516612 -0.159771E-05  0.477E-03    1.07       3.8  T
   5    -38.2516615 -0.260960E-06  0.224E-03    1.07       8.0  T
   6    -38.2516615  0.341895E-08  0.164E-03    1.07      11.0  T
   7    -38.2516615 -0.127930E-07  0.905E-04    1.07      19.8  T
   8    -38.2516615 -0.414916E-08  0.536E-04    1.07      33.5  T
     SCC iter.                  ...        0 min,  0.203 sec
     gradient                   ...        0 min,  0.006 sec
 * total energy  :   -37.6235375 Eh     change       -0.3151070E-04 Eh
   gradient norm :     0.0047625 Eh/α   predicted    -0.2301612E-04 ( -26.96%)
   displ. norm   :     0.0771128 α      lambda       -0.4515405E-04
   maximum displ.:     0.0588157 α      in ANC's #3, #2, #13, ...

........................................................................
.............................. CYCLE   19 ..............................
........................................................................
   1    -38.2514717 -0.382515E+02  0.324E-02    1.07       0.0  T
   2    -38.2514719 -0.230595E-06  0.196E-02    1.07       1.0  T
   3    -38.2514702  0.173725E-05  0.120E-02    1.08       1.5  T
   4    -38.2514721 -0.189952E-05  0.293E-03    1.07       6.1  T
   5    -38.2514722 -0.100097E-06  0.175E-03    1.07      10.2  T
   6    -38.2514722 -0.715171E-08  0.994E-04    1.07      18.1  T
   7    -38.2514722 -0.674229E-08  0.617E-04    1.07      29.1  T
     SCC iter.                  ...        0 min,  0.189 sec
     gradient                   ...        0 min,  0.006 sec
 * total energy  :   -37.6235714 Eh     change       -0.3390035E-04 Eh
   gradient norm :     0.0038340 Eh/α   predicted    -0.2271430E-04 ( -33.00%)
   displ. norm   :     0.1106804 α      lambda       -0.5893707E-04
   maximum displ.:     0.0815306 α      in ANC's #3, #2, #8, ...

........................................................................
.............................. CYCLE   20 ..............................
........................................................................
   1    -38.2515792 -0.382516E+02  0.526E-02    1.07       0.0  T
   2    -38.2515796 -0.348924E-06  0.329E-02    1.07       1.0  T
   3    -38.2515773  0.232254E-05  0.129E-02    1.08       1.4  T
   4    -38.2515798 -0.256076E-05  0.334E-03    1.07       5.4  T
   5    -38.2515799 -0.509079E-07  0.235E-03    1.07       7.6  T
   6    -38.2515799 -0.154035E-07  0.836E-04    1.07      21.5  T
   7    -38.2515799 -0.606010E-08  0.589E-04    1.07      30.5  T
     SCC iter.                  ...        0 min,  0.160 sec
     gradient                   ...        0 min,  0.017 sec
 * total energy  :   -37.6236145 Eh     change       -0.4304228E-04 Eh
   gradient norm :     0.0049743 Eh/α   predicted    -0.2983181E-04 ( -30.69%)
   displ. norm   :     0.1253156 α      lambda       -0.6034652E-04
   maximum displ.:     0.0874150 α      in ANC's #3, #2, #8, ...
 * RMSD in coord.:     0.6206450 α      energy gain  -0.3793246E+01 Eh

generating ANC from model Hessian ...
Using Lindh-Hessian (1995)
 Shifting diagonal of input Hessian by    1.0339057559056708E-002
 Lowest  eigenvalues of input Hessian
    0.010000    0.000000    0.000000    0.000000    0.000000    0.000000
    0.000000    0.010479    0.010696    0.010803    0.011538    0.011593
    0.012086    0.013786    0.015075    0.016860    0.018427    0.018625
 Highest eigenvalues
    1.731890    2.311997    2.901983    4.104770    5.490099    6.947213


........................................................................
.............................. CYCLE   21 ..............................
........................................................................
   1    -38.2515701 -0.382516E+02  0.615E-02    1.07       0.0  T
   2    -38.2515703 -0.230212E-06  0.402E-02    1.07       1.0  T
   3    -38.2515604  0.994064E-05  0.197E-02    1.08       1.0  T
   4    -38.2515708 -0.104489E-04  0.479E-03    1.07       3.7  T
   5    -38.2515710 -0.190822E-06  0.193E-03    1.07       9.3  T
   6    -38.2515710  0.337093E-08  0.650E-04    1.07      27.6  T
   7    -38.2515710 -0.100733E-07  0.403E-04    1.07      44.6  T
     SCC iter.                  ...        0 min,  0.235 sec
     gradient                   ...        0 min,  0.077 sec
 * total energy  :   -37.6236591 Eh     change       -0.4465551E-04 Eh
   gradient norm :     0.0047286 Eh/α   predicted     0.0000000E+00 (-100.00%)
   displ. norm   :     0.0972438 α      lambda       -0.1263067E-03
   maximum displ.:     0.0820713 α      in ANC's #1, #5, #3, ...

........................................................................
.............................. CYCLE   22 ..............................
........................................................................
   1    -38.2517353 -0.382517E+02  0.872E-02    1.07       0.0  T
   2    -38.2517325  0.271800E-05  0.822E-02    1.07       1.0  T
   3    -38.2517503 -0.177228E-04  0.486E-02    1.07       1.0  T
   4    -38.2517508 -0.546807E-06  0.163E-02    1.07       1.1  T
   5    -38.2517541 -0.328507E-05  0.784E-03    1.07       2.3  T
   6    -38.2517544 -0.295678E-06  0.383E-03    1.07       4.7  T
   7    -38.2517545 -0.125554E-06  0.181E-03    1.07       9.9  T
   8    -38.2517545 -0.702931E-08  0.760E-04    1.07      23.6  T
   9    -38.2517545 -0.385703E-08  0.322E-04    1.07      55.7  T
     SCC iter.                  ...        0 min,  0.246 sec
     gradient                   ...        0 min,  0.016 sec
 * total energy  :   -37.6237349 Eh     change       -0.7581445E-04 Eh
   gradient norm :     0.0022525 Eh/α   predicted    -0.6375221E-04 ( -15.91%)
   displ. norm   :     0.0949782 α      lambda       -0.7768911E-04
   maximum displ.:     0.0640915 α      in ANC's #1, #5, #2, ...

........................................................................
.............................. CYCLE   23 ..............................
........................................................................
   1    -38.2519461 -0.382519E+02  0.506E-02    1.07       0.0  T
   2    -38.2519460  0.600162E-07  0.347E-02    1.07       1.0  T
   3    -38.2519351  0.109682E-04  0.263E-02    1.07       1.0  T
   4    -38.2519484 -0.132916E-04  0.633E-03    1.07       2.8  T
   5    -38.2519486 -0.241139E-06  0.376E-03    1.07       4.8  T
   6    -38.2519486 -0.180919E-07  0.201E-03    1.07       9.0  T
   7    -38.2519487 -0.336977E-07  0.116E-03    1.07      15.5  T
   8    -38.2519487 -0.556228E-08  0.629E-04    1.07      28.5  T
   9    -38.2519487 -0.134773E-08  0.233E-04    1.07      77.2  T
     SCC iter.                  ...        0 min,  0.241 sec
     gradient                   ...        0 min,  0.005 sec
 * total energy  :   -37.6237840 Eh     change       -0.4906874E-04 Eh
   gradient norm :     0.0021782 Eh/α   predicted    -0.3919617E-04 ( -20.12%)
   displ. norm   :     0.0952705 α      lambda       -0.4386492E-04
   maximum displ.:     0.0699137 α      in ANC's #1, #2, #3, ...

........................................................................
.............................. CYCLE   24 ..............................
........................................................................
   1    -38.2519715 -0.382520E+02  0.414E-02    1.07       0.0  T
   2    -38.2519718 -0.283547E-06  0.262E-02    1.07       1.0  T
   3    -38.2519702  0.164051E-05  0.146E-02    1.07       1.2  T
   4    -38.2519721 -0.191817E-05  0.426E-03    1.07       4.2  T
   5    -38.2519721  0.943275E-08  0.317E-03    1.07       5.7  T
   6    -38.2519721 -0.503980E-07  0.673E-04    1.07      26.7  T
   7    -38.2519721 -0.143630E-08  0.649E-04    1.07      27.7  T
     SCC iter.                  ...        0 min,  0.185 sec
     gradient                   ...        0 min,  0.025 sec
 * total energy  :   -37.6238159 Eh     change       -0.3191636E-04 Eh
   gradient norm :     0.0019992 Eh/α   predicted    -0.2213193E-04 ( -30.66%)
   displ. norm   :     0.1262641 α      lambda       -0.2961954E-04
   maximum displ.:     0.0913245 α      in ANC's #1, #3, #2, ...

........................................................................
.............................. CYCLE   25 ..............................
........................................................................
   1    -38.2520140 -0.382520E+02  0.489E-02    1.08       0.0  T
   2    -38.2520142 -0.251195E-06  0.301E-02    1.08       1.0  T
   3    -38.2520120  0.220988E-05  0.144E-02    1.08       1.2  T
   4    -38.2520144 -0.244561E-05  0.379E-03    1.08       4.7  T
   5    -38.2520144  0.545245E-07  0.324E-03    1.08       5.5  T
   6    -38.2520145 -0.112719E-06  0.850E-04    1.08      21.1  T
   7    -38.2520145 -0.389031E-08  0.589E-04    1.08      30.5  T
     SCC iter.                  ...        0 min,  0.189 sec
     gradient                   ...        0 min,  0.014 sec
 * total energy  :   -37.6238444 Eh     change       -0.2845758E-04 Eh
   gradient norm :     0.0018194 Eh/α   predicted    -0.1492530E-04 ( -47.55%)
   displ. norm   :     0.1268652 α      lambda        0.1078432E-04
   maximum displ.:     0.0918039 α      in ANC's #1, #3, #2, ...

........................................................................
.............................. CYCLE   26 ..............................
........................................................................
   1    -38.2517977 -0.382518E+02  0.493E-02    1.08       0.0  T
   2    -38.2517980 -0.254169E-06  0.304E-02    1.08       1.0  T
   3    -38.2517958  0.219692E-05  0.143E-02    1.08       1.3  T
   4    -38.2517982 -0.243307E-05  0.380E-03    1.08       4.7  T
   5    -38.2517981  0.545244E-07  0.325E-03    1.08       5.5  T
   6    -38.2517983 -0.115401E-06  0.814E-04    1.08      22.1  T
   7    -38.2517983 -0.308536E-08  0.564E-04    1.08      31.8  T
     SCC iter.                  ...        0 min,  0.184 sec
     gradient                   ...        0 min,  0.007 sec
 * total energy  :   -37.6238401 Eh     change        0.4279557E-05 Eh
   gradient norm :     0.0043979 Eh/α   predicted     0.5430453E-05 (  26.89%)
   displ. norm   :     0.0311091 α      lambda       -0.2353996E-04
   maximum displ.:     0.0171614 α      in ANC's #5, #2, #10, ...

........................................................................
.............................. CYCLE   27 ..............................
........................................................................
   1    -38.2519713 -0.382520E+02  0.171E-02    1.08       0.0  T
   2    -38.2519713  0.769625E-07  0.143E-02    1.08       1.3  T
   3    -38.2519711  0.185159E-06  0.716E-03    1.08       2.5  T
   4    -38.2519717 -0.656634E-06  0.238E-03    1.08       7.5  T
   5    -38.2519718 -0.836591E-07  0.129E-03    1.08      14.0  T
   6    -38.2519718 -0.681423E-08  0.464E-04    1.08      38.7  T
   7    -38.2519718 -0.145331E-08  0.157E-04    1.08     114.1  T
     SCC iter.                  ...        0 min,  0.226 sec
     gradient                   ...        0 min,  0.034 sec
 * total energy  :   -37.6238579 Eh     change       -0.1784912E-04 Eh
   gradient norm :     0.0021463 Eh/α   predicted    -0.1180214E-04 ( -33.88%)
   displ. norm   :     0.0580798 α      lambda       -0.2621480E-04
   maximum displ.:     0.0354551 α      in ANC's #5, #2, #3, ...

........................................................................
.............................. CYCLE   28 ..............................
........................................................................
   1    -38.2521343 -0.382521E+02  0.296E-02    1.07       0.0  T
   2    -38.2521341  0.243367E-06  0.248E-02    1.07       1.0  T
   3    -38.2521335  0.626068E-06  0.127E-02    1.07       1.4  T
   4    -38.2521356 -0.213709E-05  0.388E-03    1.07       4.6  T
   5    -38.2521358 -0.213096E-06  0.175E-03    1.07      10.3  T
   6    -38.2521358 -0.954505E-08  0.505E-04    1.07      35.6  T
   7    -38.2521358 -0.212311E-08  0.228E-04    1.07      78.7  T
     SCC iter.                  ...        0 min,  0.193 sec
     gradient                   ...        0 min,  0.020 sec
 * total energy  :   -37.6238750 Eh     change       -0.1703684E-04 Eh
   gradient norm :     0.0015590 Eh/α   predicted    -0.1315323E-04 ( -22.80%)
   displ. norm   :     0.0992306 α      lambda       -0.1345942E-04
   maximum displ.:     0.0562618 α      in ANC's #3, #1, #5, ...

........................................................................
.............................. CYCLE   29 ..............................
........................................................................
   1    -38.2521108 -0.382521E+02  0.313E-02    1.07       0.0  T
   2    -38.2521108 -0.140597E-07  0.240E-02    1.07       1.0  T
   3    -38.2521063  0.448122E-05  0.134E-02    1.07       1.3  T
   4    -38.2521115 -0.514482E-05  0.397E-03    1.07       4.5  T
   5    -38.2521117 -0.209986E-06  0.163E-03    1.07      11.0  T
   6    -38.2521117 -0.778872E-08  0.478E-04    1.07      37.5  T
   7    -38.2521117 -0.227232E-08  0.161E-04    1.07     111.4  T
     SCC iter.                  ...        0 min,  0.180 sec
     gradient                   ...        0 min,  0.021 sec
 * total energy  :   -37.6238904 Eh     change       -0.1540736E-04 Eh
   gradient norm :     0.0019737 Eh/α   predicted    -0.6759365E-05 ( -56.13%)
   displ. norm   :     0.2115745 α      lambda       -0.2377149E-04
   maximum displ.:     0.1310467 α      in ANC's #3, #1, #4, ...

........................................................................
.............................. CYCLE   30 ..............................
........................................................................
   1    -38.2517695 -0.382518E+02  0.498E-02    1.07       0.0  T
   2    -38.2517700 -0.543203E-06  0.335E-02    1.07       1.0  T
   3    -38.2517646  0.540475E-05  0.140E-02    1.07       1.3  T
   4    -38.2517701 -0.551791E-05  0.622E-03    1.07       2.9  T
   5    -38.2517706 -0.426056E-06  0.231E-03    1.07       7.8  T
   6    -38.2517706 -0.935385E-08  0.454E-04    1.07      39.6  T
   7    -38.2517706 -0.275283E-08  0.289E-04    1.07      62.1  T
     SCC iter.                  ...        0 min,  0.194 sec
     gradient                   ...        0 min,  0.007 sec
 * total energy  :   -37.6239162 Eh     change       -0.2577578E-04 Eh
   gradient norm :     0.0018680 Eh/α   predicted    -0.1212418E-04 ( -52.96%)
   displ. norm   :     0.2184454 α      lambda       -0.1800794E-04
   maximum displ.:     0.1398526 α      in ANC's #3, #1, #4, ...

........................................................................
.............................. CYCLE   31 ..............................
........................................................................
   1    -38.2516257 -0.382516E+02  0.419E-02    1.07       0.0  T
   2    -38.2516261 -0.479034E-06  0.251E-02    1.07       1.0  T
   3    -38.2516253  0.862198E-06  0.110E-02    1.07       1.6  T
   4    -38.2516263 -0.106759E-05  0.190E-03    1.07       9.5  T
   5    -38.2516263  0.314186E-07  0.215E-03    1.07       8.4  T
   6    -38.2516263 -0.429678E-07  0.359E-04    1.07      50.0  T
   7    -38.2516263 -0.204180E-08  0.187E-04    1.07      96.0  T
     SCC iter.                  ...        0 min,  0.203 sec
     gradient                   ...        0 min,  0.006 sec
 * total energy  :   -37.6239326 Eh     change       -0.1644851E-04 Eh
   gradient norm :     0.0017353 Eh/α   predicted    -0.9196161E-05 ( -44.09%)
   displ. norm   :     0.0993796 α      lambda       -0.8710238E-05
   maximum displ.:     0.0634537 α      in ANC's #3, #1, #2, ...

........................................................................
.............................. CYCLE   32 ..............................
........................................................................
   1    -38.2522080 -0.382522E+02  0.164E-02    1.08       0.0  T
   2    -38.2522080 -0.359599E-07  0.912E-03    1.08       2.0  T
   3    -38.2522072  0.811176E-06  0.991E-03    1.08       1.8  T
   4    -38.2522084 -0.113761E-05  0.206E-03    1.08       8.7  T
   5    -38.2522084 -0.243446E-07  0.146E-03    1.08      12.3  T
   6    -38.2522084 -0.102523E-07  0.525E-04    1.08      34.2  T
   7    -38.2522084 -0.247231E-08  0.150E-04    1.08     119.6  T
     SCC iter.                  ...        0 min,  0.185 sec
     gradient                   ...        0 min,  0.005 sec
 * total energy  :   -37.6239411 Eh     change       -0.8516694E-05 Eh
   gradient norm :     0.0005216 Eh/α   predicted    -0.4376163E-05 ( -48.62%)
   displ. norm   :     0.0644004 α      lambda       -0.4610834E-05
   maximum displ.:     0.0363510 α      in ANC's #3, #1, #2, ...

........................................................................
.............................. CYCLE   33 ..............................
........................................................................
   1    -38.2523700 -0.382524E+02  0.108E-02    1.08       0.0  T
   2    -38.2523700 -0.212761E-07  0.626E-03    1.08       2.9  T
   3    -38.2523698  0.192666E-06  0.638E-03    1.08       2.8  T
   4    -38.2523702 -0.426797E-06  0.152E-03    1.08      11.8  T
   5    -38.2523702 -0.115202E-07  0.129E-03    1.08      14.0  T
   6    -38.2523703 -0.716783E-08  0.498E-04    1.08      36.1  T
   7    -38.2523703 -0.277521E-08  0.229E-04    1.08      78.4  T
     SCC iter.                  ...        0 min,  0.186 sec
     gradient                   ...        0 min,  0.007 sec
 * total energy  :   -37.6239456 Eh     change       -0.4484495E-05 Eh
   gradient norm :     0.0009514 Eh/α   predicted    -0.2313323E-05 ( -48.42%)
   displ. norm   :     0.0300033 α      lambda       -0.1699523E-05
   maximum displ.:     0.0192729 α      in ANC's #2, #8, #3, ...

   *** GEOMETRY OPTIMIZATION CONVERGED AFTER 33 ITERATIONS ***

------------------------------------------------------------------------
 total energy gain   :        -3.7935777 Eh    -2380.5059 kcal/mol
 total RMSD          :         0.6760995 a0        0.3578 Å
 total power (kW/mol):      -301.8192957 (step)-1085.9578 (real)
------------------------------------------------------------------------

 ANCopt (total)                0 d,  0 h,  0 min,  9.172 sec
 optimizer setup                ...        0 min,  0.000 sec (  0.004%)
 model hessian                  ...        0 min,  0.054 sec (  0.593%)
 ANC generation                 ...        0 min,  0.005 sec (  0.051%)
 coordinate transformation      ...        0 min,  0.000 sec (  0.005%)
 single point calculation       ...        0 min,  9.018 sec ( 98.327%)
 optimization log               ...        0 min,  0.007 sec (  0.081%)
 hessian update                 ...        0 min,  0.056 sec (  0.612%)
 rational function              ...        0 min,  0.028 sec (  0.304%)

================
 final structure:
================
31
 xtb: 6.5.1 (b24c23e)
Zr          -1.26765010736676       -0.13626933587584        0.59465360215995
C           -1.93661977549604        0.98619120489222       -1.69849220985616
C           -1.08498231638138       -2.36685374074291        1.56929975655528
C            0.20719718499440       -2.04448779895681        1.08394101656393
C            0.13202311253017       -1.90963141056742       -0.32415293597903
C           -1.20103153784822       -2.19602054345276       -0.71718051513345
C           -1.95099494801201       -2.48211787292501        0.45172399799188
H           -1.32316489508969       -2.66305555350156        2.58629759046909
H            1.11847187317009       -2.04620747628225        1.67000730549620
H            0.97881336445556       -1.79794759427361       -0.99465762239828
H           -1.53930372137227       -2.33465444015650       -1.73827048306659
H           -2.95695400178549       -2.88636546359033        0.47767746733596
C            0.75133523701345        0.94668285678888        1.46319484339489
C           -0.08013752571319        0.64199406480716        2.57388641895247
C           -1.25822117790769        1.42216883840611        2.46573271232647
C           -1.14825895918554        2.21699835392894        1.29380161774069
C            0.08982498234383        1.92055321161873        0.67625407580098
H            1.78045918228141        0.62896630413222        1.33462837364197
H            0.20618430301780        0.05023581381048        3.43712376435506
H           -2.01311865109463        1.53417900153644        3.23652820552387
H           -1.82238959703613        3.01566329449401        1.00966735655846
H            0.53079937226088        2.46689816966673       -0.15037512365700
H           -0.85200084341448        0.71747792535618       -1.70917643305405
H           -2.38431706055627        0.63659704690544       -2.62087532549361
H           -2.06769209876832        2.06056347658674       -1.60112010830366
C           -3.45329050114423        0.19448222093377       -0.48548437169959
C           -3.72959811027888        0.40273901596223        0.89132875548565
H           -3.79693615884573       -0.44856984323439        1.58025276390452
H           -4.13528057134502        1.34879481229985        1.21979599670693
H           -3.50269101040073       -0.83711298130288       -0.84335902682083
H           -4.07555539297700        0.82764341269403       -1.11956715550397

 Bond Distances (Angstroems)
 ---------------------------
Zr1-C2=2.6393        Zr1-C3=2.4411        Zr1-C4=2.4609        Zr1-C5=2.4389        Zr1-C6=2.4429        Zr1-C7=2.4475        
Zr1-C13=2.4502       Zr1-C14=2.4358       Zr1-C15=2.4351       Zr1-C16=2.4578       Zr1-C17=2.4657       Zr1-H23=2.4918       
Zr1-C26=2.4603       Zr1-C27=2.5377       C2-Zr1=2.6393        C2-H23=1.1175        C2-H24=1.0833        C2-H25=1.0867        
C3-Zr1=2.4411        C3-C4=1.4175         C3-C7=1.4185         C3-H8=1.0857         C4-Zr1=2.4609        C4-C3=1.4175         
C4-C5=1.4165         C4-H9=1.0835         C5-Zr1=2.4389        C5-C4=1.4165         C5-C6=1.4190         C5-H10=1.0859        
C6-Zr1=2.4429        C6-C5=1.4190         C6-C7=1.4180         C6-H11=1.0846        C7-Zr1=2.4475        C7-C3=1.4185         
C7-C6=1.4180         C7-H12=1.0845        H8-C3=1.0857         H9-C4=1.0835         H10-C5=1.0859        H11-C6=1.0846        
H12-C7=1.0845        C13-Zr1=2.4502       C13-C14=1.4205       C13-C17=1.4161       C13-H18=1.0847       C14-Zr1=2.4358       
C14-C13=1.4205       C14-C15=1.4171       C14-H19=1.0851       C15-Zr1=2.4351       C15-C14=1.4171       C15-C16=1.4203       
C15-H20=1.0847       C16-Zr1=2.4578       C16-C15=1.4203       C16-C17=1.4150       C16-H21=1.0831       C17-Zr1=2.4657       
C17-C13=1.4161       C17-C16=1.4150       C17-H22=1.0846       H18-C13=1.0847       H19-C14=1.0851       H20-C15=1.0847       
H21-C16=1.0831       H22-C17=1.0846       H23-Zr1=2.4918       H23-C2=1.1175        H24-C2=1.0833        H25-C2=1.0867        
C26-Zr1=2.4603       C26-C27=1.4196       C26-H30=1.0930       C26-H31=1.0909       C27-Zr1=2.5377       C27-C26=1.4196       
C27-H28=1.0972       C27-H29=1.0805       H28-C27=1.0972       H29-C27=1.0805       H30-C26=1.0930       H31-C26=1.0909       
 C  H  Rav=1.0880 sigma=0.0084  Rmin=1.0805  Rmax=1.1175    17
 C  C  Rav=1.4180 sigma=0.0017  Rmin=1.4150  Rmax=1.4205    11
 Zr H  Rav=2.4918 sigma=0.0000  Rmin=2.4918  Rmax=2.4918     1
 Zr C  Rav=2.4703 sigma=0.0551  Rmin=2.4351  Rmax=2.6393    13

 selected bond angles (degree)
 --------------------
C3-Zr1-C2=138.98               C4-Zr1-C2=130.88               C4-Zr1-C3= 33.61               C5-Zr1-C2= 97.32               
C5-Zr1-C3= 56.15               C5-Zr1-C4= 33.60               C6-Zr1-C2= 84.20               C6-Zr1-C3= 56.08               
C6-Zr1-C4= 55.71               C6-Zr1-C5= 33.80               C7-Zr1-C2=106.63               C7-Zr1-C3= 33.74               
C7-Zr1-C4= 55.65               C7-Zr1-C5= 56.04               C7-Zr1-C6= 33.71               C13-Zr1-C2=109.20              
C13-Zr1-C3=101.58              C13-Zr1-C4= 77.20              C13-Zr1-C5= 88.97              C13-Zr1-C6=122.72              
C13-Zr1-C7=132.41              C14-Zr1-C2=133.92              C14-Zr1-C3= 86.05              C14-Zr1-C4= 78.11              
C14-Zr1-C5=104.99              C14-Zr1-C6=133.82              C14-Zr1-C7=119.33              C14-Zr1-C13= 33.80             
C15-Zr1-C2=113.35              C15-Zr1-C3=106.12              C15-Zr1-C4=109.95              C15-Zr1-C5=138.82              
C15-Zr1-C6=162.20              C15-Zr1-C7=131.25              C15-Zr1-C13= 56.05             C15-Zr1-C14= 33.83             
C16-Zr1-C2= 81.50              C16-Zr1-C3=139.26              C16-Zr1-C4=131.05              C16-Zr1-C5=140.85              
C16-Zr1-C6=163.48              C16-Zr1-C7=161.42              C16-Zr1-C13= 55.66             C16-Zr1-C14= 55.89             
C16-Zr1-C15= 33.74             C17-Zr1-C2= 79.25              C17-Zr1-C3=135.06              C17-Zr1-C4=108.08              
C17-Zr1-C5=107.64              C17-Zr1-C6=134.92              C17-Zr1-C7=162.77              C17-Zr1-C13= 33.48             
C17-Zr1-C14= 55.82             C17-Zr1-C15= 55.85             C17-Zr1-C16= 33.40             H23-Zr1-C2= 24.94              
H23-Zr1-C3=132.05              H23-Zr1-C4=110.46              H23-Zr1-C5= 78.76              H23-Zr1-C6= 77.75              
H23-Zr1-C7=108.72              H23-Zr1-C13= 92.23             H23-Zr1-C14=124.09             H23-Zr1-C15=119.37             
H23-Zr1-C16= 85.81             H23-Zr1-C17= 69.69             C26-Zr1-C2= 48.41              C26-Zr1-C3=111.38              
C26-Zr1-C4=136.38              C26-Zr1-C5=116.24              C26-Zr1-C6= 84.37              C26-Zr1-C7= 81.67              
C26-Zr1-C13=145.92             C26-Zr1-C14=138.32             C26-Zr1-C15=104.76             C26-Zr1-C16= 92.25             
C26-Zr1-C17=113.05             C26-Zr1-H23= 72.32             C27-Zr1-C2= 76.43              C27-Zr1-C3=102.71              
C27-Zr1-C4=136.29              C27-Zr1-C5=139.05              C27-Zr1-C6=105.56              C27-Zr1-C7= 86.53              
C27-Zr1-C13=131.61             C27-Zr1-C14=108.07             C27-Zr1-C15= 77.17             C27-Zr1-C16= 79.08             
C27-Zr1-C17=110.67             C27-Zr1-H23=101.37             C27-Zr1-C26= 32.96             H23-C2-Zr1= 70.12              
H24-C2-Zr1=135.02              H24-C2-H23=108.38              H25-C2-Zr1=111.91              H25-C2-H23=110.83              
H25-C2-H24=110.21              C4-C3-Zr1= 73.96               C7-C3-Zr1= 73.38               C7-C3-C4=107.77                
H8-C3-Zr1=127.36               H8-C3-C4=125.65                H8-C3-C7=125.58                C3-C4-Zr1= 72.43               
C5-C4-Zr1= 72.35               C5-C4-C3=108.28                H9-C4-Zr1=127.80               H9-C4-C3=125.53                
H9-C4-C5=125.63                C4-C5-Zr1= 74.05               C6-C5-Zr1= 73.26               C6-C5-C4=107.82                
H10-C5-Zr1=127.26              H10-C5-C4=125.61               H10-C5-C6=125.61               C5-C6-Zr1= 72.95               
C7-C6-Zr1= 73.32               C7-C6-C5=108.01                H11-C6-Zr1=127.22              H11-C6-C5=125.42               
H11-C6-C7=125.83               C3-C7-Zr1= 72.88               C6-C7-Zr1= 72.97               C6-C7-C3=108.07                
H12-C7-Zr1=127.94              H12-C7-C3=125.29               H12-C7-C6=125.84               

 selected dihedral angles (degree)
 ---------------------------------
H23-C2-Zr1-C3=272.98          H23-C2-Zr1-C4=319.88          H23-C2-Zr1-C5=317.91          H23-C2-Zr1-C6=286.69          
H23-C2-Zr1-C7=261.24          H23-C2-Zr1-C13= 49.37         H23-C2-Zr1-C14= 76.97         H23-C2-Zr1-C15=109.79         
H23-C2-Zr1-C16= 98.38         H23-C2-Zr1-C17= 64.56         H23-C2-Zr1-C26=199.09         H23-C2-Zr1-C27=179.11         
H24-C2-Zr1-C3=  9.45          H24-C2-Zr1-C4= 56.35          H24-C2-Zr1-C5= 54.38          H24-C2-Zr1-C6= 23.16          
H24-C2-Zr1-C7=357.71          H24-C2-Zr1-C13=145.84         H24-C2-Zr1-C14=173.44         H24-C2-Zr1-C15=206.26         
H24-C2-Zr1-C16=194.85         H24-C2-Zr1-C17=161.04         H24-C2-Zr1-H23= 96.47         H24-C2-Zr1-C26=295.56         
H24-C2-Zr1-C27=275.59         H25-C2-Zr1-C3=167.77          H25-C2-Zr1-C4=214.68          H25-C2-Zr1-C5=212.71          
H25-C2-Zr1-C6=181.49          H25-C2-Zr1-C7=156.04          H25-C2-Zr1-C13=304.17         H25-C2-Zr1-C14=331.76         
H25-C2-Zr1-C15=  4.58         H25-C2-Zr1-C16=353.18         H25-C2-Zr1-C17=319.36         H25-C2-Zr1-H23=254.80         
H25-C2-Zr1-C26= 93.88         H25-C2-Zr1-C27= 73.91         C4-C3-Zr1-C2= 94.12           C4-C3-Zr1-C5= 36.61           
C4-C3-Zr1-C6= 77.60           C4-C3-Zr1-C7=114.66           C4-C3-Zr1-C13=315.79          C4-C3-Zr1-C14=285.61          
C4-C3-Zr1-C15=258.08          C4-C3-Zr1-C16=265.91          C4-C3-Zr1-C17=315.55          C4-C3-Zr1-H23= 59.57          
C4-C3-Zr1-C26=144.62          C4-C3-Zr1-C27=177.96          C7-C3-Zr1-C2=339.46           C7-C3-Zr1-C4=245.34           
C7-C3-Zr1-C5=281.95           C7-C3-Zr1-C6=322.94           C7-C3-Zr1-C13=201.13          C7-C3-Zr1-C14=170.94          
C7-C3-Zr1-C15=143.41          C7-C3-Zr1-C16=151.25          C7-C3-Zr1-C17=200.89          C7-C3-Zr1-H23=304.91          
C7-C3-Zr1-C26= 29.96          C7-C3-Zr1-C27= 63.30          H8-C3-Zr1-C2=217.04           H8-C3-Zr1-C4=122.92           
H8-C3-Zr1-C5=159.53           H8-C3-Zr1-C6=200.52           H8-C3-Zr1-C7=237.58           H8-C3-Zr1-C13= 78.71          
H8-C3-Zr1-C14= 48.52          H8-C3-Zr1-C15= 20.99          H8-C3-Zr1-C16= 28.83          H8-C3-Zr1-C17= 78.47          
H8-C3-Zr1-H23=182.48          H8-C3-Zr1-C26=267.54          H8-C3-Zr1-C27=300.88          C3-C4-Zr1-C2=239.97           
C3-C4-Zr1-C5=243.51           C3-C4-Zr1-C6=281.21           C3-C4-Zr1-C7=322.31           C3-C4-Zr1-C13=135.53          
C3-C4-Zr1-C14=100.92          C3-C4-Zr1-C15= 89.30          C3-C4-Zr1-C16=120.32          C3-C4-Zr1-C17=148.65          
C3-C4-Zr1-H23=223.11          C3-C4-Zr1-C26=308.61          C3-C4-Zr1-C27=357.12          C5-C4-Zr1-C2=356.46           
C5-C4-Zr1-C3=116.49           C5-C4-Zr1-C6= 37.70           C5-C4-Zr1-C7= 78.80           C5-C4-Zr1-C13=252.02          
C5-C4-Zr1-C14=217.41          C5-C4-Zr1-C15=205.79          C5-C4-Zr1-C16=236.81          C5-C4-Zr1-C17=265.14          
C5-C4-Zr1-H23=339.60          C5-C4-Zr1-C26= 65.10          C5-C4-Zr1-C27=113.61          H9-C4-Zr1-C2=118.25           
H9-C4-Zr1-C3=238.28           H9-C4-Zr1-C5=121.79           H9-C4-Zr1-C6=159.48           H9-C4-Zr1-C7=200.59           
H9-C4-Zr1-C13= 13.81          H9-C4-Zr1-C14=339.19          H9-C4-Zr1-C15=327.57          H9-C4-Zr1-C16=358.59          
H9-C4-Zr1-C17= 26.92          H9-C4-Zr1-H23=101.38          H9-C4-Zr1-C26=186.88          H9-C4-Zr1-C27=235.40          
Zr1-C4-C3-C7= 66.13           Zr1-C4-C3-H8=235.19           C5-C4-C3-Zr1=296.08           C5-C4-C3-C7=  2.21            
C5-C4-C3-H8=171.27            H9-C4-C3-Zr1=124.32           H9-C4-C3-C7=190.45            H9-C4-C3-H8=359.51            
C4-C5-Zr1-C2=177.30           C4-C5-Zr1-C3=323.38           C4-C5-Zr1-C6=245.27           C4-C5-Zr1-C7=282.45           
C4-C5-Zr1-C13= 68.07          C4-C5-Zr1-C14= 37.98          C4-C5-Zr1-C15= 38.39          C4-C5-Zr1-C16= 91.79          
C4-C5-Zr1-C17= 96.30          C4-C5-Zr1-H23=160.55          C4-C5-Zr1-C26=224.24          C4-C5-Zr1-C27=255.01          
C6-C5-Zr1-C2=292.03           C6-C5-Zr1-C3= 78.10           C6-C5-Zr1-C4=114.73           C6-C5-Zr1-C7= 37.18           
C6-C5-Zr1-C13=182.80          C6-C5-Zr1-C14=152.71          C6-C5-Zr1-C15=153.11          C6-C5-Zr1-C16=206.51          
C6-C5-Zr1-C17=211.03          C6-C5-Zr1-H23=275.28          C6-C5-Zr1-C26=338.96          C6-C5-Zr1-C27=  9.73          
H10-C5-Zr1-C2= 54.39          H10-C5-Zr1-C3=200.46          H10-C5-Zr1-C4=237.09          H10-C5-Zr1-C6=122.36          
H10-C5-Zr1-C7=159.53          H10-C5-Zr1-C13=305.16         H10-C5-Zr1-C14=275.07         H10-C5-Zr1-C15=275.47         
H10-C5-Zr1-C16=328.87         H10-C5-Zr1-C17=333.39         H10-C5-Zr1-H23= 37.64         H10-C5-Zr1-C26=101.32         
H10-C5-Zr1-C27=132.09         Zr1-C5-C4-C3= 63.97           Zr1-C5-C4-H9=235.73           C6-C5-C4-Zr1=293.99           
C6-C5-C4-C3=357.96            C6-C5-C4-H9=169.71            H10-C5-C4-Zr1=124.73          H10-C5-C4-C3=188.71           
H10-C5-C4-H9=  0.46           C5-C6-Zr1-C2=112.45           C5-C6-Zr1-C3=281.65           C5-C6-Zr1-C4=322.52           
C5-C6-Zr1-C7=244.56           C5-C6-Zr1-C13=  3.33          C5-C6-Zr1-C14=322.12          C5-C6-Zr1-C15=283.13          
C5-C6-Zr1-C16= 82.29          C5-C6-Zr1-C17= 43.92          C5-C6-Zr1-H23= 88.04          C5-C6-Zr1-C26=161.12          
C5-C6-Zr1-C27=186.60          C7-C6-Zr1-C2=227.90           C7-C6-Zr1-C3= 37.09           C7-C6-Zr1-C4= 77.96           
C7-C6-Zr1-C5=115.44           C7-C6-Zr1-C13=118.77          C7-C6-Zr1-C14= 77.57          C7-C6-Zr1-C15= 38.57          
C7-C6-Zr1-C16=197.73          C7-C6-Zr1-C17=159.36          C7-C6-Zr1-H23=203.48          C7-C6-Zr1-C26=276.57          
C7-C6-Zr1-C27=302.05          H11-C6-Zr1-C2=350.57          H11-C6-Zr1-C3=159.76          H11-C6-Zr1-C4=200.63          
H11-C6-Zr1-C5=238.11          H11-C6-Zr1-C7=122.67          H11-C6-Zr1-C13=241.44         H11-C6-Zr1-C14=200.24         
H11-C6-Zr1-C15=161.24         H11-C6-Zr1-C16=320.40         H11-C6-Zr1-C17=282.03         H11-C6-Zr1-H23=326.15         
H11-C6-Zr1-C26= 39.23         H11-C6-Zr1-C27= 64.71         Zr1-C6-C5-C4= 66.54           Zr1-C6-C5-H10=235.79          
C7-C6-C5-Zr1=294.55           C7-C6-C5-C4=  1.09            C7-C6-C5-H10=170.34           H11-C6-C5-Zr1=123.93          
H11-C6-C5-C4=190.47           H11-C6-C5-H10=359.72          C3-C7-Zr1-C2=166.09           C3-C7-Zr1-C4= 37.54           
C3-C7-Zr1-C5= 78.43           C3-C7-Zr1-C6=115.71           C3-C7-Zr1-C13= 28.57          C3-C7-Zr1-C14=349.62          
C3-C7-Zr1-C15=310.40          C3-C7-Zr1-C16=279.94          C3-C7-Zr1-C17= 58.28          C3-C7-Zr1-H23=139.98          
C3-C7-Zr1-C26=208.03          C3-C7-Zr1-C27=240.82          C6-C7-Zr1-C2= 50.38           C6-C7-Zr1-C3=244.29           
C6-C7-Zr1-C4=281.84           C6-C7-Zr1-C5=322.73           C6-C7-Zr1-C13=272.86          C6-C7-Zr1-C14=233.91          
C6-C7-Zr1-C15=194.69          C6-C7-Zr1-C16=164.23          C6-C7-Zr1-C17=302.57          C6-C7-Zr1-H23= 24.27          
C6-C7-Zr1-C26= 92.33          C6-C7-Zr1-C27=125.11          H12-C7-Zr1-C2=287.86          H12-C7-Zr1-C3=121.76          
H12-C7-Zr1-C4=159.31          H12-C7-Zr1-C5=200.20          H12-C7-Zr1-C6=237.47          H12-C7-Zr1-C13=150.33         
H12-C7-Zr1-C14=111.39         H12-C7-Zr1-C15= 72.16         H12-C7-Zr1-C16= 41.70         H12-C7-Zr1-C17=180.04         
H12-C7-Zr1-H23=261.75         H12-C7-Zr1-C26=329.80         H12-C7-Zr1-C27=  2.58         Zr1-C7-C3-C4=293.48           
Zr1-C7-C3-H8=124.42           C6-C7-C3-Zr1= 64.98           C6-C7-C3-C4=358.47            C6-C7-C3-H8=189.40            
H12-C7-C3-Zr1=235.23          H12-C7-C3-C4=168.72           H12-C7-C3-H8=359.65           Zr1-C7-C6-C5= 65.21           
Zr1-C7-C6-H11=235.77          C3-C7-C6-Zr1=295.07           C3-C7-C6-C5=  0.28            C3-C7-C6-H11=170.85           
H12-C7-C6-Zr1=124.89          H12-C7-C6-C5=190.10           H12-C7-C6-H11=  0.66          
           -------------------------------------------------
          |                Final Singlepoint                |
           -------------------------------------------------

          ...................................................
          :                      SETUP                      :
          :.................................................:
          :  # basis functions                  79          :
          :  # atomic orbitals                  78          :
          :  # shells                           46          :
          :  # electrons                        72          :
          :  max. iterations                   250          :
          :  Hamiltonian                  GFN2-xTB          :
          :  restarted?                      false          :
          :  GBSA solvation                  false          :
          :  PC potential                    false          :
          :  electronic temp.          300.0000000     K    :
          :  accuracy                    1.0000000          :
          :  -> integral cutoff          0.2500000E+02      :
          :  -> integral neglect         0.1000000E-07      :
          :  -> SCF convergence          0.1000000E-05 Eh   :
          :  -> wf. convergence          0.1000000E-03 e    :
          :  Broyden damping             0.4000000          :
          ...................................................

 iter      E             dE          RMSdq      gap      omega  full diag
   1    -38.2523703 -0.382524E+02  0.144E-04    1.08       0.0  T
   2    -38.2523703  0.196678E-10  0.745E-05    1.08     241.1  T
   3    -38.2523703  0.483880E-11  0.101E-04    1.08     177.6  T

   *** convergence criteria satisfied after 3 iterations ***

         #    Occupation            Energy/Eh            Energy/eV
      -------------------------------------------------------------
         1        2.0000           -0.8761558             -23.8414
       ...           ...                  ...                  ...
        30        2.0000           -0.5873415             -15.9824
        31        2.0000           -0.5731240             -15.5955
        32        2.0000           -0.5267003             -14.3322
        33        2.0000           -0.5253389             -14.2952
        34        2.0000           -0.5161980             -14.0465
        35        2.0000           -0.5100562             -13.8793
        36        2.0000           -0.4693038             -12.7704 (HOMO)
        37                         -0.4297673             -11.6946 (LUMO)
        38                         -0.4151721             -11.2974
        39                         -0.4128948             -11.2354
        40                         -0.4064116             -11.0590
        41                         -0.4050145             -11.0210
       ...                                ...                  ...
        78                          2.6030362              70.8322
      -------------------------------------------------------------
                  HL-Gap            0.0395365 Eh            1.0758 eV
             Fermi-level           -0.4495355 Eh          -12.2325 eV

 SCC (total)                   0 d,  0 h,  0 min,  0.093 sec
 SCC setup                      ...        0 min,  0.003 sec (  3.522%)
 Dispersion                     ...        0 min,  0.000 sec (  0.187%)
 classical contributions        ...        0 min,  0.001 sec (  1.530%)
 integral evaluation            ...        0 min,  0.005 sec (  5.056%)
 iterations                     ...        0 min,  0.077 sec ( 82.325%)
 molecular gradient             ...        0 min,  0.007 sec (  7.201%)
 printout                       ...        0 min,  0.000 sec (  0.148%)

         :::::::::::::::::::::::::::::::::::::::::::::::::::::
         ::                     SUMMARY                     ::
         :::::::::::::::::::::::::::::::::::::::::::::::::::::
         :: total energy             -37.623945608847 Eh    ::
         :: gradient norm              0.000952380061 Eh/a0 ::
         :: HOMO-LUMO gap              1.075842882461 eV    ::
         ::.................................................::
         :: SCC energy               -38.252370260086 Eh    ::
         :: -> isotropic ES            0.087882048863 Eh    ::
         :: -> anisotropic ES         -0.013182044272 Eh    ::
         :: -> anisotropic XC          0.020598095404 Eh    ::
         :: -> dispersion             -0.027758951932 Eh    ::
         :: repulsion energy           0.626619783093 Eh    ::
         :: add. restraining           0.001121627612 Eh    ::
         :: total charge               1.000000000000 e     ::
         :::::::::::::::::::::::::::::::::::::::::::::::::::::

           -------------------------------------------------
          |                Property Printout                |
           -------------------------------------------------

    * Orbital Energies and Occupations

         #    Occupation            Energy/Eh            Energy/eV
      -------------------------------------------------------------
         1        2.0000           -0.8761558             -23.8414
       ...           ...                  ...                  ...
        24        2.0000           -0.5981870             -16.2775
        25        2.0000           -0.5966504             -16.2357
        26        2.0000           -0.5956258             -16.2078
        27        2.0000           -0.5950412             -16.1919
        28        2.0000           -0.5930022             -16.1364
        29        2.0000           -0.5923595             -16.1189
        30        2.0000           -0.5873415             -15.9824
        31        2.0000           -0.5731240             -15.5955
        32        2.0000           -0.5267003             -14.3322
        33        2.0000           -0.5253389             -14.2952
        34        2.0000           -0.5161980             -14.0465
        35        2.0000           -0.5100562             -13.8793
        36        2.0000           -0.4693038             -12.7704 (HOMO)
        37                         -0.4297673             -11.6946 (LUMO)
        38                         -0.4151721             -11.2974
        39                         -0.4128948             -11.2354
        40                         -0.4064116             -11.0590
        41                         -0.4050145             -11.0210
        42                         -0.3511701              -9.5558
        43                         -0.3118996              -8.4872
        44                         -0.3110577              -8.4643
        45                         -0.3094363              -8.4202
        46                         -0.3088553              -8.4044
        47                         -0.0624707              -1.6999
       ...                                ...                  ...
        78                          2.6030362              70.8322
      -------------------------------------------------------------
                  HL-Gap            0.0395365 Eh            1.0758 eV
             Fermi-level           -0.4495355 Eh          -12.2325 eV

     #   Z          covCN         q      C6AA      α(0)
     1  40 Zr       9.860     0.956   138.670    17.695
     2   6 C        3.707    -0.229    25.250     7.183
     3   6 C        3.760    -0.089    22.244     6.724
     4   6 C        3.759    -0.081    22.103     6.703
     5   6 C        3.761    -0.090    22.256     6.725
     6   6 C        3.763    -0.091    22.277     6.728
     7   6 C        3.761    -0.090    22.263     6.726
     8   1 H        0.925     0.081     1.966     2.193
     9   1 H        0.925     0.088     1.903     2.157
    10   1 H        0.925     0.079     1.984     2.203
    11   1 H        0.925     0.081     1.970     2.195
    12   1 H        0.925     0.079     1.987     2.204
    13   6 C        3.760    -0.088    22.226     6.721
    14   6 C        3.765    -0.087    22.204     6.716
    15   6 C        3.763    -0.087    22.211     6.718
    16   6 C        3.758    -0.087    22.210     6.719
    17   6 C        3.752    -0.087    22.217     6.722
    18   1 H        0.925     0.084     1.934     2.175
    19   1 H        0.925     0.088     1.903     2.157
    20   1 H        0.925     0.089     1.891     2.150
    21   1 H        0.925     0.091     1.872     2.140
    22   1 H        0.925     0.080     1.978     2.199
    23   1 H        1.059     0.068     2.098     2.262
    24   1 H        0.925     0.076     2.023     2.224
    25   1 H        0.925     0.077     2.013     2.218
    26   6 C        3.879    -0.107    22.481     6.741
    27   6 C        3.543    -0.193    25.556     7.403
    28   1 H        0.939     0.077     2.014     2.219
    29   1 H        0.926     0.086     1.915     2.164
    30   1 H        0.937     0.110     1.698     2.038
    31   1 H        0.924     0.117     1.640     2.002

 Mol. C6AA /au·bohr⁶  :       9452.511240
 Mol. C8AA /au·bohr⁸  :     320835.605932
 Mol. α(0) /au        :        143.124460


Wiberg/Mayer (AO) data.
largest (>0.10) Wiberg bond orders for each atom

 ---------------------------------------------------------------------------
     #   Z sym  total        # sym  WBO       # sym  WBO       # sym  WBO
 ---------------------------------------------------------------------------
     1  40 Zr   4.334 --    27 C    0.493     2 C    0.436    15 C    0.257
                            14 C    0.254    26 C    0.253     3 C    0.251
                            13 C    0.251     5 C    0.244    16 C    0.242
                            17 C    0.238     6 C    0.235     7 C    0.233
                             4 C    0.232    23 H    0.113
     2   6 C    3.936 --    24 H    0.973    25 H    0.957    23 H    0.844
                            26 C    0.445     1 Zr   0.436    27 C    0.190
     3   6 C    3.979 --     4 C    1.302     7 C    1.294     8 H    0.920
                             1 Zr   0.251
     4   6 C    3.980 --     5 C    1.307     3 C    1.302     9 H    0.926
                             1 Zr   0.232
     5   6 C    3.979 --     4 C    1.307     6 C    1.295    10 H    0.920
                             1 Zr   0.244
     6   6 C    3.979 --     7 C    1.305     5 C    1.295    11 H    0.925
                             1 Zr   0.235
     7   6 C    3.979 --     6 C    1.305     3 C    1.294    12 H    0.925
                             1 Zr   0.233
     8   1 H    0.991 --     3 C    0.920
     9   1 H    0.990 --     4 C    0.926
    10   1 H    0.992 --     5 C    0.920
    11   1 H    0.991 --     6 C    0.925
    12   1 H    0.991 --     7 C    0.925
    13   6 C    3.980 --    17 C    1.300    14 C    1.290    18 H    0.923
                             1 Zr   0.251
    14   6 C    3.980 --    15 C    1.299    13 C    1.290    19 H    0.920
                             1 Zr   0.254
    15   6 C    3.981 --    14 C    1.299    16 C    1.288    20 H    0.919
                             1 Zr   0.257
    16   6 C    3.979 --    17 C    1.309    15 C    1.288    21 H    0.925
                             1 Zr   0.242
    17   6 C    3.981 --    16 C    1.309    13 C    1.300    22 H    0.924
                             1 Zr   0.238
    18   1 H    0.990 --    13 C    0.923
    19   1 H    0.990 --    14 C    0.920
    20   1 H    0.990 --    15 C    0.919
    21   1 H    0.989 --    16 C    0.925
    22   1 H    0.992 --    17 C    0.924
    23   1 H    0.995 --     2 C    0.844     1 Zr   0.113
    24   1 H    0.993 --     2 C    0.973
    25   1 H    0.992 --     2 C    0.957
    26   6 C    3.989 --    27 C    1.328    31 H    0.941    30 H    0.899
                             2 C    0.445     1 Zr   0.253
    27   6 C    3.906 --    26 C    1.328    29 H    0.940    28 H    0.870
                             1 Zr   0.493     2 C    0.190
    28   1 H    0.993 --    27 C    0.870
    29   1 H    0.990 --    27 C    0.940
    30   1 H    0.987 --    26 C    0.899
    31   1 H    0.984 --    26 C    0.941
 ---------------------------------------------------------------------------

Topologies differ in total number of bonds
Writing topology from bond orders to xtbtopo.mol

molecular dipole:
                 x           y           z       tot (Debye)
 q only:       -2.857      -0.107       0.840
   full:       -2.496      -0.264       0.759       6.665
molecular quadrupole (traceless):
                xx          xy          yy          xz          yz          zz
 q only:       10.308      -0.768      -8.593      -1.848      -2.166      -1.715
  q+dip:        8.630      -0.991     -10.610      -2.430      -5.319       1.980
   full:        7.615       0.418      -9.365      -3.516      -4.492       1.750

           -------------------------------------------------
          |                Geometry Summary                 |
           -------------------------------------------------

      molecular mass/u    :      264.4982010
   center of mass at/Å    :       -1.2015588      -0.1489147       0.6468566
  moments of inertia/u·Å² :        0.6004664E+03   0.7203940E+03   0.9250352E+03
rotational constants/cm⁻¹ :        0.2807423E-01   0.2340057E-01   0.1822377E-01

 * 40 selected distances

     #   Z          #   Z                                           value/Å
     1  40 Zr       3   6 C                                       2.4410675
     1  40 Zr       4   6 C                                       2.4608689
     3   6 C        4   6 C                                       1.4174700
     1  40 Zr       5   6 C                                       2.4388737
     4   6 C        5   6 C                                       1.4165332
     1  40 Zr       6   6 C                                       2.4429333
     5   6 C        6   6 C                                       1.4189871
     1  40 Zr       7   6 C                                       2.4475284
     3   6 C        7   6 C                                       1.4185343
     6   6 C        7   6 C                                       1.4179686
     3   6 C        8   1 H                                       1.0857031
     4   6 C        9   1 H                                       1.0834659
     5   6 C       10   1 H                                       1.0858654
     6   6 C       11   1 H                                       1.0845609
     7   6 C       12   1 H                                       1.0844554
     1  40 Zr      13   6 C                                       2.4501943
     1  40 Zr      14   6 C                                       2.4358251
    13   6 C       14   6 C                                       1.4204993
     1  40 Zr      15   6 C                                       2.4351092
    14   6 C       15   6 C                                       1.4171279
     1  40 Zr      16   6 C                                       2.4578308
    15   6 C       16   6 C                                       1.4203058
     1  40 Zr      17   6 C                                       2.4657488
    13   6 C       17   6 C                                       1.4160845
    16   6 C       17   6 C                                       1.4149547
    13   6 C       18   1 H                                       1.0846979
    14   6 C       19   1 H                                       1.0850516
    15   6 C       20   1 H                                       1.0846854
    16   6 C       21   1 H                                       1.0830745
    17   6 C       22   1 H                                       1.0845586
     2   6 C       23   1 H                                       1.1174612
     2   6 C       24   1 H                                       1.0832542
     2   6 C       25   1 H                                       1.0867094
     1  40 Zr      26   6 C                                       2.4603089
     1  40 Zr      27   6 C                                       2.5376634 (max)
    26   6 C       27   6 C                                       1.4196237
    27   6 C       28   1 H                                       1.0972136
    27   6 C       29   1 H                                       1.0805049 (min)
    26   6 C       30   1 H                                       1.0930250
    26   6 C       31   1 H                                       1.0909482

 * 3 distinct bonds (by element types)

   Z      Z             #   av. dist./Å        max./Å        min./Å
   1 H    6 C          17     1.0879550     1.1174612     1.0805049
   6 C    6 C          11     1.4180081     1.4204993     1.4149547
   6 C   40 Zr         12     2.4561627     2.5376634     2.4351092


optimized geometry written to: xtbopt.xyz


           -------------------------------------------------
          | TOTAL ENERGY              -37.623945608847 Eh   |
          | GRADIENT NORM               0.000952380061 Eh/α |
          | HOMO-LUMO GAP               1.075842882461 eV   |
           -------------------------------------------------

------------------------------------------------------------------------
 * finished run on 2026/08/18 at 18:43:04.340     
------------------------------------------------------------------------
 total:
 * wall-time:     0 d,  0 h,  0 min, 10.204 sec
 *  cpu-time:     0 d,  0 h,  1 min,  9.220 sec
 * ratio c/w:     6.783 speedup
 SCF:
 * wall-time:     0 d,  0 h,  0 min,  0.820 sec
 *  cpu-time:     0 d,  0 h,  0 min,  2.924 sec
 * ratio c/w:     3.565 speedup
 ANC optimizer:
 * wall-time:     0 d,  0 h,  0 min,  9.274 sec
 *  cpu-time:     0 d,  0 h,  1 min,  5.907 sec
 * ratio c/w:     7.107 speedup

