31
 energy: -37.623945608847 gnorm: 0.000952380061 xtb: 6.5.1 (b24c23e)
Zr          -1.26765010736676       -0.13626933587584        0.59465360215995
C           -1.93661977549604        0.98619120489222       -1.69849220985616
C           -1.08498231638138       -2.36685374074291        1.56929975655528
C            0.20719718499440       -2.04448779895681        1.08394101656393
C            0.13202311253017       -1.90963141056742       -0.32415293597903
C           -1.20103153784822       -2.19602054345276       -0.71718051513345
C           -1.95099494801201       -2.48211787292501        0.45172399799188
H           -1.32316489508969       -2.66305555350156        2.58629759046909
H            1.11847187317009       -2.04620747628225        1.67000730549620
H            0.97881336445556       -1.79794759427361       -0.99465762239828
H           -1.53930372137227       -2.33465444015650       -1.73827048306659
H           -2.95695400178549       -2.88636546359033        0.47767746733596
C            0.75133523701345        0.94668285678888        1.46319484339489
C           -0.08013752571319        0.64199406480716        2.57388641895247
C           -1.25822117790769        1.42216883840611        2.46573271232647
C           -1.14825895918554        2.21699835392894        1.29380161774069
C            0.08982498234383        1.92055321161873        0.67625407580098
H            1.78045918228141        0.62896630413222        1.33462837364197
H            0.20618430301780        0.05023581381048        3.43712376435506
H           -2.01311865109463        1.53417900153644        3.23652820552387
H           -1.82238959703613        3.01566329449401        1.00966735655846
H            0.53079937226088        2.46689816966673       -0.15037512365700
H           -0.85200084341448        0.71747792535618       -1.70917643305405
H           -2.38431706055627        0.63659704690544       -2.62087532549361
H           -2.06769209876832        2.06056347658674       -1.60112010830366
C           -3.45329050114423        0.19448222093377       -0.48548437169959
C           -3.72959811027888        0.40273901596223        0.89132875548565
H           -3.79693615884573       -0.44856984323439        1.58025276390452
H           -4.13528057134502        1.34879481229985        1.21979599670693
H           -3.50269101040073       -0.83711298130288       -0.84335902682083
H           -4.07555539297700        0.82764341269403       -1.11956715550397
