31
 energy: -37.657126036214 gnorm: 0.000615345388 xtb: 6.5.1 (b24c23e)
Zr          -1.05885248954516       -0.05352811376786        0.20519134905135
C           -2.95349249755216        1.11245230074447       -1.24927799760403
C           -1.05240582724744       -2.10584335126983        1.59158997888502
C            0.24923910311437       -2.02582873101991        1.02274603296933
C            0.13360101847704       -2.26286073295821       -0.36153194394422
C           -1.23042227428518       -2.47979120544496       -0.65907187016585
C           -1.95796379437605       -2.40888695836358        0.55090412640834
H           -1.27761561613637       -2.16040130729437        2.65101317572047
H            1.18394384398743       -1.97274568583545        1.57046420261729
H            0.95604627214074       -2.36648896798390       -1.05822624106664
H           -1.61152610136703       -2.80882196688115       -1.61823320399385
H           -2.98702236608071       -2.71807471014389        0.69041673718783
C            0.79311069607346        1.17229130624396        1.41046670355952
C           -0.03529378474455        0.59827899382377        2.40258397920846
C           -1.29935542832007        1.22162365633251        2.33807975141348
C           -1.23092226611854        2.23144142458972        1.33395374336512
C            0.05958725331057        2.19752289691649        0.76977622223631
H            1.84989302739307        0.97319892396165        1.26875120712103
H            0.29418729108896       -0.07651584298155        3.18266322283605
H           -2.07848126133061        1.12960609305959        3.08626479423545
H           -1.94515170394062        3.03746957264625        1.20425311813509
H            0.45775379313299        2.90129466345441        0.04944727267469
H           -0.29431873333629        0.30775007328332       -1.30854805726998
H           -2.49287751094205        1.05032373388413       -2.26154620996125
H           -2.27582387598717        1.72969523443235       -0.64971469600972
C           -3.32679435782816       -0.16499220206264       -0.71595930466009
C           -3.55709467601495        0.26841359834992        0.61299630352001
H           -4.01103526430259       -0.40513738714969        1.34914617389821
H           -3.63502994353706        1.31053767231260        0.87022484411331
H           -3.59279984449006       -1.08005144918967       -1.22112468230243
H           -3.85816303118880        1.71760343826904       -1.44461442218150
