      -----------------------------------------------------------      
     |                   =====================                   |     
     |                           x T B                           |     
     |                   =====================                   |     
     |                         S. Grimme                         |     
     |          Mulliken Center for Theoretical Chemistry        |     
     |                    University of Bonn                     |     
      -----------------------------------------------------------      

   * xtb version 6.5.1 (b24c23e) compiled by 'conda@728c89f4b128' on 2022-07-12

   xtb is free software: you can redistribute it and/or modify it under
   the terms of the GNU Lesser General Public License as published by
   the Free Software Foundation, either version 3 of the License, or
   (at your option) any later version.
   
   xtb is distributed in the hope that it will be useful,
   but WITHOUT ANY WARRANTY; without even the implied warranty of
   MERCHANTABILITY or FITNESS FOR A PARTICULAR PURPOSE.  See the
   GNU Lesser General Public License for more details.
   
   Cite this work as:
   * C. Bannwarth, E. Caldeweyher, S. Ehlert, A. Hansen, P. Pracht,
     J. Seibert, S. Spicher, S. Grimme, WIREs Comput. Mol. Sci., 2020, 11,
     e01493. DOI: 10.1002/wcms.1493
   
   for GFN2-xTB:
   * C. Bannwarth, S. Ehlert and S. Grimme., J. Chem. Theory Comput., 2019,
     15, 1652-1671. DOI: 10.1021/acs.jctc.8b01176
   for GFN1-xTB:
   * S. Grimme, C. Bannwarth, P. Shushkov, J. Chem. Theory Comput., 2017,
     13, 1989-2009. DOI: 10.1021/acs.jctc.7b00118
   for GFN0-xTB:
   * P. Pracht, E. Caldeweyher, S. Ehlert, S. Grimme, ChemRxiv, 2019, preprint.
     DOI: 10.26434/chemrxiv.8326202.v1
   for GFN-FF:
   * S. Spicher and S. Grimme, Angew. Chem. Int. Ed., 2020, 59, 15665-15673.
     DOI: 10.1002/anie.202004239
   
   for ALPB and GBSA implicit solvation:
   * S. Ehlert, M. Stahn, S. Spicher, S. Grimme, J. Chem. Theory Comput.,
     2021, 17, 4250-4261. DOI: 10.1021/acs.jctc.1c00471
   
   for DFT-D4:
   * E. Caldeweyher, C. Bannwarth and S. Grimme, J. Chem. Phys., 2017,
     147, 034112. DOI: 10.1063/1.4993215
   * E. Caldeweyher, S. Ehlert, A. Hansen, H. Neugebauer, S. Spicher,
     C. Bannwarth and S. Grimme, J. Chem. Phys., 2019, 150, 154122.
     DOI: 10.1063/1.5090222
   * E. Caldeweyher, J.-M. Mewes, S. Ehlert and S. Grimme, Phys. Chem. Chem. Phys.
     2020, 22, 8499-8512. DOI: 10.1039/D0CP00502A
   
   for sTDA-xTB:
   * S. Grimme and C. Bannwarth, J. Chem. Phys., 2016, 145, 054103.
     DOI: 10.1063/1.4959605
   
   in the mass-spec context:
   * V. Asgeirsson, C. Bauer and S. Grimme, Chem. Sci., 2017, 8, 4879.
     DOI: 10.1039/c7sc00601b
   * J. Koopman and S. Grimme, ACS Omega 2019, 4, 12, 15120-15133.
     DOI: 10.1021/acsomega.9b02011
   
   for metadynamics refer to:
   * S. Grimme, J. Chem. Theory Comput., 2019, 155, 2847-2862
     DOI: 10.1021/acs.jctc.9b00143
   
   for SPH calculations refer to:
   * S. Spicher and S. Grimme, J. Chem. Theory Comput., 2021, 17, 1701-1714
     DOI: 10.1021/acs.jctc.0c01306
   
   with help from (in alphabetical order)
   P. Atkinson, C. Bannwarth, F. Bohle, G. Brandenburg, E. Caldeweyher
   M. Checinski, S. Dohm, S. Ehlert, S. Ehrlich, I. Gerasimov, C. Hölzer
   A. Katbashev, J. Koopman, C. Lavigne, S. Lehtola, F. März, M. Müller,
   F. Musil, H. Neugebauer, J. Pisarek, C. Plett, P. Pracht, F. Pultar,
   J. Seibert, P. Shushkov, S. Spicher, M. Stahn, M. Steiner, T. Strunk,
   J. Stückrath, T. Rose, and J. Unsleber
   
 * started run on 2026/08/18 at 18:30:29.567     

           -------------------------------------------------
          |                Calculation Setup                |
           -------------------------------------------------

          program call               : /h/332/chchoi/miniconda3/envs/el-agente/bin/xtb reactant.xyz --opt --gfn 2 -P 4 --chrg 1 --uhf 0 --input detailed_input.inp
          coordinate file            : reactant.xyz
          omp threads                :                     4

   ID    Z sym.   atoms
    1   40 Zr     1
    2    6 C      2-7, 13-17, 26, 27
    3    1 H      8-12, 18-25, 28-31
constraining bond 2 27 to    2.1000000 Å, actual value:    3.9000939 Å
constraining bond 1 2 to    2.6500000 Å, actual value:    2.4539388 Å
constraining bond 1 26 to    2.4500000 Å, actual value:    2.5614940 Å
constraining bond 1 27 to    2.5500000 Å, actual value:    2.5639464 Å
constraining bond 26 27 to    1.4500000 Å, actual value:    1.3387681 Å

           -------------------------------------------------
          |                 G F N 2 - x T B                 |
           -------------------------------------------------

        Reference                      10.1021/acs.jctc.8b01176
      * Hamiltonian:
        H0-scaling (s, p, d)           1.850000    2.230000    2.230000
        zeta-weighting                 0.500000
      * Dispersion:
        s8                             2.700000
        a1                             0.520000
        a2                             5.000000
        s9                             5.000000
      * Repulsion:
        kExp                           1.500000    1.000000
        rExp                           1.000000
      * Coulomb:
        alpha                          2.000000
        third order                    shell-resolved
        anisotropic                    true
        a3                             3.000000
        a5                             4.000000
        cn-shift                       1.200000
        cn-exp                         4.000000
        max-rad                        5.000000


          ...................................................
          :                      SETUP                      :
          :.................................................:
          :  # basis functions                  79          :
          :  # atomic orbitals                  78          :
          :  # shells                           46          :
          :  # electrons                        72          :
          :  max. iterations                   250          :
          :  Hamiltonian                  GFN2-xTB          :
          :  restarted?                      false          :
          :  GBSA solvation                  false          :
          :  PC potential                    false          :
          :  electronic temp.          300.0000000     K    :
          :  accuracy                    1.0000000          :
          :  -> integral cutoff          0.2500000E+02      :
          :  -> integral neglect         0.1000000E-07      :
          :  -> SCF convergence          0.1000000E-05 Eh   :
          :  -> wf. convergence          0.1000000E-03 e    :
          :  Broyden damping             0.4000000          :
          ...................................................

 iter      E             dE          RMSdq      gap      omega  full diag
   1    -38.1743796 -0.381744E+02  0.431E+00    1.21       0.0  T
   2    -38.2843709 -0.109991E+00  0.387E+00    1.24       1.0  T
   3    -38.2990128 -0.146419E-01  0.292E+00    1.06       1.0  T
   4    -38.2927702  0.624256E-02  0.667E-01    1.31       1.0  T
   5    -38.2991862 -0.641598E-02  0.487E-01    0.99       1.0  T
   6    -38.3001240 -0.937826E-03  0.219E-01    1.07       1.0  T
   7    -38.3000364  0.876012E-04  0.157E-01    1.06       1.0  T
   8    -38.3001622 -0.125827E-03  0.416E-02    1.09       1.0  T
   9    -38.3001776 -0.153731E-04  0.383E-02    1.09       1.0  T
  10    -38.3001806 -0.293832E-05  0.130E-02    1.10       1.4  T
  11    -38.3001823 -0.175616E-05  0.371E-03    1.10       4.8  T
  12    -38.3001824 -0.364220E-07  0.182E-03    1.10       9.9  T
  13    -38.3001824 -0.309639E-07  0.550E-04    1.10      32.7  T
  14    -38.3001824 -0.122711E-08  0.247E-04    1.10      72.7  T

   *** convergence criteria satisfied after 14 iterations ***

         #    Occupation            Energy/Eh            Energy/eV
      -------------------------------------------------------------
         1        2.0000           -0.8712953             -23.7092
       ...           ...                  ...                  ...
        30        2.0000           -0.5677918             -15.4504
        31        2.0000           -0.5667602             -15.4223
        32        2.0000           -0.5231261             -14.2350
        33        2.0000           -0.5192487             -14.1295
        34        2.0000           -0.5089844             -13.8502
        35        2.0000           -0.5039927             -13.7143
        36        2.0000           -0.4804500             -13.0737 (HOMO)
        37                         -0.4401848             -11.9780 (LUMO)
        38                         -0.4094748             -11.1424
        39                         -0.4082564             -11.1092
        40                         -0.4038960             -10.9906
        41                         -0.3952067             -10.7541
       ...                                ...                  ...
        78                          2.4805778              67.5000
      -------------------------------------------------------------
                  HL-Gap            0.0402652 Eh            1.0957 eV
             Fermi-level           -0.4603174 Eh          -12.5259 eV

 SCC (total)                   0 d,  0 h,  0 min,  1.839 sec
 SCC setup                      ...        0 min,  0.028 sec (  1.525%)
 Dispersion                     ...        0 min,  0.062 sec (  3.354%)
 classical contributions        ...        0 min,  0.057 sec (  3.081%)
 integral evaluation            ...        0 min,  0.101 sec (  5.500%)
 iterations                     ...        0 min,  1.393 sec ( 75.708%)
 molecular gradient             ...        0 min,  0.199 sec ( 10.821%)
 printout                       ...        0 min,  0.000 sec (  0.010%)

         :::::::::::::::::::::::::::::::::::::::::::::::::::::
         ::                     SUMMARY                     ::
         :::::::::::::::::::::::::::::::::::::::::::::::::::::
         :: total energy             -28.215576283388 Eh    ::
         :: gradient norm              7.274296165852 Eh/a0 ::
         :: HOMO-LUMO gap              1.095671768452 eV    ::
         ::.................................................::
         :: SCC energy               -38.300182384372 Eh    ::
         :: -> isotropic ES            0.093609547573 Eh    ::
         :: -> anisotropic ES         -0.013269672228 Eh    ::
         :: -> anisotropic XC          0.021706405659 Eh    ::
         :: -> dispersion             -0.027874301446 Eh    ::
         :: repulsion energy           0.645491664760 Eh    ::
         :: add. restraining           9.438396432872 Eh    ::
         :: total charge               1.000000000000 e     ::
         :::::::::::::::::::::::::::::::::::::::::::::::::::::

      ----------------------------------------------------------- 
     |                   =====================                   |
     |                        A N C O P T                        |
     |                   =====================                   |
     |               Approximate Normal Coordinate               |
     |                Rational Function Optimizer                |
      ----------------------------------------------------------- 

          ...................................................
          :                      SETUP                      :
          :.................................................:
          :   optimization level            normal          :
          :   max. optcycles                   200          :
          :   ANC micro-cycles                  20          :
          :   degrees of freedom                87          :
          :.................................................:
          :   RF solver                   davidson          :
          :   write xtbopt.log                true          :
          :   linear?                        false          :
          :   energy convergence         0.5000000E-05 Eh   :
          :   grad. convergence          0.1000000E-02 Eh/α :
          :   maximium RF displ.         1.0000000          :
          :   Hlow (freq-cutoff)         0.1000000E-01      :
          :   Hmax (freq-cutoff)         5.0000000          :
          :   S6 in model hess.         20.0000000          :
          ...................................................

generating ANC from model Hessian ...
Using Lindh-Hessian (1995)
 Shifting diagonal of input Hessian by    6.1414073681078395E-002
 Lowest  eigenvalues of input Hessian
    0.010000    0.000000    0.000000    0.000000    0.000000    0.000000
    0.000000    0.061897    0.062159    0.062325    0.062995    0.063024
    0.064969    0.065260    0.065724    0.069119    0.069356    0.069607
 Highest eigenvalues
    1.790778    2.259892    3.069021    4.093303    4.467745    6.875491


........................................................................
.............................. CYCLE    1 ..............................
........................................................................
   1    -38.3001824 -0.383002E+02  0.106E-04    1.10       0.0  T
   2    -38.3001824 -0.580656E-10  0.938E-05    1.10     191.5  T
   3    -38.3001824 -0.542073E-10  0.467E-05    1.10     385.0  T
     SCC iter.                  ...        0 min,  0.320 sec
     gradient                   ...        0 min,  0.212 sec
 * total energy  :   -28.2155763 Eh     change       -0.6947047E-09 Eh
   gradient norm :     7.2742958 Eh/α   predicted     0.0000000E+00 (-100.00%)
   displ. norm   :     0.7805203 α      lambda       -0.5602474E+01
   maximum displ.:     0.5078498 α      in ANC's #87, #84, #85, ...

........................................................................
.............................. CYCLE    2 ..............................
........................................................................
   1    -38.2521579 -0.382522E+02  0.963E-01    1.85       0.0  T
   2    -38.2537562 -0.159827E-02  0.487E-01    1.72       1.0  T
   3    -38.2537396  0.166192E-04  0.282E-01    1.78       1.0  T
   4    -38.2540716 -0.332087E-03  0.116E-01    1.75       1.0  T
   5    -38.2540586  0.130339E-04  0.691E-02    1.74       1.0  T
   6    -38.2540838 -0.251924E-04  0.467E-02    1.75       1.0  T
   7    -38.2540943 -0.104525E-04  0.116E-02    1.74       1.5  T
   8    -38.2540943 -0.928646E-07  0.972E-03    1.74       1.8  T
   9    -38.2540947 -0.396654E-06  0.380E-03    1.74       4.7  T
  10    -38.2540948 -0.223888E-07  0.128E-03    1.74      14.1  T
  11    -38.2540948 -0.652451E-08  0.604E-04    1.74      29.7  T
  12    -38.2540948 -0.121746E-08  0.244E-04    1.74      73.5  T
     SCC iter.                  ...        0 min,  1.082 sec
     gradient                   ...        0 min,  0.191 sec
 * total energy  :   -32.5761066 Eh     change       -0.4360530E+01 Eh
   gradient norm :     4.1182335 Eh/α   predicted    -0.4507790E+01 (   3.38%)
   displ. norm   :     0.7620913 α      lambda       -0.2990430E+01
   maximum displ.:     0.5127284 α      in ANC's #84, #56, #87, ...

........................................................................
.............................. CYCLE    3 ..............................
........................................................................
   1    -38.1273190 -0.381273E+02  0.160E+00    1.88       0.0  T
   2    -38.1300801 -0.276113E-02  0.138E+00    2.13       1.0  T
   3    -38.1369335 -0.685338E-02  0.808E-01    2.01       1.0  T
   4    -38.1372359 -0.302426E-03  0.234E-01    2.09       1.0  T
   5    -38.1376273 -0.391434E-03  0.154E-01    2.06       1.0  T
   6    -38.1376712 -0.438186E-04  0.731E-02    2.06       1.0  T
   7    -38.1377119 -0.407046E-04  0.289E-02    2.06       1.0  T
   8    -38.1377154 -0.356238E-05  0.935E-03    2.05       1.9  T
   9    -38.1377155 -0.613190E-07  0.560E-03    2.05       3.2  T
  10    -38.1377156 -0.118637E-06  0.497E-03    2.05       3.6  T
  11    -38.1377157 -0.689577E-07  0.162E-03    2.05      11.1  T
  12    -38.1377157 -0.748449E-08  0.531E-04    2.05      33.8  T
  13    -38.1377157 -0.227097E-08  0.228E-04    2.05      78.9  T
     SCC iter.                  ...        0 min,  1.177 sec
     gradient                   ...        0 min,  0.056 sec
 * total energy  :   -34.9808724 Eh     change       -0.2404766E+01 Eh
   gradient norm :     2.4206428 Eh/α   predicted    -0.2363847E+01 (  -1.70%)
   displ. norm   :     0.7630214 α      lambda       -0.1734034E+01
   maximum displ.:     0.3481624 α      in ANC's #84, #65, #56, ...

........................................................................
.............................. CYCLE    4 ..............................
........................................................................
   1    -37.9738547 -0.379739E+02  0.195E+00    1.60       0.0  T
   2    -37.9613663  0.124884E-01  0.188E+00    1.51       1.0  T
   3    -38.0090061 -0.476399E-01  0.845E-01    1.60       1.0  T
   4    -38.0079099  0.109625E-02  0.344E-01    1.54       1.0  T
   5    -38.0099931 -0.208327E-02  0.156E-01    1.61       1.0  T
   6    -38.0102357 -0.242568E-03  0.894E-02    1.59       1.0  T
   7    -38.0102696 -0.338645E-04  0.498E-02    1.59       1.0  T
   8    -38.0102897 -0.201802E-04  0.218E-02    1.59       1.0  T
   9    -38.0102946 -0.488652E-05  0.101E-02    1.59       1.8  T
  10    -38.0102957 -0.106768E-05  0.431E-03    1.59       4.2  T
  11    -38.0102957 -0.400377E-07  0.329E-03    1.59       5.5  T
  12    -38.0102958 -0.495243E-07  0.137E-03    1.59      13.1  T
  13    -38.0102958 -0.865848E-08  0.549E-04    1.59      32.7  T
  14    -38.0102958 -0.547018E-09  0.261E-04    1.59      68.9  T
     SCC iter.                  ...        0 min,  1.095 sec
     gradient                   ...        0 min,  0.178 sec
 * total energy  :   -36.3423209 Eh     change       -0.1361449E+01 Eh
   gradient norm :     1.3682746 Eh/α   predicted    -0.1371796E+01 (   0.76%)
   displ. norm   :     0.7232555 α      lambda       -0.9376681E+00
   maximum displ.:     0.2618267 α      in ANC's #65, #70, #56, ...

........................................................................
.............................. CYCLE    5 ..............................
........................................................................
   1    -37.8589368 -0.378589E+02  0.179E+00    1.19       0.0  T
   2    -37.8302230  0.287138E-01  0.206E+00    0.86       1.0  T
   3    -37.9047291 -0.745061E-01  0.673E-01    1.04       1.0  T
   4    -37.9013926  0.333655E-02  0.374E-01    0.98       1.0  T
   5    -37.9003557  0.103688E-02  0.454E-01    1.05       1.0  T
   6    -37.9052170 -0.486134E-02  0.153E-01    1.00       1.0  T
   7    -37.9053474 -0.130406E-03  0.655E-02    1.01       1.0  T
   8    -37.9053903 -0.428204E-04  0.275E-02    1.01       1.0  T
   9    -37.9053963 -0.607674E-05  0.139E-02    1.01       1.3  T
  10    -37.9053974 -0.103703E-05  0.576E-03    1.01       3.1  T
  11    -37.9053976 -0.212746E-06  0.326E-03    1.01       5.5  T
  12    -37.9053977 -0.919516E-07  0.157E-03    1.01      11.4  T
  13    -37.9053977 -0.665086E-08  0.583E-04    1.01      30.8  T
  14    -37.9053977 -0.499544E-08  0.287E-04    1.01      62.7  T
     SCC iter.                  ...        0 min,  1.431 sec
     gradient                   ...        0 min,  0.213 sec
 * total energy  :   -37.0252504 Eh     change       -0.6829295E+00 Eh
   gradient norm :     0.6166564 Eh/α   predicted    -0.7140806E+00 (   4.56%)
   displ. norm   :     0.5976669 α      lambda       -0.3067540E+00
   maximum displ.:     0.2127933 α      in ANC's #24, #23, #72, ...

........................................................................
.............................. CYCLE    6 ..............................
........................................................................
   1    -37.8690567 -0.378691E+02  0.121E+00    1.12       0.0  T
   2    -37.8711436 -0.208690E-02  0.101E+00    1.05       1.0  T
   3    -37.8808466 -0.970295E-02  0.540E-01    1.03       1.0  T
   4    -37.8764493  0.439731E-02  0.519E-01    1.03       1.0  T
   5    -37.8820706 -0.562132E-02  0.372E-01    1.11       1.0  T
   6    -37.8825704 -0.499763E-03  0.276E-01    1.09       1.0  T
   7    -37.8825908 -0.204479E-04  0.191E-01    1.11       1.0  T
   8    -37.8828186 -0.227817E-03  0.828E-02    1.10       1.0  T
   9    -37.8828275 -0.892590E-05  0.614E-02    1.11       1.0  T
  10    -37.8828703 -0.427270E-04  0.297E-02    1.13       1.0  T
  11    -37.8828758 -0.548392E-05  0.178E-02    1.14       1.0  T
  12    -37.8828790 -0.328134E-05  0.919E-03    1.15       2.0  T
  13    -37.8828799 -0.861436E-06  0.337E-03    1.16       5.3  T
  14    -37.8828800 -0.948442E-07  0.194E-03    1.16       9.3  T
  15    -37.8828800 -0.186787E-07  0.982E-04    1.16      18.3  T
  16    -37.8828800 -0.735928E-08  0.492E-04    1.16      36.5  T
     SCC iter.                  ...        0 min,  2.216 sec
     gradient                   ...        0 min,  0.343 sec
 * total energy  :   -37.2061957 Eh     change       -0.1809453E+00 Eh
   gradient norm :     0.2592951 Eh/α   predicted    -0.2081651E+00 (  15.04%)
   displ. norm   :     0.7222164 α      lambda       -0.1161188E+00
   maximum displ.:     0.4333087 α      in ANC's #1, #23, #24, ...

........................................................................
.............................. CYCLE    7 ..............................
........................................................................
   1    -37.8910396 -0.378910E+02  0.996E-01    1.04       0.0  T
   2    -37.8826658  0.837382E-02  0.893E-01    1.16       1.0  T
   3    -37.8963288 -0.136630E-01  0.512E-01    1.04       1.0  T
   4    -37.8995442 -0.321543E-02  0.395E-01    1.12       1.0  T
   5    -37.9009452 -0.140094E-02  0.240E-01    1.05       1.0  T
   6    -37.9011563 -0.211084E-03  0.195E-01    1.07       1.0  T
   7    -37.9010900  0.662171E-04  0.128E-01    1.06       1.0  T
   8    -37.9012463 -0.156222E-03  0.428E-02    1.05       1.0  T
   9    -37.9012751 -0.288710E-04  0.142E-02    1.06       1.3  T
  10    -37.9012767 -0.157994E-05  0.672E-03    1.06       2.7  T
  11    -37.9012771 -0.419541E-06  0.341E-03    1.06       5.3  T
  12    -37.9012772 -0.447363E-07  0.125E-03    1.06      14.3  T
  13    -37.9012772 -0.533274E-08  0.643E-04    1.06      27.9  T
  14    -37.9012772 -0.284967E-08  0.328E-04    1.06      54.8  T
     SCC iter.                  ...        0 min,  2.048 sec
     gradient                   ...        0 min,  0.313 sec
 * total energy  :   -37.2636623 Eh     change       -0.5746654E-01 Eh
   gradient norm :     0.3735148 Eh/α   predicted    -0.8834347E-01 (  53.73%)
   displ. norm   :     0.7167367 α      lambda       -0.1054735E+00
   maximum displ.:     0.3207861 α      in ANC's #23, #24, #1, ...

........................................................................
.............................. CYCLE    8 ..............................
........................................................................
   1    -37.9997409 -0.379997E+02  0.989E-01    1.43       0.0  T
   2    -38.0001198 -0.378948E-03  0.858E-01    1.46       1.0  T
   3    -38.0011652 -0.104538E-02  0.586E-01    1.41       1.0  T
   4    -38.0021226 -0.957343E-03  0.413E-01    1.50       1.0  T
   5    -38.0034702 -0.134762E-02  0.254E-01    1.46       1.0  T
   6    -38.0036196 -0.149396E-03  0.156E-01    1.50       1.0  T
   7    -38.0037257 -0.106140E-03  0.709E-02    1.50       1.0  T
   8    -38.0037391 -0.133435E-04  0.479E-02    1.51       1.0  T
   9    -38.0037467 -0.759923E-05  0.296E-02    1.52       1.0  T
  10    -38.0037469 -0.231168E-06  0.198E-02    1.52       1.0  T
  11    -38.0037496 -0.271030E-05  0.786E-03    1.52       2.3  T
  12    -38.0037499 -0.300402E-06  0.474E-03    1.53       3.8  T
  13    -38.0037499 -0.337359E-07  0.260E-03    1.53       6.9  T
  14    -38.0037500 -0.237112E-07  0.106E-03    1.53      16.9  T
  15    -38.0037500 -0.786575E-08  0.526E-04    1.53      34.1  T
  16    -38.0037500 -0.167739E-08  0.172E-04    1.53     104.6  T
     SCC iter.                  ...        0 min,  1.951 sec
     gradient                   ...        0 min,  0.289 sec
 * total energy  :   -37.3046522 Eh     change       -0.4098996E-01 Eh
   gradient norm :     0.4048191 Eh/α   predicted    -0.7982830E-01 (  94.75%)
   displ. norm   :     0.6042247 α      lambda       -0.8590361E-01
   maximum displ.:     0.3418108 α      in ANC's #5, #8, #1, ...

........................................................................
.............................. CYCLE    9 ..............................
........................................................................
   1    -38.0233282 -0.380233E+02  0.478E-01    1.70       0.0  T
   2    -38.0234016 -0.734717E-04  0.346E-01    1.67       1.0  T
   3    -38.0230259  0.375746E-03  0.286E-01    1.73       1.0  T
   4    -38.0233873 -0.361443E-03  0.192E-01    1.69       1.0  T
   5    -38.0236940 -0.306670E-03  0.142E-01    1.70       1.0  T
   6    -38.0237257 -0.316666E-04  0.340E-02    1.72       1.0  T
   7    -38.0237365 -0.108353E-04  0.139E-02    1.72       1.3  T
   8    -38.0237375 -0.100629E-05  0.673E-03    1.72       2.7  T
   9    -38.0237376 -0.796876E-07  0.476E-03    1.72       3.8  T
  10    -38.0237377 -0.161158E-06  0.122E-03    1.72      14.8  T
  11    -38.0237378 -0.509982E-08  0.544E-04    1.72      33.0  T
  12    -38.0237378 -0.175164E-08  0.358E-04    1.72      50.1  T
     SCC iter.                  ...        0 min,  1.342 sec
     gradient                   ...        0 min,  0.216 sec
 * total energy  :   -37.3539223 Eh     change       -0.4927009E-01 Eh
   gradient norm :     0.2909757 Eh/α   predicted    -0.5863302E-01 (  19.00%)
   displ. norm   :     0.6082501 α      lambda       -0.7044819E-01
   maximum displ.:     0.2610503 α      in ANC's #23, #8, #9, ...

........................................................................
.............................. CYCLE   10 ..............................
........................................................................
   1    -38.0498000 -0.380498E+02  0.429E-01    1.84       0.0  T
   2    -38.0491939  0.606151E-03  0.401E-01    1.72       1.0  T
   3    -38.0506290 -0.143518E-02  0.199E-01    1.80       1.0  T
   4    -38.0505716  0.574520E-04  0.132E-01    1.77       1.0  T
   5    -38.0508217 -0.250169E-03  0.586E-02    1.77       1.0  T
   6    -38.0508371 -0.153618E-04  0.227E-02    1.78       1.0  T
   7    -38.0508419 -0.480366E-05  0.103E-02    1.78       1.7  T
   8    -38.0508418  0.121744E-06  0.565E-03    1.78       3.2  T
   9    -38.0508421 -0.282017E-06  0.283E-03    1.78       6.3  T
  10    -38.0508421 -0.306422E-07  0.120E-03    1.78      15.0  T
  11    -38.0508421 -0.318586E-08  0.360E-04    1.78      49.9  T
  12    -38.0508421 -0.109130E-08  0.198E-04    1.78      90.8  T
     SCC iter.                  ...        0 min,  1.406 sec
     gradient                   ...        0 min,  0.355 sec
 * total energy  :   -37.4014069 Eh     change       -0.4748456E-01 Eh
   gradient norm :     0.2423647 Eh/α   predicted    -0.4825588E-01 (   1.62%)
   displ. norm   :     0.6927899 α      lambda       -0.5416994E-01
   maximum displ.:     0.3445681 α      in ANC's #8, #9, #23, ...

........................................................................
.............................. CYCLE   11 ..............................
........................................................................
   1    -38.0762443 -0.380762E+02  0.497E-01    1.77       0.0  T
   2    -38.0763847 -0.140386E-03  0.306E-01    1.80       1.0  T
   3    -38.0756888  0.695935E-03  0.289E-01    1.74       1.0  T
   4    -38.0772206 -0.153186E-02  0.155E-01    1.79       1.0  T
   5    -38.0773031 -0.825096E-04  0.130E-01    1.78       1.0  T
   6    -38.0772613  0.418714E-04  0.101E-01    1.78       1.0  T
   7    -38.0773223 -0.610673E-04  0.592E-02    1.78       1.0  T
   8    -38.0773353 -0.129160E-04  0.155E-02    1.77       1.2  T
   9    -38.0773371 -0.184414E-05  0.803E-03    1.77       2.2  T
  10    -38.0773373 -0.213227E-06  0.480E-03    1.77       3.7  T
  11    -38.0773374 -0.743393E-07  0.188E-03    1.77       9.5  T
  12    -38.0773374 -0.150162E-07  0.139E-03    1.77      12.9  T
  13    -38.0773374 -0.113405E-07  0.782E-04    1.77      23.0  T
  14    -38.0773374 -0.756422E-09  0.282E-04    1.77      63.7  T
     SCC iter.                  ...        0 min,  1.898 sec
     gradient                   ...        0 min,  0.297 sec
 * total energy  :   -37.4473606 Eh     change       -0.4595373E-01 Eh
   gradient norm :     0.1634624 Eh/α   predicted    -0.4008465E-01 ( -12.77%)
   displ. norm   :     0.7271455 α      lambda       -0.5393568E-01
   maximum displ.:     0.3022364 α      in ANC's #23, #9, #21, ...

........................................................................
.............................. CYCLE   12 ..............................
........................................................................
   1    -38.1253668 -0.381254E+02  0.570E-01    1.85       0.0  T
   2    -38.1250499  0.316933E-03  0.426E-01    1.88       1.0  T
   3    -38.1259074 -0.857487E-03  0.310E-01    1.83       1.0  T
   4    -38.1268647 -0.957355E-03  0.244E-01    1.87       1.0  T
   5    -38.1269487 -0.840163E-04  0.202E-01    1.86       1.0  T
   6    -38.1269237  0.250296E-04  0.587E-02    1.86       1.0  T
   7    -38.1269922 -0.685292E-04  0.260E-02    1.86       1.0  T
   8    -38.1269971 -0.487475E-05  0.892E-03    1.85       2.0  T
   9    -38.1269978 -0.718028E-06  0.326E-03    1.85       5.5  T
  10    -38.1269979 -0.370787E-07  0.200E-03    1.85       9.0  T
  11    -38.1269979 -0.184308E-07  0.701E-04    1.85      25.6  T
  12    -38.1269979 -0.201155E-08  0.417E-04    1.85      43.1  T
     SCC iter.                  ...        0 min,  1.711 sec
     gradient                   ...        0 min,  0.004 sec
 * total energy  :   -37.4955010 Eh     change       -0.4814040E-01 Eh
   gradient norm :     0.1117351 Eh/α   predicted    -0.4122686E-01 ( -14.36%)
   displ. norm   :     0.8157649 α      lambda       -0.5916207E-01
   maximum displ.:     0.3193749 α      in ANC's #21, #23, #9, ...

........................................................................
.............................. CYCLE   13 ..............................
........................................................................
   1    -38.1818426 -0.381818E+02  0.100E+00    1.99       0.0  T
   2    -38.1808930  0.949623E-03  0.745E-01    2.01       1.0  T
   3    -38.1850325 -0.413956E-02  0.486E-01    1.96       1.0  T
   4    -38.1868485 -0.181599E-02  0.105E-01    2.01       1.0  T
   5    -38.1871411 -0.292600E-03  0.401E-02    1.99       1.0  T
   6    -38.1871431 -0.205021E-05  0.235E-02    1.99       1.0  T
   7    -38.1871444 -0.123112E-05  0.113E-02    1.99       1.6  T
   8    -38.1871453 -0.971986E-06  0.685E-03    1.99       2.6  T
   9    -38.1871455 -0.116172E-06  0.216E-03    1.99       8.3  T
  10    -38.1871455 -0.351669E-07  0.973E-04    1.99      18.5  T
  11    -38.1871455 -0.267931E-08  0.478E-04    1.99      37.6  T
     SCC iter.                  ...        0 min,  1.503 sec
     gradient                   ...        0 min,  0.005 sec
 * total energy  :   -37.5377998 Eh     change       -0.4229881E-01 Eh
   gradient norm :     0.1169040 Eh/α   predicted    -0.4926637E-01 (  16.47%)
   displ. norm   :     0.5700227 α      lambda       -0.3055110E-01
   maximum displ.:     0.2342857 α      in ANC's #23, #9, #21, ...

........................................................................
.............................. CYCLE   14 ..............................
........................................................................
   1    -38.2165276 -0.382165E+02  0.766E-01    2.01       0.0  T
   2    -38.2165997 -0.721807E-04  0.487E-01    1.98       1.0  T
   3    -38.2186584 -0.205866E-02  0.371E-01    1.97       1.0  T
   4    -38.2197306 -0.107221E-02  0.911E-02    2.01       1.0  T
   5    -38.2199307 -0.200087E-03  0.306E-02    1.99       1.0  T
   6    -38.2199311 -0.411711E-06  0.174E-02    1.98       1.0  T
   7    -38.2199330 -0.189528E-05  0.845E-03    1.99       2.1  T
   8    -38.2199331 -0.149653E-06  0.415E-03    1.99       4.3  T
   9    -38.2199332 -0.531842E-07  0.151E-03    1.99      11.9  T
  10    -38.2199332 -0.145676E-07  0.901E-04    1.99      19.9  T
  11    -38.2199332 -0.391616E-08  0.374E-04    1.99      48.0  T
     SCC iter.                  ...        0 min,  1.294 sec
     gradient                   ...        0 min,  0.192 sec
 * total energy  :   -37.5621202 Eh     change       -0.2432033E-01 Eh
   gradient norm :     0.1117618 Eh/α   predicted    -0.2023906E-01 ( -16.78%)
   displ. norm   :     0.6715670 α      lambda       -0.3667052E-01
   maximum displ.:     0.2843207 α      in ANC's #20, #8, #36, ...

........................................................................
.............................. CYCLE   15 ..............................
........................................................................
   1    -38.2376070 -0.382376E+02  0.730E-01    1.97       0.0  T
   2    -38.2376905 -0.835900E-04  0.444E-01    1.89       1.0  T
   3    -38.2402517 -0.256111E-02  0.331E-01    1.90       1.0  T
   4    -38.2414184 -0.116674E-02  0.907E-02    1.95       1.0  T
   5    -38.2414991 -0.807269E-04  0.340E-02    1.93       1.0  T
   6    -38.2415007 -0.153420E-05  0.220E-02    1.93       1.0  T
   7    -38.2415028 -0.216411E-05  0.117E-02    1.92       1.5  T
   8    -38.2415033 -0.506185E-06  0.637E-03    1.92       2.8  T
   9    -38.2415034 -0.864310E-07  0.340E-03    1.92       5.3  T
  10    -38.2415034 -0.192249E-07  0.198E-03    1.92       9.1  T
  11    -38.2415034 -0.163054E-07  0.869E-04    1.92      20.7  T
  12    -38.2415035 -0.230403E-08  0.160E-04    1.92     112.2  T
     SCC iter.                  ...        0 min,  1.403 sec
     gradient                   ...        0 min,  0.100 sec
 * total energy  :   -37.5862113 Eh     change       -0.2409114E-01 Eh
   gradient norm :     0.1435098 Eh/α   predicted    -0.2660448E-01 (  10.43%)
   displ. norm   :     0.5811050 α      lambda       -0.2999450E-01
   maximum displ.:     0.2604504 α      in ANC's #8, #9, #20, ...

........................................................................
.............................. CYCLE   16 ..............................
........................................................................
   1    -38.2585887 -0.382586E+02  0.581E-01    1.83       0.0  T
   2    -38.2583407  0.248041E-03  0.429E-01    1.76       1.0  T
   3    -38.2605651 -0.222438E-02  0.264E-01    1.77       1.0  T
   4    -38.2610530 -0.487901E-03  0.754E-02    1.79       1.0  T
   5    -38.2611471 -0.941457E-04  0.307E-02    1.78       1.0  T
   6    -38.2611484 -0.125617E-05  0.193E-02    1.78       1.0  T
   7    -38.2611502 -0.180567E-05  0.100E-02    1.78       1.8  T
   8    -38.2611504 -0.192988E-06  0.540E-03    1.78       3.3  T
   9    -38.2611504 -0.548822E-07  0.275E-03    1.78       6.5  T
  10    -38.2611505 -0.895483E-08  0.148E-03    1.78      12.1  T
  11    -38.2611505 -0.179950E-07  0.597E-04    1.78      30.1  T
  12    -38.2611505 -0.147793E-08  0.131E-04    1.78     137.2  T
     SCC iter.                  ...        0 min,  0.882 sec
     gradient                   ...        0 min,  0.049 sec
 * total energy  :   -37.6063711 Eh     change       -0.2015984E-01 Eh
   gradient norm :     0.1200026 Eh/α   predicted    -0.2006155E-01 (  -0.49%)
   displ. norm   :     0.5645280 α      lambda       -0.3240028E-01
   maximum displ.:     0.2988937 α      in ANC's #8, #55, #35, ...

........................................................................
.............................. CYCLE   17 ..............................
........................................................................
   1    -38.2817858 -0.382818E+02  0.493E-01    1.69       0.0  T
   2    -38.2816146  0.171193E-03  0.374E-01    1.67       1.0  T
   3    -38.2824482 -0.833626E-03  0.244E-01    1.68       1.0  T
   4    -38.2829264 -0.478208E-03  0.491E-02    1.68       1.0  T
   5    -38.2829655 -0.390921E-04  0.214E-02    1.68       1.0  T
   6    -38.2829694 -0.386153E-05  0.122E-02    1.68       1.5  T
   7    -38.2829697 -0.355940E-06  0.605E-03    1.68       3.0  T
   8    -38.2829698 -0.320949E-07  0.242E-03    1.68       7.4  T
   9    -38.2829698 -0.957100E-08  0.145E-03    1.68      12.4  T
  10    -38.2829698 -0.136777E-07  0.715E-04    1.68      25.1  T
  11    -38.2829698 -0.102905E-08  0.204E-04    1.68      88.3  T
     SCC iter.                  ...        0 min,  0.827 sec
     gradient                   ...        0 min,  0.079 sec
 * total energy  :   -37.6278788 Eh     change       -0.2150770E-01 Eh
   gradient norm :     0.0773149 Eh/α   predicted    -0.2136299E-01 (  -0.67%)
   displ. norm   :     0.5234543 α      lambda       -0.2351742E-01
   maximum displ.:     0.1637301 α      in ANC's #5, #7, #55, ...

........................................................................
.............................. CYCLE   18 ..............................
........................................................................
   1    -38.2962468 -0.382962E+02  0.418E-01    1.58       0.0  T
   2    -38.2962224  0.243749E-04  0.304E-01    1.56       1.0  T
   3    -38.2961598  0.625694E-04  0.206E-01    1.57       1.0  T
   4    -38.2967236 -0.563787E-03  0.445E-02    1.57       1.0  T
   5    -38.2967504 -0.268387E-04  0.211E-02    1.57       1.0  T
   6    -38.2967507 -0.221859E-06  0.157E-02    1.57       1.1  T
   7    -38.2967522 -0.150030E-05  0.636E-03    1.57       2.8  T
   8    -38.2967521  0.186368E-07  0.386E-03    1.57       4.7  T
   9    -38.2967522 -0.848814E-07  0.239E-03    1.57       7.5  T
  10    -38.2967522 -0.258268E-07  0.105E-03    1.57      17.1  T
  11    -38.2967522 -0.573060E-09  0.240E-04    1.57      74.7  T
  12    -38.2967522 -0.499320E-09  0.107E-04    1.57     168.2  T
     SCC iter.                  ...        0 min,  0.960 sec
     gradient                   ...        0 min,  0.156 sec
 * total energy  :   -37.6393325 Eh     change       -0.1145362E-01 Eh
   gradient norm :     0.1138218 Eh/α   predicted    -0.1498065E-01 (  30.79%)
   displ. norm   :     0.3244061 α      lambda       -0.1324141E-01
   maximum displ.:     0.1256701 α      in ANC's #13, #7, #55, ...

........................................................................
.............................. CYCLE   19 ..............................
........................................................................
   1    -38.2914255 -0.382914E+02  0.298E-01    1.55       0.0  T
   2    -38.2914584 -0.329577E-04  0.175E-01    1.55       1.0  T
   3    -38.2913018  0.156657E-03  0.109E-01    1.56       1.0  T
   4    -38.2914707 -0.168940E-03  0.358E-02    1.56       1.0  T
   5    -38.2914853 -0.145345E-04  0.204E-02    1.56       1.0  T
   6    -38.2914868 -0.156239E-05  0.893E-03    1.56       2.0  T
   7    -38.2914872 -0.354057E-06  0.455E-03    1.56       4.0  T
   8    -38.2914872 -0.752717E-07  0.310E-03    1.56       5.8  T
   9    -38.2914873 -0.358284E-07  0.135E-03    1.56      13.3  T
  10    -38.2914873 -0.462811E-08  0.496E-04    1.56      36.2  T
  11    -38.2914873 -0.866159E-09  0.137E-04    1.56     131.4  T
     SCC iter.                  ...        0 min,  0.747 sec
     gradient                   ...        0 min,  0.174 sec
 * total energy  :   -37.6473392 Eh     change       -0.8006778E-02 Eh
   gradient norm :     0.0619129 Eh/α   predicted    -0.7317457E-02 (  -8.61%)
   displ. norm   :     0.2365410 α      lambda       -0.5171612E-02
   maximum displ.:     0.0970104 α      in ANC's #13, #7, #6, ...

........................................................................
.............................. CYCLE   20 ..............................
........................................................................
   1    -38.3000435 -0.383000E+02  0.236E-01    1.56       0.0  T
   2    -38.3000737 -0.301407E-04  0.149E-01    1.56       1.0  T
   3    -38.2999391  0.134609E-03  0.130E-01    1.56       1.0  T
   4    -38.3001319 -0.192808E-03  0.349E-02    1.56       1.0  T
   5    -38.3001426 -0.107471E-04  0.231E-02    1.56       1.0  T
   6    -38.3001447 -0.211307E-05  0.111E-02    1.56       1.6  T
   7    -38.3001453 -0.549600E-06  0.407E-03    1.56       4.4  T
   8    -38.3001454 -0.102199E-06  0.316E-03    1.56       5.7  T
   9    -38.3001454 -0.296401E-07  0.141E-03    1.56      12.8  T
  10    -38.3001454 -0.228451E-08  0.560E-04    1.56      32.1  T
  11    -38.3001454 -0.105135E-08  0.154E-04    1.56     116.9  T
     SCC iter.                  ...        0 min,  0.780 sec
     gradient                   ...        0 min,  0.222 sec
 * total energy  :   -37.6498841 Eh     change       -0.2544873E-02 Eh
   gradient norm :     0.0451327 Eh/α   predicted    -0.2730480E-02 (   7.29%)
   displ. norm   :     0.2024480 α      lambda       -0.3122741E-02
   maximum displ.:     0.1142825 α      in ANC's #13, #54, #8, ...
 * RMSD in coord.:     1.1479783 α      energy gain  -0.9434308E+01 Eh

generating ANC from model Hessian ...
Using Lindh-Hessian (1995)
 Shifting diagonal of input Hessian by    9.5155468596771660E-003
 Lowest  eigenvalues of input Hessian
    0.000000    0.000000    0.000000    0.000000    0.000000    0.000000
    0.010000    0.010073    0.010625    0.011144    0.011261    0.012334
    0.012535    0.013039    0.015858    0.015933    0.016150    0.016780
 Highest eigenvalues
    1.742015    1.960757    2.378132    3.536460    4.869927    6.856818


........................................................................
.............................. CYCLE   21 ..............................
........................................................................
   1    -38.2923963 -0.382924E+02  0.191E-01    1.53       0.0  T
   2    -38.2924214 -0.251109E-04  0.123E-01    1.53       1.0  T
   3    -38.2923461  0.753812E-04  0.685E-02    1.54       1.0  T
   4    -38.2924260 -0.799833E-04  0.272E-02    1.54       1.0  T
   5    -38.2924346 -0.859135E-05  0.154E-02    1.54       1.2  T
   6    -38.2924362 -0.154267E-05  0.776E-03    1.54       2.3  T
   7    -38.2924366 -0.386369E-06  0.224E-03    1.54       8.0  T
   8    -38.2924366 -0.930663E-08  0.183E-03    1.54       9.8  T
   9    -38.2924366 -0.174456E-07  0.822E-04    1.54      21.8  T
  10    -38.2924366 -0.939288E-09  0.355E-04    1.54      50.7  T
     SCC iter.                  ...        0 min,  0.713 sec
     gradient                   ...        0 min,  0.232 sec
 * total energy  :   -37.6514735 Eh     change       -0.1589364E-02 Eh
   gradient norm :     0.0348251 Eh/α   predicted     0.0000000E+00 (-100.00%)
   displ. norm   :     0.3913380 α      lambda       -0.4192998E-02
   maximum displ.:     0.2819268 α      in ANC's #8, #5, #6, ...

........................................................................
.............................. CYCLE   22 ..............................
........................................................................
   1    -38.2977516 -0.382978E+02  0.448E-01    1.47       0.0  T
   2    -38.2977950 -0.434416E-04  0.290E-01    1.50       1.0  T
   3    -38.2972117  0.583283E-03  0.169E-01    1.45       1.0  T
   4    -38.2978583 -0.646568E-03  0.454E-02    1.49       1.0  T
   5    -38.2978787 -0.204067E-04  0.286E-02    1.49       1.0  T
   6    -38.2978808 -0.214542E-05  0.116E-02    1.49       1.6  T
   7    -38.2978815 -0.655967E-06  0.768E-03    1.49       2.3  T
   8    -38.2978817 -0.216544E-06  0.269E-03    1.49       6.7  T
   9    -38.2978817 -0.127534E-07  0.104E-03    1.49      17.3  T
  10    -38.2978817 -0.104371E-07  0.550E-04    1.49      32.7  T
  11    -38.2978817 -0.191162E-08  0.176E-04    1.49     102.3  T
     SCC iter.                  ...        0 min,  1.051 sec
     gradient                   ...        0 min,  0.063 sec
 * total energy  :   -37.6537684 Eh     change       -0.2294937E-02 Eh
   gradient norm :     0.0130227 Eh/α   predicted    -0.2459209E-02 (   7.16%)
   displ. norm   :     0.3874073 α      lambda       -0.2075684E-02
   maximum displ.:     0.1994251 α      in ANC's #7, #5, #6, ...

........................................................................
.............................. CYCLE   23 ..............................
........................................................................
   1    -38.3002663 -0.383003E+02  0.234E-01    1.50       0.0  T
   2    -38.3002917 -0.254311E-04  0.148E-01    1.50       1.0  T
   3    -38.3002448  0.469012E-04  0.555E-02    1.51       1.0  T
   4    -38.3003046 -0.598510E-04  0.231E-02    1.50       1.0  T
   5    -38.3003038  0.819090E-06  0.189E-02    1.50       1.0  T
   6    -38.3003071 -0.328900E-05  0.110E-02    1.50       1.6  T
   7    -38.3003078 -0.672358E-06  0.721E-03    1.50       2.5  T
   8    -38.3003077  0.652420E-07  0.492E-03    1.50       3.6  T
   9    -38.3003078 -0.113130E-06  0.923E-04    1.50      19.4  T
  10    -38.3003078 -0.570280E-08  0.450E-04    1.50      39.9  T
     SCC iter.                  ...        0 min,  0.950 sec
     gradient                   ...        0 min,  0.183 sec
 * total energy  :   -37.6548673 Eh     change       -0.1098933E-02 Eh
   gradient norm :     0.0185753 Eh/α   predicted    -0.1193661E-02 (   8.62%)
   displ. norm   :     0.2536648 α      lambda       -0.7713996E-03
   maximum displ.:     0.1518691 α      in ANC's #5, #8, #6, ...

........................................................................
.............................. CYCLE   24 ..............................
........................................................................
   1    -38.3004496 -0.383004E+02  0.106E-01    1.48       0.0  T
   2    -38.3004578 -0.825137E-05  0.672E-02    1.49       1.0  T
   3    -38.3004403  0.175813E-04  0.374E-02    1.48       1.0  T
   4    -38.3004629 -0.226281E-04  0.113E-02    1.49       1.6  T
   5    -38.3004633 -0.409751E-06  0.713E-03    1.49       2.5  T
   6    -38.3004635 -0.224701E-06  0.384E-03    1.49       4.7  T
   7    -38.3004638 -0.254200E-06  0.126E-03    1.49      14.2  T
   8    -38.3004638 -0.117562E-07  0.857E-04    1.49      21.0  T
   9    -38.3004638 -0.243028E-08  0.435E-04    1.49      41.3  T
     SCC iter.                  ...        0 min,  0.817 sec
     gradient                   ...        0 min,  0.229 sec
 * total energy  :   -37.6554386 Eh     change       -0.5712563E-03 Eh
   gradient norm :     0.0088512 Eh/α   predicted    -0.4105179E-03 ( -28.14%)
   displ. norm   :     0.3522886 α      lambda       -0.7144491E-03
   maximum displ.:     0.2059412 α      in ANC's #5, #3, #6, ...

........................................................................
.............................. CYCLE   25 ..............................
........................................................................
   1    -38.3001680 -0.383002E+02  0.145E-01    1.47       0.0  T
   2    -38.3001764 -0.837908E-05  0.859E-02    1.46       1.0  T
   3    -38.3001305  0.459220E-04  0.586E-02    1.47       1.0  T
   4    -38.3001833 -0.528626E-04  0.156E-02    1.47       1.1  T
   5    -38.3001871 -0.377876E-05  0.817E-03    1.46       2.2  T
   6    -38.3001871 -0.587022E-09  0.384E-03    1.46       4.7  T
   7    -38.3001873 -0.138772E-06  0.230E-03    1.46       7.8  T
   8    -38.3001873 -0.138891E-07  0.130E-03    1.46      13.9  T
   9    -38.3001873 -0.349840E-08  0.448E-04    1.46      40.1  T
  10    -38.3001873 -0.192080E-08  0.267E-04    1.46      67.4  T
     SCC iter.                  ...        0 min,  0.882 sec
     gradient                   ...        0 min,  0.216 sec
 * total energy  :   -37.6558984 Eh     change       -0.4597719E-03 Eh
   gradient norm :     0.0111674 Eh/α   predicted    -0.4015622E-03 ( -12.66%)
   displ. norm   :     0.3225755 α      lambda       -0.5177638E-03
   maximum displ.:     0.2330300 α      in ANC's #5, #3, #12, ...

........................................................................
.............................. CYCLE   26 ..............................
........................................................................
   1    -38.3004193 -0.383004E+02  0.992E-02    1.45       0.0  T
   2    -38.3004259 -0.655586E-05  0.618E-02    1.44       1.0  T
   3    -38.3004019  0.239607E-04  0.388E-02    1.45       1.0  T
   4    -38.3004292 -0.272242E-04  0.150E-02    1.44       1.2  T
   5    -38.3004326 -0.342139E-05  0.801E-03    1.44       2.2  T
   6    -38.3004326 -0.337951E-07  0.379E-03    1.44       4.7  T
   7    -38.3004327 -0.712620E-07  0.215E-03    1.44       8.4  T
   8    -38.3004327 -0.239908E-07  0.135E-03    1.44      13.3  T
   9    -38.3004327 -0.368421E-08  0.262E-04    1.44      68.6  T
  10    -38.3004327 -0.419128E-09  0.119E-04    1.44     151.1  T
     SCC iter.                  ...        0 min,  1.088 sec
     gradient                   ...        0 min,  0.262 sec
 * total energy  :   -37.6562067 Eh     change       -0.3083213E-03 Eh
   gradient norm :     0.0162288 Eh/α   predicted    -0.2858274E-03 (  -7.30%)
   displ. norm   :     0.2516368 α      lambda       -0.3860878E-03
   maximum displ.:     0.1716309 α      in ANC's #5, #3, #6, ...

........................................................................
.............................. CYCLE   27 ..............................
........................................................................
   1    -38.3015917 -0.383016E+02  0.101E-01    1.44       0.0  T
   2    -38.3015952 -0.344126E-05  0.703E-02    1.43       1.0  T
   3    -38.3015783  0.168867E-04  0.291E-02    1.44       1.0  T
   4    -38.3015941 -0.157915E-04  0.121E-02    1.43       1.5  T
   5    -38.3015971 -0.300333E-05  0.540E-03    1.43       3.3  T
   6    -38.3015973 -0.235310E-06  0.244E-03    1.43       7.4  T
   7    -38.3015973 -0.205078E-07  0.581E-04    1.43      30.9  T
   8    -38.3015973 -0.552904E-08  0.353E-04    1.43      50.9  T
     SCC iter.                  ...        0 min,  0.806 sec
     gradient                   ...        0 min,  0.184 sec
 * total energy  :   -37.6564984 Eh     change       -0.2916852E-03 Eh
   gradient norm :     0.0097643 Eh/α   predicted    -0.2052682E-03 ( -29.63%)
   displ. norm   :     0.3240275 α      lambda       -0.3691271E-03
   maximum displ.:     0.2282211 α      in ANC's #5, #3, #1, ...

........................................................................
.............................. CYCLE   28 ..............................
........................................................................
   1    -38.3017917 -0.383018E+02  0.120E-01    1.44       0.0  T
   2    -38.3017956 -0.387766E-05  0.783E-02    1.42       1.0  T
   3    -38.3017566  0.389060E-04  0.448E-02    1.44       1.0  T
   4    -38.3017978 -0.411579E-04  0.128E-02    1.43       1.4  T
   5    -38.3018006 -0.276821E-05  0.701E-03    1.43       2.6  T
   6    -38.3018011 -0.528272E-06  0.341E-03    1.43       5.3  T
   7    -38.3018011 -0.451181E-07  0.108E-03    1.43      16.6  T
   8    -38.3018011 -0.351887E-08  0.767E-04    1.43      23.4  T
   9    -38.3018012 -0.677126E-09  0.283E-04    1.43      63.4  T
     SCC iter.                  ...        0 min,  0.713 sec
     gradient                   ...        0 min,  0.198 sec
 * total energy  :   -37.6567440 Eh     change       -0.2455949E-03 Eh
   gradient norm :     0.0159938 Eh/α   predicted    -0.2039503E-03 ( -16.96%)
   displ. norm   :     0.2006155 α      lambda       -0.2711377E-03
   maximum displ.:     0.1220640 α      in ANC's #5, #3, #8, ...

........................................................................
.............................. CYCLE   29 ..............................
........................................................................
   1    -38.3039336 -0.383039E+02  0.918E-02    1.45       0.0  T
   2    -38.3039376 -0.397819E-05  0.583E-02    1.44       1.0  T
   3    -38.3039129  0.246813E-04  0.450E-02    1.44       1.0  T
   4    -38.3039438 -0.309440E-04  0.107E-02    1.44       1.7  T
   5    -38.3039459 -0.205071E-05  0.628E-03    1.44       2.9  T
   6    -38.3039464 -0.516703E-06  0.270E-03    1.44       6.6  T
   7    -38.3039464 -0.116961E-07  0.733E-04    1.44      24.5  T
   8    -38.3039464 -0.218476E-08  0.470E-04    1.44      38.2  T
     SCC iter.                  ...        0 min,  0.654 sec
     gradient                   ...        0 min,  0.178 sec
 * total energy  :   -37.6568396 Eh     change       -0.9559110E-04 Eh
   gradient norm :     0.0146049 Eh/α   predicted    -0.1410255E-03 (  47.53%)
   displ. norm   :     0.2419586 α      lambda       -0.1856479E-03
   maximum displ.:     0.1784512 α      in ANC's #5, #3, #12, ...

........................................................................
.............................. CYCLE   30 ..............................
........................................................................
   1    -38.3018193 -0.383018E+02  0.686E-02    1.43       0.0  T
   2    -38.3018211 -0.183269E-05  0.413E-02    1.42       1.0  T
   3    -38.3018143  0.686119E-05  0.196E-02    1.43       1.0  T
   4    -38.3018224 -0.813085E-05  0.588E-03    1.43       3.1  T
   5    -38.3018225 -0.777217E-07  0.398E-03    1.43       4.5  T
   6    -38.3018226 -0.864160E-07  0.211E-03    1.43       8.5  T
   7    -38.3018226 -0.560189E-07  0.704E-04    1.43      25.5  T
   8    -38.3018226 -0.196715E-08  0.352E-04    1.43      51.0  T
     SCC iter.                  ...        0 min,  0.623 sec
     gradient                   ...        0 min,  0.187 sec
 * total energy  :   -37.6569205 Eh     change       -0.8091246E-04 Eh
   gradient norm :     0.0116810 Eh/α   predicted    -0.9825819E-04 (  21.44%)
   displ. norm   :     0.0795420 α      lambda       -0.8079203E-04
   maximum displ.:     0.0379617 α      in ANC's #5, #2, #3, ...

........................................................................
.............................. CYCLE   31 ..............................
........................................................................
   1    -38.3029724 -0.383030E+02  0.309E-02    1.42       0.0  T
   2    -38.3029726 -0.269294E-06  0.194E-02    1.42       1.0  T
   3    -38.3029694  0.325952E-05  0.144E-02    1.42       1.2  T
   4    -38.3029732 -0.377843E-05  0.362E-03    1.42       5.0  T
   5    -38.3029734 -0.216188E-06  0.196E-03    1.42       9.2  T
   6    -38.3029734 -0.113321E-07  0.979E-04    1.42      18.3  T
   7    -38.3029734 -0.190458E-08  0.473E-04    1.42      38.0  T
     SCC iter.                  ...        0 min,  0.485 sec
     gradient                   ...        0 min,  0.160 sec
 * total energy  :   -37.6569751 Eh     change       -0.5462280E-04 Eh
   gradient norm :     0.0060252 Eh/α   predicted    -0.4065336E-04 ( -25.57%)
   displ. norm   :     0.1039584 α      lambda       -0.5964356E-04
   maximum displ.:     0.0660441 α      in ANC's #2, #5, #4, ...

........................................................................
.............................. CYCLE   32 ..............................
........................................................................
   1    -38.3030027 -0.383030E+02  0.305E-02    1.42       0.0  T
   2    -38.3030039 -0.119662E-05  0.182E-02    1.41       1.0  T
   3    -38.3030030  0.909975E-06  0.104E-02    1.42       1.7  T
   4    -38.3030046 -0.162933E-05  0.305E-03    1.42       5.9  T
   5    -38.3030048 -0.111595E-06  0.175E-03    1.42      10.3  T
   6    -38.3030048 -0.422212E-09  0.122E-03    1.42      14.8  T
   7    -38.3030048 -0.113996E-07  0.512E-04    1.42      35.1  T
   8    -38.3030048 -0.932914E-09  0.386E-04    1.42      46.6  T
     SCC iter.                  ...        0 min,  0.601 sec
     gradient                   ...        0 min,  0.201 sec
 * total energy  :   -37.6570174 Eh     change       -0.4227983E-04 Eh
   gradient norm :     0.0024234 Eh/α   predicted    -0.3014856E-04 ( -28.69%)
   displ. norm   :     0.1178815 α      lambda       -0.3840686E-04
   maximum displ.:     0.0710153 α      in ANC's #2, #5, #3, ...

........................................................................
.............................. CYCLE   33 ..............................
........................................................................
   1    -38.3030395 -0.383030E+02  0.329E-02    1.41       0.0  T
   2    -38.3030407 -0.126830E-05  0.199E-02    1.41       1.0  T
   3    -38.3030392  0.152184E-05  0.122E-02    1.41       1.5  T
   4    -38.3030414 -0.222320E-05  0.330E-03    1.41       5.5  T
   5    -38.3030416 -0.175201E-06  0.212E-03    1.41       8.5  T
   6    -38.3030417 -0.515011E-07  0.111E-03    1.41      16.2  T
   7    -38.3030417 -0.243011E-08  0.422E-04    1.41      42.6  T
   8    -38.3030417 -0.133236E-08  0.215E-04    1.41      83.5  T
     SCC iter.                  ...        0 min,  0.499 sec
     gradient                   ...        0 min,  0.181 sec
 * total energy  :   -37.6570452 Eh     change       -0.2780888E-04 Eh
   gradient norm :     0.0028712 Eh/α   predicted    -0.1947068E-04 ( -29.98%)
   displ. norm   :     0.0929117 α      lambda       -0.2909655E-04
   maximum displ.:     0.0634868 α      in ANC's #2, #5, #3, ...

........................................................................
.............................. CYCLE   34 ..............................
........................................................................
   1    -38.3025380 -0.383025E+02  0.273E-02    1.41       0.0  T
   2    -38.3025383 -0.279095E-06  0.174E-02    1.40       1.0  T
   3    -38.3025358  0.251058E-05  0.128E-02    1.40       1.4  T
   4    -38.3025387 -0.294478E-05  0.303E-03    1.40       5.9  T
   5    -38.3025389 -0.151556E-06  0.169E-03    1.40      10.6  T
   6    -38.3025389 -0.177029E-07  0.822E-04    1.40      21.9  T
   7    -38.3025389 -0.422413E-08  0.287E-04    1.40      62.5  T
     SCC iter.                  ...        0 min,  0.538 sec
     gradient                   ...        0 min,  0.165 sec
 * total energy  :   -37.6570670 Eh     change       -0.2178712E-04 Eh
   gradient norm :     0.0016395 Eh/α   predicted    -0.1467618E-04 ( -32.64%)
   displ. norm   :     0.1135495 α      lambda       -0.2248780E-04
   maximum displ.:     0.0836308 α      in ANC's #2, #5, #1, ...

........................................................................
.............................. CYCLE   35 ..............................
........................................................................
   1    -38.3026130 -0.383026E+02  0.301E-02    1.40       0.0  T
   2    -38.3026132 -0.218951E-06  0.203E-02    1.40       1.0  T
   3    -38.3026102  0.302033E-05  0.160E-02    1.40       1.1  T
   4    -38.3026143 -0.410526E-05  0.389E-03    1.40       4.6  T
   5    -38.3026145 -0.266872E-06  0.176E-03    1.40      10.2  T
   6    -38.3026146 -0.621033E-08  0.791E-04    1.40      22.7  T
   7    -38.3026146 -0.403569E-08  0.282E-04    1.40      63.6  T
     SCC iter.                  ...        0 min,  0.443 sec
     gradient                   ...        0 min,  0.156 sec
 * total energy  :   -37.6570921 Eh     change       -0.2513252E-04 Eh
   gradient norm :     0.0012426 Eh/α   predicted    -0.1131032E-04 ( -55.00%)
   displ. norm   :     0.0817654 α      lambda       -0.1498906E-04
   maximum displ.:     0.0648964 α      in ANC's #2, #1, #7, ...

........................................................................
.............................. CYCLE   36 ..............................
........................................................................
   1    -38.3029042 -0.383029E+02  0.171E-02    1.40       0.0  T
   2    -38.3029046 -0.427645E-06  0.113E-02    1.40       1.6  T
   3    -38.3029046 -0.295803E-07  0.877E-03    1.40       2.0  T
   4    -38.3029052 -0.568900E-06  0.384E-03    1.40       4.7  T
   5    -38.3029055 -0.269569E-06  0.138E-03    1.40      13.0  T
   6    -38.3029055 -0.289629E-08  0.530E-04    1.40      33.9  T
   7    -38.3029055 -0.282989E-08  0.128E-04    1.40     140.5  T
     SCC iter.                  ...        0 min,  0.548 sec
     gradient                   ...        0 min,  0.179 sec
 * total energy  :   -37.6571083 Eh     change       -0.1616700E-04 Eh
   gradient norm :     0.0028849 Eh/α   predicted    -0.7517821E-05 ( -53.50%)
   displ. norm   :     0.0425317 α      lambda       -0.9468227E-05
   maximum displ.:     0.0345620 α      in ANC's #2, #1, #11, ...

........................................................................
.............................. CYCLE   37 ..............................
........................................................................
   1    -38.3029670 -0.383030E+02  0.836E-03    1.40       0.0  T
   2    -38.3029672 -0.190680E-06  0.470E-03    1.40       3.8  T
   3    -38.3029672 -0.585807E-07  0.347E-03    1.40       5.2  T
   4    -38.3029673 -0.846736E-07  0.158E-03    1.40      11.3  T
   5    -38.3029674 -0.533466E-07  0.391E-04    1.40      46.0  T
   6    -38.3029674  0.106525E-09  0.264E-04    1.40      68.0  T
     SCC iter.                  ...        0 min,  0.564 sec
     gradient                   ...        0 min,  0.186 sec
 * total energy  :   -37.6571156 Eh     change       -0.7294620E-05 Eh
   gradient norm :     0.0009214 Eh/α   predicted    -0.4744886E-05 ( -34.95%)
   displ. norm   :     0.0512629 α      lambda       -0.5913153E-05
   maximum displ.:     0.0426489 α      in ANC's #2, #1, #11, ...

........................................................................
.............................. CYCLE   38 ..............................
........................................................................
   1    -38.3030429 -0.383030E+02  0.946E-03    1.40       0.0  T
   2    -38.3030432 -0.262677E-06  0.493E-03    1.40       3.6  T
   3    -38.3030432 -0.860182E-07  0.408E-03    1.40       4.4  T
   4    -38.3030434 -0.124528E-06  0.170E-03    1.40      10.6  T
   5    -38.3030434 -0.567643E-07  0.521E-04    1.40      34.5  T
   6    -38.3030434 -0.991420E-10  0.358E-04    1.40      50.2  T
     SCC iter.                  ...        0 min,  0.603 sec
     gradient                   ...        0 min,  0.139 sec
 * total energy  :   -37.6571223 Eh     change       -0.6711180E-05 Eh
   gradient norm :     0.0005278 Eh/α   predicted    -0.2960974E-05 ( -55.88%)
   displ. norm   :     0.0348695 α      lambda       -0.3207793E-05
   maximum displ.:     0.0301109 α      in ANC's #2, #1, #9, ...

........................................................................
.............................. CYCLE   39 ..............................
........................................................................
   1    -38.3029151 -0.383029E+02  0.737E-03    1.40       0.0  T
   2    -38.3029152 -0.133559E-06  0.412E-03    1.40       4.4  T
   3    -38.3029153 -0.187397E-07  0.276E-03    1.40       6.5  T
   4    -38.3029153 -0.716905E-07  0.399E-04    1.40      45.0  T
   5    -38.3029153 -0.248129E-08  0.262E-04    1.40      68.6  T
     SCC iter.                  ...        0 min,  0.354 sec
     gradient                   ...        0 min,  0.053 sec
 * total energy  :   -37.6571260 Eh     change       -0.3760126E-05 Eh
   gradient norm :     0.0006155 Eh/α   predicted    -0.1608224E-05 ( -57.23%)
   displ. norm   :     0.0262875 α      lambda       -0.2051703E-05
   maximum displ.:     0.0234167 α      in ANC's #2, #1, #9, ...

   *** GEOMETRY OPTIMIZATION CONVERGED AFTER 39 ITERATIONS ***

------------------------------------------------------------------------
 total energy gain   :        -9.4415498 Eh    -5924.6619 kcal/mol
 total RMSD          :         1.1747504 a0        0.6217 Å
 total power (kW/mol):      -635.6098841 (step) -472.4094 (real)
------------------------------------------------------------------------

 ANCopt (total)                0 d,  0 h,  0 min, 52.473 sec
 optimizer setup                ...        0 min,  0.000 sec (  0.001%)
 model hessian                  ...        0 min,  0.132 sec (  0.252%)
 ANC generation                 ...        0 min,  0.026 sec (  0.049%)
 coordinate transformation      ...        0 min,  0.004 sec (  0.009%)
 single point calculation       ...        0 min, 51.494 sec ( 98.135%)
 optimization log               ...        0 min,  0.004 sec (  0.008%)
 hessian update                 ...        0 min,  0.673 sec (  1.282%)
 rational function              ...        0 min,  0.137 sec (  0.260%)

================
 final structure:
================
31
 xtb: 6.5.1 (b24c23e)
Zr          -1.05885248954516       -0.05352811376786        0.20519134905135
C           -2.95349249755216        1.11245230074447       -1.24927799760403
C           -1.05240582724744       -2.10584335126983        1.59158997888502
C            0.24923910311437       -2.02582873101991        1.02274603296933
C            0.13360101847704       -2.26286073295821       -0.36153194394422
C           -1.23042227428518       -2.47979120544496       -0.65907187016585
C           -1.95796379437605       -2.40888695836358        0.55090412640834
H           -1.27761561613637       -2.16040130729437        2.65101317572047
H            1.18394384398743       -1.97274568583545        1.57046420261729
H            0.95604627214074       -2.36648896798390       -1.05822624106664
H           -1.61152610136703       -2.80882196688115       -1.61823320399385
H           -2.98702236608071       -2.71807471014389        0.69041673718783
C            0.79311069607346        1.17229130624396        1.41046670355952
C           -0.03529378474455        0.59827899382377        2.40258397920846
C           -1.29935542832007        1.22162365633251        2.33807975141348
C           -1.23092226611854        2.23144142458972        1.33395374336512
C            0.05958725331057        2.19752289691649        0.76977622223631
H            1.84989302739307        0.97319892396165        1.26875120712103
H            0.29418729108896       -0.07651584298155        3.18266322283605
H           -2.07848126133061        1.12960609305959        3.08626479423545
H           -1.94515170394062        3.03746957264625        1.20425311813509
H            0.45775379313299        2.90129466345441        0.04944727267469
H           -0.29431873333629        0.30775007328332       -1.30854805726998
H           -2.49287751094205        1.05032373388413       -2.26154620996125
H           -2.27582387598717        1.72969523443235       -0.64971469600972
C           -3.32679435782816       -0.16499220206264       -0.71595930466009
C           -3.55709467601495        0.26841359834992        0.61299630352001
H           -4.01103526430259       -0.40513738714969        1.34914617389821
H           -3.63502994353706        1.31053767231260        0.87022484411331
H           -3.59279984449006       -1.08005144918967       -1.22112468230243
H           -3.85816303118880        1.71760343826904       -1.44461442218150

 Bond Distances (Angstroems)
 ---------------------------
Zr1-C2=2.6579        Zr1-C3=2.4767        Zr1-C4=2.5039        Zr1-C5=2.5738        Zr1-C6=2.5813        Zr1-C7=2.5447        
Zr1-C13=2.5269       Zr1-C14=2.5102       Zr1-C15=2.4966       Zr1-C16=2.5544       Zr1-C17=2.5762       Zr1-H23=1.7339       
Zr1-H25=2.3220       Zr1-C26=2.4504       Zr1-C27=2.5517       C2-Zr1=2.6579        C2-H24=1.1139        C2-H25=1.0953        
C2-C26=1.4338        C2-H31=1.1058        C3-Zr1=2.4767        C3-C4=1.4228         C3-C7=1.4124         C3-H8=1.0845         
C4-Zr1=2.5039        C4-C3=1.4228         C4-C5=1.4092         C4-H9=1.0847         C5-Zr1=2.5738        C5-C4=1.4092         
C5-C6=1.4129         C5-H10=1.0828        C6-Zr1=2.5813        C6-C5=1.4129         C6-C7=1.4136         C6-H11=1.0833        
C7-Zr1=2.5447        C7-C3=1.4124         C7-C6=1.4136         C7-H12=1.0835        H8-C3=1.0845         H9-C4=1.0847         
H10-C5=1.0828        H11-C6=1.0833        H12-C7=1.0835        C13-Zr1=2.5269       C13-C14=1.4142       C13-C17=1.4141       
C13-H18=1.0847       C14-Zr1=2.5102       C14-C13=1.4142       C14-C15=1.4109       C14-H19=1.0828       C15-Zr1=2.4966       
C15-C14=1.4109       C15-C16=1.4257       C15-H20=1.0841       C16-Zr1=2.5544       C16-C15=1.4257       C16-C17=1.4089       
C16-H21=1.0847       C17-Zr1=2.5762       C17-C13=1.4141       C17-C16=1.4089       C17-H22=1.0829       H18-C13=1.0847       
H19-C14=1.0828       H20-C15=1.0841       H21-C16=1.0847       H22-C17=1.0829       H23-Zr1=1.7339       H24-C2=1.1139        
H25-Zr1=2.3220       H25-C2=1.0953        C26-Zr1=2.4504       C26-C2=1.4338        C26-C27=1.4167       C26-H30=1.0786       
C27-Zr1=2.5517       C27-C26=1.4167       C27-H28=1.0962       C27-H29=1.0762       H28-C27=1.0962       H29-C27=1.0762       
H30-C26=1.0786       H31-C2=1.1058        
 C  H  Rav=1.0877 sigma=0.0097  Rmin=1.0762  Rmax=1.1139    16
 C  C  Rav=1.4163 sigma=0.0072  Rmin=1.4089  Rmax=1.4338    12
 Zr H  Rav=2.0280 sigma=0.2941  Rmin=1.7339  Rmax=2.3220     2
 Zr C  Rav=2.5388 sigma=0.0517  Rmin=2.4504  Rmax=2.6579    13

 selected bond angles (degree)
 --------------------
C3-Zr1-C2=132.20               C4-Zr1-C2=153.72               C4-Zr1-C3= 33.19               C5-Zr1-C2=125.90               
C5-Zr1-C3= 53.90               C5-Zr1-C4= 32.19               C6-Zr1-C2=100.47               C6-Zr1-C3= 53.75               
C6-Zr1-C4= 53.39               C6-Zr1-C5= 31.81               C7-Zr1-C2=103.21               C7-Zr1-C3= 32.64               
C7-Zr1-C4= 53.92               C7-Zr1-C5= 53.06               C7-Zr1-C6= 32.01               C13-Zr1-C2=124.79              
C13-Zr1-C3= 97.65              C13-Zr1-C4= 81.00              C13-Zr1-C5=100.48              C13-Zr1-C6=131.64              
C13-Zr1-C7=130.03              C14-Zr1-C2=130.98              C14-Zr1-C3= 73.98              C14-Zr1-C4= 72.88              
C14-Zr1-C5=103.10              C14-Zr1-C6=124.35              C14-Zr1-C7=105.40              C14-Zr1-C13= 32.61             
C15-Zr1-C2=100.07              C15-Zr1-C3= 86.86              C15-Zr1-C4=100.00              C15-Zr1-C5=132.16              
C15-Zr1-C6=139.44              C15-Zr1-C7=108.82              C15-Zr1-C13= 54.22             C15-Zr1-C14= 32.73             
C16-Zr1-C2= 78.54              C16-Zr1-C3=119.61              C16-Zr1-C4=126.55              C16-Zr1-C5=153.69              
C16-Zr1-C6=169.83              C16-Zr1-C7=138.08              C16-Zr1-C13= 53.46             C16-Zr1-C14= 53.73             
C16-Zr1-C15= 32.77             C17-Zr1-C2= 92.64              C17-Zr1-C3=126.89              C17-Zr1-C4=112.95              
C17-Zr1-C5=126.67              C17-Zr1-C6=157.45              C17-Zr1-C7=158.81              C17-Zr1-C13= 32.16             
C17-Zr1-C14= 53.43             C17-Zr1-C15= 53.72             C17-Zr1-C16= 31.87             H23-Zr1-C2= 75.24              
H23-Zr1-C3=131.32              H23-Zr1-C4=102.64              H23-Zr1-C5= 77.43              H23-Zr1-C6= 86.15              
H23-Zr1-C7=117.86              H23-Zr1-C13= 89.55             H23-Zr1-C14=122.03             H23-Zr1-C15=132.99             
H23-Zr1-C16=103.24             H23-Zr1-C17= 79.50             H25-Zr1-C2= 24.22              H25-Zr1-C3=147.55              
H25-Zr1-C4=177.36              H25-Zr1-C5=145.18              H25-Zr1-C6=124.31              H25-Zr1-C7=125.15              
H25-Zr1-C13=100.79             H25-Zr1-C14=109.67             H25-Zr1-C15= 82.63             H25-Zr1-C16= 55.97             
H25-Zr1-C17= 68.73             H25-Zr1-H23= 75.50             C26-Zr1-C2= 32.27              C26-Zr1-C3=100.09              
C26-Zr1-C4=124.78              C26-Zr1-C5=107.88              C26-Zr1-C6= 76.69              C26-Zr1-C7= 71.46              
C26-Zr1-C13=151.61             C26-Zr1-C14=135.91             C26-Zr1-C15=104.79             C26-Zr1-C16= 98.31             
C26-Zr1-C17=121.60             C26-Zr1-H23= 95.13             C26-Zr1-H25= 53.95             C27-Zr1-C2= 48.26              
C27-Zr1-C3= 91.01              C27-Zr1-C4=123.96              C27-Zr1-C5=126.66              C27-Zr1-C6= 96.14              
C27-Zr1-C7= 75.47              C27-Zr1-C13=125.46             C27-Zr1-C14=103.09             C27-Zr1-C15= 72.83             
C27-Zr1-C16= 75.56             C27-Zr1-C17=106.25             C27-Zr1-H23=123.02             C27-Zr1-H25= 56.55             
C27-Zr1-C26= 32.83             H24-C2-Zr1=100.26              H25-C2-Zr1= 60.44              H25-C2-H24=105.85              
C26-C2-Zr1= 65.87              C26-C2-H24=113.33              C26-C2-H25=117.36              H31-C2-Zr1=156.91              
H31-C2-H24=102.02              H31-C2-H25=107.13              H31-C2-C26=109.89              C4-C3-Zr1= 74.45               
C7-C3-Zr1= 76.33               C7-C3-C4=107.70                H8-C3-Zr1=126.01               H8-C3-C4=125.69                
H8-C3-C7=125.16                C3-C4-Zr1= 72.36               C5-C4-Zr1= 76.64               C5-C4-C3=107.95                
H9-C4-Zr1=125.21               H9-C4-C3=126.10                H9-C4-C5=125.10                C4-C5-Zr1= 71.18               
C6-C5-Zr1= 74.39               C6-C5-C4=108.18                H10-C5-Zr1=125.15              H10-C5-C4=125.86               
H10-C5-C6=125.67               C5-C6-Zr1= 73.80               C7-C6-Zr1= 72.57               C7-C6-C5=107.99                
H11-C6-Zr1=127.25              H11-C6-C5=124.94               H11-C6-C7=126.30               C3-C7-Zr1= 71.03               
C6-C7-Zr1= 75.42               C6-C7-C3=108.15                H12-C7-Zr1=128.11              H12-C7-C3=125.12               
H12-C7-C6=125.78               

 selected dihedral angles (degree)
 ---------------------------------
H24-C2-Zr1-C3=242.04          H24-C2-Zr1-C4=286.38          H24-C2-Zr1-C5=313.03          H24-C2-Zr1-C6=291.94          
H24-C2-Zr1-C7=259.34          H24-C2-Zr1-C13= 93.96         H24-C2-Zr1-C14=134.93         H24-C2-Zr1-C15=147.11         
H24-C2-Zr1-C16=122.26         H24-C2-Zr1-C17= 93.51         H24-C2-Zr1-H23= 15.09         H24-C2-Zr1-H25=102.50         
H24-C2-Zr1-C26=248.90         H24-C2-Zr1-C27=203.03         H25-C2-Zr1-C3=139.54          H25-C2-Zr1-C4=183.89          
H25-C2-Zr1-C5=210.54          H25-C2-Zr1-C6=189.45          H25-C2-Zr1-C7=156.84          H25-C2-Zr1-C13=351.47         
H25-C2-Zr1-C14= 32.43         H25-C2-Zr1-C15= 44.62         H25-C2-Zr1-C16= 19.76         H25-C2-Zr1-C17=351.01         
H25-C2-Zr1-H23=272.59         H25-C2-Zr1-C26=146.41         H25-C2-Zr1-C27=100.54         C26-C2-Zr1-C3=353.13          
C26-C2-Zr1-C4= 37.48          C26-C2-Zr1-C5= 64.13          C26-C2-Zr1-C6= 43.04          C26-C2-Zr1-C7= 10.43          
C26-C2-Zr1-C13=205.06         C26-C2-Zr1-C14=246.02         C26-C2-Zr1-C15=258.21         C26-C2-Zr1-C16=233.35         
C26-C2-Zr1-C17=204.60         C26-C2-Zr1-H23=126.18         C26-C2-Zr1-H25=213.59         C26-C2-Zr1-C27=314.13         
H31-C2-Zr1-C3= 77.40          H31-C2-Zr1-C4=121.74          H31-C2-Zr1-C5=148.39          H31-C2-Zr1-C6=127.30          
H31-C2-Zr1-C7= 94.70          H31-C2-Zr1-C13=289.32         H31-C2-Zr1-C14=330.29         H31-C2-Zr1-C15=342.47         
H31-C2-Zr1-C16=317.61         H31-C2-Zr1-C17=288.87         H31-C2-Zr1-H23=210.45         H31-C2-Zr1-H25=297.85         
H31-C2-Zr1-C26= 84.26         H31-C2-Zr1-C27= 38.39         C4-C3-Zr1-C2=145.57           C4-C3-Zr1-C5= 37.01           
C4-C3-Zr1-C6= 76.71           C4-C3-Zr1-C7=113.11           C4-C3-Zr1-C13=299.59          C4-C3-Zr1-C14=276.92          
C4-C3-Zr1-C15=246.32          C4-C3-Zr1-C16=247.51          C4-C3-Zr1-C17=284.88          C4-C3-Zr1-H23= 35.76          
C4-C3-Zr1-H25=175.32          C4-C3-Zr1-C26=141.85          C4-C3-Zr1-C27=173.59          C7-C3-Zr1-C2= 32.46           
C7-C3-Zr1-C4=246.89           C7-C3-Zr1-C5=283.90           C7-C3-Zr1-C6=323.60           C7-C3-Zr1-C13=186.48          
C7-C3-Zr1-C14=163.82          C7-C3-Zr1-C15=133.22          C7-C3-Zr1-C16=134.40          C7-C3-Zr1-C17=171.77          
C7-C3-Zr1-H23=282.65          C7-C3-Zr1-H25= 62.21          C7-C3-Zr1-C26= 28.75          C7-C3-Zr1-C27= 60.48          
H8-C3-Zr1-C2=268.69           H8-C3-Zr1-C4=123.12           H8-C3-Zr1-C5=160.13           H8-C3-Zr1-C6=199.83           
H8-C3-Zr1-C7=236.23           H8-C3-Zr1-C13= 62.71          H8-C3-Zr1-C14= 40.04          H8-C3-Zr1-C15=  9.44          
H8-C3-Zr1-C16= 10.63          H8-C3-Zr1-C17= 48.00          H8-C3-Zr1-H23=158.88          H8-C3-Zr1-H25=298.44          
H8-C3-Zr1-C26=264.97          H8-C3-Zr1-C27=296.71          C3-C4-Zr1-C2=288.93           C3-C4-Zr1-C5=245.92           
C3-C4-Zr1-C6=282.12           C3-C4-Zr1-C7=322.14           C3-C4-Zr1-C13=119.23          C3-C4-Zr1-C14= 86.76          
C3-C4-Zr1-C15= 68.21          C3-C4-Zr1-C16= 89.44          C3-C4-Zr1-C17=122.92          C3-C4-Zr1-H23=206.73          
C3-C4-Zr1-H25=251.85          C3-C4-Zr1-C26=312.23          C3-C4-Zr1-C27=352.26          C5-C4-Zr1-C2= 43.01           
C5-C4-Zr1-C3=114.08           C5-C4-Zr1-C6= 36.19           C5-C4-Zr1-C7= 76.22           C5-C4-Zr1-C13=233.31          
C5-C4-Zr1-C14=200.83          C5-C4-Zr1-C15=182.29          C5-C4-Zr1-C16=203.52          C5-C4-Zr1-C17=237.00          
C5-C4-Zr1-H23=320.81          C5-C4-Zr1-H25=  5.93          C5-C4-Zr1-C26= 66.31          C5-C4-Zr1-C27=106.34          
H9-C4-Zr1-C2=166.77           H9-C4-Zr1-C3=237.84           H9-C4-Zr1-C5=123.76           H9-C4-Zr1-C6=159.95           
H9-C4-Zr1-C7=199.98           H9-C4-Zr1-C13=357.07          H9-C4-Zr1-C14=324.59          H9-C4-Zr1-C15=306.05          
H9-C4-Zr1-C16=327.28          H9-C4-Zr1-C17=  0.75          H9-C4-Zr1-H23= 84.57          H9-C4-Zr1-H25=129.69          
H9-C4-Zr1-C26=190.07          H9-C4-Zr1-C27=230.10          Zr1-C4-C3-C7= 69.74           Zr1-C4-C3-H8=236.52           
C5-C4-C3-Zr1=290.98           C5-C4-C3-C7=  0.72            C5-C4-C3-H8=167.50            H9-C4-C3-Zr1=121.12           
H9-C4-C3-C7=190.86            H9-C4-C3-H8=357.64            C4-C5-Zr1-C2=201.89           C4-C5-Zr1-C3=321.79           
C4-C5-Zr1-C6=244.06           C4-C5-Zr1-C7=280.87           C4-C5-Zr1-C13= 53.65          C4-C5-Zr1-C14= 20.43          
C4-C5-Zr1-C15=  3.04          C4-C5-Zr1-C16= 46.32          C4-C5-Zr1-C17= 74.32          C4-C5-Zr1-H23=140.82          
C4-C5-Zr1-H25=180.48          C4-C5-Zr1-C26=232.21          C4-C5-Zr1-C27=262.83          C6-C5-Zr1-C2=317.83           
C6-C5-Zr1-C3= 77.73           C6-C5-Zr1-C4=115.94           C6-C5-Zr1-C7= 36.81           C6-C5-Zr1-C13=169.59          
C6-C5-Zr1-C14=136.37          C6-C5-Zr1-C15=118.99          C6-C5-Zr1-C16=162.26          C6-C5-Zr1-C17=190.26          
C6-C5-Zr1-H23=256.76          C6-C5-Zr1-H25=296.42          C6-C5-Zr1-C26=348.15          C6-C5-Zr1-C27= 18.77          
H10-C5-Zr1-C2= 80.77          H10-C5-Zr1-C3=200.66          H10-C5-Zr1-C4=238.88          H10-C5-Zr1-C6=122.94          
H10-C5-Zr1-C7=159.75          H10-C5-Zr1-C13=292.53         H10-C5-Zr1-C14=259.30         H10-C5-Zr1-C15=241.92         
H10-C5-Zr1-C16=285.19         H10-C5-Zr1-C17=313.20         H10-C5-Zr1-H23= 19.70         H10-C5-Zr1-H25= 59.35         
H10-C5-Zr1-C26=111.09         H10-C5-Zr1-C27=141.70         Zr1-C5-C4-C3= 66.14           Zr1-C5-C4-H9=236.13           
C6-C5-C4-Zr1=294.28           C6-C5-C4-C3=  0.42            C6-C5-C4-H9=170.41            H10-C5-C4-Zr1=120.27          
H10-C5-C4-C3=186.42           H10-C5-C4-H9=356.40           C5-C6-Zr1-C2=146.43           C5-C6-Zr1-C3=281.78           
C5-C6-Zr1-C4=323.36           C5-C6-Zr1-C7=244.64           C5-C6-Zr1-C13=346.25          C5-C6-Zr1-C14=305.51          
C5-C6-Zr1-C15=265.72          C5-C6-Zr1-C16=229.90          C5-C6-Zr1-C17= 21.87          C5-C6-Zr1-H23= 72.22          
C5-C6-Zr1-H25=141.75          C5-C6-Zr1-C26=168.42          C5-C6-Zr1-C27=195.05          C7-C6-Zr1-C2=261.79           
C7-C6-Zr1-C3= 37.15           C7-C6-Zr1-C4= 78.73           C7-C6-Zr1-C5=115.36           C7-C6-Zr1-C13=101.62          
C7-C6-Zr1-C14= 60.87          C7-C6-Zr1-C15= 21.08          C7-C6-Zr1-C16=345.26          C7-C6-Zr1-C17=137.24          
C7-C6-Zr1-H23=187.59          C7-C6-Zr1-H25=257.12          C7-C6-Zr1-C26=283.78          C7-C6-Zr1-C27=310.41          
H11-C6-Zr1-C2= 24.53          H11-C6-Zr1-C3=159.89          H11-C6-Zr1-C4=201.47          H11-C6-Zr1-C5=238.11          
H11-C6-Zr1-C7=122.74          H11-C6-Zr1-C13=224.36         H11-C6-Zr1-C14=183.61         H11-C6-Zr1-C15=143.82         
H11-C6-Zr1-C16=108.01         H11-C6-Zr1-C17=259.98         H11-C6-Zr1-H23=310.33         H11-C6-Zr1-H25= 19.86         
H11-C6-Zr1-C26= 46.52         H11-C6-Zr1-C27= 73.15         Zr1-C6-C5-C4= 63.62           Zr1-C6-C5-H10=237.64          
C7-C6-C5-Zr1=294.98           C7-C6-C5-C4=358.60            C7-C6-C5-H10=172.62           H11-C6-C5-Zr1=124.47          
H11-C6-C5-C4=188.09           H11-C6-C5-H10=  2.11          C3-C7-Zr1-C2=204.11           C3-C7-Zr1-C4= 38.53           
C3-C7-Zr1-C5= 78.87           C3-C7-Zr1-C6=115.45           C3-C7-Zr1-C13=  8.40          C3-C7-Zr1-C14=343.87          
C3-C7-Zr1-C15=309.75          C3-C7-Zr1-C16=291.59          C3-C7-Zr1-C17=341.53          C3-C7-Zr1-H23=124.01          
C3-C7-Zr1-H25=215.49          C3-C7-Zr1-C26=209.96          C3-C7-Zr1-C27=244.00          C6-C7-Zr1-C2= 88.66           
C6-C7-Zr1-C3=244.55           C6-C7-Zr1-C4=283.09           C6-C7-Zr1-C5=323.42           C6-C7-Zr1-C13=252.95          
C6-C7-Zr1-C14=228.42          C6-C7-Zr1-C15=194.31          C6-C7-Zr1-C16=176.14          C6-C7-Zr1-C17=226.09          
C6-C7-Zr1-H23=  8.57          C6-C7-Zr1-H25=100.04          C6-C7-Zr1-C26= 94.52          C6-C7-Zr1-C27=128.55          
H12-C7-Zr1-C2=324.34          H12-C7-Zr1-C3=120.23          H12-C7-Zr1-C4=158.77          H12-C7-Zr1-C5=199.10          
H12-C7-Zr1-C6=235.68          H12-C7-Zr1-C13=128.63         H12-C7-Zr1-C14=104.10         H12-C7-Zr1-C15= 69.99         
H12-C7-Zr1-C16= 51.82         H12-C7-Zr1-C17=101.77         H12-C7-Zr1-H23=244.25         H12-C7-Zr1-H25=335.72         
H12-C7-Zr1-C26=330.20         H12-C7-Zr1-C27=  4.23         Zr1-C7-C3-C4=291.54           Zr1-C7-C3-H8=124.67           
C6-C7-C3-Zr1= 66.88           C6-C7-C3-C4=358.42            C6-C7-C3-H8=191.55            H12-C7-C3-Zr1=236.21          
H12-C7-C3-C4=167.75           H12-C7-C3-H8=  0.88           Zr1-C7-C6-C5= 65.83           Zr1-C7-C6-H11=236.18          
C3-C7-C6-Zr1=296.02           C3-C7-C6-C5=  1.85            C3-C7-C6-H11=172.19           H12-C7-C6-Zr1=126.77          
H12-C7-C6-C5=192.60           H12-C7-C6-H11=  2.95          
           -------------------------------------------------
          |                Final Singlepoint                |
           -------------------------------------------------

          ...................................................
          :                      SETUP                      :
          :.................................................:
          :  # basis functions                  79          :
          :  # atomic orbitals                  78          :
          :  # shells                           46          :
          :  # electrons                        72          :
          :  max. iterations                   250          :
          :  Hamiltonian                  GFN2-xTB          :
          :  restarted?                      false          :
          :  GBSA solvation                  false          :
          :  PC potential                    false          :
          :  electronic temp.          300.0000000     K    :
          :  accuracy                    1.0000000          :
          :  -> integral cutoff          0.2500000E+02      :
          :  -> integral neglect         0.1000000E-07      :
          :  -> SCF convergence          0.1000000E-05 Eh   :
          :  -> wf. convergence          0.1000000E-03 e    :
          :  Broyden damping             0.4000000          :
          ...................................................

 iter      E             dE          RMSdq      gap      omega  full diag
   1    -38.3029153 -0.383029E+02  0.170E-04    1.40       0.0  T
   2    -38.3029153  0.125404E-09  0.163E-04    1.40     110.5  T
   3    -38.3029153 -0.566480E-09  0.646E-05    1.40     278.0  T

   *** convergence criteria satisfied after 3 iterations ***

         #    Occupation            Energy/Eh            Energy/eV
      -------------------------------------------------------------
         1        2.0000           -0.8823970             -24.0112
       ...           ...                  ...                  ...
        30        2.0000           -0.5822417             -15.8436
        31        2.0000           -0.5810964             -15.8124
        32        2.0000           -0.5640611             -15.3489
        33        2.0000           -0.5181450             -14.0994
        34        2.0000           -0.5108426             -13.9007
        35        2.0000           -0.5053262             -13.7506
        36        2.0000           -0.5011136             -13.6360 (HOMO)
        37                         -0.4496418             -12.2354 (LUMO)
        38                         -0.4183927             -11.3850
        39                         -0.4159170             -11.3177
        40                         -0.4114205             -11.1953
        41                         -0.4059913             -11.0476
       ...                                ...                  ...
        78                          2.4743143              67.3295
      -------------------------------------------------------------
                  HL-Gap            0.0514718 Eh            1.4006 eV
             Fermi-level           -0.4753719 Eh          -12.9355 eV

 SCC (total)                   0 d,  0 h,  0 min,  0.544 sec
 SCC setup                      ...        0 min,  0.010 sec (  1.784%)
 Dispersion                     ...        0 min,  0.033 sec (  6.020%)
 classical contributions        ...        0 min,  0.000 sec (  0.059%)
 integral evaluation            ...        0 min,  0.036 sec (  6.538%)
 iterations                     ...        0 min,  0.318 sec ( 58.451%)
 molecular gradient             ...        0 min,  0.147 sec ( 27.106%)
 printout                       ...        0 min,  0.000 sec (  0.037%)

         :::::::::::::::::::::::::::::::::::::::::::::::::::::
         ::                     SUMMARY                     ::
         :::::::::::::::::::::::::::::::::::::::::::::::::::::
         :: total energy             -37.657126036214 Eh    ::
         :: gradient norm              0.000615345388 Eh/a0 ::
         :: HOMO-LUMO gap              1.400619326646 eV    ::
         ::.................................................::
         :: SCC energy               -38.302915335969 Eh    ::
         :: -> isotropic ES            0.096755665619 Eh    ::
         :: -> anisotropic ES         -0.015328172638 Eh    ::
         :: -> anisotropic XC          0.022871402934 Eh    ::
         :: -> dispersion             -0.032914610844 Eh    ::
         :: repulsion energy           0.638900163058 Eh    ::
         :: add. restraining           0.006258159744 Eh    ::
         :: total charge               1.000000000000 e     ::
         :::::::::::::::::::::::::::::::::::::::::::::::::::::

           -------------------------------------------------
          |                Property Printout                |
           -------------------------------------------------

    * Orbital Energies and Occupations

         #    Occupation            Energy/Eh            Energy/eV
      -------------------------------------------------------------
         1        2.0000           -0.8823970             -24.0112
       ...           ...                  ...                  ...
        24        2.0000           -0.5955067             -16.2046
        25        2.0000           -0.5924591             -16.1216
        26        2.0000           -0.5907148             -16.0742
        27        2.0000           -0.5879356             -15.9985
        28        2.0000           -0.5868765             -15.9697
        29        2.0000           -0.5838467             -15.8873
        30        2.0000           -0.5822417             -15.8436
        31        2.0000           -0.5810964             -15.8124
        32        2.0000           -0.5640611             -15.3489
        33        2.0000           -0.5181450             -14.0994
        34        2.0000           -0.5108426             -13.9007
        35        2.0000           -0.5053262             -13.7506
        36        2.0000           -0.5011136             -13.6360 (HOMO)
        37                         -0.4496418             -12.2354 (LUMO)
        38                         -0.4183927             -11.3850
        39                         -0.4159170             -11.3177
        40                         -0.4114205             -11.1953
        41                         -0.4059913             -11.0476
        42                         -0.3907100             -10.6318
        43                         -0.3117470              -8.4831
        44                         -0.3033323              -8.2541
        45                         -0.3010728              -8.1926
        46                         -0.2955278              -8.0417
        47                         -0.0978371              -2.6623
       ...                                ...                  ...
        78                          2.4743143              67.3295
      -------------------------------------------------------------
                  HL-Gap            0.0514718 Eh            1.4006 eV
             Fermi-level           -0.4753719 Eh          -12.9355 eV

     #   Z          covCN         q      C6AA      α(0)
     1  40 Zr      10.449     1.068   135.767    17.508
     2   6 C        4.606    -0.149    23.264     6.850
     3   6 C        3.754    -0.102    22.497     6.763
     4   6 C        3.743    -0.087    22.245     6.728
     5   6 C        3.700    -0.064    21.889     6.691
     6   6 C        3.696    -0.085    22.305     6.756
     7   6 C        3.720    -0.099    22.512     6.777
     8   1 H        0.925     0.081     1.964     2.191
     9   1 H        0.925     0.088     1.896     2.153
    10   1 H        0.925     0.089     1.884     2.147
    11   1 H        0.925     0.075     2.037     2.232
    12   1 H        0.925     0.071     2.077     2.254
    13   6 C        3.731    -0.076    22.058     6.704
    14   6 C        3.739    -0.087    22.248     6.730
    15   6 C        3.742    -0.103    22.551     6.775
    16   6 C        3.714    -0.099    22.530     6.782
    17   6 C        3.696    -0.069    22.008     6.711
    18   1 H        0.925     0.090     1.883     2.146
    19   1 H        0.925     0.088     1.896     2.153
    20   1 H        0.925     0.078     1.997     2.210
    21   1 H        0.925     0.069     2.097     2.265
    22   1 H        0.925     0.084     1.935     2.175
    23   1 H        0.854    -0.433    67.390    12.863
    24   1 H        0.921     0.107     1.727     2.055
    25   1 H        1.287     0.132     1.511     1.919
    26   6 C        3.643    -0.032    21.499     6.666
    27   6 C        3.773    -0.138    23.190     6.862
    28   1 H        0.924     0.102     1.764     2.077
    29   1 H        0.926     0.129     1.545     1.944
    30   1 H        0.926     0.151     1.385     1.840
    31   1 H        0.922     0.122     1.601     1.979

 Mol. C6AA /au·bohr⁶  :      10565.291418
 Mol. C8AA /au·bohr⁸  :     340678.161379
 Mol. α(0) /au        :        151.905965


Wiberg/Mayer (AO) data.
largest (>0.10) Wiberg bond orders for each atom

 ---------------------------------------------------------------------------
     #   Z sym  total        # sym  WBO       # sym  WBO       # sym  WBO
 ---------------------------------------------------------------------------
     1  40 Zr   4.089 --    23 H    0.648    13 C    0.259     3 C    0.255
                             4 C    0.253     5 C    0.247    15 C    0.242
                             6 C    0.230     7 C    0.224    17 C    0.224
                            14 C    0.224    16 C    0.219    27 C    0.193
                            26 C    0.193     2 C    0.115
     2   6 C    3.981 --    26 C    1.030    24 H    0.931    31 H    0.926
                            25 H    0.856     1 Zr   0.115
     3   6 C    3.977 --     7 C    1.312     4 C    1.273     8 H    0.923
                             1 Zr   0.255
     4   6 C    3.981 --     5 C    1.323     3 C    1.273     9 H    0.921
                             1 Zr   0.253
     5   6 C    3.985 --     4 C    1.323     6 C    1.304    10 H    0.927
                             1 Zr   0.247
     6   6 C    3.980 --     7 C    1.307     5 C    1.304    11 H    0.932
                             1 Zr   0.230
     7   6 C    3.977 --     3 C    1.312     6 C    1.307    12 H    0.931
                             1 Zr   0.224
     8   1 H    0.992 --     3 C    0.923
     9   1 H    0.989 --     4 C    0.921
    10   1 H    0.989 --     5 C    0.927
    11   1 H    0.991 --     6 C    0.932
    12   1 H    0.993 --     7 C    0.931
    13   6 C    3.983 --    14 C    1.303    17 C    1.302    18 H    0.921
                             1 Zr   0.259
    14   6 C    3.980 --    15 C    1.322    13 C    1.303    19 H    0.925
                             1 Zr   0.224
    15   6 C    3.977 --    14 C    1.322    16 C    1.255    20 H    0.926
                             1 Zr   0.242
    16   6 C    3.977 --    17 C    1.331    15 C    1.255    21 H    0.930
                             1 Zr   0.219
    17   6 C    3.984 --    16 C    1.331    13 C    1.302    22 H    0.930
                             1 Zr   0.224
    18   1 H    0.989 --    13 C    0.921
    19   1 H    0.991 --    14 C    0.925
    20   1 H    0.993 --    15 C    0.926
    21   1 H    0.992 --    16 C    0.930
    22   1 H    0.990 --    17 C    0.930
    23   1 H    0.812 --     1 Zr   0.648
    24   1 H    0.988 --     2 C    0.931
    25   1 H    0.982 --     2 C    0.856
    26   6 C    3.977 --    27 C    1.715     2 C    1.030    30 H    0.897
                             1 Zr   0.193
    27   6 C    3.982 --    26 C    1.715    28 H    0.930    29 H    0.917
                             1 Zr   0.193
    28   1 H    0.989 --    27 C    0.930
    29   1 H    0.982 --    27 C    0.917
    30   1 H    0.974 --    26 C    0.897
    31   1 H    0.983 --     2 C    0.926
 ---------------------------------------------------------------------------

Topologies differ in total number of bonds
Writing topology from bond orders to xtbtopo.mol

molecular dipole:
                 x           y           z       tot (Debye)
 q only:       -4.093       0.240       0.779
   full:       -4.194       0.343       0.610      10.807
molecular quadrupole (traceless):
                xx          xy          yy          xz          yz          zz
 q only:       20.620      -4.731     -10.150       2.766      -1.352     -10.470
  q+dip:       22.307      -4.862     -12.943       1.719      -1.274      -9.363
   full:       22.325      -4.862     -12.604       1.991      -1.740      -9.720

           -------------------------------------------------
          |                Geometry Summary                 |
           -------------------------------------------------

      molecular mass/u    :      264.4982010
   center of mass at/Å    :       -1.1613515      -0.1364540       0.5058396
  moments of inertia/u·Å² :        0.5904484E+03   0.7192874E+03   0.9873091E+03
rotational constants/cm⁻¹ :        0.2855056E-01   0.2343657E-01   0.1707432E-01

 * 41 selected distances

     #   Z          #   Z                                           value/Å
     1  40 Zr       3   6 C                                       2.4767199
     1  40 Zr       4   6 C                                       2.5038910
     3   6 C        4   6 C                                       1.4227669
     1  40 Zr       5   6 C                                       2.5737662
     4   6 C        5   6 C                                       1.4091779
     1  40 Zr       6   6 C                                       2.5813061 (max)
     5   6 C        6   6 C                                       1.4128513
     1  40 Zr       7   6 C                                       2.5447269
     3   6 C        7   6 C                                       1.4124086
     6   6 C        7   6 C                                       1.4136429
     3   6 C        8   1 H                                       1.0844693
     4   6 C        9   1 H                                       1.0846595
     5   6 C       10   1 H                                       1.0828380
     6   6 C       11   1 H                                       1.0832784
     7   6 C       12   1 H                                       1.0835232
     1  40 Zr      13   6 C                                       2.5268737
     1  40 Zr      14   6 C                                       2.5101913
    13   6 C       14   6 C                                       1.4142281
     1  40 Zr      15   6 C                                       2.4966113
    14   6 C       15   6 C                                       1.4108762
     1  40 Zr      16   6 C                                       2.5543687
    15   6 C       16   6 C                                       1.4257224
     1  40 Zr      17   6 C                                       2.5762173
    13   6 C       17   6 C                                       1.4140867
    16   6 C       17   6 C                                       1.4088513
    13   6 C       18   1 H                                       1.0846705
    14   6 C       19   1 H                                       1.0827879
    15   6 C       20   1 H                                       1.0841058
    16   6 C       21   1 H                                       1.0847246
    17   6 C       22   1 H                                       1.0829152
     1  40 Zr      23   1 H                                       1.7339093
     2   6 C       24   1 H                                       1.1138731
     2   6 C       25   1 H                                       1.0953082
     1  40 Zr      26   6 C                                       2.4504090
     2   6 C       26   6 C                                       1.4337531
     1  40 Zr      27   6 C                                       2.5516988
    26   6 C       27   6 C                                       1.4166871
    27   6 C       28   1 H                                       1.0961979
    27   6 C       29   1 H                                       1.0762264 (min)
    26   6 C       30   1 H                                       1.0785567
     2   6 C       31   1 H                                       1.1057998

 * 4 distinct bonds (by element types)

   Z      Z             #   av. dist./Å        max./Å        min./Å
   1 H    6 C          16     1.0877459     1.1138731     1.0762264
   6 C    6 C          12     1.4162544     1.4337531     1.4088513
   1 H   40 Zr          1     1.7339093     1.7339093     1.7339093
   6 C   40 Zr         12     2.5288983     2.5813061     2.4504090


optimized geometry written to: xtbopt.xyz


           -------------------------------------------------
          | TOTAL ENERGY              -37.657126036214 Eh   |
          | GRADIENT NORM               0.000615345388 Eh/α |
          | HOMO-LUMO GAP               1.400619326646 eV   |
           -------------------------------------------------

------------------------------------------------------------------------
 * finished run on 2026/08/18 at 18:31:24.643     
------------------------------------------------------------------------
 total:
 * wall-time:     0 d,  0 h,  0 min, 55.076 sec
 *  cpu-time:     0 d,  0 h,  1 min, 50.124 sec
 * ratio c/w:     1.999 speedup
 SCF:
 * wall-time:     0 d,  0 h,  0 min,  1.840 sec
 *  cpu-time:     0 d,  0 h,  0 min,  3.599 sec
 * ratio c/w:     1.956 speedup
 ANC optimizer:
 * wall-time:     0 d,  0 h,  0 min, 53.025 sec
 *  cpu-time:     0 d,  0 h,  1 min, 46.263 sec
 * ratio c/w:     2.004 speedup

