31
 energy: -37.649576461904 gnorm: 0.000532377930 xtb: 6.5.1 (b24c23e)
Zr          -1.31034184350762       -0.17192518245155        0.62019840611091
C           -1.72896810154013        1.09077952690469       -1.61141520287463
C           -0.45876889910824       -2.38298085449783        1.23669457488718
C            0.49448212509085       -1.83473524145822        0.34222062637577
C           -0.12224283398332       -1.69102776627959       -0.92286676862837
C           -1.45643892347813       -2.15172403267291       -0.81530034739702
C           -1.66715719704884       -2.57814582930253        0.52268869710955
H           -0.25671602067978       -2.74622857717209        2.23871448106273
H            1.55159883195795       -1.70419963456599        0.54533414355394
H            0.38879508481046       -1.43888567307291       -1.84642296693255
H           -2.14683813141222       -2.29873032425338       -1.63753496124922
H           -2.53159872033566       -3.12340118238533        0.88556133793569
C            0.20490253045592        0.37002683598334        2.48251616607349
C           -1.12560491386601        0.54696275093713        2.93662511391804
C           -1.67676552372669        1.65306124538443        2.23475249618402
C           -0.70339044154368        2.12670204949692        1.32746761045359
C            0.45686338408907        1.32336928023843        1.46735500570181
H            0.94401461129039       -0.28065497983348        2.93510528125926
H           -1.57141537345682        0.05948858862007        3.79849311414614
H           -2.60789264112994        2.15093124150763        2.47529733905014
H           -0.77568868453617        3.03852265694560        0.74542001522270
H            1.42386153884142        1.52525761544065        1.01683189097639
H           -0.74388867136850        1.00647901618549       -1.10235521204725
H           -1.85782942824458        0.35030763120011       -2.39779158333103
H           -1.85384710795462        2.09011355287844       -2.01306531606196
C           -3.52050289993666       -0.10001560997392        0.51819452959123
C           -3.48495921222197        0.96770371074289       -0.49380209912326
H           -3.54139413884531        1.98852670564229       -0.11535727771457
H           -4.10327595531002        0.82957288205918       -1.37757440939383
H           -3.95579098442485        0.24245512303138        1.46646727864740
H           -4.04828181888170       -0.98807057528704        0.15063235649469
