      -----------------------------------------------------------      
     |                   =====================                   |     
     |                           x T B                           |     
     |                   =====================                   |     
     |                         S. Grimme                         |     
     |          Mulliken Center for Theoretical Chemistry        |     
     |                    University of Bonn                     |     
      -----------------------------------------------------------      

   * xtb version 6.5.1 (b24c23e) compiled by 'conda@728c89f4b128' on 2022-07-12

   xtb is free software: you can redistribute it and/or modify it under
   the terms of the GNU Lesser General Public License as published by
   the Free Software Foundation, either version 3 of the License, or
   (at your option) any later version.
   
   xtb is distributed in the hope that it will be useful,
   but WITHOUT ANY WARRANTY; without even the implied warranty of
   MERCHANTABILITY or FITNESS FOR A PARTICULAR PURPOSE.  See the
   GNU Lesser General Public License for more details.
   
   Cite this work as:
   * C. Bannwarth, E. Caldeweyher, S. Ehlert, A. Hansen, P. Pracht,
     J. Seibert, S. Spicher, S. Grimme, WIREs Comput. Mol. Sci., 2020, 11,
     e01493. DOI: 10.1002/wcms.1493
   
   for GFN2-xTB:
   * C. Bannwarth, S. Ehlert and S. Grimme., J. Chem. Theory Comput., 2019,
     15, 1652-1671. DOI: 10.1021/acs.jctc.8b01176
   for GFN1-xTB:
   * S. Grimme, C. Bannwarth, P. Shushkov, J. Chem. Theory Comput., 2017,
     13, 1989-2009. DOI: 10.1021/acs.jctc.7b00118
   for GFN0-xTB:
   * P. Pracht, E. Caldeweyher, S. Ehlert, S. Grimme, ChemRxiv, 2019, preprint.
     DOI: 10.26434/chemrxiv.8326202.v1
   for GFN-FF:
   * S. Spicher and S. Grimme, Angew. Chem. Int. Ed., 2020, 59, 15665-15673.
     DOI: 10.1002/anie.202004239
   
   for ALPB and GBSA implicit solvation:
   * S. Ehlert, M. Stahn, S. Spicher, S. Grimme, J. Chem. Theory Comput.,
     2021, 17, 4250-4261. DOI: 10.1021/acs.jctc.1c00471
   
   for DFT-D4:
   * E. Caldeweyher, C. Bannwarth and S. Grimme, J. Chem. Phys., 2017,
     147, 034112. DOI: 10.1063/1.4993215
   * E. Caldeweyher, S. Ehlert, A. Hansen, H. Neugebauer, S. Spicher,
     C. Bannwarth and S. Grimme, J. Chem. Phys., 2019, 150, 154122.
     DOI: 10.1063/1.5090222
   * E. Caldeweyher, J.-M. Mewes, S. Ehlert and S. Grimme, Phys. Chem. Chem. Phys.
     2020, 22, 8499-8512. DOI: 10.1039/D0CP00502A
   
   for sTDA-xTB:
   * S. Grimme and C. Bannwarth, J. Chem. Phys., 2016, 145, 054103.
     DOI: 10.1063/1.4959605
   
   in the mass-spec context:
   * V. Asgeirsson, C. Bauer and S. Grimme, Chem. Sci., 2017, 8, 4879.
     DOI: 10.1039/c7sc00601b
   * J. Koopman and S. Grimme, ACS Omega 2019, 4, 12, 15120-15133.
     DOI: 10.1021/acsomega.9b02011
   
   for metadynamics refer to:
   * S. Grimme, J. Chem. Theory Comput., 2019, 155, 2847-2862
     DOI: 10.1021/acs.jctc.9b00143
   
   for SPH calculations refer to:
   * S. Spicher and S. Grimme, J. Chem. Theory Comput., 2021, 17, 1701-1714
     DOI: 10.1021/acs.jctc.0c01306
   
   with help from (in alphabetical order)
   P. Atkinson, C. Bannwarth, F. Bohle, G. Brandenburg, E. Caldeweyher
   M. Checinski, S. Dohm, S. Ehlert, S. Ehrlich, I. Gerasimov, C. Hölzer
   A. Katbashev, J. Koopman, C. Lavigne, S. Lehtola, F. März, M. Müller,
   F. Musil, H. Neugebauer, J. Pisarek, C. Plett, P. Pracht, F. Pultar,
   J. Seibert, P. Shushkov, S. Spicher, M. Stahn, M. Steiner, T. Strunk,
   J. Stückrath, T. Rose, and J. Unsleber
   
 * started run on 2026/08/03 at 11:33:55.743     

           -------------------------------------------------
          |                Calculation Setup                |
           -------------------------------------------------

          program call               : /h/332/chchoi/miniconda3/envs/el-agente/bin/xtb reactant.xyz --opt --gfn 2 -P 4 --chrg 1 --input detailed_input.inp
          coordinate file            : reactant.xyz
          omp threads                :                     4

   ID    Z sym.   atoms
    1   40 Zr     1
    2    6 C      2-7, 13-17, 26, 27
    3    1 H      8-12, 18-25, 28-31
constraining bond 2 27 to    2.1000000 Å, actual value:    3.9015773 Å
constraining bond 1 2 to    2.6000000 Å, actual value:    2.4750002 Å

molecular fragmentation (1/2 indicates fragments):
1111111111111111111111111222222
# atoms in fragment 1/2:    25     6
 fragment masses (1/2) :      236.44       28.05
CMA distance (Bohr)    :   5.713
constraining FC (au)   :  0.8000

           -------------------------------------------------
          |                 G F N 2 - x T B                 |
           -------------------------------------------------

        Reference                      10.1021/acs.jctc.8b01176
      * Hamiltonian:
        H0-scaling (s, p, d)           1.850000    2.230000    2.230000
        zeta-weighting                 0.500000
      * Dispersion:
        s8                             2.700000
        a1                             0.520000
        a2                             5.000000
        s9                             5.000000
      * Repulsion:
        kExp                           1.500000    1.000000
        rExp                           1.000000
      * Coulomb:
        alpha                          2.000000
        third order                    shell-resolved
        anisotropic                    true
        a3                             3.000000
        a5                             4.000000
        cn-shift                       1.200000
        cn-exp                         4.000000
        max-rad                        5.000000


          ...................................................
          :                      SETUP                      :
          :.................................................:
          :  # basis functions                  79          :
          :  # atomic orbitals                  78          :
          :  # shells                           46          :
          :  # electrons                        72          :
          :  max. iterations                   250          :
          :  Hamiltonian                  GFN2-xTB          :
          :  restarted?                      false          :
          :  GBSA solvation                  false          :
          :  PC potential                    false          :
          :  electronic temp.          300.0000000     K    :
          :  accuracy                    1.0000000          :
          :  -> integral cutoff          0.2500000E+02      :
          :  -> integral neglect         0.1000000E-07      :
          :  -> SCF convergence          0.1000000E-05 Eh   :
          :  -> wf. convergence          0.1000000E-03 e    :
          :  Broyden damping             0.4000000          :
          ...................................................

 iter      E             dE          RMSdq      gap      omega  full diag
   1    -37.9358315 -0.379358E+02  0.428E+00    0.51       0.0  T
   2    -38.0423316 -0.106500E+00  0.369E+00    1.54       1.0  T
   3    -38.0982795 -0.559479E-01  0.295E+00    0.88       1.0  T
   4    -38.0959865  0.229300E-02  0.138E+00    0.94       1.0  T
   5    -38.0918736  0.411285E-02  0.808E-01    0.68       1.0  T
   6    -38.0992658 -0.739216E-02  0.397E-01    0.91       1.0  T
   7    -38.1004409 -0.117516E-02  0.248E-01    0.84       1.0  T
   8    -38.1004833 -0.423793E-04  0.144E-01    0.83       1.0  T
   9    -38.1004655  0.178148E-04  0.680E-02    0.87       1.0  T
  10    -38.1005093 -0.437925E-04  0.358E-02    0.86       1.0  T
  11    -38.1005263 -0.169736E-04  0.151E-02    0.85       1.2  T
  12    -38.1005272 -0.933394E-06  0.398E-03    0.85       4.5  T
  13    -38.1005273 -0.681398E-07  0.181E-03    0.85       9.9  T
  14    -38.1005273 -0.262446E-07  0.122E-03    0.85      14.8  T
  15    -38.1005273 -0.145466E-07  0.493E-04    0.85      36.4  T
  16    -38.1005273 -0.624922E-10  0.227E-04    0.85      79.0  T

   *** convergence criteria satisfied after 16 iterations ***

         #    Occupation            Energy/Eh            Energy/eV
      -------------------------------------------------------------
         1        2.0000           -0.8628382             -23.4790
       ...           ...                  ...                  ...
        30        2.0000           -0.5740484             -15.6207
        31        2.0000           -0.5511875             -14.9986
        32        2.0000           -0.5101738             -13.8825
        33        2.0000           -0.5045726             -13.7301
        34        2.0000           -0.4941790             -13.4473
        35        2.0000           -0.4918471             -13.3838
        36        2.0000           -0.4836941             -13.1620 (HOMO)
        37        0.0000           -0.4525088             -12.3134 (LUMO)
        38                         -0.4374614             -11.9039
        39                         -0.4348634             -11.8332
        40                         -0.4310524             -11.7295
        41                         -0.4230109             -11.5107
       ...                                ...                  ...
        78                          1.3654739              37.1564
      -------------------------------------------------------------
                  HL-Gap            0.0311853 Eh            0.8486 eV
             Fermi-level           -0.4681013 Eh          -12.7377 eV

 SCC (total)                   0 d,  0 h,  0 min,  0.721 sec
 SCC setup                      ...        0 min,  0.000 sec (  0.028%)
 Dispersion                     ...        0 min,  0.000 sec (  0.043%)
 classical contributions        ...        0 min,  0.001 sec (  0.111%)
 integral evaluation            ...        0 min,  0.002 sec (  0.244%)
 iterations                     ...        0 min,  0.635 sec ( 88.056%)
 molecular gradient             ...        0 min,  0.082 sec ( 11.433%)
 printout                       ...        0 min,  0.001 sec (  0.081%)

         :::::::::::::::::::::::::::::::::::::::::::::::::::::
         ::                     SUMMARY                     ::
         :::::::::::::::::::::::::::::::::::::::::::::::::::::
         :: total energy             -28.221289539991 Eh    ::
         :: gradient norm              7.545111852576 Eh/a0 ::
         :: HOMO-LUMO gap              0.848595247981 eV    ::
         ::.................................................::
         :: SCC energy               -38.100527322913 Eh    ::
         :: -> isotropic ES            0.097833142149 Eh    ::
         :: -> anisotropic ES         -0.000863661912 Eh    ::
         :: -> anisotropic XC          0.021668513651 Eh    ::
         :: -> dispersion             -0.027679947800 Eh    ::
         :: repulsion energy           0.561366578861 Eh    ::
         :: add. restraining           9.317065474515 Eh    ::
         :: total charge               1.000000000030 e     ::
         :::::::::::::::::::::::::::::::::::::::::::::::::::::

      ----------------------------------------------------------- 
     |                   =====================                   |
     |                        A N C O P T                        |
     |                   =====================                   |
     |               Approximate Normal Coordinate               |
     |                Rational Function Optimizer                |
      ----------------------------------------------------------- 

          ...................................................
          :                      SETUP                      :
          :.................................................:
          :   optimization level            normal          :
          :   max. optcycles                   200          :
          :   ANC micro-cycles                  20          :
          :   degrees of freedom                87          :
          :.................................................:
          :   RF solver                   davidson          :
          :   write xtbopt.log                true          :
          :   linear?                        false          :
          :   energy convergence         0.5000000E-05 Eh   :
          :   grad. convergence          0.1000000E-02 Eh/α :
          :   maximium RF displ.         1.0000000          :
          :   Hlow (freq-cutoff)         0.1000000E-01      :
          :   Hmax (freq-cutoff)         5.0000000          :
          :   S6 in model hess.         20.0000000          :
          ...................................................

generating ANC from model Hessian ...
Using Lindh-Hessian (1995)
 Shifting diagonal of input Hessian by   0.10411829138829279     
 Lowest  eigenvalues of input Hessian
    0.010000    0.040175    0.104025    0.000000    0.000000    0.000000
    0.000000    0.000000    0.000000    0.104410    0.104525    0.104709
    0.104792    0.104876    0.105236    0.105267    0.105399    0.105953
 Highest eigenvalues
    1.586154    1.586338    2.170547    2.592498    2.835566    4.949365


........................................................................
.............................. CYCLE    1 ..............................
........................................................................
   1    -38.1005273 -0.381005E+02  0.131E-04    0.85       0.0  T
   2    -38.1005273  0.684963E-11  0.133E-04    0.85     134.9  T
   3    -38.1005273 -0.170381E-09  0.612E-05    0.85     293.7  T
     SCC iter.                  ...        0 min,  0.112 sec
     gradient                   ...        0 min,  0.044 sec
 * total energy  :   -28.2212895 Eh     change       -0.3488339E-09 Eh
   gradient norm :     7.5451119 Eh/α   predicted     0.0000000E+00 (-100.00%)
   displ. norm   :     0.7863574 α      lambda       -0.5870664E+01
   maximum displ.:     0.5484865 α      in ANC's #87, #86, #85, ...

........................................................................
.............................. CYCLE    2 ..............................
........................................................................
   1    -38.0220171 -0.380220E+02  0.160E+00    0.29       0.0  T
   2    -38.0163659  0.565126E-02  0.142E+00    1.35       1.0  T
   3    -38.0512770 -0.349112E-01  0.532E-01    0.62       1.0  T
   4    -38.0476148  0.366220E-02  0.626E-01    0.36       1.0  T
   5    -38.0524388 -0.482394E-02  0.197E-01    0.50       1.0  T
   6    -38.0529309 -0.492162E-03  0.104E-01    0.51       1.0  T
   7    -38.0529535 -0.225763E-04  0.598E-02    0.50       1.0  T
   8    -38.0530194 -0.658711E-04  0.241E-02    0.49       1.0  T
   9    -38.0530220 -0.264422E-05  0.157E-02    0.48       1.1  T
  10    -38.0530197  0.233556E-05  0.109E-02    0.48       1.6  T
  11    -38.0530231 -0.340023E-05  0.299E-03    0.49       6.0  T
  12    -38.0530231 -0.247918E-08  0.206E-03    0.49       8.7  T
  13    -38.0530231 -0.246215E-07  0.118E-03    0.49      15.2  T
  14    -38.0530231  0.156785E-07  0.110E-03    0.49      16.3  T
  15    -38.0530231 -0.191442E-07  0.643E-04    0.49      28.0  T
  16    -38.0530231 -0.846175E-08  0.288E-04    0.49      62.3  T
     SCC iter.                  ...        0 min,  0.648 sec
     gradient                   ...        0 min,  0.091 sec
 * total energy  :   -33.0551394 Eh     change       -0.4833850E+01 Eh
   gradient norm :     4.8393252 Eh/α   predicted    -0.4750416E+01 (  -1.73%)
   displ. norm   :     0.7397615 α      lambda       -0.3513879E+01
   maximum displ.:     0.4243085 α      in ANC's #87, #86, #85, ...

........................................................................
.............................. CYCLE    3 ..............................
........................................................................
   1    -37.5872635 -0.375873E+02  0.348E+00    0.20       0.0  T
   2    -37.4982845  0.889789E-01  0.531E+00    1.36       1.0  T
   3    -37.7945253 -0.296241E+00  0.270E+00    1.57       1.0  T
   4    -37.9155450 -0.121020E+00  0.953E-01    0.71       1.0  T
   5    -37.9368726 -0.213276E-01  0.540E-01    0.47       1.0  T
   6    -37.9414492 -0.457659E-02  0.443E-01    0.32       1.0  T
   7    -37.9397212  0.172803E-02  0.379E-01    0.35       1.0  T
   8    -37.9419956 -0.227444E-02  0.174E-01    0.30       1.0  T
   9    -37.9422134 -0.217719E-03  0.608E-02    0.27       1.0  T
  10    -37.9422093  0.410359E-05  0.551E-02    0.27       1.0  T
  11    -37.9422636 -0.543465E-04  0.236E-02    0.28       1.0  T
  12    -37.9422635  0.909756E-07  0.179E-02    0.28       1.0  T
  13    -37.9422710 -0.748354E-05  0.108E-02    0.28       1.7  T
  14    -37.9422725 -0.146025E-05  0.450E-03    0.28       4.0  T
  15    -37.9422716  0.869924E-06  0.647E-03    0.28       2.8  T
  16    -37.9422727 -0.111837E-05  0.105E-03    0.28      17.2  T
  17    -37.9422727  0.106466E-08  0.838E-04    0.28      21.4  T
  18    -37.9422727 -0.202520E-07  0.147E-04    0.28     121.8  T
     SCC iter.                  ...        0 min,  0.816 sec
     gradient                   ...        0 min,  0.112 sec
 * total energy  :   -35.7961497 Eh     change       -0.2741010E+01 Eh
   gradient norm :     2.6765113 Eh/α   predicted    -0.2718421E+01 (  -0.82%)
   displ. norm   :     0.6529160 α      lambda       -0.1675999E+01
   maximum displ.:     0.3348409 α      in ANC's #86, #85, #87, ...

........................................................................
.............................. CYCLE    4 ..............................
........................................................................
   1    -37.7309835 -0.377310E+02  0.200E+00    0.33       0.0  T
   2    -37.4381061  0.292877E+00  0.370E+00    1.11       1.0  T
   3    -37.8005169 -0.362411E+00  0.142E+00    0.44       1.0  T
   4    -37.8339065 -0.333896E-01  0.502E-01    0.28       1.0  T
   5    -37.8329363  0.970204E-03  0.523E-01    0.31       1.0  T
   6    -37.8394390 -0.650269E-02  0.178E-01    0.29       1.0  T
   7    -37.8398999 -0.460953E-03  0.118E-01    0.34       1.0  T
   8    -37.8402704 -0.370480E-03  0.469E-02    0.30       1.0  T
   9    -37.8402595  0.109261E-04  0.389E-02    0.31       1.0  T
  10    -37.8402595 -0.877925E-07  0.304E-02    0.30       1.0  T
  11    -37.8402822 -0.226675E-04  0.121E-02    0.30       1.5  T
  12    -37.8402842 -0.196072E-05  0.673E-03    0.30       2.7  T
  13    -37.8402849 -0.688746E-06  0.322E-03    0.30       5.6  T
  14    -37.8402850 -0.140261E-06  0.114E-03    0.30      15.8  T
  15    -37.8402850 -0.479970E-08  0.990E-04    0.30      18.1  T
  16    -37.8402850 -0.132891E-07  0.660E-04    0.30      27.2  T
     SCC iter.                  ...        0 min,  0.738 sec
     gradient                   ...        0 min,  0.053 sec
 * total energy  :   -36.9882111 Eh     change       -0.1192061E+01 Eh
   gradient norm :     1.0909365 Eh/α   predicted    -0.1195252E+01 (   0.27%)
   displ. norm   :     0.5705152 α      lambda       -0.4929917E+00
   maximum displ.:     0.3698514 α      in ANC's #2, #86, #85, ...

........................................................................
.............................. CYCLE    5 ..............................
........................................................................
   1    -37.7788518 -0.377789E+02  0.144E+00    0.97       0.0  T
   2    -37.5025550  0.276297E+00  0.299E+00    1.44       1.0  T
   3    -37.8291061 -0.326551E+00  0.598E-01    1.02       1.0  T
   4    -37.8282071  0.898990E-03  0.380E-01    0.99       1.0  T
   5    -37.8307070 -0.249991E-02  0.208E-01    1.01       1.0  T
   6    -37.8310508 -0.343705E-03  0.732E-02    1.01       1.0  T
   7    -37.8310460  0.472628E-05  0.554E-02    1.01       1.0  T
   8    -37.8310694 -0.233382E-04  0.292E-02    1.01       1.0  T
   9    -37.8310720 -0.263367E-05  0.145E-02    1.00       1.2  T
  10    -37.8310753 -0.326436E-05  0.521E-03    1.00       3.4  T
  11    -37.8310755 -0.274018E-06  0.246E-03    1.00       7.3  T
  12    -37.8310755  0.119113E-08  0.179E-03    1.00      10.0  T
  13    -37.8310756 -0.334120E-07  0.753E-04    1.00      23.8  T
  14    -37.8310756 -0.471837E-08  0.421E-04    1.00      42.6  T
     SCC iter.                  ...        0 min,  0.582 sec
     gradient                   ...        0 min,  0.061 sec
 * total energy  :   -37.2818609 Eh     change       -0.2936498E+00 Eh
   gradient norm :     0.2911971 Eh/α   predicted    -0.3267274E+00 (  11.26%)
   displ. norm   :     0.5860969 α      lambda       -0.1049457E+00
   maximum displ.:     0.2532397 α      in ANC's #36, #26, #24, ...

........................................................................
.............................. CYCLE    6 ..............................
........................................................................
   1    -37.8883177 -0.378883E+02  0.802E-01    0.94       0.0  T
   2    -37.8115697  0.767480E-01  0.153E+00    1.05       1.0  T
   3    -37.8942286 -0.826589E-01  0.494E-01    0.93       1.0  T
   4    -37.8986600 -0.443138E-02  0.217E-01    0.91       1.0  T
   5    -37.8990151 -0.355056E-03  0.811E-02    0.93       1.0  T
   6    -37.8990650 -0.499212E-04  0.658E-02    0.92       1.0  T
   7    -37.8990900 -0.250478E-04  0.236E-02    0.93       1.0  T
   8    -37.8990914 -0.133261E-05  0.149E-02    0.93       1.2  T
   9    -37.8990948 -0.347678E-05  0.708E-03    0.93       2.5  T
  10    -37.8990951 -0.230791E-06  0.517E-03    0.93       3.5  T
  11    -37.8990952 -0.117314E-06  0.247E-03    0.93       7.3  T
  12    -37.8990953 -0.785468E-07  0.821E-04    0.93      21.9  T
  13    -37.8990953 -0.382896E-08  0.413E-04    0.93      43.5  T
     SCC iter.                  ...        0 min,  0.568 sec
     gradient                   ...        0 min,  0.065 sec
 * total energy  :   -37.3408005 Eh     change       -0.5893961E-01 Eh
   gradient norm :     0.3189866 Eh/α   predicted    -0.7049799E-01 (  19.61%)
   displ. norm   :     0.8123229 α      lambda       -0.1227289E+00
   maximum displ.:     0.4813755 α      in ANC's #2, #26, #22, ...

........................................................................
.............................. CYCLE    7 ..............................
........................................................................
   1    -38.0226966 -0.380227E+02  0.979E-01    1.27       0.0  T
   2    -38.0204279  0.226863E-02  0.708E-01    1.16       1.0  T
   3    -38.0132552  0.717269E-02  0.708E-01    1.29       1.0  T
   4    -38.0230712 -0.981597E-02  0.313E-01    1.22       1.0  T
   5    -38.0250225 -0.195132E-02  0.105E-01    1.20       1.0  T
   6    -38.0250167  0.578201E-05  0.543E-02    1.22       1.0  T
   7    -38.0250533 -0.365181E-04  0.250E-02    1.21       1.0  T
   8    -38.0250575 -0.421989E-05  0.123E-02    1.21       1.5  T
   9    -38.0250577 -0.182043E-06  0.795E-03    1.21       2.3  T
  10    -38.0250581 -0.474828E-06  0.326E-03    1.21       5.5  T
  11    -38.0250582 -0.397576E-07  0.102E-03    1.21      17.6  T
  12    -38.0250582 -0.134062E-07  0.440E-04    1.21      40.8  T
  13    -38.0250582 -0.362093E-09  0.266E-04    1.21      67.5  T
     SCC iter.                  ...        0 min,  0.557 sec
     gradient                   ...        0 min,  0.007 sec
 * total energy  :   -37.4295143 Eh     change       -0.8871375E-01 Eh
   gradient norm :     0.2608837 Eh/α   predicted    -0.1018579E+00 (  14.82%)
   displ. norm   :     0.7142728 α      lambda       -0.9208120E-01
   maximum displ.:     0.3413514 α      in ANC's #22, #26, #36, ...

........................................................................
.............................. CYCLE    8 ..............................
........................................................................
   1    -38.1302081 -0.381302E+02  0.778E-01    1.33       0.0  T
   2    -38.1304913 -0.283241E-03  0.510E-01    1.29       1.0  T
   3    -38.1300412  0.450178E-03  0.237E-01    1.39       1.0  T
   4    -38.1305337 -0.492492E-03  0.906E-02    1.31       1.0  T
   5    -38.1305072  0.264952E-04  0.695E-02    1.33       1.0  T
   6    -38.1306035 -0.963547E-04  0.363E-02    1.33       1.0  T
   7    -38.1306178 -0.142624E-04  0.156E-02    1.32       1.2  T
   8    -38.1306186 -0.841313E-06  0.536E-03    1.32       3.3  T
   9    -38.1306187 -0.768567E-07  0.306E-03    1.32       5.9  T
  10    -38.1306187 -0.427723E-07  0.179E-03    1.32      10.1  T
  11    -38.1306187 -0.607033E-08  0.786E-04    1.32      22.8  T
  12    -38.1306188 -0.400441E-08  0.255E-04    1.32      70.5  T
     SCC iter.                  ...        0 min,  0.498 sec
     gradient                   ...        0 min,  0.107 sec
 * total energy  :   -37.5064255 Eh     change       -0.7691128E-01 Eh
   gradient norm :     0.1685692 Eh/α   predicted    -0.6952989E-01 (  -9.60%)
   displ. norm   :     0.8458354 α      lambda       -0.9166576E-01
   maximum displ.:     0.4164063 α      in ANC's #22, #26, #1, ...

........................................................................
.............................. CYCLE    9 ..............................
........................................................................
   1    -38.2100902 -0.382101E+02  0.116E+00    1.22       0.0  T
   2    -38.2098513  0.238922E-03  0.783E-01    1.09       1.0  T
   3    -38.2061549  0.369642E-02  0.688E-01    1.20       1.0  T
   4    -38.2128140 -0.665920E-02  0.225E-01    1.17       1.0  T
   5    -38.2131432 -0.329146E-03  0.110E-01    1.12       1.0  T
   6    -38.2131736 -0.303776E-04  0.713E-02    1.16       1.0  T
   7    -38.2132188 -0.452167E-04  0.307E-02    1.15       1.0  T
   8    -38.2132221 -0.329371E-05  0.152E-02    1.15       1.2  T
   9    -38.2132230 -0.922759E-06  0.879E-03    1.15       2.0  T
  10    -38.2132234 -0.357709E-06  0.454E-03    1.15       4.0  T
  11    -38.2132234 -0.729993E-07  0.181E-03    1.15       9.9  T
  12    -38.2132234 -0.743863E-08  0.533E-04    1.15      33.7  T
  13    -38.2132234 -0.215967E-08  0.315E-04    1.15      56.9  T
     SCC iter.                  ...        0 min,  0.527 sec
     gradient                   ...        0 min,  0.023 sec
 * total energy  :   -37.5560556 Eh     change       -0.4963002E-01 Eh
   gradient norm :     0.2311938 Eh/α   predicted    -0.7862348E-01 (  58.42%)
   displ. norm   :     0.7460760 α      lambda       -0.6534712E-01
   maximum displ.:     0.4480460 α      in ANC's #1, #22, #26, ...

........................................................................
.............................. CYCLE   10 ..............................
........................................................................
   1    -38.2374925 -0.382375E+02  0.110E+00    1.31       0.0  T
   2    -38.2377175 -0.224929E-03  0.108E+00    1.30       1.0  T
   3    -38.2428949 -0.517744E-02  0.705E-01    1.32       1.0  T
   4    -38.2428905  0.440306E-05  0.198E-01    1.33       1.0  T
   5    -38.2430105 -0.119939E-03  0.137E-01    1.32       1.0  T
   6    -38.2432040 -0.193554E-03  0.651E-02    1.32       1.0  T
   7    -38.2432122 -0.818514E-05  0.226E-02    1.32       1.0  T
   8    -38.2432126 -0.421488E-06  0.130E-02    1.32       1.4  T
   9    -38.2432138 -0.117781E-05  0.636E-03    1.32       2.8  T
  10    -38.2432139 -0.112705E-06  0.424E-03    1.32       4.2  T
  11    -38.2432140 -0.635073E-07  0.163E-03    1.32      11.0  T
  12    -38.2432140 -0.767835E-08  0.490E-04    1.32      36.6  T
  13    -38.2432140 -0.208353E-08  0.199E-04    1.32      90.3  T
     SCC iter.                  ...        0 min,  0.474 sec
     gradient                   ...        0 min,  0.020 sec
 * total energy  :   -37.5863318 Eh     change       -0.3027624E-01 Eh
   gradient norm :     0.1531268 Eh/α   predicted    -0.5086061E-01 (  67.99%)
   displ. norm   :     0.3831371 α      lambda       -0.3064082E-01
   maximum displ.:     0.1544105 α      in ANC's #26, #1, #36, ...

........................................................................
.............................. CYCLE   11 ..............................
........................................................................
   1    -38.2381329 -0.382381E+02  0.472E-01    1.26       0.0  T
   2    -38.2383990 -0.266168E-03  0.410E-01    1.26       1.0  T
   3    -38.2386546 -0.255609E-03  0.228E-01    1.26       1.0  T
   4    -38.2387337 -0.790534E-04  0.905E-02    1.26       1.0  T
   5    -38.2388262 -0.925294E-04  0.443E-02    1.26       1.0  T
   6    -38.2388322 -0.600236E-05  0.234E-02    1.26       1.0  T
   7    -38.2388359 -0.369005E-05  0.939E-03    1.27       1.9  T
   8    -38.2388361 -0.214810E-06  0.498E-03    1.26       3.6  T
   9    -38.2388363 -0.159648E-06  0.316E-03    1.27       5.7  T
  10    -38.2388363 -0.464665E-07  0.161E-03    1.26      11.1  T
  11    -38.2388363 -0.140900E-08  0.624E-04    1.26      28.8  T
  12    -38.2388363 -0.144752E-08  0.204E-04    1.26      88.1  T
     SCC iter.                  ...        0 min,  0.483 sec
     gradient                   ...        0 min,  0.120 sec
 * total energy  :   -37.6017055 Eh     change       -0.1537365E-01 Eh
   gradient norm :     0.1437670 Eh/α   predicted    -0.1756938E-01 (  14.28%)
   displ. norm   :     0.3428369 α      lambda       -0.1640817E-01
   maximum displ.:     0.1142899 α      in ANC's #22, #26, #5, ...

........................................................................
.............................. CYCLE   12 ..............................
........................................................................
   1    -38.2379365 -0.382379E+02  0.482E-01    1.27       0.0  T
   2    -38.2379850 -0.484932E-04  0.294E-01    1.24       1.0  T
   3    -38.2373457  0.639247E-03  0.222E-01    1.28       1.0  T
   4    -38.2381061 -0.760379E-03  0.322E-02    1.25       1.0  T
   5    -38.2381174 -0.113378E-04  0.285E-02    1.25       1.0  T
   6    -38.2381197 -0.223925E-05  0.125E-02    1.25       1.4  T
   7    -38.2381202 -0.542173E-06  0.603E-03    1.25       3.0  T
   8    -38.2381204 -0.172561E-06  0.228E-03    1.25       7.9  T
   9    -38.2381204 -0.261208E-07  0.105E-03    1.25      17.1  T
  10    -38.2381204 -0.362675E-08  0.703E-04    1.25      25.6  T
  11    -38.2381204 -0.746105E-09  0.242E-04    1.25      74.2  T
     SCC iter.                  ...        0 min,  0.448 sec
     gradient                   ...        0 min,  0.014 sec
 * total energy  :   -37.6116109 Eh     change       -0.9905392E-02 Eh
   gradient norm :     0.0365692 Eh/α   predicted    -0.9168370E-02 (  -7.44%)
   displ. norm   :     0.2227460 α      lambda       -0.4030718E-02
   maximum displ.:     0.0887858 α      in ANC's #5, #8, #3, ...

........................................................................
.............................. CYCLE   13 ..............................
........................................................................
   1    -38.2382890 -0.382383E+02  0.226E-01    1.35       0.0  T
   2    -38.2383227 -0.337254E-04  0.199E-01    1.34       1.0  T
   3    -38.2384474 -0.124651E-03  0.107E-01    1.35       1.0  T
   4    -38.2384641 -0.167298E-04  0.314E-02    1.35       1.0  T
   5    -38.2384769 -0.128138E-04  0.140E-02    1.35       1.3  T
   6    -38.2384778 -0.863093E-06  0.782E-03    1.35       2.3  T
   7    -38.2384780 -0.246445E-06  0.311E-03    1.35       5.8  T
   8    -38.2384781 -0.498535E-07  0.167E-03    1.35      10.7  T
   9    -38.2384781 -0.338083E-08  0.980E-04    1.35      18.3  T
  10    -38.2384781 -0.754279E-08  0.642E-04    1.35      28.0  T
     SCC iter.                  ...        0 min,  0.430 sec
     gradient                   ...        0 min,  0.022 sec
 * total energy  :   -37.6147624 Eh     change       -0.3151530E-02 Eh
   gradient norm :     0.0318337 Eh/α   predicted    -0.2115360E-02 ( -32.88%)
   displ. norm   :     0.4506482 α      lambda       -0.6250814E-02
   maximum displ.:     0.1727500 α      in ANC's #8, #5, #3, ...

........................................................................
.............................. CYCLE   14 ..............................
........................................................................
   1    -38.2388288 -0.382388E+02  0.417E-01    1.52       0.0  T
   2    -38.2390097 -0.180909E-03  0.419E-01    1.49       1.0  T
   3    -38.2397514 -0.741673E-03  0.250E-01    1.50       1.0  T
   4    -38.2396696  0.817619E-04  0.667E-02    1.51       1.0  T
   5    -38.2397584 -0.888264E-04  0.227E-02    1.50       1.0  T
   6    -38.2397595 -0.105493E-05  0.110E-02    1.51       1.6  T
   7    -38.2397597 -0.244093E-06  0.437E-03    1.51       4.1  T
   8    -38.2397599 -0.136377E-06  0.265E-03    1.51       6.8  T
   9    -38.2397599 -0.596209E-09  0.138E-03    1.51      13.0  T
  10    -38.2397599 -0.155385E-07  0.658E-04    1.51      27.3  T
  11    -38.2397599 -0.159071E-08  0.277E-04    1.51      64.7  T
     SCC iter.                  ...        0 min,  0.442 sec
     gradient                   ...        0 min,  0.019 sec
 * total energy  :   -37.6194147 Eh     change       -0.4652295E-02 Eh
   gradient norm :     0.0497094 Eh/α   predicted    -0.3760144E-02 ( -19.18%)
   displ. norm   :     0.4508786 α      lambda       -0.5047273E-02
   maximum displ.:     0.1888794 α      in ANC's #8, #3, #5, ...

........................................................................
.............................. CYCLE   15 ..............................
........................................................................
   1    -38.2432800 -0.382433E+02  0.396E-01    1.64       0.0  T
   2    -38.2434259 -0.145871E-03  0.401E-01    1.61       1.0  T
   3    -38.2439349 -0.509049E-03  0.255E-01    1.62       1.0  T
   4    -38.2438589  0.760533E-04  0.573E-02    1.63       1.0  T
   5    -38.2439422 -0.833462E-04  0.168E-02    1.62       1.1  T
   6    -38.2439426 -0.415495E-06  0.789E-03    1.62       2.3  T
   7    -38.2439429 -0.236949E-06  0.412E-03    1.62       4.4  T
   8    -38.2439430 -0.990427E-07  0.252E-03    1.62       7.1  T
   9    -38.2439430 -0.101197E-07  0.100E-03    1.62      17.9  T
  10    -38.2439430 -0.543265E-08  0.437E-04    1.62      41.1  T
  11    -38.2439430 -0.989665E-09  0.168E-04    1.62     107.0  T
     SCC iter.                  ...        0 min,  0.495 sec
     gradient                   ...        0 min,  0.004 sec
 * total energy  :   -37.6233086 Eh     change       -0.3893945E-02 Eh
   gradient norm :     0.0447675 Eh/α   predicted    -0.3036681E-02 ( -22.02%)
   displ. norm   :     0.4565923 α      lambda       -0.5342823E-02
   maximum displ.:     0.2056905 α      in ANC's #8, #3, #5, ...

........................................................................
.............................. CYCLE   16 ..............................
........................................................................
   1    -38.2501114 -0.382501E+02  0.440E-01    1.71       0.0  T
   2    -38.2502339 -0.122450E-03  0.407E-01    1.67       1.0  T
   3    -38.2503452 -0.111295E-03  0.225E-01    1.69       1.0  T
   4    -38.2503264  0.187978E-04  0.556E-02    1.69       1.0  T
   5    -38.2504039 -0.774974E-04  0.185E-02    1.69       1.0  T
   6    -38.2504045 -0.607928E-06  0.906E-03    1.69       2.0  T
   7    -38.2504049 -0.453152E-06  0.425E-03    1.69       4.2  T
   8    -38.2504050 -0.845189E-07  0.216E-03    1.69       8.3  T
   9    -38.2504050 -0.179933E-07  0.103E-03    1.69      17.4  T
  10    -38.2504050 -0.338161E-09  0.601E-04    1.69      29.9  T
  11    -38.2504050 -0.100973E-08  0.206E-04    1.69      87.1  T
     SCC iter.                  ...        0 min,  0.444 sec
     gradient                   ...        0 min,  0.113 sec
 * total energy  :   -37.6274791 Eh     change       -0.4170523E-02 Eh
   gradient norm :     0.0339850 Eh/α   predicted    -0.3228352E-02 ( -22.59%)
   displ. norm   :     0.4419543 α      lambda       -0.4781842E-02
   maximum displ.:     0.2048796 α      in ANC's #8, #3, #4, ...

........................................................................
.............................. CYCLE   17 ..............................
........................................................................
   1    -38.2573527 -0.382574E+02  0.430E-01    1.77       0.0  T
   2    -38.2574293 -0.765636E-04  0.349E-01    1.74       1.0  T
   3    -38.2573030  0.126243E-03  0.106E-01    1.77       1.0  T
   4    -38.2574569 -0.153905E-03  0.288E-02    1.75       1.0  T
   5    -38.2574649 -0.802038E-05  0.153E-02    1.75       1.2  T
   6    -38.2574656 -0.704793E-06  0.934E-03    1.75       1.9  T
   7    -38.2574663 -0.609522E-06  0.371E-03    1.75       4.8  T
   8    -38.2574664 -0.123231E-06  0.210E-03    1.75       8.6  T
   9    -38.2574664 -0.148542E-07  0.118E-03    1.75      15.2  T
  10    -38.2574664  0.256442E-09  0.717E-04    1.75      25.1  T
  11    -38.2574664 -0.127935E-08  0.208E-04    1.75      86.5  T
     SCC iter.                  ...        0 min,  0.515 sec
     gradient                   ...        0 min,  0.134 sec
 * total energy  :   -37.6309200 Eh     change       -0.3440845E-02 Eh
   gradient norm :     0.0213123 Eh/α   predicted    -0.2857945E-02 ( -16.94%)
   displ. norm   :     0.4118553 α      lambda       -0.2748172E-02
   maximum displ.:     0.1869495 α      in ANC's #8, #4, #3, ...

........................................................................
.............................. CYCLE   18 ..............................
........................................................................
   1    -38.2582409 -0.382582E+02  0.403E-01    1.79       0.0  T
   2    -38.2582890 -0.480828E-04  0.295E-01    1.78       1.0  T
   3    -38.2580858  0.203155E-03  0.100E-01    1.80       1.0  T
   4    -38.2583007 -0.214909E-03  0.306E-02    1.78       1.0  T
   5    -38.2583167 -0.159376E-04  0.206E-02    1.78       1.0  T
   6    -38.2583174 -0.723322E-06  0.704E-03    1.79       2.6  T
   7    -38.2583179 -0.493338E-06  0.353E-03    1.79       5.1  T
   8    -38.2583180 -0.724070E-07  0.224E-03    1.79       8.0  T
   9    -38.2583180 -0.234156E-07  0.141E-03    1.79      12.8  T
  10    -38.2583180  0.326096E-08  0.612E-04    1.79      29.4  T
  11    -38.2583180 -0.446764E-08  0.185E-04    1.79      97.1  T
     SCC iter.                  ...        0 min,  0.478 sec
     gradient                   ...        0 min,  0.125 sec
 * total energy  :   -37.6328817 Eh     change       -0.1961690E-02 Eh
   gradient norm :     0.0220787 Eh/α   predicted    -0.1607171E-02 ( -18.07%)
   displ. norm   :     0.3701259 α      lambda       -0.2155192E-02
   maximum displ.:     0.1570433 α      in ANC's #8, #4, #13, ...

........................................................................
.............................. CYCLE   19 ..............................
........................................................................
   1    -38.2602129 -0.382602E+02  0.309E-01    1.85       0.0  T
   2    -38.2602411 -0.281787E-04  0.200E-01    1.84       1.0  T
   3    -38.2600104  0.230725E-03  0.123E-01    1.85       1.0  T
   4    -38.2602714 -0.261032E-03  0.228E-02    1.84       1.0  T
   5    -38.2602769 -0.549299E-05  0.137E-02    1.84       1.3  T
   6    -38.2602773 -0.397505E-06  0.617E-03    1.84       2.9  T
   7    -38.2602775 -0.161486E-06  0.244E-03    1.84       7.4  T
   8    -38.2602775 -0.704664E-07  0.154E-03    1.84      11.7  T
   9    -38.2602775 -0.491085E-08  0.916E-04    1.84      19.6  T
  10    -38.2602776 -0.630230E-09  0.458E-04    1.84      39.2  T
     SCC iter.                  ...        0 min,  0.450 sec
     gradient                   ...        0 min,  0.133 sec
 * total energy  :   -37.6343636 Eh     change       -0.1481889E-02 Eh
   gradient norm :     0.0234583 Eh/α   predicted    -0.1225226E-02 ( -17.32%)
   displ. norm   :     0.3060799 α      lambda       -0.1706791E-02
   maximum displ.:     0.1370609 α      in ANC's #4, #8, #26, ...

........................................................................
.............................. CYCLE   20 ..............................
........................................................................
   1    -38.2619306 -0.382619E+02  0.243E-01    1.83       0.0  T
   2    -38.2619488 -0.181951E-04  0.144E-01    1.83       1.0  T
   3    -38.2617969  0.151935E-03  0.132E-01    1.83       1.0  T
   4    -38.2619935 -0.196640E-03  0.211E-02    1.83       1.0  T
   5    -38.2619965 -0.296778E-05  0.142E-02    1.83       1.3  T
   6    -38.2619973 -0.806275E-06  0.460E-03    1.83       3.9  T
   7    -38.2619976 -0.298390E-06  0.247E-03    1.83       7.3  T
   8    -38.2619976 -0.308730E-07  0.155E-03    1.83      11.6  T
   9    -38.2619976 -0.270450E-08  0.936E-04    1.83      19.2  T
  10    -38.2619976 -0.349623E-09  0.370E-04    1.83      48.6  T
     SCC iter.                  ...        0 min,  0.450 sec
     gradient                   ...        0 min,  0.090 sec
 * total energy  :   -37.6355832 Eh     change       -0.1219615E-02 Eh
   gradient norm :     0.0188081 Eh/α   predicted    -0.9333670E-03 ( -23.47%)
   displ. norm   :     0.3080828 α      lambda       -0.1639635E-02
   maximum displ.:     0.1510699 α      in ANC's #4, #10, #26, ...
 * RMSD in coord.:     1.1375105 α      energy gain  -0.9414294E+01 Eh

generating ANC from model Hessian ...
Using Lindh-Hessian (1995)
 Shifting diagonal of input Hessian by    1.3148099875255682E-002
 Lowest  eigenvalues of input Hessian
    0.010000    0.012232    0.000000    0.000000    0.000000    0.000000
    0.000000    0.000000    0.013509    0.013773    0.014264    0.014899
    0.015190    0.015771    0.016954    0.020357    0.020639    0.020657
 Highest eigenvalues
    1.736909    1.742575    1.743350    1.743677    3.140390    4.038684


........................................................................
.............................. CYCLE   21 ..............................
........................................................................
   1    -38.2599828 -0.382600E+02  0.216E-01    1.85       0.0  T
   2    -38.2600030 -0.201904E-04  0.125E-01    1.85       1.0  T
   3    -38.2599196  0.833734E-04  0.927E-02    1.85       1.0  T
   4    -38.2600238 -0.104231E-03  0.189E-02    1.85       1.0  T
   5    -38.2600257 -0.190467E-05  0.111E-02    1.85       1.6  T
   6    -38.2600254  0.272806E-06  0.632E-03    1.85       2.8  T
   7    -38.2600260 -0.516030E-06  0.169E-03    1.85      10.7  T
   8    -38.2600260 -0.149089E-07  0.113E-03    1.85      15.9  T
   9    -38.2600260 -0.303540E-08  0.702E-04    1.85      25.6  T
  10    -38.2600260  0.240760E-09  0.330E-04    1.85      54.4  T
     SCC iter.                  ...        0 min,  0.373 sec
     gradient                   ...        0 min,  0.109 sec
 * total energy  :   -37.6367320 Eh     change       -0.1148800E-02 Eh
   gradient norm :     0.0183989 Eh/α   predicted     0.0000000E+00 (-100.00%)
   displ. norm   :     0.3198965 α      lambda       -0.2713413E-02
   maximum displ.:     0.1932529 α      in ANC's #5, #8, #16, ...

........................................................................
.............................. CYCLE   22 ..............................
........................................................................
   1    -38.2627878 -0.382628E+02  0.234E-01    1.88       0.0  T
   2    -38.2628009 -0.131147E-04  0.131E-01    1.86       1.0  T
   3    -38.2626980  0.102828E-03  0.141E-01    1.87       1.0  T
   4    -38.2629104 -0.212351E-03  0.246E-02    1.86       1.0  T
   5    -38.2629118 -0.141025E-05  0.175E-02    1.86       1.0  T
   6    -38.2629126 -0.768585E-06  0.534E-03    1.86       3.4  T
   7    -38.2629129 -0.364480E-06  0.225E-03    1.86       8.0  T
   8    -38.2629130 -0.404425E-07  0.145E-03    1.86      12.4  T
   9    -38.2629130 -0.355108E-08  0.736E-04    1.86      24.4  T
  10    -38.2629130 -0.309726E-10  0.360E-04    1.86      49.9  T
     SCC iter.                  ...        0 min,  0.485 sec
     gradient                   ...        0 min,  0.140 sec
 * total energy  :   -37.6385740 Eh     change       -0.1842039E-02 Eh
   gradient norm :     0.0096065 Eh/α   predicted    -0.1495614E-02 ( -18.81%)
   displ. norm   :     0.4581682 α      lambda       -0.2195589E-02
   maximum displ.:     0.2983460 α      in ANC's #5, #7, #8, ...

........................................................................
.............................. CYCLE   23 ..............................
........................................................................
   1    -38.2635738 -0.382636E+02  0.271E-01    1.87       0.0  T
   2    -38.2635915 -0.176964E-04  0.176E-01    1.85       1.0  T
   3    -38.2633536  0.237922E-03  0.127E-01    1.87       1.0  T
   4    -38.2636297 -0.276075E-03  0.209E-02    1.86       1.0  T
   5    -38.2636317 -0.200081E-05  0.180E-02    1.85       1.0  T
   6    -38.2636333 -0.163224E-05  0.656E-03    1.86       2.7  T
   7    -38.2636338 -0.479236E-06  0.255E-03    1.86       7.0  T
   8    -38.2636338 -0.188121E-07  0.141E-03    1.85      12.7  T
   9    -38.2636338 -0.800808E-08  0.647E-04    1.85      27.7  T
  10    -38.2636338 -0.595811E-09  0.271E-04    1.85      66.2  T
     SCC iter.                  ...        0 min,  0.547 sec
     gradient                   ...        0 min,  0.127 sec
 * total energy  :   -37.6398821 Eh     change       -0.1308063E-02 Eh
   gradient norm :     0.0200903 Eh/α   predicted    -0.1328280E-02 (   1.55%)
   displ. norm   :     0.4018795 α      lambda       -0.1364260E-02
   maximum displ.:     0.2997330 α      in ANC's #5, #9, #7, ...

........................................................................
.............................. CYCLE   24 ..............................
........................................................................
   1    -38.2621196 -0.382621E+02  0.183E-01    1.87       0.0  T
   2    -38.2621324 -0.128047E-04  0.115E-01    1.86       1.0  T
   3    -38.2620769  0.554852E-04  0.690E-02    1.86       1.0  T
   4    -38.2621439 -0.670141E-04  0.122E-02    1.86       1.5  T
   5    -38.2621450 -0.106529E-05  0.802E-03    1.86       2.2  T
   6    -38.2621455 -0.569172E-06  0.235E-03    1.86       7.6  T
   7    -38.2621456 -0.604647E-07  0.134E-03    1.86      13.4  T
   8    -38.2621456 -0.622222E-09  0.802E-04    1.86      22.4  T
   9    -38.2621456 -0.306458E-08  0.391E-04    1.86      45.9  T
     SCC iter.                  ...        0 min,  0.426 sec
     gradient                   ...        0 min,  0.040 sec
 * total energy  :   -37.6408290 Eh     change       -0.9469319E-03 Eh
   gradient norm :     0.0127222 Eh/α   predicted    -0.7923149E-03 ( -16.33%)
   displ. norm   :     0.3702423 α      lambda       -0.1158480E-02
   maximum displ.:     0.2783569 α      in ANC's #5, #9, #4, ...

........................................................................
.............................. CYCLE   25 ..............................
........................................................................
   1    -38.2621257 -0.382621E+02  0.171E-01    1.87       0.0  T
   2    -38.2621342 -0.851679E-05  0.991E-02    1.88       1.0  T
   3    -38.2621242  0.100452E-04  0.455E-02    1.88       1.0  T
   4    -38.2621376 -0.133808E-04  0.680E-03    1.88       2.6  T
   5    -38.2621377 -0.139837E-06  0.536E-03    1.88       3.4  T
   6    -38.2621378 -0.885546E-07  0.159E-03    1.88      11.3  T
   7    -38.2621378 -0.356835E-07  0.538E-04    1.88      33.4  T
   8    -38.2621378 -0.521290E-09  0.421E-04    1.88      42.7  T
     SCC iter.                  ...        0 min,  0.350 sec
     gradient                   ...        0 min,  0.127 sec
 * total energy  :   -37.6417014 Eh     change       -0.8724241E-03 Eh
   gradient norm :     0.0160279 Eh/α   predicted    -0.6586423E-03 ( -24.50%)
   displ. norm   :     0.4647336 α      lambda       -0.1312714E-02
   maximum displ.:     0.3261192 α      in ANC's #5, #9, #4, ...

........................................................................
.............................. CYCLE   26 ..............................
........................................................................
   1    -38.2629110 -0.382629E+02  0.191E-01    1.88       0.0  T
   2    -38.2629246 -0.135813E-04  0.126E-01    1.89       1.0  T
   3    -38.2628646  0.599105E-04  0.756E-02    1.88       1.0  T
   4    -38.2629422 -0.775107E-04  0.252E-02    1.89       1.0  T
   5    -38.2629477 -0.555610E-05  0.118E-02    1.89       1.5  T
   6    -38.2629476  0.126870E-06  0.565E-03    1.89       3.2  T
   7    -38.2629479 -0.334692E-06  0.210E-03    1.89       8.6  T
   8    -38.2629479 -0.170222E-07  0.127E-03    1.89      14.2  T
   9    -38.2629479 -0.653739E-08  0.557E-04    1.89      32.2  T
  10    -38.2629479 -0.661686E-09  0.324E-04    1.89      55.4  T
     SCC iter.                  ...        0 min,  0.401 sec
     gradient                   ...        0 min,  0.123 sec
 * total energy  :   -37.6426014 Eh     change       -0.8999777E-03 Eh
   gradient norm :     0.0190089 Eh/α   predicted    -0.7981167E-03 ( -11.32%)
   displ. norm   :     0.3443942 α      lambda       -0.1163658E-02
   maximum displ.:     0.2544869 α      in ANC's #5, #9, #4, ...

........................................................................
.............................. CYCLE   27 ..............................
........................................................................
   1    -38.2679539 -0.382680E+02  0.141E-01    1.88       0.0  T
   2    -38.2679639 -0.100638E-04  0.941E-02    1.89       1.0  T
   3    -38.2679355  0.284626E-04  0.615E-02    1.88       1.0  T
   4    -38.2679887 -0.532335E-04  0.138E-02    1.88       1.3  T
   5    -38.2679902 -0.150253E-05  0.799E-03    1.88       2.2  T
   6    -38.2679903 -0.337011E-07  0.288E-03    1.88       6.2  T
   7    -38.2679903 -0.772856E-07  0.860E-04    1.88      20.9  T
   8    -38.2679903 -0.367960E-08  0.477E-04    1.88      37.7  T
     SCC iter.                  ...        0 min,  0.332 sec
     gradient                   ...        0 min,  0.124 sec
 * total energy  :   -37.6433753 Eh     change       -0.7738842E-03 Eh
   gradient norm :     0.0147817 Eh/α   predicted    -0.6508390E-03 ( -15.90%)
   displ. norm   :     0.5591154 α      lambda       -0.1301185E-02
   maximum displ.:     0.3899554 α      in ANC's #5, #9, #4, ...

........................................................................
.............................. CYCLE   28 ..............................
........................................................................
   1    -38.2625765 -0.382626E+02  0.272E-01    1.87       0.0  T
   2    -38.2626005 -0.240251E-04  0.166E-01    1.89       1.0  T
   3    -38.2624927  0.107799E-03  0.109E-01    1.87       1.0  T
   4    -38.2626204 -0.127698E-03  0.255E-02    1.88       1.0  T
   5    -38.2626245 -0.409959E-05  0.207E-02    1.88       1.0  T
   6    -38.2626256 -0.104877E-05  0.653E-03    1.88       2.8  T
   7    -38.2626264 -0.847992E-06  0.343E-03    1.88       5.2  T
   8    -38.2626265 -0.471146E-07  0.203E-03    1.88       8.9  T
   9    -38.2626265 -0.152692E-07  0.742E-04    1.88      24.2  T
  10    -38.2626265  0.120295E-10  0.421E-04    1.88      42.6  T
     SCC iter.                  ...        0 min,  0.457 sec
     gradient                   ...        0 min,  0.122 sec
 * total energy  :   -37.6439463 Eh     change       -0.5710072E-03 Eh
   gradient norm :     0.0210405 Eh/α   predicted    -0.8539758E-03 (  49.56%)
   displ. norm   :     0.1634699 α      lambda       -0.1424394E-02
   maximum displ.:     0.0727519 α      in ANC's #4, #58, #10, ...

........................................................................
.............................. CYCLE   29 ..............................
........................................................................
   1    -38.2720563 -0.382721E+02  0.132E-01    1.89       0.0  T
   2    -38.2720816 -0.252672E-04  0.786E-02    1.87       1.0  T
   3    -38.2720863 -0.476043E-05  0.639E-02    1.87       1.0  T
   4    -38.2721170 -0.306974E-04  0.185E-02    1.87       1.0  T
   5    -38.2721211 -0.402469E-05  0.717E-03    1.87       2.5  T
   6    -38.2721212 -0.985265E-07  0.396E-03    1.87       4.5  T
   7    -38.2721212 -0.752205E-07  0.882E-04    1.87      20.4  T
   8    -38.2721212 -0.192893E-08  0.635E-04    1.87      28.3  T
     SCC iter.                  ...        0 min,  0.361 sec
     gradient                   ...        0 min,  0.125 sec
 * total energy  :   -37.6445910 Eh     change       -0.6446819E-03 Eh
   gradient norm :     0.0176855 Eh/α   predicted    -0.7312293E-03 (  13.42%)
   displ. norm   :     0.3453124 α      lambda       -0.8922810E-03
   maximum displ.:     0.2228218 α      in ANC's #5, #4, #1, ...

........................................................................
.............................. CYCLE   30 ..............................
........................................................................
   1    -38.2691238 -0.382691E+02  0.157E-01    1.88       0.0  T
   2    -38.2691287 -0.493401E-05  0.103E-01    1.89       1.0  T
   3    -38.2690554  0.732942E-04  0.596E-02    1.88       1.0  T
   4    -38.2691370 -0.816210E-04  0.108E-02    1.88       1.7  T
   5    -38.2691376 -0.581289E-06  0.857E-03    1.88       2.1  T
   6    -38.2691378 -0.210012E-06  0.270E-03    1.88       6.6  T
   7    -38.2691379 -0.847663E-07  0.146E-03    1.88      12.3  T
   8    -38.2691379 -0.628484E-08  0.931E-04    1.88      19.3  T
   9    -38.2691379 -0.274038E-08  0.438E-04    1.88      41.0  T
     SCC iter.                  ...        0 min,  0.482 sec
     gradient                   ...        0 min,  0.117 sec
 * total energy  :   -37.6452010 Eh     change       -0.6100518E-03 Eh
   gradient norm :     0.0120832 Eh/α   predicted    -0.4993415E-03 ( -18.15%)
   displ. norm   :     0.4233583 α      lambda       -0.7795417E-03
   maximum displ.:     0.2289415 α      in ANC's #5, #9, #4, ...

........................................................................
.............................. CYCLE   31 ..............................
........................................................................
   1    -38.2671153 -0.382671E+02  0.215E-01    1.90       0.0  T
   2    -38.2671291 -0.137798E-04  0.139E-01    1.91       1.0  T
   3    -38.2670288  0.100287E-03  0.869E-02    1.90       1.0  T
   4    -38.2671444 -0.115591E-03  0.150E-02    1.90       1.2  T
   5    -38.2671456 -0.116019E-05  0.143E-02    1.90       1.3  T
   6    -38.2671470 -0.138979E-05  0.451E-03    1.90       4.0  T
   7    -38.2671471 -0.162643E-06  0.223E-03    1.90       8.0  T
   8    -38.2671472 -0.118996E-07  0.133E-03    1.90      13.5  T
   9    -38.2671472 -0.497886E-08  0.533E-04    1.90      33.7  T
  10    -38.2671472 -0.575767E-09  0.233E-04    1.90      77.0  T
     SCC iter.                  ...        0 min,  0.532 sec
     gradient                   ...        0 min,  0.126 sec
 * total energy  :   -37.6455491 Eh     change       -0.3480192E-03 Eh
   gradient norm :     0.0165576 Eh/α   predicted    -0.4596338E-03 (  32.07%)
   displ. norm   :     0.1259672 α      lambda       -0.5435788E-03
   maximum displ.:     0.0554941 α      in ANC's #10, #4, #2, ...

........................................................................
.............................. CYCLE   32 ..............................
........................................................................
   1    -38.2716505 -0.382717E+02  0.899E-02    1.91       0.0  T
   2    -38.2716577 -0.716112E-05  0.630E-02    1.90       1.0  T
   3    -38.2716500  0.760251E-05  0.279E-02    1.91       1.0  T
   4    -38.2716602 -0.101262E-04  0.116E-02    1.91       1.6  T
   5    -38.2716610 -0.830699E-06  0.678E-03    1.91       2.6  T
   6    -38.2716608  0.166243E-06  0.459E-03    1.91       3.9  T
   7    -38.2716611 -0.228652E-06  0.128E-03    1.91      14.1  T
   8    -38.2716611 -0.394353E-08  0.769E-04    1.91      23.4  T
   9    -38.2716611 -0.325463E-08  0.356E-04    1.91      50.4  T
     SCC iter.                  ...        0 min,  0.409 sec
     gradient                   ...        0 min,  0.115 sec
 * total energy  :   -37.6458441 Eh     change       -0.2950396E-03 Eh
   gradient norm :     0.0120904 Eh/α   predicted    -0.2761061E-03 (  -6.42%)
   displ. norm   :     0.3114169 α      lambda       -0.4744648E-03
   maximum displ.:     0.1503972 α      in ANC's #4, #5, #1, ...

........................................................................
.............................. CYCLE   33 ..............................
........................................................................
   1    -38.2701047 -0.382701E+02  0.118E-01    1.91       0.0  T
   2    -38.2701079 -0.319306E-05  0.759E-02    1.90       1.0  T
   3    -38.2700991  0.884952E-05  0.250E-02    1.90       1.0  T
   4    -38.2701095 -0.104014E-04  0.113E-02    1.90       1.6  T
   5    -38.2701096 -0.948158E-07  0.655E-03    1.90       2.7  T
   6    -38.2701100 -0.399423E-06  0.277E-03    1.90       6.5  T
   7    -38.2701100 -0.423851E-07  0.150E-03    1.90      12.0  T
   8    -38.2701100  0.269451E-08  0.103E-03    1.90      17.4  T
   9    -38.2701100 -0.656505E-08  0.439E-04    1.90      40.9  T
  10    -38.2701100 -0.532708E-09  0.157E-04    1.90     114.1  T
     SCC iter.                  ...        0 min,  0.524 sec
     gradient                   ...        0 min,  0.145 sec
 * total energy  :   -37.6460488 Eh     change       -0.2047128E-03 Eh
   gradient norm :     0.0139093 Eh/α   predicted    -0.2602421E-03 (  27.13%)
   displ. norm   :     0.1472391 α      lambda       -0.2980782E-03
   maximum displ.:     0.0725610 α      in ANC's #4, #7, #2, ...

........................................................................
.............................. CYCLE   34 ..............................
........................................................................
   1    -38.2737544 -0.382738E+02  0.535E-02    1.90       0.0  T
   2    -38.2737560 -0.156083E-05  0.348E-02    1.90       1.0  T
   3    -38.2737524  0.352642E-05  0.169E-02    1.90       1.1  T
   4    -38.2737569 -0.445608E-05  0.491E-03    1.90       3.7  T
   5    -38.2737570 -0.946996E-07  0.368E-03    1.90       4.9  T
   6    -38.2737570  0.365023E-07  0.178E-03    1.90      10.1  T
   7    -38.2737570 -0.676841E-07  0.474E-04    1.90      37.9  T
   8    -38.2737570 -0.139379E-08  0.296E-04    1.90      60.6  T
     SCC iter.                  ...        0 min,  0.601 sec
     gradient                   ...        0 min,  0.213 sec
 * total energy  :   -37.6462032 Eh     change       -0.1543942E-03 Eh
   gradient norm :     0.0076595 Eh/α   predicted    -0.1522724E-03 (  -1.37%)
   displ. norm   :     0.2245028 α      lambda       -0.2205037E-03
   maximum displ.:     0.1205803 α      in ANC's #4, #5, #2, ...

........................................................................
.............................. CYCLE   35 ..............................
........................................................................
   1    -38.2717619 -0.382718E+02  0.104E-01    1.90       0.0  T
   2    -38.2717636 -0.163310E-05  0.630E-02    1.90       1.0  T
   3    -38.2717585  0.501076E-05  0.247E-02    1.90       1.0  T
   4    -38.2717641 -0.557637E-05  0.867E-03    1.90       2.1  T
   5    -38.2717644 -0.240925E-06  0.500E-03    1.90       3.6  T
   6    -38.2717644 -0.193772E-07  0.144E-03    1.90      12.5  T
   7    -38.2717644 -0.371558E-07  0.491E-04    1.90      36.5  T
   8    -38.2717644 -0.175991E-08  0.242E-04    1.90      74.3  T
     SCC iter.                  ...        0 min,  0.632 sec
     gradient                   ...        0 min,  0.166 sec
 * total energy  :   -37.6462988 Eh     change       -0.9563646E-04 Eh
   gradient norm :     0.0110338 Eh/α   predicted    -0.1158078E-03 (  21.09%)
   displ. norm   :     0.1503252 α      lambda       -0.2087759E-03
   maximum displ.:     0.0832859 α      in ANC's #2, #4, #7, ...

........................................................................
.............................. CYCLE   36 ..............................
........................................................................
   1    -38.2731591 -0.382732E+02  0.645E-02    1.90       0.0  T
   2    -38.2731625 -0.345154E-05  0.350E-02    1.90       1.0  T
   3    -38.2731553  0.723725E-05  0.361E-02    1.90       1.0  T
   4    -38.2731663 -0.110279E-04  0.887E-03    1.90       2.0  T
   5    -38.2731666 -0.313235E-06  0.645E-03    1.90       2.8  T
   6    -38.2731668 -0.182056E-06  0.191E-03    1.90       9.4  T
   7    -38.2731669 -0.665800E-07  0.783E-04    1.90      23.0  T
   8    -38.2731669 -0.388643E-08  0.422E-04    1.90      42.5  T
     SCC iter.                  ...        0 min,  0.528 sec
     gradient                   ...        0 min,  0.173 sec
 * total energy  :   -37.6464288 Eh     change       -0.1299919E-03 Eh
   gradient norm :     0.0058129 Eh/α   predicted    -0.1067494E-03 ( -17.88%)
   displ. norm   :     0.2912530 α      lambda       -0.1647860E-03
   maximum displ.:     0.1674327 α      in ANC's #4, #2, #7, ...

........................................................................
.............................. CYCLE   37 ..............................
........................................................................
   1    -38.2716834 -0.382717E+02  0.106E-01    1.90       0.0  T
   2    -38.2716852 -0.177885E-05  0.644E-02    1.90       1.0  T
   3    -38.2716771  0.806545E-05  0.239E-02    1.90       1.0  T
   4    -38.2716865 -0.934377E-05  0.633E-03    1.90       2.8  T
   5    -38.2716865  0.911254E-08  0.377E-03    1.90       4.8  T
   6    -38.2716865 -0.562206E-07  0.147E-03    1.90      12.2  T
   7    -38.2716865 -0.254094E-07  0.906E-04    1.90      19.8  T
   8    -38.2716865 -0.965407E-09  0.715E-04    1.90      25.1  T
     SCC iter.                  ...        0 min,  0.501 sec
     gradient                   ...        0 min,  0.058 sec
 * total energy  :   -37.6465336 Eh     change       -0.1048120E-03 Eh
   gradient norm :     0.0045682 Eh/α   predicted    -0.8938324E-04 ( -14.72%)
   displ. norm   :     0.2781224 α      lambda       -0.1537160E-03
   maximum displ.:     0.1692800 α      in ANC's #2, #4, #7, ...

........................................................................
.............................. CYCLE   38 ..............................
........................................................................
   1    -38.2725375 -0.382725E+02  0.999E-02    1.90       0.0  T
   2    -38.2725406 -0.304627E-05  0.677E-02    1.89       1.0  T
   3    -38.2725305  0.101249E-04  0.260E-02    1.90       1.0  T
   4    -38.2725423 -0.118792E-04  0.769E-03    1.89       2.3  T
   5    -38.2725426 -0.229315E-06  0.476E-03    1.90       3.8  T
   6    -38.2725426 -0.615634E-07  0.205E-03    1.89       8.8  T
   7    -38.2725427 -0.324345E-07  0.111E-03    1.90      16.2  T
   8    -38.2725427 -0.705252E-08  0.660E-04    1.90      27.2  T
   9    -38.2725427 -0.282391E-08  0.215E-04    1.90      83.6  T
     SCC iter.                  ...        0 min,  0.583 sec
     gradient                   ...        0 min,  0.028 sec
 * total energy  :   -37.6466213 Eh     change       -0.8761923E-04 Eh
   gradient norm :     0.0069002 Eh/α   predicted    -0.8280770E-04 (  -5.49%)
   displ. norm   :     0.3585119 α      lambda       -0.1552703E-03
   maximum displ.:     0.2232181 α      in ANC's #4, #2, #7, ...

........................................................................
.............................. CYCLE   39 ..............................
........................................................................
   1    -38.2698947 -0.382699E+02  0.147E-01    1.90       0.0  T
   2    -38.2698971 -0.238908E-05  0.102E-01    1.90       1.0  T
   3    -38.2698287  0.683908E-04  0.598E-02    1.90       1.0  T
   4    -38.2699058 -0.771535E-04  0.938E-03    1.90       1.9  T
   5    -38.2699066 -0.805287E-06  0.496E-03    1.90       3.6  T
   6    -38.2699066 -0.423726E-08  0.223E-03    1.90       8.1  T
   7    -38.2699067 -0.452494E-07  0.132E-03    1.90      13.6  T
   8    -38.2699067 -0.132061E-08  0.868E-04    1.90      20.7  T
   9    -38.2699067 -0.291136E-08  0.240E-04    1.90      74.9  T
     SCC iter.                  ...        0 min,  0.760 sec
     gradient                   ...        0 min,  0.166 sec
 * total energy  :   -37.6467186 Eh     change       -0.9730166E-04 Eh
   gradient norm :     0.0057565 Eh/α   predicted    -0.8761729E-04 (  -9.95%)
   displ. norm   :     0.2522871 α      lambda       -0.1708923E-03
   maximum displ.:     0.1725541 α      in ANC's #2, #4, #8, ...

........................................................................
.............................. CYCLE   40 ..............................
........................................................................
   1    -38.2720159 -0.382720E+02  0.759E-02    1.90       0.0  T
   2    -38.2720175 -0.160132E-05  0.566E-02    1.90       1.0  T
   3    -38.2720070  0.105522E-04  0.232E-02    1.91       1.0  T
   4    -38.2720184 -0.114555E-04  0.769E-03    1.90       2.3  T
   5    -38.2720190 -0.629337E-06  0.441E-03    1.90       4.1  T
   6    -38.2720191 -0.337901E-07  0.167E-03    1.90      10.7  T
   7    -38.2720191 -0.234917E-07  0.725E-04    1.90      24.8  T
   8    -38.2720191 -0.202135E-09  0.303E-04    1.90      59.2  T
     SCC iter.                  ...        0 min,  0.498 sec
     gradient                   ...        0 min,  0.084 sec
 * total energy  :   -37.6468442 Eh     change       -0.1256486E-03 Eh
   gradient norm :     0.0043950 Eh/α   predicted    -0.9088639E-04 ( -27.67%)
   displ. norm   :     0.4332598 α      lambda       -0.2166479E-03
   maximum displ.:     0.2846746 α      in ANC's #2, #4, #8, ...

........................................................................
.............................. CYCLE   41 ..............................
........................................................................
   1    -38.2720751 -0.382721E+02  0.119E-01    1.90       0.0  T
   2    -38.2720783 -0.325166E-05  0.795E-02    1.90       1.0  T
   3    -38.2720671  0.111672E-04  0.251E-02    1.90       1.0  T
   4    -38.2720800 -0.128637E-04  0.879E-03    1.90       2.0  T
   5    -38.2720798  0.193649E-06  0.499E-03    1.90       3.6  T
   6    -38.2720802 -0.392288E-06  0.188E-03    1.90       9.6  T
   7    -38.2720802 -0.209529E-07  0.978E-04    1.90      18.4  T
   8    -38.2720802  0.299774E-08  0.623E-04    1.90      28.8  T
     SCC iter.                  ...        0 min,  0.330 sec
     gradient                   ...        0 min,  0.007 sec
 * total energy  :   -37.6470114 Eh     change       -0.1672136E-03 Eh
   gradient norm :     0.0055382 Eh/α   predicted    -0.1286596E-03 ( -23.06%)
   displ. norm   :     0.4721635 α      lambda       -0.2479545E-03
   maximum displ.:     0.3143452 α      in ANC's #2, #4, #8, ...

........................................................................
.............................. CYCLE   42 ..............................
........................................................................
   1    -38.2732693 -0.382733E+02  0.105E-01    1.89       0.0  T
   2    -38.2732747 -0.546067E-05  0.559E-02    1.90       1.0  T
   3    -38.2732614  0.133031E-04  0.489E-02    1.89       1.0  T
   4    -38.2732786 -0.171357E-04  0.117E-02    1.90       1.5  T
   5    -38.2732789 -0.360704E-06  0.869E-03    1.90       2.1  T
   6    -38.2732794 -0.476333E-06  0.136E-03    1.90      13.2  T
   7    -38.2732794 -0.213483E-07  0.642E-04    1.90      28.0  T
   8    -38.2732794 -0.795168E-10  0.362E-04    1.90      49.6  T
     SCC iter.                  ...        0 min,  0.355 sec
     gradient                   ...        0 min,  0.013 sec
 * total energy  :   -37.6471812 Eh     change       -0.1697993E-03 Eh
   gradient norm :     0.0075237 Eh/α   predicted    -0.1516199E-03 ( -10.71%)
   displ. norm   :     0.4713675 α      lambda       -0.2431329E-03
   maximum displ.:     0.3208218 α      in ANC's #4, #2, #8, ...
 * RMSD in coord.:     0.9787650 α      energy gain  -0.1159805E-01 Eh

generating ANC from model Hessian ...
Using Lindh-Hessian (1995)
 Shifting diagonal of input Hessian by    1.2022355259999432E-002
 Lowest  eigenvalues of input Hessian
    0.010000    0.011838    0.000000    0.000000    0.000000    0.000000
    0.000000    0.000000    0.012414    0.013036    0.013151    0.013617
    0.014137    0.016045    0.016419    0.019804    0.019815    0.020012
 Highest eigenvalues
    1.729387    1.730055    1.735249    1.736823    3.103344    4.100393


........................................................................
.............................. CYCLE   43 ..............................
........................................................................
   1    -38.2723416 -0.382723E+02  0.902E-02    1.89       0.0  T
   2    -38.2723469 -0.532534E-05  0.492E-02    1.89       1.0  T
   3    -38.2723346  0.123284E-04  0.432E-02    1.89       1.0  T
   4    -38.2723518 -0.172041E-04  0.837E-03    1.89       2.1  T
   5    -38.2723524 -0.604343E-06  0.575E-03    1.89       3.1  T
   6    -38.2723526 -0.192807E-06  0.126E-03    1.89      14.3  T
   7    -38.2723526 -0.295102E-07  0.534E-04    1.89      33.6  T
   8    -38.2723526 -0.114517E-08  0.183E-04    1.89      98.2  T
     SCC iter.                  ...        0 min,  0.297 sec
     gradient                   ...        0 min,  0.054 sec
 * total energy  :   -37.6473150 Eh     change       -0.1337211E-03 Eh
   gradient norm :     0.0088275 Eh/α   predicted     0.0000000E+00 (-100.00%)
   displ. norm   :     0.0912123 α      lambda       -0.2329979E-03
   maximum displ.:     0.0530719 α      in ANC's #10, #4, #14, ...

........................................................................
.............................. CYCLE   44 ..............................
........................................................................
   1    -38.2739466 -0.382739E+02  0.526E-02    1.89       0.0  T
   2    -38.2739476 -0.970543E-06  0.344E-02    1.89       1.0  T
   3    -38.2739406  0.700584E-05  0.205E-02    1.89       1.0  T
   4    -38.2739487 -0.816659E-05  0.517E-03    1.89       3.5  T
   5    -38.2739488 -0.649107E-07  0.348E-03    1.89       5.2  T
   6    -38.2739489 -0.634257E-07  0.109E-03    1.89      16.4  T
   7    -38.2739489 -0.979984E-08  0.469E-04    1.89      38.3  T
   8    -38.2739489 -0.675321E-09  0.330E-04    1.89      54.4  T
     SCC iter.                  ...        0 min,  0.308 sec
     gradient                   ...        0 min,  0.005 sec
 * total energy  :   -37.6474726 Eh     change       -0.1576778E-03 Eh
   gradient norm :     0.0024840 Eh/α   predicted    -0.1174696E-03 ( -25.50%)
   displ. norm   :     0.1188695 α      lambda       -0.1257494E-03
   maximum displ.:     0.0784973 α      in ANC's #4, #2, #11, ...

........................................................................
.............................. CYCLE   45 ..............................
........................................................................
   1    -38.2747867 -0.382748E+02  0.556E-02    1.90       0.0  T
   2    -38.2747883 -0.156547E-05  0.388E-02    1.90       1.0  T
   3    -38.2747814  0.688151E-05  0.197E-02    1.90       1.0  T
   4    -38.2747900 -0.863291E-05  0.499E-03    1.90       3.6  T
   5    -38.2747903 -0.290809E-06  0.271E-03    1.90       6.6  T
   6    -38.2747904 -0.313892E-07  0.924E-04    1.90      19.4  T
   7    -38.2747904 -0.703093E-08  0.437E-04    1.90      41.1  T
     SCC iter.                  ...        0 min,  0.285 sec
     gradient                   ...        0 min,  0.041 sec
 * total energy  :   -37.6475537 Eh     change       -0.8110839E-04 Eh
   gradient norm :     0.0027060 Eh/α   predicted    -0.6376346E-04 ( -21.38%)
   displ. norm   :     0.1576409 α      lambda       -0.1060723E-03
   maximum displ.:     0.1041550 α      in ANC's #4, #2, #5, ...

........................................................................
.............................. CYCLE   46 ..............................
........................................................................
   1    -38.2747804 -0.382748E+02  0.838E-02    1.91       0.0  T
   2    -38.2747827 -0.228428E-05  0.582E-02    1.90       1.0  T
   3    -38.2747675  0.151700E-04  0.272E-02    1.91       1.0  T
   4    -38.2747847 -0.171999E-04  0.592E-03    1.90       3.0  T
   5    -38.2747851 -0.326726E-06  0.367E-03    1.90       4.9  T
   6    -38.2747851 -0.663282E-07  0.118E-03    1.90      15.3  T
   7    -38.2747851 -0.213058E-07  0.581E-04    1.90      30.9  T
   8    -38.2747851 -0.507484E-09  0.443E-04    1.90      40.6  T
     SCC iter.                  ...        0 min,  0.322 sec
     gradient                   ...        0 min,  0.034 sec
 * total energy  :   -37.6476144 Eh     change       -0.6069501E-04 Eh
   gradient norm :     0.0046849 Eh/α   predicted    -0.5435416E-04 ( -10.45%)
   displ. norm   :     0.1401513 α      lambda       -0.8838753E-04
   maximum displ.:     0.0858353 α      in ANC's #4, #2, #5, ...

........................................................................
.............................. CYCLE   47 ..............................
........................................................................
   1    -38.2741721 -0.382742E+02  0.519E-02    1.90       0.0  T
   2    -38.2741732 -0.104832E-05  0.363E-02    1.90       1.0  T
   3    -38.2741665  0.668621E-05  0.174E-02    1.91       1.0  T
   4    -38.2741742 -0.769170E-05  0.399E-03    1.90       4.5  T
   5    -38.2741744 -0.211355E-06  0.194E-03    1.90       9.2  T
   6    -38.2741744 -0.421203E-08  0.612E-04    1.90      29.3  T
   7    -38.2741744 -0.840708E-08  0.211E-04    1.90      85.2  T
     SCC iter.                  ...        0 min,  0.258 sec
     gradient                   ...        0 min,  0.028 sec
 * total energy  :   -37.6476847 Eh     change       -0.7022461E-04 Eh
   gradient norm :     0.0033030 Eh/α   predicted    -0.4506238E-04 ( -35.83%)
   displ. norm   :     0.1891821 α      lambda       -0.1054534E-03
   maximum displ.:     0.1233582 α      in ANC's #2, #4, #5, ...

........................................................................
.............................. CYCLE   48 ..............................
........................................................................
   1    -38.2735631 -0.382736E+02  0.691E-02    1.90       0.0  T
   2    -38.2735640 -0.919052E-06  0.453E-02    1.90       1.0  T
   3    -38.2735582  0.583664E-05  0.161E-02    1.90       1.1  T
   4    -38.2735646 -0.647100E-05  0.433E-03    1.90       4.1  T
   5    -38.2735647 -0.289162E-07  0.249E-03    1.90       7.2  T
   6    -38.2735647 -0.422613E-07  0.698E-04    1.90      25.7  T
   7    -38.2735647 -0.740393E-08  0.359E-04    1.90      50.0  T
     SCC iter.                  ...        0 min,  0.326 sec
     gradient                   ...        0 min,  0.096 sec
 * total energy  :   -37.6477648 Eh     change       -0.8012170E-04 Eh
   gradient norm :     0.0018615 Eh/α   predicted    -0.5461750E-04 ( -31.83%)
   displ. norm   :     0.2897450 α      lambda       -0.7718209E-04
   maximum displ.:     0.1909115 α      in ANC's #2, #4, #3, ...

........................................................................
.............................. CYCLE   49 ..............................
........................................................................
   1    -38.2728861 -0.382729E+02  0.104E-01    1.90       0.0  T
   2    -38.2728872 -0.114095E-05  0.650E-02    1.90       1.0  T
   3    -38.2728823  0.488821E-05  0.212E-02    1.90       1.0  T
   4    -38.2728878 -0.545433E-05  0.492E-03    1.90       3.7  T
   5    -38.2728878  0.271430E-07  0.377E-03    1.90       4.8  T
   6    -38.2728879 -0.118676E-06  0.981E-04    1.90      18.3  T
   7    -38.2728879 -0.162024E-07  0.430E-04    1.90      41.7  T
     SCC iter.                  ...        0 min,  0.268 sec
     gradient                   ...        0 min,  0.104 sec
 * total energy  :   -37.6478444 Eh     change       -0.7963961E-04 Eh
   gradient norm :     0.0037331 Eh/α   predicted    -0.4003261E-04 ( -49.73%)
   displ. norm   :     0.1386012 α      lambda       -0.5858200E-04
   maximum displ.:     0.0998918 α      in ANC's #2, #4, #3, ...

........................................................................
.............................. CYCLE   50 ..............................
........................................................................
   1    -38.2734756 -0.382735E+02  0.456E-02    1.90       0.0  T
   2    -38.2734760 -0.375811E-06  0.282E-02    1.90       1.0  T
   3    -38.2734752  0.762455E-06  0.124E-02    1.90       1.4  T
   4    -38.2734762 -0.940212E-06  0.326E-03    1.90       5.5  T
   5    -38.2734761  0.657367E-07  0.239E-03    1.90       7.5  T
   6    -38.2734762 -0.795350E-07  0.597E-04    1.90      30.1  T
   7    -38.2734762 -0.367664E-08  0.325E-04    1.90      55.3  T
     SCC iter.                  ...        0 min,  0.333 sec
     gradient                   ...        0 min,  0.028 sec
 * total energy  :   -37.6478938 Eh     change       -0.4939183E-04 Eh
   gradient norm :     0.0031075 Eh/α   predicted    -0.2985753E-04 ( -39.55%)
   displ. norm   :     0.2014775 α      lambda       -0.8337762E-04
   maximum displ.:     0.1409382 α      in ANC's #2, #4, #3, ...

........................................................................
.............................. CYCLE   51 ..............................
........................................................................
   1    -38.2746021 -0.382746E+02  0.557E-02    1.89       0.0  T
   2    -38.2746032 -0.102641E-05  0.328E-02    1.90       1.0  T
   3    -38.2745998  0.333552E-05  0.180E-02    1.89       1.0  T
   4    -38.2746038 -0.397657E-05  0.319E-03    1.90       5.6  T
   5    -38.2746038 -0.253409E-07  0.283E-03    1.90       6.4  T
   6    -38.2746039 -0.567147E-07  0.677E-04    1.90      26.5  T
   7    -38.2746039 -0.550529E-08  0.292E-04    1.90      61.4  T
     SCC iter.                  ...        0 min,  0.587 sec
     gradient                   ...        0 min,  0.112 sec
 * total energy  :   -37.6479609 Eh     change       -0.6707356E-04 Eh
   gradient norm :     0.0018814 Eh/α   predicted    -0.4338391E-04 ( -35.32%)
   displ. norm   :     0.3940497 α      lambda       -0.7819052E-04
   maximum displ.:     0.2736884 α      in ANC's #2, #3, #4, ...

........................................................................
.............................. CYCLE   52 ..............................
........................................................................
   1    -38.2742030 -0.382742E+02  0.966E-02    1.89       0.0  T
   2    -38.2742063 -0.339224E-05  0.575E-02    1.90       1.0  T
   3    -38.2741992  0.717898E-05  0.267E-02    1.89       1.0  T
   4    -38.2742081 -0.895063E-05  0.585E-03    1.90       3.1  T
   5    -38.2742081  0.262055E-07  0.309E-03    1.90       5.8  T
   6    -38.2742082 -0.614594E-07  0.126E-03    1.90      14.3  T
   7    -38.2742082 -0.222076E-07  0.524E-04    1.90      34.3  T
   8    -38.2742082 -0.471971E-09  0.356E-04    1.90      50.5  T
     SCC iter.                  ...        0 min,  0.617 sec
     gradient                   ...        0 min,  0.037 sec
 * total energy  :   -37.6480423 Eh     change       -0.8141088E-04 Eh
   gradient norm :     0.0041110 Eh/α   predicted    -0.4179813E-04 ( -48.66%)
   displ. norm   :     0.2194868 α      lambda       -0.6001038E-04
   maximum displ.:     0.1510091 α      in ANC's #2, #3, #1, ...

........................................................................
.............................. CYCLE   53 ..............................
........................................................................
   1    -38.2744867 -0.382745E+02  0.429E-02    1.90       0.0  T
   2    -38.2744876 -0.847186E-06  0.268E-02    1.90       1.0  T
   3    -38.2744849  0.264554E-05  0.130E-02    1.90       1.4  T
   4    -38.2744880 -0.312191E-05  0.389E-03    1.90       4.6  T
   5    -38.2744882 -0.148536E-06  0.195E-03    1.90       9.2  T
   6    -38.2744882 -0.108026E-08  0.547E-04    1.90      32.8  T
   7    -38.2744882 -0.282478E-08  0.219E-04    1.90      82.0  T
     SCC iter.                  ...        0 min,  0.511 sec
     gradient                   ...        0 min,  0.081 sec
 * total energy  :   -37.6480937 Eh     change       -0.5144668E-04 Eh
   gradient norm :     0.0032026 Eh/α   predicted    -0.3145211E-04 ( -38.86%)
   displ. norm   :     0.4593531 α      lambda       -0.1326917E-03
   maximum displ.:     0.3021743 α      in ANC's #2, #3, #1, ...

........................................................................
.............................. CYCLE   54 ..............................
........................................................................
   1    -38.2733819 -0.382734E+02  0.792E-02    1.90       0.0  T
   2    -38.2733849 -0.309090E-05  0.520E-02    1.90       1.0  T
   3    -38.2733738  0.111358E-04  0.245E-02    1.90       1.0  T
   4    -38.2733870 -0.131408E-04  0.765E-03    1.90       2.3  T
   5    -38.2733876 -0.695409E-06  0.357E-03    1.90       5.0  T
   6    -38.2733877 -0.129906E-07  0.137E-03    1.90      13.1  T
   7    -38.2733877 -0.198283E-07  0.529E-04    1.90      34.0  T
   8    -38.2733877 -0.180432E-08  0.300E-04    1.90      59.9  T
     SCC iter.                  ...        0 min,  0.446 sec
     gradient                   ...        0 min,  0.151 sec
 * total energy  :   -37.6481966 Eh     change       -0.1028879E-03 Eh
   gradient norm :     0.0040529 Eh/α   predicted    -0.8035347E-04 ( -21.90%)
   displ. norm   :     0.4005137 α      lambda       -0.1429990E-03
   maximum displ.:     0.2315505 α      in ANC's #2, #3, #8, ...

........................................................................
.............................. CYCLE   55 ..............................
........................................................................
   1    -38.2729783 -0.382730E+02  0.818E-02    1.90       0.0  T
   2    -38.2729809 -0.265214E-05  0.557E-02    1.89       1.0  T
   3    -38.2729657  0.152043E-04  0.330E-02    1.90       1.0  T
   4    -38.2729849 -0.191795E-04  0.637E-03    1.90       2.8  T
   5    -38.2729855 -0.582584E-06  0.387E-03    1.90       4.6  T
   6    -38.2729855 -0.313517E-07  0.119E-03    1.90      15.1  T
   7    -38.2729855 -0.330276E-07  0.485E-04    1.90      37.1  T
   8    -38.2729855 -0.597716E-09  0.328E-04    1.90      54.8  T
     SCC iter.                  ...        0 min,  0.527 sec
     gradient                   ...        0 min,  0.158 sec
 * total energy  :   -37.6482913 Eh     change       -0.9462620E-04 Eh
   gradient norm :     0.0051192 Eh/α   predicted    -0.8297866E-04 ( -12.31%)
   displ. norm   :     0.1829192 α      lambda       -0.1119569E-03
   maximum displ.:     0.0917286 α      in ANC's #8, #3, #1, ...

........................................................................
.............................. CYCLE   56 ..............................
........................................................................
   1    -38.2743798 -0.382744E+02  0.670E-02    1.90       0.0  T
   2    -38.2743816 -0.176825E-05  0.452E-02    1.89       1.0  T
   3    -38.2743732  0.840863E-05  0.232E-02    1.90       1.0  T
   4    -38.2743831 -0.992983E-05  0.504E-03    1.89       3.6  T
   5    -38.2743834 -0.294666E-06  0.284E-03    1.89       6.3  T
   6    -38.2743834 -0.184995E-07  0.102E-03    1.89      17.5  T
   7    -38.2743834 -0.172556E-07  0.440E-04    1.89      40.9  T
   8    -38.2743834 -0.656570E-09  0.251E-04    1.89      71.5  T
     SCC iter.                  ...        0 min,  0.462 sec
     gradient                   ...        0 min,  0.120 sec
 * total energy  :   -37.6483734 Eh     change       -0.8211735E-04 Eh
   gradient norm :     0.0058352 Eh/α   predicted    -0.5785427E-04 ( -29.55%)
   displ. norm   :     0.3043082 α      lambda       -0.1377887E-03
   maximum displ.:     0.1583055 α      in ANC's #3, #1, #2, ...

........................................................................
.............................. CYCLE   57 ..............................
........................................................................
   1    -38.2729064 -0.382729E+02  0.869E-02    1.89       0.0  T
   2    -38.2729096 -0.317201E-05  0.567E-02    1.89       1.0  T
   3    -38.2728967  0.129074E-04  0.253E-02    1.90       1.0  T
   4    -38.2729118 -0.151142E-04  0.649E-03    1.89       2.8  T
   5    -38.2729121 -0.321808E-06  0.357E-03    1.89       5.0  T
   6    -38.2729122 -0.434280E-07  0.143E-03    1.89      12.6  T
   7    -38.2729122 -0.253655E-07  0.725E-04    1.89      24.8  T
   8    -38.2729122 -0.239851E-09  0.514E-04    1.89      34.9  T
     SCC iter.                  ...        0 min,  0.604 sec
     gradient                   ...        0 min,  0.149 sec
 * total energy  :   -37.6484539 Eh     change       -0.8051717E-04 Eh
   gradient norm :     0.0046686 Eh/α   predicted    -0.7527788E-04 (  -6.51%)
   displ. norm   :     0.1936198 α      lambda       -0.1464418E-03
   maximum displ.:     0.1165628 α      in ANC's #2, #4, #11, ...

........................................................................
.............................. CYCLE   58 ..............................
........................................................................
   1    -38.2786307 -0.382786E+02  0.808E-02    1.89       0.0  T
   2    -38.2786350 -0.421940E-05  0.485E-02    1.89       1.0  T
   3    -38.2786277  0.726828E-05  0.262E-02    1.89       1.0  T
   4    -38.2786372 -0.948153E-05  0.530E-03    1.89       3.4  T
   5    -38.2786374 -0.197928E-06  0.332E-03    1.89       5.4  T
   6    -38.2786374 -0.178557E-08  0.146E-03    1.89      12.3  T
   7    -38.2786374 -0.276951E-07  0.574E-04    1.89      31.3  T
   8    -38.2786374 -0.276399E-08  0.373E-04    1.89      48.1  T
     SCC iter.                  ...        0 min,  0.644 sec
     gradient                   ...        0 min,  0.184 sec
 * total energy  :   -37.6484520 Eh     change        0.1845548E-05 Eh
   gradient norm :     0.0082673 Eh/α   predicted    -0.7596806E-04 (*******%)
   displ. norm   :     0.1855144 α      lambda       -0.1206464E-03
   maximum displ.:     0.1081624 α      in ANC's #2, #3, #1, ...

........................................................................
.............................. CYCLE   59 ..............................
........................................................................
   1    -38.2750861 -0.382751E+02  0.394E-02    1.89       0.0  T
   2    -38.2750875 -0.138109E-05  0.224E-02    1.89       1.0  T
   3    -38.2750849  0.259630E-05  0.177E-02    1.89       1.0  T
   4    -38.2750886 -0.370744E-05  0.356E-03    1.89       5.0  T
   5    -38.2750888 -0.125621E-06  0.293E-03    1.89       6.1  T
   6    -38.2750888 -0.400350E-07  0.984E-04    1.89      18.3  T
   7    -38.2750888 -0.723048E-08  0.378E-04    1.89      47.5  T
     SCC iter.                  ...        0 min,  0.476 sec
     gradient                   ...        0 min,  0.174 sec
 * total energy  :   -37.6485160 Eh     change       -0.6390797E-04 Eh
   gradient norm :     0.0033760 Eh/α   predicted    -0.6239970E-04 (  -2.36%)
   displ. norm   :     0.0589654 α      lambda       -0.4183932E-04
   maximum displ.:     0.0298094 α      in ANC's #5, #11, #4, ...

........................................................................
.............................. CYCLE   60 ..............................
........................................................................
   1    -38.2741927 -0.382742E+02  0.327E-02    1.89       0.0  T
   2    -38.2741934 -0.730187E-06  0.190E-02    1.89       1.0  T
   3    -38.2741917  0.169810E-05  0.174E-02    1.89       1.0  T
   4    -38.2741952 -0.348819E-05  0.423E-03    1.89       4.2  T
   5    -38.2741953 -0.921995E-07  0.308E-03    1.89       5.8  T
   6    -38.2741953 -0.523661E-07  0.885E-04    1.89      20.3  T
   7    -38.2741953 -0.598226E-08  0.301E-04    1.89      59.8  T
     SCC iter.                  ...        0 min,  0.494 sec
     gradient                   ...        0 min,  0.140 sec
 * total energy  :   -37.6485329 Eh     change       -0.1697108E-04 Eh
   gradient norm :     0.0032392 Eh/α   predicted    -0.2099360E-04 (  23.70%)
   displ. norm   :     0.0612369 α      lambda       -0.2337846E-04
   maximum displ.:     0.0380805 α      in ANC's #3, #4, #2, ...

........................................................................
.............................. CYCLE   61 ..............................
........................................................................
   1    -38.2746896 -0.382747E+02  0.176E-02    1.89       0.0  T
   2    -38.2746897 -0.101394E-06  0.112E-02    1.89       1.6  T
   3    -38.2746893  0.450294E-06  0.515E-03    1.89       3.5  T
   4    -38.2746898 -0.522228E-06  0.112E-03    1.89      16.0  T
   5    -38.2746898 -0.150593E-08  0.849E-04    1.89      21.2  T
   6    -38.2746898 -0.372930E-08  0.335E-04    1.89      53.7  T
     SCC iter.                  ...        0 min,  0.413 sec
     gradient                   ...        0 min,  0.183 sec
 * total energy  :   -37.6485530 Eh     change       -0.2011728E-04 Eh
   gradient norm :     0.0018459 Eh/α   predicted    -0.1173395E-04 ( -41.67%)
   displ. norm   :     0.3355575 α      lambda       -0.6423176E-04
   maximum displ.:     0.2501765 α      in ANC's #3, #4, #2, ...

........................................................................
.............................. CYCLE   62 ..............................
........................................................................
   1    -38.2744085 -0.382744E+02  0.775E-02    1.89       0.0  T
   2    -38.2744106 -0.212027E-05  0.489E-02    1.89       1.0  T
   3    -38.2744027  0.789780E-05  0.218E-02    1.89       1.0  T
   4    -38.2744121 -0.933840E-05  0.491E-03    1.89       3.7  T
   5    -38.2744121 -0.982882E-08  0.308E-03    1.89       5.8  T
   6    -38.2744121 -0.651520E-07  0.913E-04    1.89      19.7  T
   7    -38.2744121 -0.693066E-08  0.459E-04    1.89      39.1  T
     SCC iter.                  ...        0 min,  0.579 sec
     gradient                   ...        0 min,  0.170 sec
 * total energy  :   -37.6486048 Eh     change       -0.5179281E-04 Eh
   gradient norm :     0.0051158 Eh/α   predicted    -0.3372465E-04 ( -34.89%)
   displ. norm   :     0.0804209 α      lambda       -0.2968846E-04
   maximum displ.:     0.0632292 α      in ANC's #3, #2, #4, ...

........................................................................
.............................. CYCLE   63 ..............................
........................................................................
   1    -38.2750433 -0.382750E+02  0.157E-02    1.89       0.0  T
   2    -38.2750434 -0.100958E-06  0.105E-02    1.89       1.7  T
   3    -38.2750428  0.668583E-06  0.570E-03    1.89       3.2  T
   4    -38.2750435 -0.761624E-06  0.149E-03    1.89      12.0  T
   5    -38.2750436 -0.223465E-07  0.698E-04    1.89      25.7  T
   6    -38.2750436 -0.175213E-09  0.284E-04    1.89      63.3  T
     SCC iter.                  ...        0 min,  0.497 sec
     gradient                   ...        0 min,  0.109 sec
 * total energy  :   -37.6486306 Eh     change       -0.2578634E-04 Eh
   gradient norm :     0.0026926 Eh/α   predicted    -0.1494098E-04 ( -42.06%)
   displ. norm   :     0.0916725 α      lambda       -0.5125592E-04
   maximum displ.:     0.0643098 α      in ANC's #3, #2, #8, ...

........................................................................
.............................. CYCLE   64 ..............................
........................................................................
   1    -38.2758654 -0.382759E+02  0.195E-02    1.89       0.0  T
   2    -38.2758657 -0.296633E-06  0.121E-02    1.89       1.5  T
   3    -38.2758651  0.546803E-06  0.892E-03    1.89       2.0  T
   4    -38.2758661 -0.963536E-06  0.219E-03    1.89       8.2  T
   5    -38.2758661 -0.412386E-07  0.144E-03    1.89      12.5  T
   6    -38.2758661 -0.503224E-08  0.663E-04    1.89      27.1  T
   7    -38.2758661 -0.460614E-08  0.350E-04    1.89      51.3  T
     SCC iter.                  ...        0 min,  0.598 sec
     gradient                   ...        0 min,  0.125 sec
 * total energy  :   -37.6486702 Eh     change       -0.3953393E-04 Eh
   gradient norm :     0.0022994 Eh/α   predicted    -0.2584624E-04 ( -34.62%)
   displ. norm   :     0.1177292 α      lambda       -0.4900502E-04
   maximum displ.:     0.0835494 α      in ANC's #3, #2, #8, ...

........................................................................
.............................. CYCLE   65 ..............................
........................................................................
   1    -38.2760312 -0.382760E+02  0.225E-02    1.89       0.0  T
   2    -38.2760315 -0.291406E-06  0.149E-02    1.89       1.2  T
   3    -38.2760308  0.698079E-06  0.714E-03    1.89       2.5  T
   4    -38.2760317 -0.877158E-06  0.270E-03    1.89       6.6  T
   5    -38.2760317 -0.163334E-07  0.168E-03    1.89      10.7  T
   6    -38.2760317 -0.154581E-07  0.734E-04    1.89      24.5  T
   7    -38.2760317 -0.550349E-08  0.251E-04    1.89      71.6  T
     SCC iter.                  ...        0 min,  0.615 sec
     gradient                   ...        0 min,  0.180 sec
 * total energy  :   -37.6487101 Eh     change       -0.3997533E-04 Eh
   gradient norm :     0.0039864 Eh/α   predicted    -0.2484634E-04 ( -37.85%)
   displ. norm   :     0.1722319 α      lambda       -0.5660873E-04
   maximum displ.:     0.1109004 α      in ANC's #2, #3, #8, ...

........................................................................
.............................. CYCLE   66 ..............................
........................................................................
   1    -38.2753799 -0.382754E+02  0.360E-02    1.89       0.0  T
   2    -38.2753803 -0.396497E-06  0.245E-02    1.89       1.0  T
   3    -38.2753790  0.131492E-05  0.820E-03    1.89       2.2  T
   4    -38.2753804 -0.144661E-05  0.390E-03    1.89       4.6  T
   5    -38.2753805 -0.100341E-06  0.214E-03    1.89       8.4  T
   6    -38.2753806 -0.203882E-07  0.828E-04    1.89      21.7  T
   7    -38.2753806 -0.313977E-08  0.508E-04    1.89      35.4  T
     SCC iter.                  ...        0 min,  0.488 sec
     gradient                   ...        0 min,  0.004 sec
 * total energy  :   -37.6487609 Eh     change       -0.5081002E-04 Eh
   gradient norm :     0.0047762 Eh/α   predicted    -0.2914504E-04 ( -42.64%)
   displ. norm   :     0.2192296 α      lambda       -0.7234723E-04
   maximum displ.:     0.1431201 α      in ANC's #3, #2, #8, ...
 * RMSD in coord.:     0.5431775 α      energy gain  -0.1579709E-02 Eh

generating ANC from model Hessian ...
Using Lindh-Hessian (1995)
 Shifting diagonal of input Hessian by    1.2266342685529345E-002
 Lowest  eigenvalues of input Hessian
    0.010000    0.012052    0.000000    0.000000    0.000000    0.000000
    0.000000    0.000000    0.012698    0.013291    0.013445    0.013882
    0.014303    0.016299    0.016664    0.019910    0.020110    0.020329
 Highest eigenvalues
    1.732459    1.734293    1.738856    1.739431    3.096782    4.100917


........................................................................
.............................. CYCLE   67 ..............................
........................................................................
   1    -38.2742023 -0.382742E+02  0.477E-02    1.89       0.0  T
   2    -38.2742029 -0.571791E-06  0.326E-02    1.89       1.0  T
   3    -38.2742010  0.186551E-05  0.973E-03    1.89       1.8  T
   4    -38.2742032 -0.214743E-05  0.344E-03    1.89       5.2  T
   5    -38.2742032  0.685439E-09  0.251E-03    1.89       7.1  T
   6    -38.2742032 -0.558081E-07  0.645E-04    1.89      27.8  T
   7    -38.2742032 -0.182408E-08  0.481E-04    1.89      37.3  T
     SCC iter.                  ...        0 min,  0.619 sec
     gradient                   ...        0 min,  0.151 sec
 * total energy  :   -37.6488250 Eh     change       -0.6410364E-04 Eh
   gradient norm :     0.0046858 Eh/α   predicted     0.0000000E+00 (-100.00%)
   displ. norm   :     0.0350885 α      lambda        0.1813395E-04
   maximum displ.:     0.0251149 α      in ANC's #3, #4, #10, ...

........................................................................
.............................. CYCLE   68 ..............................
........................................................................
   1    -38.2751610 -0.382752E+02  0.167E-02    1.89       0.0  T
   2    -38.2751612 -0.144875E-06  0.111E-02    1.89       1.6  T
   3    -38.2751606  0.604232E-06  0.766E-03    1.89       2.3  T
   4    -38.2751614 -0.839555E-06  0.163E-03    1.89      11.0  T
   5    -38.2751614 -0.144935E-07  0.113E-03    1.89      15.8  T
   6    -38.2751614 -0.966607E-08  0.495E-04    1.89      36.3  T
   7    -38.2751614 -0.196475E-08  0.228E-04    1.89      78.8  T
     SCC iter.                  ...        0 min,  0.581 sec
     gradient                   ...        0 min,  0.209 sec
 * total energy  :   -37.6488482 Eh     change       -0.2320251E-04 Eh
   gradient norm :     0.0009455 Eh/α   predicted    -0.1596407E-04 ( -31.20%)
   displ. norm   :     0.1338232 α      lambda       -0.4325425E-04
   maximum displ.:     0.0988565 α      in ANC's #3, #1, #4, ...

........................................................................
.............................. CYCLE   69 ..............................
........................................................................
   1    -38.2768993 -0.382769E+02  0.362E-02    1.89       0.0  T
   2    -38.2769008 -0.152836E-05  0.259E-02    1.89       1.0  T
   3    -38.2768995  0.133884E-05  0.147E-02    1.89       1.2  T
   4    -38.2769022 -0.268849E-05  0.403E-03    1.89       4.5  T
   5    -38.2769023 -0.127558E-06  0.252E-03    1.89       7.1  T
   6    -38.2769024 -0.308364E-07  0.164E-03    1.89      10.9  T
   7    -38.2769024 -0.196831E-07  0.641E-04    1.89      28.0  T
   8    -38.2769024 -0.133163E-09  0.403E-04    1.89      44.6  T
     SCC iter.                  ...        0 min,  0.614 sec
     gradient                   ...        0 min,  0.206 sec
 * total energy  :   -37.6488727 Eh     change       -0.2448908E-04 Eh
   gradient norm :     0.0065330 Eh/α   predicted    -0.2179959E-04 ( -10.98%)
   displ. norm   :     0.0593767 α      lambda       -0.3682646E-04
   maximum displ.:     0.0462947 α      in ANC's #3, #4, #14, ...

........................................................................
.............................. CYCLE   70 ..............................
........................................................................
   1    -38.2765288 -0.382765E+02  0.233E-02    1.89       0.0  T
   2    -38.2765289 -0.110186E-06  0.145E-02    1.89       1.2  T
   3    -38.2765278  0.105772E-05  0.765E-03    1.89       2.3  T
   4    -38.2765290 -0.119286E-05  0.193E-03    1.89       9.3  T
   5    -38.2765290 -0.961748E-09  0.138E-03    1.89      13.1  T
   6    -38.2765290 -0.106725E-07  0.371E-04    1.89      48.4  T
   7    -38.2765291 -0.197538E-08  0.167E-04    1.89     107.3  T
     SCC iter.                  ...        0 min,  0.553 sec
     gradient                   ...        0 min,  0.178 sec
 * total energy  :   -37.6489005 Eh     change       -0.2778207E-04 Eh
   gradient norm :     0.0047405 Eh/α   predicted    -0.1847862E-04 ( -33.49%)
   displ. norm   :     0.0792863 α      lambda       -0.4313498E-04
   maximum displ.:     0.0613585 α      in ANC's #3, #4, #1, ...

........................................................................
.............................. CYCLE   71 ..............................
........................................................................
   1    -38.2753216 -0.382753E+02  0.194E-02    1.89       0.0  T
   2    -38.2753217 -0.843648E-07  0.124E-02    1.89       1.4  T
   3    -38.2753215  0.166109E-06  0.341E-03    1.89       5.3  T
   4    -38.2753217 -0.201220E-06  0.120E-03    1.89      14.9  T
   5    -38.2753217  0.168101E-08  0.856E-04    1.89      21.0  T
   6    -38.2753217 -0.663540E-08  0.255E-04    1.89      70.6  T
     SCC iter.                  ...        0 min,  0.393 sec
     gradient                   ...        0 min,  0.150 sec
 * total energy  :   -37.6489350 Eh     change       -0.3446560E-04 Eh
   gradient norm :     0.0014214 Eh/α   predicted    -0.2170429E-04 ( -37.03%)
   displ. norm   :     0.1754297 α      lambda       -0.4486968E-04
   maximum displ.:     0.1301011 α      in ANC's #3, #2, #1, ...

........................................................................
.............................. CYCLE   72 ..............................
........................................................................
   1    -38.2735218 -0.382735E+02  0.358E-02    1.89       0.0  T
   2    -38.2735222 -0.413067E-06  0.220E-02    1.89       1.0  T
   3    -38.2735215  0.787361E-06  0.831E-03    1.89       2.2  T
   4    -38.2735224 -0.982133E-06  0.281E-03    1.89       6.4  T
   5    -38.2735224  0.983948E-08  0.160E-03    1.89      11.2  T
   6    -38.2735225 -0.261942E-07  0.488E-04    1.89      36.8  T
   7    -38.2735225 -0.149723E-08  0.268E-04    1.89      67.0  T
     SCC iter.                  ...        0 min,  0.486 sec
     gradient                   ...        0 min,  0.166 sec
 * total energy  :   -37.6489838 Eh     change       -0.4880619E-04 Eh
   gradient norm :     0.0059781 Eh/α   predicted    -0.2274294E-04 ( -53.40%)
   displ. norm   :     0.1146359 α      lambda       -0.4023710E-04
   maximum displ.:     0.0836714 α      in ANC's #3, #2, #1, ...

........................................................................
.............................. CYCLE   73 ..............................
........................................................................
   1    -38.2733180 -0.382733E+02  0.243E-02    1.89       0.0  T
   2    -38.2733182 -0.186009E-06  0.150E-02    1.89       1.2  T
   3    -38.2733169  0.125971E-05  0.949E-03    1.89       1.9  T
   4    -38.2733184 -0.144454E-05  0.159E-03    1.89      11.3  T
   5    -38.2733184 -0.305960E-07  0.123E-03    1.89      14.6  T
   6    -38.2733184 -0.599850E-08  0.337E-04    1.89      53.3  T
   7    -38.2733184 -0.160761E-08  0.144E-04    1.89     125.0  T
     SCC iter.                  ...        0 min,  0.500 sec
     gradient                   ...        0 min,  0.149 sec
 * total energy  :   -37.6490201 Eh     change       -0.3631893E-04 Eh
   gradient norm :     0.0061905 Eh/α   predicted    -0.2038602E-04 ( -43.87%)
   displ. norm   :     0.1943771 α      lambda       -0.7423160E-04
   maximum displ.:     0.1387659 α      in ANC's #3, #2, #1, ...

........................................................................
.............................. CYCLE   74 ..............................
........................................................................
   1    -38.2737084 -0.382737E+02  0.362E-02    1.89       0.0  T
   2    -38.2737088 -0.348206E-06  0.217E-02    1.89       1.0  T
   3    -38.2737067  0.204749E-05  0.149E-02    1.89       1.2  T
   4    -38.2737091 -0.237323E-05  0.334E-03    1.89       5.4  T
   5    -38.2737091  0.157340E-08  0.283E-03    1.89       6.3  T
   6    -38.2737092 -0.578762E-07  0.543E-04    1.89      33.1  T
   7    -38.2737092 -0.239266E-08  0.299E-04    1.89      60.0  T
     SCC iter.                  ...        0 min,  0.492 sec
     gradient                   ...        0 min,  0.146 sec
 * total energy  :   -37.6490872 Eh     change       -0.6714079E-04 Eh
   gradient norm :     0.0044387 Eh/α   predicted    -0.3851936E-04 ( -42.63%)
   displ. norm   :     0.3222693 α      lambda       -0.1107026E-03
   maximum displ.:     0.2308220 α      in ANC's #3, #2, #1, ...

........................................................................
.............................. CYCLE   75 ..............................
........................................................................
   1    -38.2738315 -0.382738E+02  0.604E-02    1.89       0.0  T
   2    -38.2738323 -0.822525E-06  0.373E-02    1.89       1.0  T
   3    -38.2738281  0.420973E-05  0.202E-02    1.89       1.0  T
   4    -38.2738328 -0.477733E-05  0.461E-03    1.89       3.9  T
   5    -38.2738328  0.117777E-07  0.399E-03    1.89       4.5  T
   6    -38.2738330 -0.130112E-06  0.740E-04    1.89      24.3  T
   7    -38.2738330 -0.364588E-08  0.432E-04    1.89      41.5  T
     SCC iter.                  ...        0 min,  0.552 sec
     gradient                   ...        0 min,  0.148 sec
 * total energy  :   -37.6491836 Eh     change       -0.9637269E-04 Eh
   gradient norm :     0.0025485 Eh/α   predicted    -0.6110193E-04 ( -36.60%)
   displ. norm   :     0.3866850 α      lambda       -0.1153266E-03
   maximum displ.:     0.2798802 α      in ANC's #3, #2, #1, ...

........................................................................
.............................. CYCLE   76 ..............................
........................................................................
   1    -38.2732753 -0.382733E+02  0.738E-02    1.89       0.0  T
   2    -38.2732765 -0.114953E-05  0.466E-02    1.89       1.0  T
   3    -38.2732713  0.523407E-05  0.207E-02    1.88       1.0  T
   4    -38.2732772 -0.593674E-05  0.505E-03    1.89       3.6  T
   5    -38.2732771  0.457044E-07  0.425E-03    1.89       4.2  T
   6    -38.2732773 -0.161398E-06  0.861E-04    1.89      20.9  T
   7    -38.2732773 -0.680138E-08  0.523E-04    1.89      34.3  T
     SCC iter.                  ...        0 min,  0.597 sec
     gradient                   ...        0 min,  0.230 sec
 * total energy  :   -37.6492788 Eh     change       -0.9515788E-04 Eh
   gradient norm :     0.0028136 Eh/α   predicted    -0.6628565E-04 ( -30.34%)
   displ. norm   :     0.4379552 α      lambda       -0.1203363E-03
   maximum displ.:     0.3246238 α      in ANC's #3, #2, #4, ...

........................................................................
.............................. CYCLE   77 ..............................
........................................................................
   1    -38.2726529 -0.382727E+02  0.851E-02    1.88       0.0  T
   2    -38.2726543 -0.138279E-05  0.545E-02    1.88       1.0  T
   3    -38.2726482  0.610361E-05  0.205E-02    1.88       1.0  T
   4    -38.2726552 -0.693115E-05  0.547E-03    1.88       3.3  T
   5    -38.2726551  0.887052E-07  0.419E-03    1.88       4.3  T
   6    -38.2726552 -0.174876E-06  0.994E-04    1.88      18.1  T
   7    -38.2726552 -0.961195E-08  0.577E-04    1.88      31.2  T
     SCC iter.                  ...        0 min,  0.791 sec
     gradient                   ...        0 min,  0.228 sec
 * total energy  :   -37.6493669 Eh     change       -0.8813856E-04 Eh
   gradient norm :     0.0035950 Eh/α   predicted    -0.7171216E-04 ( -18.64%)
   displ. norm   :     0.3086082 α      lambda       -0.1071213E-03
   maximum displ.:     0.2380742 α      in ANC's #3, #2, #4, ...

........................................................................
.............................. CYCLE   78 ..............................
........................................................................
   1    -38.2747567 -0.382748E+02  0.604E-02    1.88       0.0  T
   2    -38.2747573 -0.678818E-06  0.388E-02    1.88       1.0  T
   3    -38.2747544  0.295464E-05  0.136E-02    1.88       1.3  T
   4    -38.2747577 -0.334660E-05  0.391E-03    1.88       4.6  T
   5    -38.2747577  0.218743E-07  0.247E-03    1.88       7.3  T
   6    -38.2747578 -0.455589E-07  0.733E-04    1.88      24.5  T
   7    -38.2747578 -0.928051E-08  0.402E-04    1.88      44.7  T
     SCC iter.                  ...        0 min,  0.704 sec
     gradient                   ...        0 min,  0.231 sec
 * total energy  :   -37.6494438 Eh     change       -0.7687105E-04 Eh
   gradient norm :     0.0034096 Eh/α   predicted    -0.5866299E-04 ( -23.69%)
   displ. norm   :     0.3578286 α      lambda       -0.6567638E-04
   maximum displ.:     0.2710079 α      in ANC's #3, #2, #4, ...

........................................................................
.............................. CYCLE   79 ..............................
........................................................................
   1    -38.2739804 -0.382740E+02  0.685E-02    1.88       0.0  T
   2    -38.2739811 -0.616074E-06  0.457E-02    1.88       1.0  T
   3    -38.2739779  0.320122E-05  0.115E-02    1.88       1.6  T
   4    -38.2739814 -0.355681E-05  0.435E-03    1.88       4.1  T
   5    -38.2739814  0.143728E-07  0.250E-03    1.88       7.2  T
   6    -38.2739815 -0.683776E-07  0.650E-04    1.88      27.6  T
   7    -38.2739815 -0.266117E-08  0.481E-04    1.88      37.4  T
     SCC iter.                  ...        0 min,  0.642 sec
     gradient                   ...        0 min,  0.126 sec
 * total energy  :   -37.6494873 Eh     change       -0.4349096E-04 Eh
   gradient norm :     0.0024260 Eh/α   predicted    -0.3704662E-04 ( -14.82%)
   displ. norm   :     0.2226988 α      lambda       -0.8063740E-04
   maximum displ.:     0.1697292 α      in ANC's #3, #2, #4, ...

........................................................................
.............................. CYCLE   80 ..............................
........................................................................
   1    -38.2780127 -0.382780E+02  0.435E-02    1.88       0.0  T
   2    -38.2780132 -0.490136E-06  0.283E-02    1.88       1.0  T
   3    -38.2780109  0.234270E-05  0.108E-02    1.88       1.7  T
   4    -38.2780135 -0.258473E-05  0.324E-03    1.88       5.5  T
   5    -38.2780135 -0.409749E-07  0.233E-03    1.88       7.7  T
   6    -38.2780135 -0.923760E-08  0.857E-04    1.88      20.9  T
   7    -38.2780135 -0.163087E-07  0.280E-04    1.88      64.2  T
     SCC iter.                  ...        0 min,  0.673 sec
     gradient                   ...        0 min,  0.236 sec
 * total energy  :   -37.6495204 Eh     change       -0.3315950E-04 Eh
   gradient norm :     0.0025484 Eh/α   predicted    -0.4231876E-04 (  27.62%)
   displ. norm   :     0.3184761 α      lambda       -0.4371543E-04
   maximum displ.:     0.2403636 α      in ANC's #3, #2, #4, ...

........................................................................
.............................. CYCLE   81 ..............................
........................................................................
   1    -38.2751008 -0.382751E+02  0.649E-02    1.88       0.0  T
   2    -38.2751013 -0.476573E-06  0.423E-02    1.88       1.0  T
   3    -38.2750963  0.495838E-05  0.173E-02    1.88       1.0  T
   4    -38.2751017 -0.534786E-05  0.407E-03    1.88       4.4  T
   5    -38.2751017 -0.305238E-07  0.334E-03    1.88       5.4  T
   6    -38.2751018 -0.632036E-07  0.942E-04    1.88      19.1  T
   7    -38.2751018 -0.501612E-08  0.359E-04    1.88      50.1  T
     SCC iter.                  ...        0 min,  0.623 sec
     gradient                   ...        0 min,  0.048 sec
 * total energy  :   -37.6495367 Eh     change       -0.1626062E-04 Eh
   gradient norm :     0.0025463 Eh/α   predicted    -0.2407954E-04 (  48.09%)
   displ. norm   :     0.0847483 α      lambda       -0.1677486E-04
   maximum displ.:     0.0654457 α      in ANC's #3, #2, #1, ...

........................................................................
.............................. CYCLE   82 ..............................
........................................................................
   1    -38.2762184 -0.382762E+02  0.192E-02    1.88       0.0  T
   2    -38.2762185 -0.765434E-07  0.119E-02    1.88       1.5  T
   3    -38.2762177  0.785156E-06  0.758E-03    1.88       2.4  T
   4    -38.2762186 -0.891436E-06  0.162E-03    1.88      11.1  T
   5    -38.2762186 -0.367516E-08  0.127E-03    1.88      14.2  T
   6    -38.2762186 -0.817109E-08  0.438E-04    1.88      41.0  T
   7    -38.2762186 -0.118936E-08  0.144E-04    1.88     124.4  T
     SCC iter.                  ...        0 min,  0.548 sec
     gradient                   ...        0 min,  0.070 sec
 * total energy  :   -37.6495476 Eh     change       -0.1091347E-04 Eh
   gradient norm :     0.0014437 Eh/α   predicted    -0.8454501E-05 ( -22.53%)
   displ. norm   :     0.0933171 α      lambda       -0.1472174E-04
   maximum displ.:     0.0560699 α      in ANC's #2, #1, #5, ...

........................................................................
.............................. CYCLE   83 ..............................
........................................................................
   1    -38.2766956 -0.382767E+02  0.269E-02    1.89       0.0  T
   2    -38.2766957 -0.189728E-06  0.182E-02    1.88       1.0  T
   3    -38.2766942  0.155699E-05  0.897E-03    1.88       2.0  T
   4    -38.2766959 -0.175504E-05  0.270E-03    1.89       6.7  T
   5    -38.2766960 -0.597546E-07  0.150E-03    1.88      12.0  T
   6    -38.2766960 -0.730630E-08  0.469E-04    1.89      38.3  T
   7    -38.2766960 -0.205279E-08  0.227E-04    1.89      79.2  T
     SCC iter.                  ...        0 min,  0.667 sec
     gradient                   ...        0 min,  0.189 sec
 * total energy  :   -37.6495621 Eh     change       -0.1447308E-04 Eh
   gradient norm :     0.0012815 Eh/α   predicted    -0.7391440E-05 ( -48.93%)
   displ. norm   :     0.1223617 α      lambda       -0.1028377E-04
   maximum displ.:     0.0835608 α      in ANC's #2, #3, #1, ...

........................................................................
.............................. CYCLE   84 ..............................
........................................................................
   1    -38.2760731 -0.382761E+02  0.312E-02    1.89       0.0  T
   2    -38.2760732 -0.116876E-06  0.222E-02    1.89       1.0  T
   3    -38.2760711  0.208934E-05  0.914E-03    1.88       2.0  T
   4    -38.2760733 -0.217154E-05  0.276E-03    1.89       6.5  T
   5    -38.2760734 -0.742105E-07  0.151E-03    1.89      11.9  T
   6    -38.2760734 -0.554481E-08  0.388E-04    1.89      46.3  T
   7    -38.2760734 -0.108209E-08  0.179E-04    1.89     100.2  T
     SCC iter.                  ...        0 min,  0.748 sec
     gradient                   ...        0 min,  0.249 sec
 * total energy  :   -37.6495721 Eh     change       -0.1000039E-04 Eh
   gradient norm :     0.0010020 Eh/α   predicted    -0.5181931E-05 ( -48.18%)
   displ. norm   :     0.0558421 α      lambda       -0.4239673E-05
   maximum displ.:     0.0348272 α      in ANC's #2, #1, #5, ...

........................................................................
.............................. CYCLE   85 ..............................
........................................................................
   1    -38.2757478 -0.382757E+02  0.144E-02    1.88       0.0  T
   2    -38.2757478 -0.624542E-07  0.114E-02    1.89       1.6  T
   3    -38.2757479 -0.585463E-07  0.621E-03    1.88       2.9  T
   4    -38.2757482 -0.355339E-06  0.129E-03    1.89      14.0  T
   5    -38.2757483 -0.219804E-07  0.758E-04    1.89      23.7  T
   6    -38.2757483 -0.137599E-08  0.317E-04    1.89      56.6  T
     SCC iter.                  ...        0 min,  0.602 sec
     gradient                   ...        0 min,  0.227 sec
 * total energy  :   -37.6495765 Eh     change       -0.4374283E-05 Eh
   gradient norm :     0.0005345 Eh/α   predicted    -0.2124408E-05 ( -51.43%)
   displ. norm   :     0.0574137 α      lambda       -0.3023134E-05
   maximum displ.:     0.0458535 α      in ANC's #3, #1, #5, ...

   *** GEOMETRY OPTIMIZATION CONVERGED AFTER 85 ITERATIONS ***

------------------------------------------------------------------------
 total energy gain   :        -9.4282869 Eh    -5916.3394 kcal/mol
 total RMSD          :         1.7108202 a0        0.9053 Å
 total power (kW/mol):      -291.2231050 (step) -415.4364 (real)
------------------------------------------------------------------------

 ANCopt (total)                0 d,  0 h,  0 min, 59.585 sec
 optimizer setup                ...        0 min,  0.000 sec (  0.001%)
 model hessian                  ...        0 min,  0.154 sec (  0.258%)
 ANC generation                 ...        0 min,  0.047 sec (  0.080%)
 coordinate transformation      ...        0 min,  0.001 sec (  0.002%)
 single point calculation       ...        0 min, 58.271 sec ( 97.795%)
 optimization log               ...        0 min,  0.021 sec (  0.036%)
 hessian update                 ...        0 min,  0.795 sec (  1.334%)
 rational function              ...        0 min,  0.288 sec (  0.483%)

================
 final structure:
================
31
 xtb: 6.5.1 (b24c23e)
Zr          -1.31034184350762       -0.17192518245155        0.62019840611091
C           -1.72896810154013        1.09077952690469       -1.61141520287463
C           -0.45876889910824       -2.38298085449783        1.23669457488718
C            0.49448212509085       -1.83473524145822        0.34222062637577
C           -0.12224283398332       -1.69102776627959       -0.92286676862837
C           -1.45643892347813       -2.15172403267291       -0.81530034739702
C           -1.66715719704884       -2.57814582930253        0.52268869710955
H           -0.25671602067978       -2.74622857717209        2.23871448106273
H            1.55159883195795       -1.70419963456599        0.54533414355394
H            0.38879508481046       -1.43888567307291       -1.84642296693255
H           -2.14683813141222       -2.29873032425338       -1.63753496124922
H           -2.53159872033566       -3.12340118238533        0.88556133793569
C            0.20490253045592        0.37002683598334        2.48251616607349
C           -1.12560491386601        0.54696275093713        2.93662511391804
C           -1.67676552372669        1.65306124538443        2.23475249618402
C           -0.70339044154368        2.12670204949692        1.32746761045359
C            0.45686338408907        1.32336928023843        1.46735500570181
H            0.94401461129039       -0.28065497983348        2.93510528125926
H           -1.57141537345682        0.05948858862007        3.79849311414614
H           -2.60789264112994        2.15093124150763        2.47529733905014
H           -0.77568868453617        3.03852265694560        0.74542001522270
H            1.42386153884142        1.52525761544065        1.01683189097639
H           -0.74388867136850        1.00647901618549       -1.10235521204725
H           -1.85782942824458        0.35030763120011       -2.39779158333103
H           -1.85384710795462        2.09011355287844       -2.01306531606196
C           -3.52050289993666       -0.10001560997392        0.51819452959123
C           -3.48495921222197        0.96770371074289       -0.49380209912326
H           -3.54139413884531        1.98852670564229       -0.11535727771457
H           -4.10327595531002        0.82957288205918       -1.37757440939383
H           -3.95579098442485        0.24245512303138        1.46646727864740
H           -4.04828181888170       -0.98807057528704        0.15063235649469

 Bond Distances (Angstroems)
 ---------------------------
Zr1-C2=2.5980        Zr1-C3=2.4483        Zr1-C4=2.4697        Zr1-C5=2.4699        Zr1-C6=2.4498        Zr1-C7=2.4345        
Zr1-C13=2.4613       Zr1-C14=2.4324       Zr1-C15=2.4641       Zr1-C16=2.4804       Zr1-C17=2.4651       Zr1-H23=2.1626       
Zr1-C26=2.2137       Zr1-C27=2.6961       C2-Zr1=2.5980        C2-H23=1.1120        C2-H24=1.0878        C2-H25=1.0842        
C3-Zr1=2.4483        C3-C4=1.4175         C3-C7=1.4171         C3-H8=1.0848         C4-Zr1=2.4697        C4-C3=1.4175         
C4-C5=1.4147         C4-H9=1.0843         C5-Zr1=2.4699        C5-C4=1.4147         C5-C6=1.4156         C5-H10=1.0852        
C6-Zr1=2.4498        C6-C5=1.4156         C6-C7=1.4200         C6-H11=1.0837        C7-Zr1=2.4345        C7-C3=1.4171         
C7-C6=1.4200         C7-H12=1.0845        H8-C3=1.0848         H9-C4=1.0843         H10-C5=1.0852        H11-C6=1.0837        
H12-C7=1.0845        C13-Zr1=2.4613       C13-C14=1.4170       C13-C17=1.4152       C13-H18=1.0837       C14-Zr1=2.4324       
C14-C13=1.4170       C14-C15=1.4212       C14-H19=1.0859       C15-Zr1=2.4641       C15-C14=1.4212       C15-C16=1.4124       
C15-H20=1.0829       C16-Zr1=2.4804       C16-C15=1.4124       C16-C17=1.4181       C16-H21=1.0842       C17-Zr1=2.4651       
C17-C13=1.4152       C17-C16=1.4181       C17-H22=1.0857       H18-C13=1.0837       H19-C14=1.0859       H20-C15=1.0829       
H21-C16=1.0842       H22-C17=1.0857       H23-Zr1=2.1626       H23-C2=1.1120        H24-C2=1.0878        H25-C2=1.0842        
C26-Zr1=2.2137       C26-C27=1.4715       C26-H30=1.0982       C26-H31=1.0965       C27-Zr1=2.6961       C27-C26=1.4715       
C27-H28=1.0902       C27-H29=1.0874       H28-C27=1.0902       H29-C27=1.0874       H30-C26=1.0982       H31-C26=1.0965       
 C  H  Rav=1.0883 sigma=0.0073  Rmin=1.0829  Rmax=1.1120    17
 C  C  Rav=1.4219 sigma=0.0159  Rmin=1.4124  Rmax=1.4715    11
 Zr H  Rav=2.1626 sigma=0.0000  Rmin=2.1626  Rmax=2.1626     1
 Zr C  Rav=2.4679 sigma=0.1026  Rmin=2.2137  Rmax=2.6961    13

 selected bond angles (degree)
 --------------------
C3-Zr1-C2=135.34               C4-Zr1-C2=110.38               C4-Zr1-C3= 33.50               C5-Zr1-C2= 80.78               
C5-Zr1-C3= 55.57               C5-Zr1-C4= 33.29               C6-Zr1-C2= 83.10               C6-Zr1-C3= 55.84               
C6-Zr1-C4= 55.50               C6-Zr1-C5= 33.44               C7-Zr1-C2=114.98               C7-Zr1-C3= 33.74               
C7-Zr1-C4= 55.75               C7-Zr1-C5= 55.78               C7-Zr1-C6= 33.80               C13-Zr1-C2=129.95              
C13-Zr1-C3= 78.12              C13-Zr1-C4= 77.50              C13-Zr1-C5=108.18              C13-Zr1-C6=131.15              
C13-Zr1-C7=109.77              C14-Zr1-C2=133.36              C14-Zr1-C3= 90.04              C14-Zr1-C4=104.52              
C14-Zr1-C5=137.75              C14-Zr1-C6=143.26              C14-Zr1-C7=109.96              C14-Zr1-C13= 33.66             
C15-Zr1-C2=100.31              C15-Zr1-C3=123.75              C15-Zr1-C4=132.93              C15-Zr1-C5=159.46              
C15-Zr1-C6=166.81              C15-Zr1-C7=137.43              C15-Zr1-C13= 55.44             C15-Zr1-C14= 33.74             
C16-Zr1-C2= 80.44              C16-Zr1-C3=132.84              C16-Zr1-C4=118.50              C16-Zr1-C5=129.08              
C16-Zr1-C6=158.53              C16-Zr1-C7=164.42              C16-Zr1-C13= 55.22             C16-Zr1-C14= 55.67             
C16-Zr1-C15= 33.19             C17-Zr1-C2= 96.66              C17-Zr1-C3=102.24              C17-Zr1-C4= 85.59              
C17-Zr1-C5=104.06              C17-Zr1-C6=137.25              C17-Zr1-C7=135.92              C17-Zr1-C13= 33.39             
C17-Zr1-C14= 55.88             C17-Zr1-C15= 55.40             C17-Zr1-C16= 33.33             H23-Zr1-C2= 24.93              
H23-Zr1-C3=126.98              H23-Zr1-C4= 94.92              H23-Zr1-C5= 73.23              H23-Zr1-C6= 89.38              
H23-Zr1-C7=123.03              H23-Zr1-C13=108.75             H23-Zr1-C14=125.28             H23-Zr1-C15= 99.05             
H23-Zr1-C16= 70.00             H23-Zr1-C17= 75.84             C26-Zr1-C2= 77.51              C26-Zr1-C3=112.84              
C26-Zr1-C4=138.27              C26-Zr1-C5=118.13              C26-Zr1-C6= 86.54              C26-Zr1-C7= 83.33              
C26-Zr1-C13=129.97             C26-Zr1-C14= 96.32             C26-Zr1-C15= 81.82             C26-Zr1-C16=103.14             
C26-Zr1-C17=135.39             C26-Zr1-H23=101.95             C27-Zr1-C2= 46.34              C27-Zr1-C3=140.03              
C27-Zr1-C4=145.85              C27-Zr1-C5=112.94              C27-Zr1-C6= 92.95              C27-Zr1-C7=106.44              
C27-Zr1-C13=135.74             C27-Zr1-C14=109.26             C27-Zr1-C15= 80.66             C27-Zr1-C16= 85.61             
C27-Zr1-C17=117.63             C27-Zr1-H23= 69.62             C27-Zr1-C26= 33.06             H23-C2-Zr1= 55.06              
H24-C2-Zr1=108.01              H24-C2-H23=112.60              H25-C2-Zr1=141.69              H25-C2-H23=109.97              
H25-C2-H24=110.24              C4-C3-Zr1= 74.08               C7-C3-Zr1= 72.60               C7-C3-C4=107.99                
H8-C3-Zr1=126.85               H8-C3-C4=125.95                H8-C3-C7=125.32                C3-C4-Zr1= 72.42               
C5-C4-Zr1= 73.36               C5-C4-C3=108.08                H9-C4-Zr1=127.61               H9-C4-C3=125.73                
H9-C4-C5=125.47                C4-C5-Zr1= 73.35               C6-C5-Zr1= 72.50               C6-C5-C4=108.05                
H10-C5-Zr1=127.97              H10-C5-C4=125.40               H10-C5-C6=125.74               C5-C6-Zr1= 74.06               
C7-C6-Zr1= 72.51               C7-C6-C5=108.01                H11-C6-Zr1=126.31              H11-C6-C5=125.94               
H11-C6-C7=125.43               C3-C7-Zr1= 73.66               C6-C7-Zr1= 73.69               C6-C7-C3=107.87                
H12-C7-Zr1=126.89              H12-C7-C3=125.47               H12-C7-C6=125.77               

 selected dihedral angles (degree)
 ---------------------------------
H23-C2-Zr1-C3=278.43          H23-C2-Zr1-C4=305.61          H23-C2-Zr1-C5=290.13          H23-C2-Zr1-C6=256.43          
H23-C2-Zr1-C7=244.90          H23-C2-Zr1-C13= 36.18         H23-C2-Zr1-C14= 81.55         H23-C2-Zr1-C15= 89.32         
H23-C2-Zr1-C16= 62.59         H23-C2-Zr1-C17= 33.36         H23-C2-Zr1-C26=168.46         H23-C2-Zr1-C27=155.65         
H24-C2-Zr1-C3= 23.84          H24-C2-Zr1-C4= 51.02          H24-C2-Zr1-C5= 35.54          H24-C2-Zr1-C6=  1.84          
H24-C2-Zr1-C7=350.31          H24-C2-Zr1-C13=141.59         H24-C2-Zr1-C14=186.96         H24-C2-Zr1-C15=194.73         
H24-C2-Zr1-C16=168.00         H24-C2-Zr1-C17=138.77         H24-C2-Zr1-H23=105.41         H24-C2-Zr1-C26=273.87         
H24-C2-Zr1-C27=261.06         H25-C2-Zr1-C3=200.70          H25-C2-Zr1-C4=227.88          H25-C2-Zr1-C5=212.41          
H25-C2-Zr1-C6=178.70          H25-C2-Zr1-C7=167.17          H25-C2-Zr1-C13=318.45         H25-C2-Zr1-C14=  3.83         
H25-C2-Zr1-C15= 11.59         H25-C2-Zr1-C16=344.86         H25-C2-Zr1-C17=315.64         H25-C2-Zr1-H23=282.27         
H25-C2-Zr1-C26= 90.73         H25-C2-Zr1-C27= 77.92         C4-C3-Zr1-C2= 50.87           C4-C3-Zr1-C5= 36.82           
C4-C3-Zr1-C6= 77.58           C4-C3-Zr1-C7=115.21           C4-C3-Zr1-C13=274.76          C4-C3-Zr1-C14=243.06          
C4-C3-Zr1-C15=241.67          C4-C3-Zr1-C16=282.83          C4-C3-Zr1-C17=298.04          C4-C3-Zr1-H23= 19.41          
C4-C3-Zr1-C26=146.18          C4-C3-Zr1-C27=122.11          C7-C3-Zr1-C2=295.67           C7-C3-Zr1-C4=244.79           
C7-C3-Zr1-C5=281.61           C7-C3-Zr1-C6=322.38           C7-C3-Zr1-C13=159.56          C7-C3-Zr1-C14=127.85          
C7-C3-Zr1-C15=126.46          C7-C3-Zr1-C16=167.62          C7-C3-Zr1-C17=182.83          C7-C3-Zr1-H23=264.20          
C7-C3-Zr1-C26= 30.97          C7-C3-Zr1-C27=  6.90          H8-C3-Zr1-C2=174.19           H8-C3-Zr1-C4=123.31           
H8-C3-Zr1-C5=160.13           H8-C3-Zr1-C6=200.89           H8-C3-Zr1-C7=238.52           H8-C3-Zr1-C13= 38.08          
H8-C3-Zr1-C14=  6.37          H8-C3-Zr1-C15=  4.98          H8-C3-Zr1-C16= 46.14          H8-C3-Zr1-C17= 61.35          
H8-C3-Zr1-H23=142.72          H8-C3-Zr1-C26=269.49          H8-C3-Zr1-C27=245.42          C3-C4-Zr1-C2=215.57           
C3-C4-Zr1-C5=244.25           C3-C4-Zr1-C6=281.31           C3-C4-Zr1-C7=322.56           C3-C4-Zr1-C13= 87.31          
C3-C4-Zr1-C14= 67.05          C3-C4-Zr1-C15= 88.25          C3-C4-Zr1-C16=125.56          C3-C4-Zr1-C17=120.10          
C3-C4-Zr1-H23=195.45          C3-C4-Zr1-C26=309.59          C3-C4-Zr1-C27=255.75          C5-C4-Zr1-C2=331.33           
C5-C4-Zr1-C3=115.75           C5-C4-Zr1-C6= 37.06           C5-C4-Zr1-C7= 78.31           C5-C4-Zr1-C13=203.06          
C5-C4-Zr1-C14=182.81          C5-C4-Zr1-C15=204.01          C5-C4-Zr1-C16=241.32          C5-C4-Zr1-C17=235.85          
C5-C4-Zr1-H23=311.21          C5-C4-Zr1-C26= 65.34          C5-C4-Zr1-C27= 11.50          H9-C4-Zr1-C2= 93.62           
H9-C4-Zr1-C3=238.05           H9-C4-Zr1-C5=122.30           H9-C4-Zr1-C6=159.36           H9-C4-Zr1-C7=200.61           
H9-C4-Zr1-C13=325.36          H9-C4-Zr1-C14=305.10          H9-C4-Zr1-C15=326.30          H9-C4-Zr1-C16=  3.61          
H9-C4-Zr1-C17=358.15          H9-C4-Zr1-H23= 73.50          H9-C4-Zr1-C26=187.64          H9-C4-Zr1-C27=133.80          
Zr1-C4-C3-C7= 65.19           Zr1-C4-C3-H8=235.69           C5-C4-C3-Zr1=294.80           C5-C4-C3-C7=  0.00            
C5-C4-C3-H8=170.49            H9-C4-C3-Zr1=124.10           H9-C4-C3-C7=189.30            H9-C4-C3-H8=359.80            
C4-C5-Zr1-C2=152.89           C4-C5-Zr1-C3=322.93           C4-C5-Zr1-C6=244.32           C4-C5-Zr1-C7=281.79           
C4-C5-Zr1-C13= 23.74          C4-C5-Zr1-C14=  4.04          C4-C5-Zr1-C15= 58.11          C4-C5-Zr1-C16= 83.29          
C4-C5-Zr1-C17= 58.28          C4-C5-Zr1-H23=128.48          C4-C5-Zr1-C26=223.31          C4-C5-Zr1-C27=186.98          
C6-C5-Zr1-C2=268.58           C6-C5-Zr1-C3= 78.62           C6-C5-Zr1-C4=115.68           C6-C5-Zr1-C7= 37.47           
C6-C5-Zr1-C13=139.42          C6-C5-Zr1-C14=119.72          C6-C5-Zr1-C15=173.79          C6-C5-Zr1-C16=198.97          
C6-C5-Zr1-C17=173.96          C6-C5-Zr1-H23=244.16          C6-C5-Zr1-C26=338.99          C6-C5-Zr1-C27=302.67          
H10-C5-Zr1-C2= 30.64          H10-C5-Zr1-C3=200.68          H10-C5-Zr1-C4=237.75          H10-C5-Zr1-C6=122.06          
H10-C5-Zr1-C7=159.53          H10-C5-Zr1-C13=261.49         H10-C5-Zr1-C14=241.79         H10-C5-Zr1-C15=295.86         
H10-C5-Zr1-C16=321.04         H10-C5-Zr1-C17=296.03         H10-C5-Zr1-H23=  6.22         H10-C5-Zr1-C26=101.06         
H10-C5-Zr1-C27= 64.73         Zr1-C5-C4-C3= 64.58           Zr1-C5-C4-H9=235.31           C6-C5-C4-Zr1=295.31           
C6-C5-C4-C3=359.89            C6-C5-C4-H9=170.62            H10-C5-C4-Zr1=125.13          H10-C5-C4-C3=189.71           
H10-C5-C4-H9=  0.43           C5-C6-Zr1-C2= 83.71           C5-C6-Zr1-C3=282.27           C5-C6-Zr1-C4=323.12           
C5-C6-Zr1-C7=244.71           C5-C6-Zr1-C13=304.84          C5-C6-Zr1-C14=257.47          C5-C6-Zr1-C15=189.57          
C5-C6-Zr1-C16= 43.59          C5-C6-Zr1-C17=351.36          C5-C6-Zr1-H23= 59.52          C5-C6-Zr1-C26=161.53          
C5-C6-Zr1-C27=129.08          C7-C6-Zr1-C2=199.00           C7-C6-Zr1-C3= 37.55           C7-C6-Zr1-C4= 78.41           
C7-C6-Zr1-C5=115.29           C7-C6-Zr1-C13= 60.13          C7-C6-Zr1-C14= 12.76          C7-C6-Zr1-C15=304.86          
C7-C6-Zr1-C16=158.87          C7-C6-Zr1-C17=106.65          C7-C6-Zr1-H23=174.81          C7-C6-Zr1-C26=276.82          
C7-C6-Zr1-C27=244.37          H11-C6-Zr1-C2=320.51          H11-C6-Zr1-C3=159.06          H11-C6-Zr1-C4=199.91          
H11-C6-Zr1-C5=236.80          H11-C6-Zr1-C7=121.51          H11-C6-Zr1-C13=181.64         H11-C6-Zr1-C14=134.27         
H11-C6-Zr1-C15= 66.37         H11-C6-Zr1-C16=280.38         H11-C6-Zr1-C17=228.15         H11-C6-Zr1-H23=296.32         
H11-C6-Zr1-C26= 38.33         H11-C6-Zr1-C27=  5.88         Zr1-C6-C5-C4= 65.25           Zr1-C6-C5-H10=235.39          
C7-C6-C5-Zr1=294.94           C7-C6-C5-C4=  0.18            C7-C6-C5-H10=170.33           H11-C6-C5-Zr1=123.62          
H11-C6-C5-C4=188.86           H11-C6-C5-H10=359.01          C3-C7-Zr1-C2=135.66           C3-C7-Zr1-C4= 37.17           
C3-C7-Zr1-C5= 77.71           C3-C7-Zr1-C6=114.77           C3-C7-Zr1-C13=338.70          C3-C7-Zr1-C14=302.85          
C3-C7-Zr1-C15=278.70          C3-C7-Zr1-C16=324.18          C3-C7-Zr1-C17=  3.97          C3-C7-Zr1-H23=108.57          
C3-C7-Zr1-C26=208.52          C3-C7-Zr1-C27=184.62          C6-C7-Zr1-C2= 20.89           C6-C7-Zr1-C3=245.23           
C6-C7-Zr1-C4=282.40           C6-C7-Zr1-C5=322.94           C6-C7-Zr1-C13=223.94          C6-C7-Zr1-C14=188.08          
C6-C7-Zr1-C15=163.93          C6-C7-Zr1-C16=209.41          C6-C7-Zr1-C17=249.21          C6-C7-Zr1-H23=353.81          
C6-C7-Zr1-C26= 93.75          C6-C7-Zr1-C27= 69.85          H12-C7-Zr1-C2=258.08          H12-C7-Zr1-C3=122.42          
H12-C7-Zr1-C4=159.59          H12-C7-Zr1-C5=200.13          H12-C7-Zr1-C6=237.19          H12-C7-Zr1-C13=101.12         
H12-C7-Zr1-C14= 65.27         H12-C7-Zr1-C15= 41.12         H12-C7-Zr1-C16= 86.60         H12-C7-Zr1-C17=126.40         
H12-C7-Zr1-H23=230.99         H12-C7-Zr1-C26=330.94         H12-C7-Zr1-C27=307.04         Zr1-C7-C3-C4=293.83           
Zr1-C7-C3-H8=123.25           C6-C7-C3-Zr1= 66.30           C6-C7-C3-C4=  0.12            C6-C7-C3-H8=189.55            
H12-C7-C3-Zr1=235.99          H12-C7-C3-C4=169.82           H12-C7-C3-H8=359.24           Zr1-C7-C6-C5= 66.09           
Zr1-C7-C6-H11=237.46          C3-C7-C6-Zr1=293.72           C3-C7-C6-C5=359.81            C3-C7-C6-H11=171.18           
H12-C7-C6-Zr1=124.06          H12-C7-C6-C5=190.15           H12-C7-C6-H11=  1.53          

 CMA Distance (Angstroems)
 ---------------------------
R(CMA):  2.8021
           -------------------------------------------------
          |                Final Singlepoint                |
           -------------------------------------------------

          ...................................................
          :                      SETUP                      :
          :.................................................:
          :  # basis functions                  79          :
          :  # atomic orbitals                  78          :
          :  # shells                           46          :
          :  # electrons                        72          :
          :  max. iterations                   250          :
          :  Hamiltonian                  GFN2-xTB          :
          :  restarted?                      false          :
          :  GBSA solvation                  false          :
          :  PC potential                    false          :
          :  electronic temp.          300.0000000     K    :
          :  accuracy                    1.0000000          :
          :  -> integral cutoff          0.2500000E+02      :
          :  -> integral neglect         0.1000000E-07      :
          :  -> SCF convergence          0.1000000E-05 Eh   :
          :  -> wf. convergence          0.1000000E-03 e    :
          :  Broyden damping             0.4000000          :
          ...................................................

 iter      E             dE          RMSdq      gap      omega  full diag
   1    -38.2757483 -0.382757E+02  0.153E-04    1.89       0.0  T
   2    -38.2757483 -0.355911E-10  0.907E-05    1.89     198.0  T
   3    -38.2757483 -0.452047E-10  0.851E-05    1.89     211.0  T

   *** convergence criteria satisfied after 3 iterations ***

         #    Occupation            Energy/Eh            Energy/eV
      -------------------------------------------------------------
         1        2.0000           -0.8726570             -23.7462
       ...           ...                  ...                  ...
        30        2.0000           -0.5875279             -15.9874
        31        2.0000           -0.5704263             -15.5221
        32        2.0000           -0.5219215             -14.2022
        33        2.0000           -0.5211185             -14.1804
        34        2.0000           -0.5106242             -13.8948
        35        2.0000           -0.5052347             -13.7481
        36        2.0000           -0.4924063             -13.3991 (HOMO)
        37                         -0.4231273             -11.5139 (LUMO)
        38                         -0.4095227             -11.1437
        39                         -0.4073736             -11.0852
        40                         -0.4025722             -10.9545
        41                         -0.3926300             -10.6840
       ...                                ...                  ...
        78                          2.5122583              68.3620
      -------------------------------------------------------------
                  HL-Gap            0.0692790 Eh            1.8852 eV
             Fermi-level           -0.4577668 Eh          -12.4565 eV

 SCC (total)                   0 d,  0 h,  0 min,  0.653 sec
 SCC setup                      ...        0 min,  0.016 sec (  2.448%)
 Dispersion                     ...        0 min,  0.031 sec (  4.784%)
 classical contributions        ...        0 min,  0.046 sec (  7.011%)
 integral evaluation            ...        0 min,  0.077 sec ( 11.736%)
 iterations                     ...        0 min,  0.295 sec ( 45.140%)
 molecular gradient             ...        0 min,  0.188 sec ( 28.848%)
 printout                       ...        0 min,  0.000 sec (  0.028%)

         :::::::::::::::::::::::::::::::::::::::::::::::::::::
         ::                     SUMMARY                     ::
         :::::::::::::::::::::::::::::::::::::::::::::::::::::
         :: total energy             -37.649576461904 Eh    ::
         :: gradient norm              0.000532377930 Eh/a0 ::
         :: HOMO-LUMO gap              1.885177427709 eV    ::
         ::.................................................::
         :: SCC energy               -38.275748272874 Eh    ::
         :: -> isotropic ES            0.087265263268 Eh    ::
         :: -> anisotropic ES         -0.012247222998 Eh    ::
         :: -> anisotropic XC          0.020128614765 Eh    ::
         :: -> dispersion             -0.027837836040 Eh    ::
         :: repulsion energy           0.624861752913 Eh    ::
         :: add. restraining           0.000643877158 Eh    ::
         :: total charge               1.000000000000 e     ::
         :::::::::::::::::::::::::::::::::::::::::::::::::::::

           -------------------------------------------------
          |                Property Printout                |
           -------------------------------------------------

    * Orbital Energies and Occupations

         #    Occupation            Energy/Eh            Energy/eV
      -------------------------------------------------------------
         1        2.0000           -0.8726570             -23.7462
       ...           ...                  ...                  ...
        24        2.0000           -0.5945727             -16.1791
        25        2.0000           -0.5927223             -16.1288
        26        2.0000           -0.5904825             -16.0678
        27        2.0000           -0.5901597             -16.0591
        28        2.0000           -0.5890965             -16.0301
        29        2.0000           -0.5885535             -16.0154
        30        2.0000           -0.5875279             -15.9874
        31        2.0000           -0.5704263             -15.5221
        32        2.0000           -0.5219215             -14.2022
        33        2.0000           -0.5211185             -14.1804
        34        2.0000           -0.5106242             -13.8948
        35        2.0000           -0.5052347             -13.7481
        36        2.0000           -0.4924063             -13.3991 (HOMO)
        37                         -0.4231273             -11.5139 (LUMO)
        38                         -0.4095227             -11.1437
        39                         -0.4073736             -11.0852
        40                         -0.4025722             -10.9545
        41                         -0.3926300             -10.6840
        42                         -0.3582038              -9.7472
        43                         -0.3059563              -8.3255
        44                         -0.3052442              -8.3061
        45                         -0.3051290              -8.3030
        46                         -0.3039301              -8.2704
        47                         -0.0719996              -1.9592
       ...                                ...                  ...
        78                          2.5122583              68.3620
      -------------------------------------------------------------
                  HL-Gap            0.0692790 Eh            1.8852 eV
             Fermi-level           -0.4577668 Eh          -12.4565 eV

     #   Z          covCN         q      C6AA      α(0)
     1  40 Zr      10.223     0.955   138.692    17.696
     2   6 C        3.764    -0.207    24.644     7.076
     3   6 C        3.761    -0.087    22.208     6.718
     4   6 C        3.754    -0.087    22.211     6.720
     5   6 C        3.752    -0.091    22.293     6.733
     6   6 C        3.762    -0.091    22.277     6.728
     7   6 C        3.766    -0.086    22.180     6.712
     8   1 H        0.925     0.085     1.929     2.172
     9   1 H        0.925     0.082     1.955     2.186
    10   1 H        0.925     0.072     2.059     2.244
    11   1 H        0.925     0.084     1.942     2.179
    12   1 H        0.925     0.088     1.901     2.156
    13   6 C        3.759    -0.083    22.125     6.706
    14   6 C        3.765    -0.091    22.280     6.728
    15   6 C        3.757    -0.086    22.201     6.718
    16   6 C        3.749    -0.091    22.312     6.737
    17   6 C        3.754    -0.093    22.332     6.738
    18   1 H        0.925     0.086     1.917     2.165
    19   1 H        0.925     0.083     1.947     2.182
    20   1 H        0.925     0.084     1.941     2.178
    21   1 H        0.925     0.075     2.032     2.229
    22   1 H        0.925     0.074     2.039     2.233
    23   1 H        1.529     0.090     1.862     2.130
    24   1 H        0.925     0.088     1.897     2.154
    25   1 H        0.925     0.090     1.881     2.145
    26   6 C        3.631    -0.259    26.242     7.376
    27   6 C        3.733    -0.063    21.810     6.666
    28   1 H        0.925     0.096     1.823     2.111
    29   1 H        0.925     0.101     1.776     2.084
    30   1 H        0.929     0.094     1.843     2.123
    31   1 H        0.925     0.087     1.907     2.160

 Mol. C6AA /au·bohr⁶  :       9435.597663
 Mol. C8AA /au·bohr⁸  :     320410.965945
 Mol. α(0) /au        :        142.883461


Wiberg/Mayer (AO) data.
largest (>0.10) Wiberg bond orders for each atom

 ---------------------------------------------------------------------------
     #   Z sym  total        # sym  WBO       # sym  WBO       # sym  WBO
 ---------------------------------------------------------------------------
     1  40 Zr   4.300 --    26 C    0.700     2 C    0.322    14 C    0.266
                             7 C    0.260     3 C    0.248     6 C    0.241
                            15 C    0.237    17 C    0.231     4 C    0.230
                             5 C    0.228    13 C    0.228    16 C    0.226
                            27 C    0.168    23 H    0.132
     2   6 C    3.952 --    25 H    0.972    24 H    0.952    23 H    0.819
                            27 C    0.684     1 Zr   0.322    26 C    0.101
     3   6 C    3.980 --     4 C    1.304     7 C    1.296     8 H    0.921
                             1 Zr   0.248
     4   6 C    3.980 --     5 C    1.310     3 C    1.304     9 H    0.925
                             1 Zr   0.230
     5   6 C    3.980 --     4 C    1.310     6 C    1.310    10 H    0.925
                             1 Zr   0.228
     6   6 C    3.978 --     5 C    1.310     7 C    1.289    11 H    0.925
                             1 Zr   0.241
     7   6 C    3.981 --     3 C    1.296     6 C    1.289    12 H    0.920
                             1 Zr   0.260
     8   1 H    0.990 --     3 C    0.921
     9   1 H    0.991 --     4 C    0.925
    10   1 H    0.993 --     5 C    0.925
    11   1 H    0.990 --     6 C    0.925
    12   1 H    0.990 --     7 C    0.920
    13   6 C    3.981 --    17 C    1.313    14 C    1.303    18 H    0.925
                             1 Zr   0.228
    14   6 C    3.979 --    13 C    1.303    15 C    1.281    19 H    0.917
                             1 Zr   0.266
    15   6 C    3.980 --    16 C    1.320    14 C    1.281    20 H    0.927
                             1 Zr   0.237
    16   6 C    3.979 --    15 C    1.320    17 C    1.298    21 H    0.928
                             1 Zr   0.226
    17   6 C    3.978 --    13 C    1.313    16 C    1.298    22 H    0.923
                             1 Zr   0.231
    18   1 H    0.990 --    13 C    0.925
    19   1 H    0.991 --    14 C    0.917
    20   1 H    0.990 --    15 C    0.927
    21   1 H    0.992 --    16 C    0.928
    22   1 H    0.993 --    17 C    0.923
    23   1 H    0.992 --     2 C    0.819     1 Zr   0.132
    24   1 H    0.991 --     2 C    0.952
    25   1 H    0.990 --     2 C    0.972
    26   6 C    3.851 --    27 C    1.138    31 H    0.911    30 H    0.881
                             1 Zr   0.700     2 C    0.101
    27   6 C    3.972 --    26 C    1.138    29 H    0.954    28 H    0.941
                             2 C    0.684     1 Zr   0.168
    28   1 H    0.989 --    27 C    0.941
    29   1 H    0.989 --    27 C    0.954
    30   1 H    0.990 --    26 C    0.881
    31   1 H    0.991 --    26 C    0.911
 ---------------------------------------------------------------------------

Topologies differ in total number of bonds
Writing topology from bond orders to xtbtopo.mol

molecular dipole:
                 x           y           z       tot (Debye)
 q only:       -3.003       0.092       0.631
   full:       -2.672       0.217       0.480       6.922
molecular quadrupole (traceless):
                xx          xy          yy          xz          yz          zz
 q only:       10.522      -2.310      -7.513      -1.320      -4.674      -3.010
  q+dip:       11.541      -2.502      -9.717      -1.006      -7.457      -1.823
   full:        9.677      -1.789      -8.505      -2.163      -6.797      -1.172

           -------------------------------------------------
          |                Geometry Summary                 |
           -------------------------------------------------

      molecular mass/u    :      264.4982010
   center of mass at/Å    :       -1.2213532      -0.1774131       0.6547906
  moments of inertia/u·Å² :        0.5951057E+03   0.7163428E+03   0.9324003E+03
rotational constants/cm⁻¹ :        0.2832712E-01   0.2353291E-01   0.1807982E-01

 * 40 selected distances

     #   Z          #   Z                                           value/Å
     1  40 Zr       2   6 C                                       2.5980323 (max)
     1  40 Zr       3   6 C                                       2.4482672
     1  40 Zr       4   6 C                                       2.4697368
     3   6 C        4   6 C                                       1.4175136
     1  40 Zr       5   6 C                                       2.4698792
     4   6 C        5   6 C                                       1.4147254
     1  40 Zr       6   6 C                                       2.4498175
     5   6 C        6   6 C                                       1.4155886
     1  40 Zr       7   6 C                                       2.4344864
     3   6 C        7   6 C                                       1.4170732
     6   6 C        7   6 C                                       1.4200186
     3   6 C        8   1 H                                       1.0848126
     4   6 C        9   1 H                                       1.0843388
     5   6 C       10   1 H                                       1.0852150
     6   6 C       11   1 H                                       1.0836660
     7   6 C       12   1 H                                       1.0845457
     1  40 Zr      13   6 C                                       2.4612814
     1  40 Zr      14   6 C                                       2.4324394
    13   6 C       14   6 C                                       1.4169586
     1  40 Zr      15   6 C                                       2.4640673
    14   6 C       15   6 C                                       1.4212169
     1  40 Zr      16   6 C                                       2.4803847
    15   6 C       16   6 C                                       1.4124308
     1  40 Zr      17   6 C                                       2.4650751
    13   6 C       17   6 C                                       1.4152380
    16   6 C       17   6 C                                       1.4181330
    13   6 C       18   1 H                                       1.0837484
    14   6 C       19   1 H                                       1.0859073
    15   6 C       20   1 H                                       1.0829286 (min)
    16   6 C       21   1 H                                       1.0841695
    17   6 C       22   1 H                                       1.0857328
     2   6 C       23   1 H                                       1.1120388
     2   6 C       24   1 H                                       1.0877922
     2   6 C       25   1 H                                       1.0842446
     1  40 Zr      26   6 C                                       2.2136821
    26   6 C       27   6 C                                       1.4715385
    27   6 C       28   1 H                                       1.0901767
    27   6 C       29   1 H                                       1.0874049
    26   6 C       30   1 H                                       1.0981727
    26   6 C       31   1 H                                       1.0964919

 * 3 distinct bonds (by element types)

   Z      Z             #   av. dist./Å        max./Å        min./Å
   1 H    6 C          17     1.0883168     1.1120388     1.0829286
   6 C    6 C          11     1.4218578     1.4715385     1.4124308
   6 C   40 Zr         12     2.4489291     2.5980323     2.2136821


optimized geometry written to: xtbopt.xyz


           -------------------------------------------------
          | TOTAL ENERGY              -37.649576461904 Eh   |
          | GRADIENT NORM               0.000532377930 Eh/α |
          | HOMO-LUMO GAP               1.885177427709 eV   |
           -------------------------------------------------

------------------------------------------------------------------------
 * finished run on 2026/08/03 at 11:34:56.799     
------------------------------------------------------------------------
 total:
 * wall-time:     0 d,  0 h,  1 min,  1.056 sec
 *  cpu-time:     0 d,  0 h,  2 min, 59.661 sec
 * ratio c/w:     2.943 speedup
 SCF:
 * wall-time:     0 d,  0 h,  0 min,  0.722 sec
 *  cpu-time:     0 d,  0 h,  0 min,  2.880 sec
 * ratio c/w:     3.991 speedup
 ANC optimizer:
 * wall-time:     0 d,  0 h,  1 min,  0.245 sec
 *  cpu-time:     0 d,  0 h,  2 min, 56.637 sec
 * ratio c/w:     2.932 speedup

