77
Co porphyrin with meso-phenyl substitution (generated from Co-porphyrin.xyz)
Co         0.00213612         0.13787848         0.09524498
N         -1.98277208         0.27020450         0.12851130
N          1.98698421         0.00559604         0.06164614
N          0.13337154         2.12219088         0.03510295
N         -0.12911804        -1.84635142         0.15548049
C         -2.88845897        -0.76359753         0.17543220
H         -5.13244254        -0.88651031         0.22059519
C         -2.74447649         1.41499025         0.10918090
C         -4.15126504         1.09686010         0.14451062
H         -4.95253607         1.83443491         0.13782295
C         -4.24109246        -0.26170451         0.18579335
C         -2.24965136         2.70894874         0.06230173
C         -3.23122535         3.82984402         0.04793908
C         -4.09645159         3.98676356        -1.03758790
C         -5.01675955         5.03769692        -1.05105409
C         -5.07184127         5.93171073         0.02100668
C         -4.20661503         5.77479119         1.10653366
C         -3.28630707         4.72385783         1.11999985
H         -4.05375045         3.29369487        -1.86868440
H         -5.68751118         5.15934607        -1.89259003
H         -5.78529405         6.74642857         0.01056725
H         -4.24931618         6.46785988         1.93763016
H         -2.61555545         4.60220868         1.96153579
C          1.27802652         2.88308906        -0.00850144
C          0.95904831         4.28968904        -0.04360884
H          1.69636618         5.09036142        -0.08085817
C         -0.39990775         4.38022203        -0.02080383
H         -1.02538144         5.27166657        -0.03519997
C         -0.90118557         3.02819900         0.02798516
C         -2.56834625        -2.11188080         0.20906685
C         -3.68893220        -3.09265443         0.25876828
C         -3.89799004        -3.96906449        -0.80885020
C         -4.94863338        -4.88862204        -0.76225095
C         -5.79021886        -4.93176954         0.35196679
C         -5.58116101        -4.05535948         1.41958527
C         -4.53051768        -3.13580192         1.37298602
H         -3.24556551        -3.93561514        -1.67262816
H         -5.11070184        -5.56804373        -1.58990364
H         -6.60471187        -5.64464057         0.38809205
H         -6.23358555        -4.08880883         2.28336323
H         -4.36844922        -2.45638024         2.20063871
H          1.02960706        -4.99581576         0.22656209
C          0.40414276        -4.10437090         0.21200056
C          0.90542573        -2.75237790         0.16263305
H         -1.69213381        -4.81447120         0.27263218
C         -1.27378045        -2.60722756         0.19946839
C         -0.95480627        -4.01381857         0.23501181
C          2.57258107         2.38771270        -0.01842927
C          3.69319274         3.36846386        -0.06799365
C          3.86117216         4.18091912        -1.19196356
C          4.91183962         5.10045561        -1.23843432
C          5.79452766         5.20753684        -0.16093516
C          5.62654824         4.39508158         0.96303475
C          4.57588078         3.47554509         1.00950551
H          3.17688358         4.09790625        -2.02727608
H          5.04206275         5.73029744        -2.10977249
H          6.60903937         5.92039154        -0.19696081
H          6.31083683         4.47809445         1.79834727
H          4.44565766         2.84570326         1.88084368
H          4.95673549        -1.55866098         0.05083505
C          4.15546561        -0.82107541         0.04461107
C          4.24528105         0.53749658         0.00355315
H          5.13661938         1.16230354        -0.03148740
C          2.89266143         1.03940517         0.01458137
C          2.74869036        -1.13919981         0.08047596
C          2.25388287        -2.43315432         0.12767337
C          3.23544756        -3.55406056         0.14181433
C          4.05952323        -3.77488596        -0.96441549
C          4.97982247        -4.82582960        -0.95115716
C          5.07604603        -5.65594784         0.16833100
C          4.25197036        -5.43512244         1.27456083
C          3.33167112        -4.38417880         1.26130249
H          3.98492758        -3.13135121        -1.83227926
H          5.61867283        -4.99702066        -1.80874263
H          5.78949204        -6.47067365         0.17860929
H          4.32656600        -6.07865719         2.14242459
H          2.69282076        -4.21298774         2.11888796
