      -----------------------------------------------------------      
     |                   =====================                   |     
     |                           x T B                           |     
     |                   =====================                   |     
     |                         S. Grimme                         |     
     |          Mulliken Center for Theoretical Chemistry        |     
     |                    University of Bonn                     |     
      -----------------------------------------------------------      

   * xtb version 6.5.1 (b24c23e) compiled by 'conda@728c89f4b128' on 2022-07-12

   xtb is free software: you can redistribute it and/or modify it under
   the terms of the GNU Lesser General Public License as published by
   the Free Software Foundation, either version 3 of the License, or
   (at your option) any later version.
   
   xtb is distributed in the hope that it will be useful,
   but WITHOUT ANY WARRANTY; without even the implied warranty of
   MERCHANTABILITY or FITNESS FOR A PARTICULAR PURPOSE.  See the
   GNU Lesser General Public License for more details.
   
   Cite this work as:
   * C. Bannwarth, E. Caldeweyher, S. Ehlert, A. Hansen, P. Pracht,
     J. Seibert, S. Spicher, S. Grimme, WIREs Comput. Mol. Sci., 2020, 11,
     e01493. DOI: 10.1002/wcms.1493
   
   for GFN2-xTB:
   * C. Bannwarth, S. Ehlert and S. Grimme., J. Chem. Theory Comput., 2019,
     15, 1652-1671. DOI: 10.1021/acs.jctc.8b01176
   for GFN1-xTB:
   * S. Grimme, C. Bannwarth, P. Shushkov, J. Chem. Theory Comput., 2017,
     13, 1989-2009. DOI: 10.1021/acs.jctc.7b00118
   for GFN0-xTB:
   * P. Pracht, E. Caldeweyher, S. Ehlert, S. Grimme, ChemRxiv, 2019, preprint.
     DOI: 10.26434/chemrxiv.8326202.v1
   for GFN-FF:
   * S. Spicher and S. Grimme, Angew. Chem. Int. Ed., 2020, 59, 15665-15673.
     DOI: 10.1002/anie.202004239
   
   for ALPB and GBSA implicit solvation:
   * S. Ehlert, M. Stahn, S. Spicher, S. Grimme, J. Chem. Theory Comput.,
     2021, 17, 4250-4261. DOI: 10.1021/acs.jctc.1c00471
   
   for DFT-D4:
   * E. Caldeweyher, C. Bannwarth and S. Grimme, J. Chem. Phys., 2017,
     147, 034112. DOI: 10.1063/1.4993215
   * E. Caldeweyher, S. Ehlert, A. Hansen, H. Neugebauer, S. Spicher,
     C. Bannwarth and S. Grimme, J. Chem. Phys., 2019, 150, 154122.
     DOI: 10.1063/1.5090222
   * E. Caldeweyher, J.-M. Mewes, S. Ehlert and S. Grimme, Phys. Chem. Chem. Phys.
     2020, 22, 8499-8512. DOI: 10.1039/D0CP00502A
   
   for sTDA-xTB:
   * S. Grimme and C. Bannwarth, J. Chem. Phys., 2016, 145, 054103.
     DOI: 10.1063/1.4959605
   
   in the mass-spec context:
   * V. Asgeirsson, C. Bauer and S. Grimme, Chem. Sci., 2017, 8, 4879.
     DOI: 10.1039/c7sc00601b
   * J. Koopman and S. Grimme, ACS Omega 2019, 4, 12, 15120-15133.
     DOI: 10.1021/acsomega.9b02011
   
   for metadynamics refer to:
   * S. Grimme, J. Chem. Theory Comput., 2019, 155, 2847-2862
     DOI: 10.1021/acs.jctc.9b00143
   
   for SPH calculations refer to:
   * S. Spicher and S. Grimme, J. Chem. Theory Comput., 2021, 17, 1701-1714
     DOI: 10.1021/acs.jctc.0c01306
   
   with help from (in alphabetical order)
   P. Atkinson, C. Bannwarth, F. Bohle, G. Brandenburg, E. Caldeweyher
   M. Checinski, S. Dohm, S. Ehlert, S. Ehrlich, I. Gerasimov, C. Hölzer
   A. Katbashev, J. Koopman, C. Lavigne, S. Lehtola, F. März, M. Müller,
   F. Musil, H. Neugebauer, J. Pisarek, C. Plett, P. Pracht, F. Pultar,
   J. Seibert, P. Shushkov, S. Spicher, M. Stahn, M. Steiner, T. Strunk,
   J. Stückrath, T. Rose, and J. Unsleber
   
 * started run on 2026/07/21 at 14:53:49.878     

           -------------------------------------------------
          |                Calculation Setup                |
           -------------------------------------------------

          program call               : /h/332/chchoi/miniconda3/envs/el-agente/bin/xtb reactant_opt.xyz --opt --gfn 2 -P 4 --chrg 1 --uhf 0 --input detailed_input.inp
          coordinate file            : reactant_opt.xyz
          omp threads                :                     4

   ID    Z sym.   atoms
    1   40 Zr     1
    2    6 C      2-7, 13-17, 26, 27
    3    1 H      8-12, 18-25, 28-31
constraining bond 2 27 to    2.2000000 Å, actual value:    3.2810771 Å
constraining bond 1 2 to    2.4000000 Å, actual value:    2.2077984 Å
constraining bond 1 26 to    2.3500000 Å, actual value:    2.7402019 Å
constraining bond 26 27 to    1.4200000 Å, actual value:    1.3339472 Å

molecular fragmentation (1/2 indicates fragments):
1111111111111111111111111222222
# atoms in fragment 1/2:    25     6
 fragment masses (1/2) :      236.44       28.05
CMA distance (Bohr)    :   5.992
constraining FC (au)   :  1.0000

           -------------------------------------------------
          |                 G F N 2 - x T B                 |
           -------------------------------------------------

        Reference                      10.1021/acs.jctc.8b01176
      * Hamiltonian:
        H0-scaling (s, p, d)           1.850000    2.230000    2.230000
        zeta-weighting                 0.500000
      * Dispersion:
        s8                             2.700000
        a1                             0.520000
        a2                             5.000000
        s9                             5.000000
      * Repulsion:
        kExp                           1.500000    1.000000
        rExp                           1.000000
      * Coulomb:
        alpha                          2.000000
        third order                    shell-resolved
        anisotropic                    true
        a3                             3.000000
        a5                             4.000000
        cn-shift                       1.200000
        cn-exp                         4.000000
        max-rad                        5.000000


          ...................................................
          :                      SETUP                      :
          :.................................................:
          :  # basis functions                  79          :
          :  # atomic orbitals                  78          :
          :  # shells                           46          :
          :  # electrons                        72          :
          :  max. iterations                   250          :
          :  Hamiltonian                  GFN2-xTB          :
          :  restarted?                      false          :
          :  GBSA solvation                  false          :
          :  PC potential                    false          :
          :  electronic temp.          300.0000000     K    :
          :  accuracy                    1.0000000          :
          :  -> integral cutoff          0.2500000E+02      :
          :  -> integral neglect         0.1000000E-07      :
          :  -> SCF convergence          0.1000000E-05 Eh   :
          :  -> wf. convergence          0.1000000E-03 e    :
          :  Broyden damping             0.4000000          :
          ...................................................

 iter      E             dE          RMSdq      gap      omega  full diag
   1    -38.1881273 -0.381881E+02  0.436E+00    1.17       0.0  T
   2    -38.2931263 -0.104999E+00  0.332E+00    2.21       1.0  T
   3    -38.3113658 -0.182395E-01  0.230E+00    1.76       1.0  T
   4    -38.3091962  0.216966E-02  0.517E-01    1.90       1.0  T
   5    -38.3106048 -0.140859E-02  0.436E-01    1.80       1.0  T
   6    -38.3131830 -0.257824E-02  0.188E-01    1.83       1.0  T
   7    -38.3132001 -0.170469E-04  0.124E-01    1.85       1.0  T
   8    -38.3132129 -0.127880E-04  0.268E-02    1.86       1.0  T
   9    -38.3132171 -0.427257E-05  0.149E-02    1.87       1.2  T
  10    -38.3132175 -0.337365E-06  0.948E-03    1.87       1.9  T
  11    -38.3132178 -0.339747E-06  0.312E-03    1.87       5.7  T
  12    -38.3132179 -0.591881E-07  0.113E-03    1.87      15.8  T
  13    -38.3132179 -0.496255E-08  0.538E-04    1.87      33.4  T
  14    -38.3132179 -0.275356E-08  0.219E-04    1.87      82.1  T

   *** convergence criteria satisfied after 14 iterations ***

         #    Occupation            Energy/Eh            Energy/eV
      -------------------------------------------------------------
         1        2.0000           -0.8631287             -23.4869
       ...           ...                  ...                  ...
        30        2.0000           -0.5762671             -15.6810
        31        2.0000           -0.5750815             -15.6488
        32        2.0000           -0.5222336             -14.2107
        33        2.0000           -0.5172913             -14.0762
        34        2.0000           -0.5077799             -13.8174
        35        2.0000           -0.5017706             -13.6539
        36        2.0000           -0.4953228             -13.4784 (HOMO)
        37                         -0.4266149             -11.6088 (LUMO)
        38                         -0.4168421             -11.3429
        39                         -0.4101907             -11.1619
        40                         -0.4044101             -11.0046
        41                         -0.3939087             -10.7188
       ...                                ...                  ...
        78                          2.4715417              67.2541
      -------------------------------------------------------------
                  HL-Gap            0.0687079 Eh            1.8696 eV
             Fermi-level           -0.4609689 Eh          -12.5436 eV

 SCC (total)                   0 d,  0 h,  0 min,  0.462 sec
 SCC setup                      ...        0 min,  0.011 sec (  2.416%)
 Dispersion                     ...        0 min,  0.000 sec (  0.101%)
 classical contributions        ...        0 min,  0.006 sec (  1.238%)
 integral evaluation            ...        0 min,  0.002 sec (  0.537%)
 iterations                     ...        0 min,  0.429 sec ( 92.855%)
 molecular gradient             ...        0 min,  0.013 sec (  2.789%)
 printout                       ...        0 min,  0.000 sec (  0.055%)

         :::::::::::::::::::::::::::::::::::::::::::::::::::::
         ::                     SUMMARY                     ::
         :::::::::::::::::::::::::::::::::::::::::::::::::::::
         :: total energy             -32.785200617632 Eh    ::
         :: gradient norm              6.008208758996 Eh/a0 ::
         :: HOMO-LUMO gap              1.869636224564 eV    ::
         ::.................................................::
         :: SCC energy               -38.313217879016 Eh    ::
         :: -> isotropic ES            0.090971621362 Eh    ::
         :: -> anisotropic ES         -0.013151713546 Eh    ::
         :: -> anisotropic XC          0.022496051044 Eh    ::
         :: -> dispersion             -0.027967784814 Eh    ::
         :: repulsion energy           0.651599491425 Eh    ::
         :: add. restraining           4.875687155139 Eh    ::
         :: total charge               1.000000000000 e     ::
         :::::::::::::::::::::::::::::::::::::::::::::::::::::

      ----------------------------------------------------------- 
     |                   =====================                   |
     |                        A N C O P T                        |
     |                   =====================                   |
     |               Approximate Normal Coordinate               |
     |                Rational Function Optimizer                |
      ----------------------------------------------------------- 

          ...................................................
          :                      SETUP                      :
          :.................................................:
          :   optimization level            normal          :
          :   max. optcycles                   200          :
          :   ANC micro-cycles                  20          :
          :   degrees of freedom                87          :
          :.................................................:
          :   RF solver                   davidson          :
          :   write xtbopt.log                true          :
          :   linear?                        false          :
          :   energy convergence         0.5000000E-05 Eh   :
          :   grad. convergence          0.1000000E-02 Eh/α :
          :   maximium RF displ.         1.0000000          :
          :   Hlow (freq-cutoff)         0.1000000E-01      :
          :   Hmax (freq-cutoff)         5.0000000          :
          :   S6 in model hess.         20.0000000          :
          ...................................................

generating ANC from model Hessian ...
Using Lindh-Hessian (1995)
 Shifting diagonal of input Hessian by   0.20387860662676877     
 Lowest  eigenvalues of input Hessian
    0.010000    0.188761    0.000000    0.000000    0.000000    0.000000
    0.000000    0.000000    0.204340    0.204608    0.205479    0.205669
    0.206290    0.210573    0.211130    0.211407    0.211594    0.212057
 Highest eigenvalues
    1.936742    1.972788    3.860594    4.126256    5.725342    6.561640


........................................................................
.............................. CYCLE    1 ..............................
........................................................................
   1    -38.3132179 -0.383132E+02  0.107E-04    1.87       0.0  T
   2    -38.3132179 -0.622009E-10  0.883E-05    1.87     203.3  T
   3    -38.3132179 -0.615259E-10  0.562E-05    1.87     319.6  T
     SCC iter.                  ...        0 min,  0.089 sec
     gradient                   ...        0 min,  0.008 sec
 * total energy  :   -32.7852006 Eh     change       -0.9226397E-10 Eh
   gradient norm :     6.0082088 Eh/α   predicted     0.0000000E+00 (-100.00%)
   displ. norm   :     0.7157864 α      lambda       -0.4278819E+01
   maximum displ.:     0.4970666 α      in ANC's #84, #87, #85, ...

........................................................................
.............................. CYCLE    2 ..............................
........................................................................
   1    -38.2550752 -0.382551E+02  0.802E-01    1.52       0.0  T
   2    -38.2551191 -0.439620E-04  0.520E-01    1.53       1.0  T
   3    -38.2527117  0.240741E-02  0.394E-01    1.47       1.0  T
   4    -38.2555676 -0.285583E-02  0.957E-02    1.49       1.0  T
   5    -38.2555722 -0.463265E-05  0.504E-02    1.50       1.0  T
   6    -38.2555923 -0.201237E-04  0.167E-02    1.50       1.1  T
   7    -38.2555929 -0.592725E-06  0.115E-02    1.50       1.6  T
   8    -38.2555937 -0.768611E-06  0.527E-03    1.50       3.4  T
   9    -38.2555938 -0.898203E-07  0.312E-03    1.50       5.8  T
  10    -38.2555938 -0.269750E-07  0.162E-03    1.50      11.1  T
  11    -38.2555938 -0.112844E-07  0.364E-04    1.50      49.4  T
  12    -38.2555938 -0.265351E-08  0.204E-04    1.50      88.0  T
     SCC iter.                  ...        0 min,  0.382 sec
     gradient                   ...        0 min,  0.015 sec
 * total energy  :   -36.0592357 Eh     change       -0.3274035E+01 Eh
   gradient norm :     3.1945274 Eh/α   predicted    -0.3235536E+01 (  -1.18%)
   displ. norm   :     0.5838543 α      lambda       -0.1836168E+01
   maximum displ.:     0.4404805 α      in ANC's #84, #85, #87, ...

........................................................................
.............................. CYCLE    3 ..............................
........................................................................
   1    -38.1530246 -0.381530E+02  0.129E+00    1.03       0.0  T
   2    -38.1438655  0.915914E-02  0.138E+00    1.60       1.0  T
   3    -38.1710253 -0.271598E-01  0.572E-01    1.40       1.0  T
   4    -38.1690891  0.193628E-02  0.338E-01    1.20       1.0  T
   5    -38.1715430 -0.245391E-02  0.122E-01    1.29       1.0  T
   6    -38.1717419 -0.198958E-03  0.461E-02    1.32       1.0  T
   7    -38.1717358  0.609882E-05  0.362E-02    1.33       1.0  T
   8    -38.1717463 -0.105242E-04  0.105E-02    1.32       1.7  T
   9    -38.1717471 -0.783349E-06  0.507E-03    1.32       3.5  T
  10    -38.1717472 -0.284671E-07  0.258E-03    1.32       7.0  T
  11    -38.1717472 -0.193226E-07  0.129E-03    1.32      14.0  T
  12    -38.1717472 -0.902659E-08  0.756E-04    1.32      23.8  T
  13    -38.1717472 -0.129035E-08  0.328E-04    1.32      54.8  T
     SCC iter.                  ...        0 min,  0.393 sec
     gradient                   ...        0 min,  0.017 sec
 * total energy  :   -37.3015530 Eh     change       -0.1242317E+01 Eh
   gradient norm :     1.1258185 Eh/α   predicted    -0.1231049E+01 (  -0.91%)
   displ. norm   :     0.3725201 α      lambda       -0.3590648E+00
   maximum displ.:     0.2231273 α      in ANC's #84, #65, #85, ...

........................................................................
.............................. CYCLE    4 ..............................
........................................................................
   1    -38.1194446 -0.381194E+02  0.101E+00    1.32       0.0  T
   2    -38.1085433  0.109012E-01  0.112E+00    1.65       1.0  T
   3    -38.1330249 -0.244815E-01  0.409E-01    1.48       1.0  T
   4    -38.1322168  0.808009E-03  0.216E-01    1.38       1.0  T
   5    -38.1333959 -0.117906E-02  0.706E-02    1.45       1.0  T
   6    -38.1334269 -0.310357E-04  0.320E-02    1.45       1.0  T
   7    -38.1334248  0.209273E-05  0.252E-02    1.46       1.0  T
   8    -38.1334307 -0.588473E-05  0.655E-03    1.45       2.7  T
   9    -38.1334311 -0.322533E-06  0.279E-03    1.45       6.4  T
  10    -38.1334311 -0.465692E-07  0.117E-03    1.45      15.3  T
  11    -38.1334311 -0.602265E-08  0.557E-04    1.45      32.2  T
  12    -38.1334311 -0.271044E-09  0.359E-04    1.45      50.1  T
     SCC iter.                  ...        0 min,  0.380 sec
     gradient                   ...        0 min,  0.015 sec
 * total energy  :   -37.5082030 Eh     change       -0.2066500E+00 Eh
   gradient norm :     0.1723754 Eh/α   predicted    -0.2044654E+00 (  -1.06%)
   displ. norm   :     0.2946879 α      lambda       -0.3424400E-01
   maximum displ.:     0.1160332 α      in ANC's #22, #25, #27, ...

........................................................................
.............................. CYCLE    5 ..............................
........................................................................
   1    -38.1503484 -0.381503E+02  0.303E-01    1.50       0.0  T
   2    -38.1496461  0.702316E-03  0.327E-01    1.59       1.0  T
   3    -38.1514594 -0.181336E-02  0.127E-01    1.54       1.0  T
   4    -38.1513848  0.746118E-04  0.713E-02    1.53       1.0  T
   5    -38.1514865 -0.101671E-03  0.248E-02    1.54       1.0  T
   6    -38.1514864  0.105708E-06  0.154E-02    1.54       1.2  T
   7    -38.1514878 -0.135900E-05  0.698E-03    1.54       2.6  T
   8    -38.1514881 -0.354120E-06  0.221E-03    1.54       8.1  T
   9    -38.1514882 -0.396100E-07  0.118E-03    1.54      15.2  T
  10    -38.1514882 -0.158833E-07  0.723E-04    1.54      24.8  T
  11    -38.1514882 -0.127687E-08  0.255E-04    1.54      70.5  T
     SCC iter.                  ...        0 min,  0.346 sec
     gradient                   ...        0 min,  0.039 sec
 * total energy  :   -37.5366220 Eh     change       -0.2841896E-01 Eh
   gradient norm :     0.1208437 Eh/α   predicted    -0.1860891E-01 ( -34.52%)
   displ. norm   :     0.6300541 α      lambda       -0.5552919E-01
   maximum displ.:     0.2424443 α      in ANC's #22, #25, #15, ...

........................................................................
.............................. CYCLE    6 ..............................
........................................................................
   1    -38.1908555 -0.381909E+02  0.683E-01    1.54       0.0  T
   2    -38.1903108  0.544711E-03  0.537E-01    1.67       1.0  T
   3    -38.1931801 -0.286931E-02  0.285E-01    1.58       1.0  T
   4    -38.1937313 -0.551182E-03  0.155E-01    1.60       1.0  T
   5    -38.1940806 -0.349275E-03  0.549E-02    1.61       1.0  T
   6    -38.1940785  0.207247E-05  0.311E-02    1.60       1.0  T
   7    -38.1940858 -0.724607E-05  0.125E-02    1.61       1.4  T
   8    -38.1940863 -0.558072E-06  0.542E-03    1.60       3.3  T
   9    -38.1940866 -0.224045E-06  0.246E-03    1.61       7.3  T
  10    -38.1940866 -0.421388E-07  0.144E-03    1.61      12.4  T
  11    -38.1940866 -0.601135E-08  0.924E-04    1.61      19.4  T
  12    -38.1940866 -0.469111E-08  0.229E-04    1.61      78.3  T
     SCC iter.                  ...        0 min,  0.376 sec
     gradient                   ...        0 min,  0.025 sec
 * total energy  :   -37.5788373 Eh     change       -0.4221538E-01 Eh
   gradient norm :     0.1919570 Eh/α   predicted    -0.3878628E-01 (  -8.12%)
   displ. norm   :     0.8144349 α      lambda       -0.5045408E-01
   maximum displ.:     0.5167263 α      in ANC's #1, #22, #60, ...

........................................................................
.............................. CYCLE    7 ..............................
........................................................................
   1    -38.2268266 -0.382268E+02  0.923E-01    1.77       0.0  T
   2    -38.2274846 -0.658004E-03  0.588E-01    1.73       1.0  T
   3    -38.2264143  0.107026E-02  0.334E-01    1.76       1.0  T
   4    -38.2279600 -0.154571E-02  0.118E-01    1.76       1.0  T
   5    -38.2280882 -0.128144E-03  0.719E-02    1.74       1.0  T
   6    -38.2281014 -0.132288E-04  0.378E-02    1.76       1.0  T
   7    -38.2281074 -0.597098E-05  0.139E-02    1.75       1.3  T
   8    -38.2281099 -0.250359E-05  0.515E-03    1.75       3.5  T
   9    -38.2281100 -0.987344E-07  0.338E-03    1.75       5.3  T
  10    -38.2281100 -0.371532E-07  0.157E-03    1.75      11.5  T
  11    -38.2281100 -0.185965E-07  0.541E-04    1.75      33.2  T
  12    -38.2281100 -0.159641E-08  0.227E-04    1.75      79.1  T
     SCC iter.                  ...        0 min,  0.412 sec
     gradient                   ...        0 min,  0.024 sec
 * total energy  :   -37.5905960 Eh     change       -0.1175867E-01 Eh
   gradient norm :     0.2978433 Eh/α   predicted    -0.4196023E-01 ( 256.84%)
   displ. norm   :     0.5352294 α      lambda       -0.4657532E-01
   maximum displ.:     0.3884338 α      in ANC's #1, #60, #22, ...

........................................................................
.............................. CYCLE    8 ..............................
........................................................................
   1    -38.2465216 -0.382465E+02  0.874E-01    1.61       0.0  T
   2    -38.2474996 -0.977980E-03  0.511E-01    1.64       1.0  T
   3    -38.2464846  0.101499E-02  0.380E-01    1.62       1.0  T
   4    -38.2481337 -0.164913E-02  0.178E-01    1.63       1.0  T
   5    -38.2485208 -0.387102E-03  0.825E-02    1.64       1.0  T
   6    -38.2485069  0.138653E-04  0.524E-02    1.63       1.0  T
   7    -38.2485314 -0.244976E-04  0.118E-02    1.63       1.5  T
   8    -38.2485318 -0.329814E-06  0.646E-03    1.63       2.8  T
   9    -38.2485320 -0.224903E-06  0.288E-03    1.63       6.2  T
  10    -38.2485320 -0.248606E-07  0.130E-03    1.63      13.8  T
  11    -38.2485320 -0.855042E-08  0.100E-03    1.63      17.9  T
  12    -38.2485320 -0.512907E-08  0.373E-04    1.63      48.1  T
  13    -38.2485320 -0.435335E-09  0.224E-04    1.63      80.3  T
     SCC iter.                  ...        0 min,  0.404 sec
     gradient                   ...        0 min,  0.018 sec
 * total energy  :   -37.6103605 Eh     change       -0.1976449E-01 Eh
   gradient norm :     0.1638406 Eh/α   predicted    -0.2995908E-01 (  51.58%)
   displ. norm   :     0.1973936 α      lambda       -0.2067906E-01
   maximum displ.:     0.0775937 α      in ANC's #57, #65, #66, ...

........................................................................
.............................. CYCLE    9 ..............................
........................................................................
   1    -38.2473947 -0.382474E+02  0.281E-01    1.66       0.0  T
   2    -38.2474480 -0.533331E-04  0.152E-01    1.64       1.0  T
   3    -38.2473026  0.145393E-03  0.143E-01    1.67       1.0  T
   4    -38.2474980 -0.195306E-03  0.346E-02    1.65       1.0  T
   5    -38.2475146 -0.166799E-04  0.237E-02    1.65       1.0  T
   6    -38.2475174 -0.278956E-05  0.991E-03    1.65       1.8  T
   7    -38.2475178 -0.396691E-06  0.525E-03    1.65       3.4  T
   8    -38.2475179 -0.100813E-06  0.155E-03    1.65      11.6  T
   9    -38.2475179 -0.969732E-08  0.100E-03    1.65      18.0  T
  10    -38.2475179 -0.744895E-08  0.590E-04    1.65      30.4  T
     SCC iter.                  ...        0 min,  0.334 sec
     gradient                   ...        0 min,  0.028 sec
 * total energy  :   -37.6205146 Eh     change       -0.1015408E-01 Eh
   gradient norm :     0.0991674 Eh/α   predicted    -0.1074243E-01 (   5.79%)
   displ. norm   :     0.2267757 α      lambda       -0.7197087E-02
   maximum displ.:     0.1010237 α      in ANC's #60, #1, #13, ...

........................................................................
.............................. CYCLE   10 ..............................
........................................................................
   1    -38.2550001 -0.382550E+02  0.327E-01    1.66       0.0  T
   2    -38.2550485 -0.484023E-04  0.223E-01    1.65       1.0  T
   3    -38.2548854  0.163084E-03  0.106E-01    1.67       1.0  T
   4    -38.2550598 -0.174397E-03  0.522E-02    1.66       1.0  T
   5    -38.2550957 -0.358766E-04  0.210E-02    1.65       1.0  T
   6    -38.2550980 -0.231419E-05  0.114E-02    1.66       1.6  T
   7    -38.2550984 -0.334407E-06  0.473E-03    1.65       3.8  T
   8    -38.2550984 -0.558862E-07  0.185E-03    1.66       9.7  T
   9    -38.2550985 -0.653353E-07  0.628E-04    1.66      28.6  T
  10    -38.2550985 -0.106168E-08  0.323E-04    1.66      55.6  T
     SCC iter.                  ...        0 min,  0.253 sec
     gradient                   ...        0 min,  0.005 sec
 * total energy  :   -37.6252276 Eh     change       -0.4713007E-02 Eh
   gradient norm :     0.0363538 Eh/α   predicted    -0.3783609E-02 ( -19.72%)
   displ. norm   :     0.1205839 α      lambda       -0.1922404E-02
   maximum displ.:     0.0521247 α      in ANC's #1, #60, #2, ...

........................................................................
.............................. CYCLE   11 ..............................
........................................................................
   1    -38.2581464 -0.382581E+02  0.174E-01    1.66       0.0  T
   2    -38.2581487 -0.225903E-05  0.148E-01    1.66       1.0  T
   3    -38.2581878 -0.391405E-04  0.809E-02    1.66       1.0  T
   4    -38.2582129 -0.250664E-04  0.288E-02    1.67       1.0  T
   5    -38.2582287 -0.158507E-04  0.112E-02    1.66       1.6  T
   6    -38.2582292 -0.490142E-06  0.486E-03    1.66       3.7  T
   7    -38.2582293 -0.686577E-07  0.204E-03    1.66       8.8  T
   8    -38.2582293 -0.160965E-07  0.993E-04    1.66      18.1  T
   9    -38.2582293 -0.131461E-07  0.264E-04    1.66      67.9  T
     SCC iter.                  ...        0 min,  0.221 sec
     gradient                   ...        0 min,  0.069 sec
 * total energy  :   -37.6265794 Eh     change       -0.1351761E-02 Eh
   gradient norm :     0.0209233 Eh/α   predicted    -0.9752955E-03 ( -27.85%)
   displ. norm   :     0.1474665 α      lambda       -0.1698573E-02
   maximum displ.:     0.0640579 α      in ANC's #2, #8, #6, ...

........................................................................
.............................. CYCLE   12 ..............................
........................................................................
   1    -38.2602916 -0.382603E+02  0.162E-01    1.67       0.0  T
   2    -38.2602780  0.135745E-04  0.153E-01    1.67       1.0  T
   3    -38.2604209 -0.142939E-03  0.834E-02    1.66       1.0  T
   4    -38.2604139  0.702861E-05  0.237E-02    1.67       1.0  T
   5    -38.2604284 -0.145185E-04  0.961E-03    1.67       1.9  T
   6    -38.2604286 -0.181844E-06  0.421E-03    1.67       4.3  T
   7    -38.2604287 -0.886635E-07  0.196E-03    1.67       9.1  T
   8    -38.2604287 -0.193072E-07  0.762E-04    1.67      23.6  T
   9    -38.2604287 -0.354829E-08  0.274E-04    1.67      65.5  T
     SCC iter.                  ...        0 min,  0.230 sec
     gradient                   ...        0 min,  0.072 sec
 * total energy  :   -37.6279378 Eh     change       -0.1358435E-02 Eh
   gradient norm :     0.0321597 Eh/α   predicted    -0.8677833E-03 ( -36.12%)
   displ. norm   :     0.3046473 α      lambda       -0.2960488E-02
   maximum displ.:     0.1423144 α      in ANC's #8, #2, #6, ...

........................................................................
.............................. CYCLE   13 ..............................
........................................................................
   1    -38.2614794 -0.382615E+02  0.258E-01    1.67       0.0  T
   2    -38.2614377  0.417851E-04  0.243E-01    1.69       1.0  T
   3    -38.2618784 -0.440769E-03  0.127E-01    1.67       1.0  T
   4    -38.2618563  0.221205E-04  0.371E-02    1.68       1.0  T
   5    -38.2618944 -0.381175E-04  0.142E-02    1.68       1.3  T
   6    -38.2618945 -0.816015E-07  0.706E-03    1.67       2.5  T
   7    -38.2618948 -0.327569E-06  0.365E-03    1.68       4.9  T
   8    -38.2618949 -0.481199E-07  0.126E-03    1.68      14.2  T
   9    -38.2618949 -0.541220E-09  0.597E-04    1.67      30.1  T
  10    -38.2618949 -0.537938E-08  0.370E-04    1.67      48.5  T
     SCC iter.                  ...        0 min,  0.278 sec
     gradient                   ...        0 min,  0.006 sec
 * total energy  :   -37.6301481 Eh     change       -0.2210304E-02 Eh
   gradient norm :     0.0373336 Eh/α   predicted    -0.1617656E-02 ( -26.81%)
   displ. norm   :     0.3400973 α      lambda       -0.2542745E-02
   maximum displ.:     0.1757828 α      in ANC's #8, #2, #6, ...

........................................................................
.............................. CYCLE   14 ..............................
........................................................................
   1    -38.2606524 -0.382607E+02  0.215E-01    1.68       0.0  T
   2    -38.2606324  0.199483E-04  0.193E-01    1.70       1.0  T
   3    -38.2609029 -0.270537E-03  0.102E-01    1.68       1.0  T
   4    -38.2608963  0.666613E-05  0.327E-02    1.69       1.0  T
   5    -38.2609239 -0.275824E-04  0.133E-02    1.68       1.4  T
   6    -38.2609240 -0.168221E-06  0.675E-03    1.68       2.7  T
   7    -38.2609243 -0.235696E-06  0.351E-03    1.68       5.1  T
   8    -38.2609243 -0.265001E-07  0.188E-03    1.68       9.5  T
   9    -38.2609243 -0.880647E-08  0.708E-04    1.68      25.4  T
  10    -38.2609243 -0.142693E-08  0.380E-04    1.68      47.3  T
     SCC iter.                  ...        0 min,  0.269 sec
     gradient                   ...        0 min,  0.013 sec
 * total energy  :   -37.6320064 Eh     change       -0.1858285E-02 Eh
   gradient norm :     0.0269515 Eh/α   predicted    -0.1418436E-02 ( -23.67%)
   displ. norm   :     0.3059062 α      lambda       -0.1945131E-02
   maximum displ.:     0.1594260 α      in ANC's #8, #2, #6, ...

........................................................................
.............................. CYCLE   15 ..............................
........................................................................
   1    -38.2601987 -0.382602E+02  0.141E-01    1.69       0.0  T
   2    -38.2602056 -0.690577E-05  0.105E-01    1.70       1.0  T
   3    -38.2602171 -0.114826E-04  0.643E-02    1.69       1.0  T
   4    -38.2602433 -0.261503E-04  0.250E-02    1.69       1.0  T
   5    -38.2602537 -0.104562E-04  0.121E-02    1.69       1.5  T
   6    -38.2602541 -0.429877E-06  0.652E-03    1.69       2.8  T
   7    -38.2602544 -0.233645E-06  0.224E-03    1.69       8.0  T
   8    -38.2602544 -0.377702E-08  0.147E-03    1.69      12.3  T
   9    -38.2602544 -0.525603E-08  0.639E-04    1.69      28.1  T
  10    -38.2602544 -0.360494E-09  0.282E-04    1.69      63.7  T
     SCC iter.                  ...        0 min,  0.228 sec
     gradient                   ...        0 min,  0.010 sec
 * total energy  :   -37.6334287 Eh     change       -0.1422311E-02 Eh
   gradient norm :     0.0191933 Eh/α   predicted    -0.1063591E-02 ( -25.22%)
   displ. norm   :     0.2617075 α      lambda       -0.1726383E-02
   maximum displ.:     0.1408917 α      in ANC's #2, #8, #23, ...

........................................................................
.............................. CYCLE   16 ..............................
........................................................................
   1    -38.2612829 -0.382613E+02  0.119E-01    1.70       0.0  T
   2    -38.2612871 -0.423181E-05  0.718E-02    1.70       1.0  T
   3    -38.2612538  0.333170E-04  0.492E-02    1.70       1.0  T
   4    -38.2612930 -0.391907E-04  0.131E-02    1.70       1.4  T
   5    -38.2612933 -0.331359E-06  0.124E-02    1.70       1.4  T
   6    -38.2612943 -0.936769E-06  0.436E-03    1.70       4.1  T
   7    -38.2612944 -0.116799E-06  0.159E-03    1.70      11.3  T
   8    -38.2612944  0.184848E-09  0.112E-03    1.70      16.1  T
   9    -38.2612944 -0.424054E-08  0.539E-04    1.70      33.3  T
  10    -38.2612944 -0.511847E-09  0.176E-04    1.70     102.3  T
     SCC iter.                  ...        0 min,  0.285 sec
     gradient                   ...        0 min,  0.014 sec
 * total energy  :   -37.6347040 Eh     change       -0.1275268E-02 Eh
   gradient norm :     0.0237156 Eh/α   predicted    -0.9223180E-03 ( -27.68%)
   displ. norm   :     0.2292711 α      lambda       -0.1536759E-02
   maximum displ.:     0.1248116 α      in ANC's #2, #8, #23, ...

........................................................................
.............................. CYCLE   17 ..............................
........................................................................
   1    -38.2634573 -0.382635E+02  0.125E-01    1.72       0.0  T
   2    -38.2634559  0.138085E-05  0.829E-02    1.70       1.0  T
   3    -38.2634514  0.444078E-05  0.624E-02    1.71       1.0  T
   4    -38.2635003 -0.488509E-04  0.154E-02    1.71       1.2  T
   5    -38.2635012 -0.885286E-06  0.119E-02    1.71       1.5  T
   6    -38.2635021 -0.956559E-06  0.311E-03    1.71       5.8  T
   7    -38.2635022 -0.450076E-07  0.120E-03    1.71      15.0  T
   8    -38.2635022 -0.984194E-09  0.885E-04    1.71      20.3  T
   9    -38.2635022 -0.171104E-08  0.416E-04    1.71      43.2  T
     SCC iter.                  ...        0 min,  0.250 sec
     gradient                   ...        0 min,  0.019 sec
 * total energy  :   -37.6357690 Eh     change       -0.1065038E-02 Eh
   gradient norm :     0.0218071 Eh/α   predicted    -0.8087745E-03 ( -24.06%)
   displ. norm   :     0.1529641 α      lambda       -0.8515831E-03
   maximum displ.:     0.0852329 α      in ANC's #2, #23, #16, ...

........................................................................
.............................. CYCLE   18 ..............................
........................................................................
   1    -38.2652159 -0.382652E+02  0.820E-02    1.72       0.0  T
   2    -38.2652199 -0.402638E-05  0.578E-02    1.71       1.0  T
   3    -38.2652297 -0.975623E-05  0.381E-02    1.72       1.0  T
   4    -38.2652399 -0.102068E-04  0.104E-02    1.71       1.7  T
   5    -38.2652413 -0.143375E-05  0.825E-03    1.71       2.2  T
   6    -38.2652419 -0.515287E-06  0.315E-03    1.71       5.7  T
   7    -38.2652419 -0.482238E-07  0.592E-04    1.71      30.4  T
   8    -38.2652419 -0.233859E-08  0.332E-04    1.71      54.1  T
     SCC iter.                  ...        0 min,  0.218 sec
     gradient                   ...        0 min,  0.020 sec
 * total energy  :   -37.6363784 Eh     change       -0.6094262E-03 Eh
   gradient norm :     0.0152497 Eh/α   predicted    -0.4357631E-03 ( -28.50%)
   displ. norm   :     0.1487333 α      lambda       -0.7174967E-03
   maximum displ.:     0.0878477 α      in ANC's #2, #23, #16, ...

........................................................................
.............................. CYCLE   19 ..............................
........................................................................
   1    -38.2668226 -0.382668E+02  0.698E-02    1.73       0.0  T
   2    -38.2668290 -0.644913E-05  0.530E-02    1.71       1.0  T
   3    -38.2668335 -0.451999E-05  0.333E-02    1.72       1.0  T
   4    -38.2668349 -0.132730E-05  0.985E-03    1.72       1.8  T
   5    -38.2668374 -0.252494E-05  0.684E-03    1.72       2.6  T
   6    -38.2668379 -0.454276E-06  0.343E-03    1.72       5.2  T
   7    -38.2668379 -0.392242E-07  0.647E-04    1.72      27.8  T
   8    -38.2668379 -0.122483E-08  0.448E-04    1.72      40.1  T
     SCC iter.                  ...        0 min,  0.213 sec
     gradient                   ...        0 min,  0.011 sec
 * total energy  :   -37.6369301 Eh     change       -0.5516523E-03 Eh
   gradient norm :     0.0185777 Eh/α   predicted    -0.3667114E-03 ( -33.52%)
   displ. norm   :     0.2234811 α      lambda       -0.1026772E-02
   maximum displ.:     0.1339721 α      in ANC's #2, #16, #57, ...

........................................................................
.............................. CYCLE   20 ..............................
........................................................................
   1    -38.2687357 -0.382687E+02  0.104E-01    1.74       0.0  T
   2    -38.2687455 -0.978732E-05  0.801E-02    1.72       1.0  T
   3    -38.2687436  0.192220E-05  0.433E-02    1.74       1.0  T
   4    -38.2687503 -0.670995E-05  0.117E-02    1.73       1.5  T
   5    -38.2687528 -0.249442E-05  0.703E-03    1.73       2.6  T
   6    -38.2687533 -0.488374E-06  0.358E-03    1.73       5.0  T
   7    -38.2687533 -0.306175E-07  0.998E-04    1.73      18.0  T
   8    -38.2687533 -0.335326E-09  0.748E-04    1.73      24.0  T
     SCC iter.                  ...        0 min,  0.208 sec
     gradient                   ...        0 min,  0.011 sec
 * total energy  :   -37.6377208 Eh     change       -0.7906897E-03 Eh
   gradient norm :     0.0270506 Eh/α   predicted    -0.5390363E-03 ( -31.83%)
   displ. norm   :     0.3053612 α      lambda       -0.1317522E-02
   maximum displ.:     0.1840209 α      in ANC's #2, #16, #57, ...
 * RMSD in coord.:     0.7036572 α      energy gain  -0.4852520E+01 Eh

generating ANC from model Hessian ...
Using Lindh-Hessian (1995)
 Shifting diagonal of input Hessian by    9.9833292385262985E-003
 Lowest  eigenvalues of input Hessian
    0.000000    0.000000    0.000000    0.000000    0.000000    0.000000
    0.010000    0.010116    0.010402    0.011344    0.011462    0.011737
    0.011985    0.014321    0.015369    0.016111    0.017420    0.017794
 Highest eigenvalues
    1.738003    1.744263    3.460060    3.981409    4.985499    6.021338


........................................................................
.............................. CYCLE   21 ..............................
........................................................................
   1    -38.2698751 -0.382699E+02  0.146E-01    1.75       0.0  T
   2    -38.2698819 -0.678623E-05  0.107E-01    1.74       1.0  T
   3    -38.2698587  0.232027E-04  0.377E-02    1.75       1.0  T
   4    -38.2698853 -0.265965E-04  0.110E-02    1.74       1.6  T
   5    -38.2698858 -0.490782E-06  0.857E-03    1.74       2.1  T
   6    -38.2698863 -0.558888E-06  0.342E-03    1.74       5.2  T
   7    -38.2698864 -0.907121E-07  0.132E-03    1.74      13.7  T
   8    -38.2698864 -0.141583E-09  0.903E-04    1.74      19.9  T
   9    -38.2698864 -0.638646E-08  0.474E-04    1.74      37.9  T
     SCC iter.                  ...        0 min,  0.220 sec
     gradient                   ...        0 min,  0.019 sec
 * total energy  :   -37.6387273 Eh     change       -0.1006580E-02 Eh
   gradient norm :     0.0336426 Eh/α   predicted     0.0000000E+00 (-100.00%)
   displ. norm   :     0.3215841 α      lambda       -0.2628434E-02
   maximum displ.:     0.2009909 α      in ANC's #4, #5, #9, ...

........................................................................
.............................. CYCLE   22 ..............................
........................................................................
   1    -38.2705711 -0.382706E+02  0.202E-01    1.74       0.0  T
   2    -38.2705876 -0.165054E-04  0.127E-01    1.76       1.0  T
   3    -38.2704952  0.923674E-04  0.105E-01    1.74       1.0  T
   4    -38.2706085 -0.113323E-03  0.286E-02    1.75       1.0  T
   5    -38.2706091 -0.581581E-06  0.250E-02    1.76       1.0  T
   6    -38.2706140 -0.488653E-05  0.463E-03    1.76       3.9  T
   7    -38.2706141 -0.118342E-06  0.265E-03    1.76       6.8  T
   8    -38.2706142 -0.349642E-07  0.141E-03    1.76      12.7  T
   9    -38.2706142 -0.706946E-08  0.755E-04    1.76      23.8  T
  10    -38.2706142 -0.192649E-08  0.237E-04    1.76      75.7  T
     SCC iter.                  ...        0 min,  0.252 sec
     gradient                   ...        0 min,  0.017 sec
 * total energy  :   -37.6404834 Eh     change       -0.1756050E-02 Eh
   gradient norm :     0.0108764 Eh/α   predicted    -0.1480293E-02 ( -15.70%)
   displ. norm   :     0.3672204 α      lambda       -0.1243767E-02
   maximum displ.:     0.2658260 α      in ANC's #4, #5, #9, ...

........................................................................
.............................. CYCLE   23 ..............................
........................................................................
   1    -38.2706466 -0.382706E+02  0.212E-01    1.77       0.0  T
   2    -38.2706509 -0.435309E-05  0.139E-01    1.77       1.0  T
   3    -38.2706327  0.182193E-04  0.360E-02    1.78       1.0  T
   4    -38.2706535 -0.208101E-04  0.133E-02    1.77       1.3  T
   5    -38.2706535  0.115680E-07  0.616E-03    1.77       2.9  T
   6    -38.2706540 -0.516893E-06  0.260E-03    1.77       6.9  T
   7    -38.2706541 -0.725150E-07  0.154E-03    1.77      11.7  T
   8    -38.2706541 -0.791729E-08  0.107E-03    1.77      16.7  T
   9    -38.2706541 -0.377390E-08  0.484E-04    1.77      37.1  T
  10    -38.2706541 -0.122765E-08  0.244E-04    1.77      73.5  T
     SCC iter.                  ...        0 min,  0.280 sec
     gradient                   ...        0 min,  0.082 sec
 * total energy  :   -37.6413738 Eh     change       -0.8903696E-03 Eh
   gradient norm :     0.0232176 Eh/α   predicted    -0.7057573E-03 ( -20.73%)
   displ. norm   :     0.3298571 α      lambda       -0.8889161E-03
   maximum displ.:     0.2518823 α      in ANC's #4, #5, #3, ...

........................................................................
.............................. CYCLE   24 ..............................
........................................................................
   1    -38.2714418 -0.382714E+02  0.148E-01    1.80       0.0  T
   2    -38.2714501 -0.824536E-05  0.967E-02    1.79       1.0  T
   3    -38.2714294  0.207072E-04  0.473E-02    1.80       1.0  T
   4    -38.2714543 -0.248850E-04  0.118E-02    1.79       1.5  T
   5    -38.2714555 -0.120726E-05  0.754E-03    1.79       2.4  T
   6    -38.2714560 -0.505858E-06  0.365E-03    1.79       4.9  T
   7    -38.2714561 -0.895153E-07  0.141E-03    1.79      12.8  T
   8    -38.2714561 -0.555847E-08  0.100E-03    1.79      17.9  T
   9    -38.2714561 -0.127697E-08  0.526E-04    1.79      34.1  T
  10    -38.2714561 -0.971610E-09  0.256E-04    1.79      70.2  T
     SCC iter.                  ...        0 min,  0.266 sec
     gradient                   ...        0 min,  0.006 sec
 * total energy  :   -37.6420228 Eh     change       -0.6489936E-03 Eh
   gradient norm :     0.0198364 Eh/α   predicted    -0.4928175E-03 ( -24.06%)
   displ. norm   :     0.3695394 α      lambda       -0.8446241E-03
   maximum displ.:     0.2852220 α      in ANC's #4, #5, #3, ...

........................................................................
.............................. CYCLE   25 ..............................
........................................................................
   1    -38.2724909 -0.382725E+02  0.200E-01    1.81       0.0  T
   2    -38.2724980 -0.709380E-05  0.124E-01    1.80       1.0  T
   3    -38.2724705  0.275747E-04  0.534E-02    1.81       1.0  T
   4    -38.2725011 -0.306405E-04  0.139E-02    1.80       1.3  T
   5    -38.2725024 -0.130520E-05  0.807E-03    1.80       2.2  T
   6    -38.2725028 -0.394981E-06  0.301E-03    1.80       6.0  T
   7    -38.2725029 -0.764968E-07  0.142E-03    1.80      12.6  T
   8    -38.2725029 -0.218981E-08  0.963E-04    1.80      18.7  T
   9    -38.2725029 -0.411372E-08  0.416E-04    1.80      43.1  T
     SCC iter.                  ...        0 min,  0.234 sec
     gradient                   ...        0 min,  0.008 sec
 * total energy  :   -37.6425978 Eh     change       -0.5750689E-03 Eh
   gradient norm :     0.0090203 Eh/α   predicted    -0.4799831E-03 ( -16.53%)
   displ. norm   :     0.3737230 α      lambda       -0.6326434E-03
   maximum displ.:     0.2980811 α      in ANC's #4, #5, #7, ...

........................................................................
.............................. CYCLE   26 ..............................
........................................................................
   1    -38.2725780 -0.382726E+02  0.173E-01    1.82       0.0  T
   2    -38.2725809 -0.293200E-05  0.109E-01    1.81       1.0  T
   3    -38.2724886  0.922760E-04  0.832E-02    1.81       1.0  T
   4    -38.2725951 -0.106430E-03  0.155E-02    1.81       1.2  T
   5    -38.2725985 -0.347862E-05  0.645E-03    1.81       2.8  T
   6    -38.2725986 -0.103839E-06  0.238E-03    1.81       7.6  T
   7    -38.2725987 -0.364384E-07  0.574E-04    1.81      31.3  T
   8    -38.2725987 -0.294889E-09  0.364E-04    1.81      49.3  T
     SCC iter.                  ...        0 min,  0.194 sec
     gradient                   ...        0 min,  0.005 sec
 * total energy  :   -37.6429758 Eh     change       -0.3780095E-03 Eh
   gradient norm :     0.0285992 Eh/α   predicted    -0.3605020E-03 (  -4.63%)
   displ. norm   :     0.2706342 α      lambda       -0.7627433E-03
   maximum displ.:     0.1899573 α      in ANC's #4, #7, #2, ...

........................................................................
.............................. CYCLE   27 ..............................
........................................................................
   1    -38.2775447 -0.382775E+02  0.143E-01    1.82       0.0  T
   2    -38.2775499 -0.518769E-05  0.827E-02    1.82       1.0  T
   3    -38.2775368  0.130711E-04  0.478E-02    1.82       1.0  T
   4    -38.2775525 -0.156485E-04  0.164E-02    1.82       1.1  T
   5    -38.2775521  0.328399E-06  0.137E-02    1.82       1.3  T
   6    -38.2775528 -0.681028E-06  0.357E-03    1.82       5.0  T
   7    -38.2775531 -0.268667E-06  0.111E-03    1.82      16.2  T
   8    -38.2775531 -0.306466E-08  0.712E-04    1.82      25.2  T
   9    -38.2775531 -0.253811E-08  0.338E-04    1.82      53.1  T
     SCC iter.                  ...        0 min,  0.213 sec
     gradient                   ...        0 min,  0.005 sec
 * total energy  :   -37.6432086 Eh     change       -0.2327215E-03 Eh
   gradient norm :     0.0225995 Eh/α   predicted    -0.4093077E-03 (  75.88%)
   displ. norm   :     0.3095963 α      lambda       -0.5298783E-03
   maximum displ.:     0.2211385 α      in ANC's #4, #5, #7, ...

........................................................................
.............................. CYCLE   28 ..............................
........................................................................
   1    -38.2738678 -0.382739E+02  0.169E-01    1.82       0.0  T
   2    -38.2738699 -0.212814E-05  0.114E-01    1.83       1.0  T
   3    -38.2737760  0.939119E-04  0.709E-02    1.82       1.0  T
   4    -38.2738781 -0.102095E-03  0.152E-02    1.82       1.2  T
   5    -38.2738802 -0.205221E-05  0.855E-03    1.82       2.1  T
   6    -38.2738805 -0.296821E-06  0.254E-03    1.82       7.1  T
   7    -38.2738805 -0.117532E-07  0.147E-03    1.82      12.2  T
   8    -38.2738805 -0.442554E-08  0.712E-04    1.82      25.2  T
   9    -38.2738805 -0.523411E-08  0.318E-04    1.82      56.4  T
     SCC iter.                  ...        0 min,  0.204 sec
     gradient                   ...        0 min,  0.072 sec
 * total energy  :   -37.6434844 Eh     change       -0.2758819E-03 Eh
   gradient norm :     0.0148603 Eh/α   predicted    -0.2903337E-03 (   5.24%)
   displ. norm   :     0.0639870 α      lambda       -0.1313612E-03
   maximum displ.:     0.0377370 α      in ANC's #2, #1, #7, ...

........................................................................
.............................. CYCLE   29 ..............................
........................................................................
   1    -38.2750933 -0.382751E+02  0.284E-02    1.82       0.0  T
   2    -38.2750938 -0.458236E-06  0.208E-02    1.82       1.0  T
   3    -38.2750923  0.145611E-05  0.130E-02    1.82       1.4  T
   4    -38.2750947 -0.237924E-05  0.490E-03    1.82       3.7  T
   5    -38.2750950 -0.317338E-06  0.257E-03    1.82       7.0  T
   6    -38.2750951 -0.190585E-07  0.827E-04    1.82      21.7  T
   7    -38.2750951 -0.297446E-08  0.388E-04    1.82      46.3  T
     SCC iter.                  ...        0 min,  0.161 sec
     gradient                   ...        0 min,  0.073 sec
 * total energy  :   -37.6435869 Eh     change       -0.1024937E-03 Eh
   gradient norm :     0.0110845 Eh/α   predicted    -0.6595062E-04 ( -35.65%)
   displ. norm   :     0.2985602 α      lambda       -0.2589609E-03
   maximum displ.:     0.1634785 α      in ANC's #2, #4, #1, ...

........................................................................
.............................. CYCLE   30 ..............................
........................................................................
   1    -38.2748044 -0.382748E+02  0.927E-02    1.83       0.0  T
   2    -38.2748064 -0.193293E-05  0.613E-02    1.83       1.0  T
   3    -38.2747806  0.258185E-04  0.342E-02    1.83       1.0  T
   4    -38.2748085 -0.279659E-04  0.109E-02    1.83       1.6  T
   5    -38.2748097 -0.118268E-05  0.588E-03    1.83       3.1  T
   6    -38.2748098 -0.103065E-06  0.245E-03    1.83       7.3  T
   7    -38.2748099 -0.435314E-07  0.903E-04    1.83      19.9  T
   8    -38.2748099 -0.159673E-08  0.713E-04    1.83      25.2  T
     SCC iter.                  ...        0 min,  0.203 sec
     gradient                   ...        0 min,  0.076 sec
 * total energy  :   -37.6437643 Eh     change       -0.1773491E-03 Eh
   gradient norm :     0.0106140 Eh/α   predicted    -0.1410230E-03 ( -20.48%)
   displ. norm   :     0.2918077 α      lambda       -0.2170927E-03
   maximum displ.:     0.1876989 α      in ANC's #2, #1, #5, ...

........................................................................
.............................. CYCLE   31 ..............................
........................................................................
   1    -38.2752383 -0.382752E+02  0.710E-02    1.83       0.0  T
   2    -38.2752401 -0.177157E-05  0.471E-02    1.83       1.0  T
   3    -38.2752279  0.122005E-04  0.239E-02    1.83       1.0  T
   4    -38.2752414 -0.134368E-04  0.842E-03    1.83       2.1  T
   5    -38.2752423 -0.940437E-06  0.425E-03    1.83       4.2  T
   6    -38.2752423 -0.223079E-07  0.989E-04    1.83      18.2  T
   7    -38.2752423 -0.157347E-07  0.468E-04    1.83      38.4  T
     SCC iter.                  ...        0 min,  0.131 sec
     gradient                   ...        0 min,  0.004 sec
 * total energy  :   -37.6439248 Eh     change       -0.1604873E-03 Eh
   gradient norm :     0.0079839 Eh/α   predicted    -0.1177928E-03 ( -26.60%)
   displ. norm   :     0.5370773 α      lambda       -0.2884892E-03
   maximum displ.:     0.3467970 α      in ANC's #2, #4, #5, ...

........................................................................
.............................. CYCLE   32 ..............................
........................................................................
   1    -38.2716413 -0.382716E+02  0.170E-01    1.83       0.0  T
   2    -38.2716444 -0.304969E-05  0.107E-01    1.83       1.0  T
   3    -38.2715756  0.687846E-04  0.647E-02    1.83       1.0  T
   4    -38.2716499 -0.742858E-04  0.134E-02    1.83       1.3  T
   5    -38.2716516 -0.169220E-05  0.889E-03    1.83       2.0  T
   6    -38.2716520 -0.398765E-06  0.236E-03    1.83       7.6  T
   7    -38.2716520 -0.300320E-07  0.972E-04    1.83      18.5  T
   8    -38.2716520 -0.592190E-08  0.616E-04    1.83      29.2  T
     SCC iter.                  ...        0 min,  0.178 sec
     gradient                   ...        0 min,  0.014 sec
 * total energy  :   -37.6440567 Eh     change       -0.1319728E-03 Eh
   gradient norm :     0.0244307 Eh/α   predicted    -0.1858558E-03 (  40.83%)
   displ. norm   :     0.2814773 α      lambda       -0.4504480E-03
   maximum displ.:     0.2133483 α      in ANC's #2, #1, #5, ...

........................................................................
.............................. CYCLE   33 ..............................
........................................................................
   1    -38.2747722 -0.382748E+02  0.856E-02    1.84       0.0  T
   2    -38.2747739 -0.165011E-05  0.574E-02    1.83       1.0  T
   3    -38.2747572  0.166983E-04  0.283E-02    1.84       1.0  T
   4    -38.2747750 -0.178226E-04  0.102E-02    1.83       1.8  T
   5    -38.2747759 -0.891221E-06  0.479E-03    1.83       3.7  T
   6    -38.2747759  0.273372E-07  0.147E-03    1.83      12.2  T
   7    -38.2747759 -0.376079E-07  0.620E-04    1.83      29.0  T
   8    -38.2747759 -0.199638E-08  0.357E-04    1.83      50.2  T
     SCC iter.                  ...        0 min,  0.216 sec
     gradient                   ...        0 min,  0.072 sec
 * total energy  :   -37.6442728 Eh     change       -0.2160450E-03 Eh
   gradient norm :     0.0166257 Eh/α   predicted    -0.2430682E-03 (  12.51%)
   displ. norm   :     0.4123073 α      lambda       -0.3050371E-03
   maximum displ.:     0.3173762 α      in ANC's #2, #5, #1, ...

........................................................................
.............................. CYCLE   34 ..............................
........................................................................
   1    -38.2737192 -0.382737E+02  0.933E-02    1.84       0.0  T
   2    -38.2737214 -0.221635E-05  0.583E-02    1.84       1.0  T
   3    -38.2737095  0.118369E-04  0.292E-02    1.84       1.0  T
   4    -38.2737225 -0.129702E-04  0.103E-02    1.84       1.7  T
   5    -38.2737233 -0.757455E-06  0.780E-03    1.84       2.3  T
   6    -38.2737237 -0.397158E-06  0.189E-03    1.84       9.5  T
   7    -38.2737237 -0.605650E-08  0.986E-04    1.84      18.2  T
   8    -38.2737237 -0.261505E-08  0.557E-04    1.84      32.2  T
     SCC iter.                  ...        0 min,  0.218 sec
     gradient                   ...        0 min,  0.008 sec
 * total energy  :   -37.6445105 Eh     change       -0.2376667E-03 Eh
   gradient norm :     0.0060662 Eh/α   predicted    -0.1784488E-03 ( -24.92%)
   displ. norm   :     0.5293929 α      lambda       -0.3231610E-03
   maximum displ.:     0.4280234 α      in ANC's #2, #5, #1, ...

........................................................................
.............................. CYCLE   35 ..............................
........................................................................
   1    -38.2730168 -0.382730E+02  0.118E-01    1.84       0.0  T
   2    -38.2730195 -0.268912E-05  0.690E-02    1.84       1.0  T
   3    -38.2730054  0.140929E-04  0.388E-02    1.83       1.0  T
   4    -38.2730212 -0.158619E-04  0.106E-02    1.84       1.7  T
   5    -38.2730217 -0.462364E-06  0.686E-03    1.84       2.6  T
   6    -38.2730219 -0.246158E-06  0.234E-03    1.84       7.7  T
   7    -38.2730220 -0.620879E-07  0.103E-03    1.84      17.4  T
   8    -38.2730220 -0.211477E-08  0.678E-04    1.84      26.5  T
   9    -38.2730220 -0.332122E-08  0.295E-04    1.84      60.8  T
     SCC iter.                  ...        0 min,  0.258 sec
     gradient                   ...        0 min,  0.077 sec
 * total energy  :   -37.6447210 Eh     change       -0.2105473E-03 Eh
   gradient norm :     0.0220775 Eh/α   predicted    -0.2068705E-03 (  -1.75%)
   displ. norm   :     0.2956438 α      lambda       -0.3566141E-03
   maximum displ.:     0.2257579 α      in ANC's #2, #7, #8, ...

........................................................................
.............................. CYCLE   36 ..............................
........................................................................
   1    -38.2808909 -0.382809E+02  0.911E-02    1.84       0.0  T
   2    -38.2808949 -0.400574E-05  0.597E-02    1.84       1.0  T
   3    -38.2808731  0.218597E-04  0.331E-02    1.84       1.0  T
   4    -38.2808983 -0.252259E-04  0.106E-02    1.84       1.7  T
   5    -38.2809001 -0.183722E-05  0.411E-03    1.84       4.4  T
   6    -38.2809001 -0.494089E-08  0.179E-03    1.84      10.0  T
   7    -38.2809002 -0.376230E-07  0.693E-04    1.84      25.9  T
   8    -38.2809002 -0.544276E-11  0.444E-04    1.84      40.5  T
     SCC iter.                  ...        0 min,  0.196 sec
     gradient                   ...        0 min,  0.012 sec
 * total energy  :   -37.6448312 Eh     change       -0.1102453E-03 Eh
   gradient norm :     0.0231817 Eh/α   predicted    -0.1938935E-03 (  75.87%)
   displ. norm   :     0.4735925 α      lambda       -0.4283573E-03
   maximum displ.:     0.3646107 α      in ANC's #2, #1, #5, ...

........................................................................
.............................. CYCLE   37 ..............................
........................................................................
   1    -38.2738074 -0.382738E+02  0.104E-01    1.84       0.0  T
   2    -38.2738116 -0.414012E-05  0.662E-02    1.84       1.0  T
   3    -38.2737972  0.144033E-04  0.277E-02    1.84       1.0  T
   4    -38.2738120 -0.148644E-04  0.138E-02    1.84       1.3  T
   5    -38.2738143 -0.223907E-05  0.608E-03    1.84       3.0  T
   6    -38.2738143  0.113266E-07  0.314E-03    1.84       5.7  T
   7    -38.2738144 -0.875552E-07  0.114E-03    1.84      15.7  T
   8    -38.2738144 -0.230261E-08  0.889E-04    1.84      20.2  T
   9    -38.2738144 -0.234846E-08  0.520E-04    1.84      34.5  T
     SCC iter.                  ...        0 min,  0.234 sec
     gradient                   ...        0 min,  0.006 sec
 * total energy  :   -37.6450227 Eh     change       -0.1914294E-03 Eh
   gradient norm :     0.0186110 Eh/α   predicted    -0.2622171E-03 (  36.98%)
   displ. norm   :     0.1303961 α      lambda       -0.2533350E-03
   maximum displ.:     0.0947626 α      in ANC's #2, #5, #10, ...

........................................................................
.............................. CYCLE   38 ..............................
........................................................................
   1    -38.2741899 -0.382742E+02  0.857E-02    1.83       0.0  T
   2    -38.2741887  0.117639E-05  0.508E-02    1.84       1.0  T
   3    -38.2741819  0.685988E-05  0.496E-02    1.83       1.0  T
   4    -38.2742090 -0.270809E-04  0.905E-03    1.83       2.0  T
   5    -38.2742099 -0.968097E-06  0.459E-03    1.83       3.9  T
   6    -38.2742100 -0.796217E-07  0.128E-03    1.83      14.0  T
   7    -38.2742100 -0.252384E-07  0.767E-04    1.83      23.4  T
   8    -38.2742100 -0.150272E-08  0.405E-04    1.83      44.3  T
     SCC iter.                  ...        0 min,  0.220 sec
     gradient                   ...        0 min,  0.039 sec
 * total energy  :   -37.6451036 Eh     change       -0.8090236E-04 Eh
   gradient norm :     0.0146902 Eh/α   predicted    -0.1288261E-03 (  59.24%)
   displ. norm   :     0.1767465 α      lambda       -0.1532282E-03
   maximum displ.:     0.1411173 α      in ANC's #2, #1, #3, ...

........................................................................
.............................. CYCLE   39 ..............................
........................................................................
   1    -38.2755615 -0.382756E+02  0.626E-02    1.84       0.0  T
   2    -38.2755614  0.955090E-07  0.478E-02    1.83       1.0  T
   3    -38.2755586  0.284872E-05  0.294E-02    1.83       1.0  T
   4    -38.2755690 -0.104013E-04  0.785E-03    1.83       2.3  T
   5    -38.2755699 -0.924415E-06  0.325E-03    1.83       5.5  T
   6    -38.2755699 -0.203769E-07  0.139E-03    1.83      13.0  T
   7    -38.2755699 -0.881887E-08  0.855E-04    1.83      21.0  T
   8    -38.2755699  0.304979E-09  0.521E-04    1.83      34.5  T
     SCC iter.                  ...        0 min,  0.201 sec
     gradient                   ...        0 min,  0.018 sec
 * total energy  :   -37.6451955 Eh     change       -0.9188225E-04 Eh
   gradient norm :     0.0083550 Eh/α   predicted    -0.7900904E-04 ( -14.01%)
   displ. norm   :     0.2452112 α      lambda       -0.1547326E-03
   maximum displ.:     0.1863744 α      in ANC's #2, #1, #3, ...

........................................................................
.............................. CYCLE   40 ..............................
........................................................................
   1    -38.2779255 -0.382779E+02  0.614E-02    1.84       0.0  T
   2    -38.2779253  0.228929E-06  0.448E-02    1.84       1.0  T
   3    -38.2779188  0.646262E-05  0.306E-02    1.84       1.0  T
   4    -38.2779328 -0.140185E-04  0.610E-03    1.84       2.9  T
   5    -38.2779333 -0.503431E-06  0.311E-03    1.84       5.8  T
   6    -38.2779333 -0.209015E-07  0.132E-03    1.84      13.6  T
   7    -38.2779333 -0.169714E-07  0.664E-04    1.84      27.1  T
   8    -38.2779333 -0.154047E-08  0.493E-04    1.84      36.4  T
     SCC iter.                  ...        0 min,  0.164 sec
     gradient                   ...        0 min,  0.024 sec
 * total energy  :   -37.6452497 Eh     change       -0.5424633E-04 Eh
   gradient norm :     0.0129748 Eh/α   predicted    -0.8201850E-04 (  51.20%)
   displ. norm   :     0.3123474 α      lambda       -0.1028954E-03
   maximum displ.:     0.2548191 α      in ANC's #2, #1, #5, ...

........................................................................
.............................. CYCLE   41 ..............................
........................................................................
   1    -38.2749463 -0.382749E+02  0.718E-02    1.83       0.0  T
   2    -38.2749478 -0.149837E-05  0.452E-02    1.83       1.0  T
   3    -38.2749442  0.362617E-05  0.168E-02    1.83       1.1  T
   4    -38.2749485 -0.434238E-05  0.456E-03    1.83       3.9  T
   5    -38.2749485  0.127605E-07  0.246E-03    1.83       7.3  T
   6    -38.2749485 -0.100344E-07  0.130E-03    1.83      13.9  T
   7    -38.2749486 -0.376966E-07  0.495E-04    1.83      36.3  T
   8    -38.2749486 -0.231288E-08  0.214E-04    1.83      83.8  T
     SCC iter.                  ...        0 min,  0.256 sec
     gradient                   ...        0 min,  0.079 sec
 * total energy  :   -37.6452987 Eh     change       -0.4901474E-04 Eh
   gradient norm :     0.0076115 Eh/α   predicted    -0.5646937E-04 (  15.21%)
   displ. norm   :     0.0769487 α      lambda       -0.1168271E-03
   maximum displ.:     0.0354245 α      in ANC's #3, #4, #10, ...

........................................................................
.............................. CYCLE   42 ..............................
........................................................................
   1    -38.2801786 -0.382802E+02  0.546E-02    1.83       0.0  T
   2    -38.2801800 -0.138724E-05  0.382E-02    1.82       1.0  T
   3    -38.2801714  0.860852E-05  0.210E-02    1.83       1.0  T
   4    -38.2801810 -0.964308E-05  0.901E-03    1.82       2.0  T
   5    -38.2801818 -0.810750E-06  0.481E-03    1.82       3.7  T
   6    -38.2801819 -0.166349E-07  0.158E-03    1.82      11.3  T
   7    -38.2801819 -0.326700E-07  0.690E-04    1.82      26.0  T
   8    -38.2801819 -0.521140E-08  0.386E-04    1.82      46.6  T
     SCC iter.                  ...        0 min,  0.328 sec
     gradient                   ...        0 min,  0.075 sec
 * total energy  :   -37.6452960 Eh     change        0.2683969E-05 Eh
   gradient norm :     0.0106342 Eh/α   predicted    -0.5876074E-04 (*******%)
   displ. norm   :     0.1324516 α      lambda       -0.1083089E-03
   maximum displ.:     0.1128557 α      in ANC's #2, #3, #5, ...
 * RMSD in coord.:     0.9303920 α      energy gain  -0.7575273E-02 Eh

generating ANC from model Hessian ...
Using Lindh-Hessian (1995)
 Shifting diagonal of input Hessian by    9.8887975831079972E-003
 Lowest  eigenvalues of input Hessian
    0.000000    0.000000    0.000000    0.000000    0.000000    0.000000
    0.010000    0.010173    0.010412    0.010676    0.011419    0.011532
    0.011560    0.014181    0.016020    0.016756    0.017806    0.017947
 Highest eigenvalues
    1.737813    1.739560    3.274827    4.041143    4.770664    6.314104


........................................................................
.............................. CYCLE   43 ..............................
........................................................................
   1    -38.2773037 -0.382773E+02  0.293E-02    1.83       0.0  T
   2    -38.2773043 -0.589744E-06  0.178E-02    1.83       1.0  T
   3    -38.2773028  0.148571E-05  0.107E-02    1.83       1.7  T
   4    -38.2773047 -0.182506E-05  0.400E-03    1.83       4.5  T
   5    -38.2773048 -0.119682E-06  0.254E-03    1.83       7.1  T
   6    -38.2773048 -0.209384E-07  0.976E-04    1.83      18.4  T
   7    -38.2773048 -0.943263E-08  0.490E-04    1.83      36.6  T
     SCC iter.                  ...        0 min,  0.216 sec
     gradient                   ...        0 min,  0.074 sec
 * total energy  :   -37.6453539 Eh     change       -0.5783432E-04 Eh
   gradient norm :     0.0044898 Eh/α   predicted     0.0000000E+00 (-100.00%)
   displ. norm   :     0.0425547 α      lambda        0.1522822E-04
   maximum displ.:     0.0209378 α      in ANC's #14, #4, #1, ...

........................................................................
.............................. CYCLE   44 ..............................
........................................................................
   1    -38.2777030 -0.382777E+02  0.273E-02    1.83       0.0  T
   2    -38.2777032 -0.143518E-06  0.180E-02    1.83       1.0  T
   3    -38.2777026  0.571669E-06  0.680E-03    1.83       2.6  T
   4    -38.2777032 -0.621589E-06  0.281E-03    1.83       6.4  T
   5    -38.2777032 -0.201221E-07  0.168E-03    1.83      10.7  T
   6    -38.2777033 -0.224861E-07  0.522E-04    1.83      34.4  T
   7    -38.2777033 -0.226293E-08  0.271E-04    1.83      66.2  T
     SCC iter.                  ...        0 min,  0.184 sec
     gradient                   ...        0 min,  0.014 sec
 * total energy  :   -37.6453793 Eh     change       -0.2539793E-04 Eh
   gradient norm :     0.0010021 Eh/α   predicted    -0.1932177E-04 ( -23.92%)
   displ. norm   :     0.1310657 α      lambda       -0.4109243E-04
   maximum displ.:     0.0639872 α      in ANC's #2, #4, #8, ...

........................................................................
.............................. CYCLE   45 ..............................
........................................................................
   1    -38.2782382 -0.382782E+02  0.398E-02    1.83       0.0  T
   2    -38.2782386 -0.380423E-06  0.293E-02    1.83       1.0  T
   3    -38.2782354  0.316797E-05  0.184E-02    1.83       1.0  T
   4    -38.2782404 -0.495018E-05  0.563E-03    1.83       3.2  T
   5    -38.2782409 -0.483050E-06  0.273E-03    1.83       6.6  T
   6    -38.2782409 -0.638329E-08  0.111E-03    1.83      16.2  T
   7    -38.2782409 -0.234263E-08  0.635E-04    1.83      28.3  T
   8    -38.2782409 -0.406551E-08  0.296E-04    1.83      60.7  T
     SCC iter.                  ...        0 min,  0.226 sec
     gradient                   ...        0 min,  0.054 sec
 * total energy  :   -37.6454139 Eh     change       -0.3466625E-04 Eh
   gradient norm :     0.0063847 Eh/α   predicted    -0.2070393E-04 ( -40.28%)
   displ. norm   :     0.1033625 α      lambda       -0.4180455E-04
   maximum displ.:     0.0548200 α      in ANC's #2, #8, #4, ...

........................................................................
.............................. CYCLE   46 ..............................
........................................................................
   1    -38.2780326 -0.382780E+02  0.304E-02    1.83       0.0  T
   2    -38.2780325  0.257683E-07  0.190E-02    1.83       1.0  T
   3    -38.2780289  0.359332E-05  0.158E-02    1.83       1.1  T
   4    -38.2780335 -0.458409E-05  0.272E-03    1.83       6.6  T
   5    -38.2780336 -0.351346E-07  0.170E-03    1.83      10.6  T
   6    -38.2780336 -0.481820E-08  0.635E-04    1.83      28.3  T
   7    -38.2780336 -0.287843E-08  0.190E-04    1.83      94.6  T
     SCC iter.                  ...        0 min,  0.191 sec
     gradient                   ...        0 min,  0.015 sec
 * total energy  :   -37.6454504 Eh     change       -0.3649964E-04 Eh
   gradient norm :     0.0056464 Eh/α   predicted    -0.2112726E-04 ( -42.12%)
   displ. norm   :     0.3512042 α      lambda       -0.1351824E-03
   maximum displ.:     0.2053609 α      in ANC's #2, #4, #8, ...

........................................................................
.............................. CYCLE   47 ..............................
........................................................................
   1    -38.2759361 -0.382759E+02  0.812E-02    1.83       0.0  T
   2    -38.2759367 -0.602824E-06  0.481E-02    1.83       1.0  T
   3    -38.2759139  0.228257E-04  0.369E-02    1.83       1.0  T
   4    -38.2759400 -0.260974E-04  0.647E-03    1.83       2.8  T
   5    -38.2759401 -0.161567E-06  0.438E-03    1.83       4.1  T
   6    -38.2759402 -0.698754E-07  0.185E-03    1.83       9.7  T
   7    -38.2759402 -0.197586E-07  0.443E-04    1.83      40.5  T
   8    -38.2759402 -0.935344E-09  0.257E-04    1.83      70.0  T
     SCC iter.                  ...        0 min,  0.209 sec
     gradient                   ...        0 min,  0.016 sec
 * total energy  :   -37.6455548 Eh     change       -0.1044110E-03 Eh
   gradient norm :     0.0061219 Eh/α   predicted    -0.7593341E-04 ( -27.27%)
   displ. norm   :     0.2762545 α      lambda       -0.1126536E-03
   maximum displ.:     0.1765059 α      in ANC's #2, #4, #1, ...

........................................................................
.............................. CYCLE   48 ..............................
........................................................................
   1    -38.2746994 -0.382747E+02  0.592E-02    1.82       0.0  T
   2    -38.2746998 -0.474318E-06  0.377E-02    1.83       1.0  T
   3    -38.2746965  0.336649E-05  0.114E-02    1.82       1.6  T
   4    -38.2746999 -0.341462E-05  0.581E-03    1.82       3.1  T
   5    -38.2747002 -0.313368E-06  0.316E-03    1.83       5.7  T
   6    -38.2747002 -0.147270E-07  0.111E-03    1.82      16.1  T
   7    -38.2747002 -0.119600E-07  0.270E-04    1.83      66.6  T
   8    -38.2747002 -0.245251E-09  0.131E-04    1.83     137.4  T
     SCC iter.                  ...        0 min,  0.215 sec
     gradient                   ...        0 min,  0.013 sec
 * total energy  :   -37.6456477 Eh     change       -0.9284426E-04 Eh
   gradient norm :     0.0067060 Eh/α   predicted    -0.6062673E-04 ( -34.70%)
   displ. norm   :     0.2664810 α      lambda       -0.1827266E-03
   maximum displ.:     0.1792179 α      in ANC's #2, #1, #4, ...

........................................................................
.............................. CYCLE   49 ..............................
........................................................................
   1    -38.2756704 -0.382757E+02  0.775E-02    1.82       0.0  T
   2    -38.2756693  0.112451E-05  0.606E-02    1.82       1.0  T
   3    -38.2756587  0.106651E-04  0.356E-02    1.82       1.0  T
   4    -38.2756796 -0.209631E-04  0.688E-03    1.82       2.6  T
   5    -38.2756803 -0.671886E-06  0.455E-03    1.82       3.9  T
   6    -38.2756803 -0.513457E-07  0.113E-03    1.82      16.0  T
   7    -38.2756803 -0.609668E-08  0.518E-04    1.82      34.7  T
   8    -38.2756803 -0.782045E-09  0.298E-04    1.82      60.2  T
     SCC iter.                  ...        0 min,  0.214 sec
     gradient                   ...        0 min,  0.079 sec
 * total energy  :   -37.6457916 Eh     change       -0.1438608E-03 Eh
   gradient norm :     0.0056127 Eh/α   predicted    -0.9786297E-04 ( -31.97%)
   displ. norm   :     0.5014707 α      lambda       -0.2347059E-03
   maximum displ.:     0.3178552 α      in ANC's #2, #4, #1, ...

........................................................................
.............................. CYCLE   50 ..............................
........................................................................
   1    -38.2734033 -0.382734E+02  0.132E-01    1.81       0.0  T
   2    -38.2734028  0.478531E-06  0.945E-02    1.81       1.0  T
   3    -38.2733202  0.826390E-04  0.591E-02    1.81       1.0  T
   4    -38.2734157 -0.955010E-04  0.120E-02    1.81       1.5  T
   5    -38.2734172 -0.152895E-05  0.775E-03    1.81       2.3  T
   6    -38.2734174 -0.139753E-06  0.170E-03    1.81      10.6  T
   7    -38.2734174 -0.382751E-07  0.703E-04    1.81      25.5  T
   8    -38.2734174 -0.280002E-08  0.414E-04    1.81      43.4  T
     SCC iter.                  ...        0 min,  0.204 sec
     gradient                   ...        0 min,  0.015 sec
 * total energy  :   -37.6459241 Eh     change       -0.1325949E-03 Eh
   gradient norm :     0.0157675 Eh/α   predicted    -0.1468666E-03 (  10.76%)
   displ. norm   :     0.1812387 α      lambda       -0.2143302E-03
   maximum displ.:     0.1225551 α      in ANC's #2, #1, #4, ...

........................................................................
.............................. CYCLE   51 ..............................
........................................................................
   1    -38.2771712 -0.382772E+02  0.795E-02    1.81       0.0  T
   2    -38.2771702  0.991014E-06  0.600E-02    1.80       1.0  T
   3    -38.2771538  0.164503E-04  0.384E-02    1.81       1.0  T
   4    -38.2771815 -0.276689E-04  0.758E-03    1.81       2.4  T
   5    -38.2771821 -0.588261E-06  0.387E-03    1.81       4.6  T
   6    -38.2771821 -0.318174E-07  0.116E-03    1.81      15.5  T
   7    -38.2771821 -0.654459E-08  0.511E-04    1.81      35.2  T
   8    -38.2771821 -0.848580E-09  0.274E-04    1.81      65.5  T
     SCC iter.                  ...        0 min,  0.204 sec
     gradient                   ...        0 min,  0.007 sec
 * total energy  :   -37.6460565 Eh     change       -0.1323359E-03 Eh
   gradient norm :     0.0036693 Eh/α   predicted    -0.1106899E-03 ( -16.36%)
   displ. norm   :     0.3887812 α      lambda       -0.1211749E-03
   maximum displ.:     0.2571853 α      in ANC's #2, #1, #4, ...

........................................................................
.............................. CYCLE   52 ..............................
........................................................................
   1    -38.2759262 -0.382759E+02  0.976E-02    1.80       0.0  T
   2    -38.2759265 -0.310911E-06  0.686E-02    1.80       1.0  T
   3    -38.2758780  0.485857E-04  0.427E-02    1.80       1.0  T
   4    -38.2759334 -0.554155E-04  0.100E-02    1.80       1.8  T
   5    -38.2759343 -0.951587E-06  0.587E-03    1.80       3.1  T
   6    -38.2759345 -0.148115E-06  0.171E-03    1.80      10.5  T
   7    -38.2759345 -0.916287E-08  0.521E-04    1.80      34.5  T
   8    -38.2759345 -0.273584E-08  0.283E-04    1.80      63.4  T
     SCC iter.                  ...        0 min,  0.188 sec
     gradient                   ...        0 min,  0.013 sec
 * total energy  :   -37.6461305 Eh     change       -0.7399575E-04 Eh
   gradient norm :     0.0087909 Eh/α   predicted    -0.6974861E-04 (  -5.74%)
   displ. norm   :     0.2064501 α      lambda       -0.1097120E-03
   maximum displ.:     0.1277699 α      in ANC's #1, #2, #3, ...

........................................................................
.............................. CYCLE   53 ..............................
........................................................................
   1    -38.2773274 -0.382773E+02  0.492E-02    1.80       0.0  T
   2    -38.2773288 -0.141948E-05  0.302E-02    1.80       1.0  T
   3    -38.2773256  0.327629E-05  0.210E-02    1.80       1.0  T
   4    -38.2773297 -0.411751E-05  0.506E-03    1.80       3.6  T
   5    -38.2773299 -0.200522E-06  0.378E-03    1.80       4.8  T
   6    -38.2773300 -0.809353E-07  0.129E-03    1.80      14.0  T
   7    -38.2773300 -0.259645E-07  0.318E-04    1.80      56.5  T
   8    -38.2773300 -0.998561E-09  0.219E-04    1.80      82.1  T
     SCC iter.                  ...        0 min,  0.224 sec
     gradient                   ...        0 min,  0.021 sec
 * total energy  :   -37.6462090 Eh     change       -0.7852064E-04 Eh
   gradient norm :     0.0047461 Eh/α   predicted    -0.5719424E-04 ( -27.16%)
   displ. norm   :     0.3011640 α      lambda       -0.9124851E-04
   maximum displ.:     0.1877638 α      in ANC's #1, #2, #4, ...

........................................................................
.............................. CYCLE   54 ..............................
........................................................................
   1    -38.2773822 -0.382774E+02  0.639E-02    1.80       0.0  T
   2    -38.2773829 -0.760272E-06  0.416E-02    1.80       1.0  T
   3    -38.2773804  0.254339E-05  0.128E-02    1.80       1.4  T
   4    -38.2773833 -0.295048E-05  0.527E-03    1.80       3.4  T
   5    -38.2773833  0.789505E-07  0.269E-03    1.80       6.7  T
   6    -38.2773833 -0.732552E-07  0.163E-03    1.80      11.0  T
   7    -38.2773834 -0.443505E-07  0.464E-04    1.80      38.7  T
   8    -38.2773834  0.143181E-09  0.365E-04    1.80      49.2  T
     SCC iter.                  ...        0 min,  0.234 sec
     gradient                   ...        0 min,  0.021 sec
 * total energy  :   -37.6462730 Eh     change       -0.6400116E-04 Eh
   gradient norm :     0.0035024 Eh/α   predicted    -0.4976356E-04 ( -22.25%)
   displ. norm   :     0.2238392 α      lambda       -0.7576903E-04
   maximum displ.:     0.1479632 α      in ANC's #1, #2, #3, ...

........................................................................
.............................. CYCLE   55 ..............................
........................................................................
   1    -38.2790976 -0.382791E+02  0.531E-02    1.80       0.0  T
   2    -38.2790980 -0.443362E-06  0.327E-02    1.79       1.0  T
   3    -38.2790908  0.723851E-05  0.195E-02    1.80       1.0  T
   4    -38.2790987 -0.787164E-05  0.448E-03    1.80       4.0  T
   5    -38.2790988 -0.130397E-06  0.269E-03    1.80       6.7  T
   6    -38.2790988 -0.210356E-07  0.760E-04    1.80      23.6  T
   7    -38.2790988 -0.575214E-08  0.309E-04    1.80      58.2  T
     SCC iter.                  ...        0 min,  0.184 sec
     gradient                   ...        0 min,  0.006 sec
 * total energy  :   -37.6463215 Eh     change       -0.4851958E-04 Eh
   gradient norm :     0.0049548 Eh/α   predicted    -0.3978610E-04 ( -18.00%)
   displ. norm   :     0.3825510 α      lambda       -0.6736177E-04
   maximum displ.:     0.2459429 α      in ANC's #1, #2, #4, ...

........................................................................
.............................. CYCLE   56 ..............................
........................................................................
   1    -38.2759045 -0.382759E+02  0.918E-02    1.79       0.0  T
   2    -38.2759053 -0.771253E-06  0.611E-02    1.79       1.0  T
   3    -38.2758937  0.116389E-04  0.228E-02    1.79       1.0  T
   4    -38.2759058 -0.121407E-04  0.611E-03    1.79       2.9  T
   5    -38.2759060 -0.240040E-06  0.499E-03    1.79       3.6  T
   6    -38.2759062 -0.183827E-06  0.601E-04    1.79      29.9  T
   7    -38.2759062 -0.246118E-08  0.349E-04    1.79      51.5  T
     SCC iter.                  ...        0 min,  0.188 sec
     gradient                   ...        0 min,  0.092 sec
 * total energy  :   -37.6463393 Eh     change       -0.1782399E-04 Eh
   gradient norm :     0.0089615 Eh/α   predicted    -0.3861234E-04 ( 116.63%)
   displ. norm   :     0.0919038 α      lambda       -0.9921488E-04
   maximum displ.:     0.0556874 α      in ANC's #1, #3, #8, ...

........................................................................
.............................. CYCLE   57 ..............................
........................................................................
   1    -38.2788532 -0.382789E+02  0.326E-02    1.79       0.0  T
   2    -38.2788542 -0.982448E-06  0.215E-02    1.79       1.0  T
   3    -38.2788528  0.144950E-05  0.129E-02    1.79       1.4  T
   4    -38.2788547 -0.187545E-05  0.401E-03    1.79       4.5  T
   5    -38.2788549 -0.242583E-06  0.345E-03    1.79       5.2  T
   6    -38.2788550 -0.932252E-07  0.105E-03    1.79      17.1  T
   7    -38.2788550 -0.326141E-08  0.378E-04    1.79      47.5  T
   8    -38.2788550 -0.569209E-09  0.191E-04    1.79      93.8  T
     SCC iter.                  ...        0 min,  0.226 sec
     gradient                   ...        0 min,  0.029 sec
 * total energy  :   -37.6463754 Eh     change       -0.3610037E-04 Eh
   gradient norm :     0.0083234 Eh/α   predicted    -0.5002702E-04 (  38.58%)
   displ. norm   :     0.0627835 α      lambda       -0.4253240E-04
   maximum displ.:     0.0405901 α      in ANC's #1, #3, #4, ...

........................................................................
.............................. CYCLE   58 ..............................
........................................................................
   1    -38.2791903 -0.382792E+02  0.281E-02    1.79       0.0  T
   2    -38.2791901  0.208078E-06  0.213E-02    1.79       1.0  T
   3    -38.2791895  0.600530E-06  0.136E-02    1.79       1.3  T
   4    -38.2791919 -0.245532E-05  0.206E-03    1.79       8.7  T
   5    -38.2791920 -0.651259E-07  0.131E-03    1.79      13.7  T
   6    -38.2791920 -0.688762E-08  0.539E-04    1.79      33.3  T
   7    -38.2791920 -0.192583E-08  0.243E-04    1.79      73.9  T
     SCC iter.                  ...        0 min,  0.176 sec
     gradient                   ...        0 min,  0.007 sec
 * total energy  :   -37.6464011 Eh     change       -0.2568895E-04 Eh
   gradient norm :     0.0044469 Eh/α   predicted    -0.2135082E-04 ( -16.89%)
   displ. norm   :     0.1511631 α      lambda       -0.2884546E-04
   maximum displ.:     0.1126194 α      in ANC's #1, #3, #2, ...

........................................................................
.............................. CYCLE   59 ..............................
........................................................................
   1    -38.2784454 -0.382784E+02  0.532E-02    1.79       0.0  T
   2    -38.2784457 -0.258813E-06  0.363E-02    1.79       1.0  T
   3    -38.2784411  0.463652E-05  0.129E-02    1.79       1.4  T
   4    -38.2784458 -0.475343E-05  0.379E-03    1.79       4.7  T
   5    -38.2784460 -0.205232E-06  0.200E-03    1.79       9.0  T
   6    -38.2784460 -0.164600E-07  0.490E-04    1.79      36.7  T
   7    -38.2784460 -0.140078E-08  0.313E-04    1.79      57.3  T
     SCC iter.                  ...        0 min,  0.181 sec
     gradient                   ...        0 min,  0.007 sec
 * total energy  :   -37.6464192 Eh     change       -0.1805334E-04 Eh
   gradient norm :     0.0042535 Eh/α   predicted    -0.1475651E-04 ( -18.26%)
   displ. norm   :     0.0604289 α      lambda       -0.1802013E-04
   maximum displ.:     0.0478104 α      in ANC's #1, #3, #5, ...

........................................................................
.............................. CYCLE   60 ..............................
........................................................................
   1    -38.2787026 -0.382787E+02  0.248E-02    1.79       0.0  T
   2    -38.2787024  0.207045E-06  0.197E-02    1.79       1.0  T
   3    -38.2787013  0.101729E-05  0.115E-02    1.79       1.6  T
   4    -38.2787037 -0.239797E-05  0.169E-03    1.79      10.7  T
   5    -38.2787038 -0.233669E-07  0.899E-04    1.79      20.0  T
   6    -38.2787038 -0.201369E-08  0.363E-04    1.79      49.5  T
     SCC iter.                  ...        0 min,  0.146 sec
     gradient                   ...        0 min,  0.006 sec
 * total energy  :   -37.6464333 Eh     change       -0.1412331E-04 Eh
   gradient norm :     0.0023967 Eh/α   predicted    -0.9043568E-05 ( -35.97%)
   displ. norm   :     0.0972480 α      lambda       -0.2355919E-04
   maximum displ.:     0.0764365 α      in ANC's #1, #3, #5, ...

........................................................................
.............................. CYCLE   61 ..............................
........................................................................
   1    -38.2787860 -0.382788E+02  0.379E-02    1.79       0.0  T
   2    -38.2787859  0.109423E-06  0.277E-02    1.79       1.0  T
   3    -38.2787775  0.840027E-05  0.178E-02    1.79       1.0  T
   4    -38.2787874 -0.989489E-05  0.300E-03    1.79       6.0  T
   5    -38.2787874 -0.663932E-07  0.143E-03    1.79      12.6  T
   6    -38.2787875 -0.715352E-08  0.553E-04    1.79      32.5  T
   7    -38.2787875 -0.160448E-08  0.235E-04    1.79      76.5  T
     SCC iter.                  ...        0 min,  0.154 sec
     gradient                   ...        0 min,  0.004 sec
 * total energy  :   -37.6464492 Eh     change       -0.1591659E-04 Eh
   gradient norm :     0.0028416 Eh/α   predicted    -0.1189496E-04 ( -25.27%)
   displ. norm   :     0.0614902 α      lambda       -0.1160655E-04
   maximum displ.:     0.0496005 α      in ANC's #1, #4, #3, ...

........................................................................
.............................. CYCLE   62 ..............................
........................................................................
   1    -38.2787325 -0.382787E+02  0.168E-02    1.79       0.0  T
   2    -38.2787324  0.114712E-07  0.119E-02    1.79       1.5  T
   3    -38.2787308  0.159547E-05  0.760E-03    1.79       2.4  T
   4    -38.2787327 -0.184429E-05  0.181E-03    1.79       9.9  T
   5    -38.2787327 -0.169528E-07  0.902E-04    1.79      19.9  T
   6    -38.2787327 -0.424536E-08  0.330E-04    1.79      54.5  T
     SCC iter.                  ...        0 min,  0.117 sec
     gradient                   ...        0 min,  0.005 sec
 * total energy  :   -37.6464579 Eh     change       -0.8716310E-05 Eh
   gradient norm :     0.0033040 Eh/α   predicted    -0.5826816E-05 ( -33.15%)
   displ. norm   :     0.0593267 α      lambda       -0.1171163E-04
   maximum displ.:     0.0355095 α      in ANC's #1, #4, #2, ...

........................................................................
.............................. CYCLE   63 ..............................
........................................................................
   1    -38.2786252 -0.382786E+02  0.135E-02    1.79       0.0  T
   2    -38.2786253 -0.423402E-07  0.797E-03    1.79       2.3  T
   3    -38.2786250  0.283769E-06  0.486E-03    1.79       3.7  T
   4    -38.2786253 -0.321874E-06  0.125E-03    1.79      14.4  T
   5    -38.2786253 -0.159882E-07  0.993E-04    1.79      18.1  T
   6    -38.2786253 -0.690352E-08  0.332E-04    1.79      54.1  T
     SCC iter.                  ...        0 min,  0.137 sec
     gradient                   ...        0 min,  0.031 sec
 * total energy  :   -37.6464666 Eh     change       -0.8607415E-05 Eh
   gradient norm :     0.0024824 Eh/α   predicted    -0.5881061E-05 ( -31.67%)
   displ. norm   :     0.0638414 α      lambda       -0.1189749E-04
   maximum displ.:     0.0416093 α      in ANC's #1, #4, #2, ...

........................................................................
.............................. CYCLE   64 ..............................
........................................................................
   1    -38.2783886 -0.382784E+02  0.186E-02    1.79       0.0  T
   2    -38.2783887 -0.720784E-07  0.112E-02    1.79       1.6  T
   3    -38.2783877  0.978820E-06  0.785E-03    1.79       2.3  T
   4    -38.2783888 -0.111413E-05  0.201E-03    1.79       9.0  T
   5    -38.2783889 -0.363024E-07  0.118E-03    1.79      15.3  T
   6    -38.2783889 -0.263579E-08  0.488E-04    1.79      36.8  T
   7    -38.2783889 -0.208785E-08  0.212E-04    1.79      84.7  T
     SCC iter.                  ...        0 min,  0.155 sec
     gradient                   ...        0 min,  0.026 sec
 * total energy  :   -37.6464744 Eh     change       -0.7865649E-05 Eh
   gradient norm :     0.0025148 Eh/α   predicted    -0.5976725E-05 ( -24.01%)
   displ. norm   :     0.0553732 α      lambda       -0.8029666E-05
   maximum displ.:     0.0378935 α      in ANC's #1, #4, #2, ...

........................................................................
.............................. CYCLE   65 ..............................
........................................................................
   1    -38.2783254 -0.382783E+02  0.144E-02    1.79       0.0  T
   2    -38.2783254  0.458747E-07  0.957E-03    1.79       1.9  T
   3    -38.2783248  0.550934E-06  0.741E-03    1.79       2.4  T
   4    -38.2783259 -0.100864E-05  0.120E-03    1.79      14.9  T
   5    -38.2783259 -0.106457E-07  0.767E-04    1.79      23.4  T
   6    -38.2783259 -0.166877E-08  0.281E-04    1.79      63.8  T
     SCC iter.                  ...        0 min,  0.130 sec
     gradient                   ...        0 min,  0.004 sec
 * total energy  :   -37.6464802 Eh     change       -0.5792091E-05 Eh
   gradient norm :     0.0017835 Eh/α   predicted    -0.4029728E-05 ( -30.43%)
   displ. norm   :     0.0908394 α      lambda       -0.8621696E-05
   maximum displ.:     0.0728562 α      in ANC's #1, #4, #3, ...

........................................................................
.............................. CYCLE   66 ..............................
........................................................................
   1    -38.2779988 -0.382780E+02  0.243E-02    1.79       0.0  T
   2    -38.2779988 -0.306442E-07  0.154E-02    1.79       1.2  T
   3    -38.2779968  0.202783E-05  0.126E-02    1.79       1.4  T
   4    -38.2779998 -0.304097E-05  0.251E-03    1.79       7.2  T
   5    -38.2779999 -0.659717E-07  0.116E-03    1.79      15.5  T
   6    -38.2779999 -0.635133E-09  0.401E-04    1.79      44.8  T
   7    -38.2779999 -0.881556E-09  0.156E-04    1.79     114.9  T
     SCC iter.                  ...        0 min,  0.147 sec
     gradient                   ...        0 min,  0.005 sec
 * total energy  :   -37.6464871 Eh     change       -0.6844603E-05 Eh
   gradient norm :     0.0014484 Eh/α   predicted    -0.4327917E-05 ( -36.77%)
   displ. norm   :     0.0361074 α      lambda       -0.4358588E-05
   maximum displ.:     0.0263938 α      in ANC's #1, #5, #2, ...
 * RMSD in coord.:     0.6317803 α      energy gain  -0.1191015E-02 Eh

generating ANC from model Hessian ...
Using Lindh-Hessian (1995)
 Shifting diagonal of input Hessian by    9.8853287160516751E-003
 Lowest  eigenvalues of input Hessian
    0.000000    0.000000    0.000000    0.000000    0.000000    0.000000
    0.010000    0.010249    0.010434    0.010905    0.011341    0.011528
    0.011555    0.014112    0.016189    0.016465    0.017880    0.017914
 Highest eigenvalues
    1.738920    1.740138    3.306308    4.013038    4.820430    6.268010


........................................................................
.............................. CYCLE   67 ..............................
........................................................................
   1    -38.2787777 -0.382788E+02  0.979E-03    1.79       0.0  T
   2    -38.2787777 -0.401929E-07  0.572E-03    1.79       3.1  T
   3    -38.2787775  0.199792E-06  0.485E-03    1.79       3.7  T
   4    -38.2787778 -0.255922E-06  0.120E-03    1.79      14.9  T
   5    -38.2787778 -0.530602E-08  0.966E-04    1.79      18.6  T
   6    -38.2787778 -0.835144E-08  0.344E-04    1.79      52.2  T
     SCC iter.                  ...        0 min,  0.180 sec
     gradient                   ...        0 min,  0.017 sec
 * total energy  :   -37.6464900 Eh     change       -0.2977481E-05 Eh
   gradient norm :     0.0019781 Eh/α   predicted     0.0000000E+00 (-100.00%)
   displ. norm   :     0.0116106 α      lambda        0.3394085E-05
   maximum displ.:     0.0064195 α      in ANC's #10, #1, #5, ...

........................................................................
.............................. CYCLE   68 ..............................
........................................................................
   1    -38.2786640 -0.382787E+02  0.799E-03    1.80       0.0  T
   2    -38.2786639  0.802711E-08  0.564E-03    1.79       3.2  T
   3    -38.2786639 -0.156518E-09  0.387E-03    1.79       4.6  T
   4    -38.2786641 -0.193713E-06  0.105E-03    1.79      17.0  T
   5    -38.2786642 -0.121833E-07  0.391E-04    1.79      46.0  T
   6    -38.2786642  0.399822E-10  0.157E-04    1.79     114.2  T
     SCC iter.                  ...        0 min,  0.170 sec
     gradient                   ...        0 min,  0.012 sec
 * total energy  :   -37.6464913 Eh     change       -0.1233126E-05 Eh
   gradient norm :     0.0012066 Eh/α   predicted    -0.1118869E-05 (  -9.27%)
   displ. norm   :     0.0108963 α      lambda       -0.9328598E-06
   maximum displ.:     0.0049638 α      in ANC's #1, #4, #5, ...

........................................................................
.............................. CYCLE   69 ..............................
........................................................................
   1    -38.2786121 -0.382786E+02  0.520E-03    1.79       0.0  T
   2    -38.2786121  0.437481E-09  0.324E-03    1.79       5.5  T
   3    -38.2786120  0.121702E-06  0.264E-03    1.79       6.8  T
   4    -38.2786122 -0.164836E-06  0.453E-04    1.79      39.6  T
   5    -38.2786122 -0.204827E-08  0.255E-04    1.79      70.4  T
     SCC iter.                  ...        0 min,  0.141 sec
     gradient                   ...        0 min,  0.032 sec
 * total energy  :   -37.6464919 Eh     change       -0.6164589E-06 Eh
   gradient norm :     0.0007041 Eh/α   predicted    -0.4733709E-06 ( -23.21%)
   displ. norm   :     0.0112295 α      lambda       -0.7126397E-06
   maximum displ.:     0.0072506 α      in ANC's #1, #4, #15, ...

   *** GEOMETRY OPTIMIZATION CONVERGED AFTER 69 ITERATIONS ***

------------------------------------------------------------------------
 total energy gain   :        -4.8612913 Eh    -3050.5063 kcal/mol
 total RMSD          :         1.4740761 a0        0.7800 Å
 total power (kW/mol):      -184.9756299 (step) -686.4920 (real)
------------------------------------------------------------------------

 ANCopt (total)                0 d,  0 h,  0 min, 18.592 sec
 optimizer setup                ...        0 min,  0.001 sec (  0.003%)
 model hessian                  ...        0 min,  0.064 sec (  0.343%)
 ANC generation                 ...        0 min,  0.007 sec (  0.035%)
 coordinate transformation      ...        0 min,  0.001 sec (  0.005%)
 single point calculation       ...        0 min, 18.288 sec ( 98.364%)
 optimization log               ...        0 min,  0.007 sec (  0.039%)
 hessian update                 ...        0 min,  0.155 sec (  0.831%)
 rational function              ...        0 min,  0.066 sec (  0.356%)

================
 final structure:
================
31
 xtb: 6.5.1 (b24c23e)
Zr          -1.31018154091383       -0.12628376882393        0.55576446914420
C           -1.00818045295494        1.23418634583515       -1.39492851070093
C            0.36395928658116       -1.92853999707274        0.57145418569789
C            0.04210827210274       -1.69973232132857       -0.78720808359993
C           -1.31635949320492       -2.04343776945937       -0.98178848740144
C           -1.83698351276726       -2.49301810779272        0.26036742727820
C           -0.79600709072159       -2.42660395314894        1.21805501227390
H            1.36107826408478       -1.89178081438778        0.99712973006103
H            0.75235578172039       -1.46040363253945       -1.57106858579482
H           -1.82390852080555       -2.10007247882930       -1.93750248475747
H           -2.79241743953866       -2.98404025739616        0.40858057123225
H           -0.83720075751743       -2.84494674780757        2.21782890829385
C           -0.32296511056784        0.14257395345594        2.78584803300952
C           -1.71546187492015        0.37959606167381        2.90603290154215
C           -2.00987325696223        1.57956050384271        2.20662352981192
C           -0.81399835189554        2.05601683971963        1.62695470879623
C            0.22987338825356        1.15944306591713        1.97109702481277
H            0.24280629210272       -0.59449929999190        3.34362143379329
H           -2.39035808403940       -0.14565338150476        3.57522282309061
H           -2.94510831973943        2.12408445921076        2.25204008613208
H           -0.68749488821940        3.01660634388842        1.14173737529282
H            1.28912544785544        1.32565876885607        1.80046903478539
H           -0.02722926630222        1.07504763528005       -0.88075985886978
H           -1.01040711942738        0.69463503388126       -2.34368930708916
H           -1.10615114341216        2.29789737118855       -1.59886257862773
C           -3.58901941052472        0.01201660825063        0.00541090140475
C           -3.12689583027409        1.05690750045963       -0.83616910097325
H           -3.21554795585323        2.07737878465264       -0.46679997394290
H           -3.32311113950168        0.96160207736253       -1.89928277918389
H           -4.05423384249946        0.27780452810842        0.95673452925435
H           -4.00729269022267       -0.86246840146619       -0.48982861478217

 Bond Distances (Angstroems)
 ---------------------------
Zr1-C2=2.3974        Zr1-C3=2.4599        Zr1-C4=2.4714        Zr1-C5=2.4576        Zr1-C6=2.4426        Zr1-C7=2.4484        
Zr1-C13=2.4536       Zr1-C14=2.4380       Zr1-C15=2.4748       Zr1-C16=2.4811       Zr1-C17=2.4552       Zr1-H23=2.2700       
Zr1-C26=2.3484       Zr1-C27=2.5764       C2-Zr1=2.3974        C2-H23=1.1189        C2-H24=1.0915        C2-H25=1.0875        
C3-Zr1=2.4599        C3-C4=1.4149         C3-C7=1.4183         C3-H8=1.0848         C4-Zr1=2.4714        C4-C3=1.4149         
C4-C5=1.4147         C4-H9=1.0845         C5-Zr1=2.4576        C5-C4=1.4147         C5-C6=1.4199         C5-H10=1.0836        
C6-Zr1=2.4426        C6-C5=1.4199         C6-C7=1.4161         C6-H11=1.0844        C7-Zr1=2.4484        C7-C3=1.4183         
C7-C6=1.4161         C7-H12=1.0846        H8-C3=1.0848         H9-C4=1.0845         H10-C5=1.0836        H11-C6=1.0844        
H12-C7=1.0846        C13-Zr1=2.4536       C13-C14=1.4176       C13-C17=1.4154       C13-H18=1.0837       C14-Zr1=2.4380       
C14-C13=1.4176       C14-C15=1.4198       C14-H19=1.0859       C15-Zr1=2.4748       C15-C14=1.4198       C15-C16=1.4118       
C15-H20=1.0832       C16-Zr1=2.4811       C16-C15=1.4118       C16-C17=1.4184       C16-H21=1.0836       C17-Zr1=2.4552       
C17-C13=1.4154       C17-C16=1.4184       C17-H22=1.0857       H18-C13=1.0837       H19-C14=1.0859       H20-C15=1.0832       
H21-C16=1.0836       H22-C17=1.0857       H23-Zr1=2.2700       H23-C2=1.1189        H24-C2=1.0915        H25-C2=1.0875        
C26-Zr1=2.3484       C26-C27=1.4190       C26-H30=1.0918       C26-H31=1.0885       C27-Zr1=2.5764       C27-C26=1.4190       
C27-H28=1.0889       C27-H29=1.0853       H28-C27=1.0889       H29-C27=1.0853       H30-C26=1.0918       H31-C26=1.0885       
 C  H  Rav=1.0880 sigma=0.0081  Rmin=1.0832  Rmax=1.1189    17
 C  C  Rav=1.4169 sigma=0.0024  Rmin=1.4118  Rmax=1.4199    11
 Zr H  Rav=2.2700 sigma=0.0000  Rmin=2.2700  Rmax=2.2700     1
 Zr C  Rav=2.4542 sigma=0.0491  Rmin=2.3484  Rmax=2.5764    13

 selected bond angles (degree)
 --------------------
C3-Zr1-C2=109.59               C4-Zr1-C2= 81.39               C4-Zr1-C3= 33.35               C5-Zr1-C2= 86.21               
C5-Zr1-C3= 55.54               C5-Zr1-C4= 33.36               C6-Zr1-C2=118.60               C6-Zr1-C3= 55.78               
C6-Zr1-C4= 55.63               C6-Zr1-C5= 33.69               C7-Zr1-C2=136.62               C7-Zr1-C3= 33.59               
C7-Zr1-C4= 55.52               C7-Zr1-C5= 55.72               C7-Zr1-C6= 33.66               C13-Zr1-C2=128.81              
C13-Zr1-C3= 78.50              C13-Zr1-C4=110.09              C13-Zr1-C5=130.93              C13-Zr1-C6=107.63              
C13-Zr1-C7= 76.86              C14-Zr1-C2=133.44              C14-Zr1-C3=105.01              C14-Zr1-C4=138.32              
C14-Zr1-C5=139.87              C14-Zr1-C6=106.37              C14-Zr1-C7= 88.23              C14-Zr1-C13= 33.69             
C15-Zr1-C2=100.79              C15-Zr1-C3=133.88              C15-Zr1-C4=162.94              C15-Zr1-C5=162.62              
C15-Zr1-C6=133.44              C15-Zr1-C7=121.77              C15-Zr1-C13= 55.38             C15-Zr1-C14= 33.58             
C16-Zr1-C2= 80.04              C16-Zr1-C3=120.37              C16-Zr1-C4=133.25              C16-Zr1-C5=163.09              
C16-Zr1-C6=161.37              C16-Zr1-C7=131.88              C16-Zr1-C13= 55.30             C16-Zr1-C14= 55.57             
C16-Zr1-C15= 33.10             C17-Zr1-C2= 95.33              C17-Zr1-C3= 87.31              C17-Zr1-C4=107.66              
C17-Zr1-C5=140.42              C17-Zr1-C6=135.43              C17-Zr1-C7=101.79              C17-Zr1-C13= 33.52             
C17-Zr1-C14= 55.94             C17-Zr1-C15= 55.38             C17-Zr1-C16= 33.39             H23-Zr1-C2= 27.57              
H23-Zr1-C3= 90.41              H23-Zr1-C4= 71.57              H23-Zr1-C5= 91.05              H23-Zr1-C6=123.93              
H23-Zr1-C7=123.35              H23-Zr1-C13=106.85             H23-Zr1-C14=126.46             H23-Zr1-C15=102.54             
H23-Zr1-C16= 72.22             H23-Zr1-C17= 74.52             C26-Zr1-C2= 84.15              C26-Zr1-C3=134.83              
C26-Zr1-C4=116.17              C26-Zr1-C5= 84.08              C26-Zr1-C6= 79.60              C26-Zr1-C7=108.81              
C26-Zr1-C13=126.65             C26-Zr1-C14= 93.00             C26-Zr1-C15= 80.87             C26-Zr1-C16=104.09             
C26-Zr1-C17=135.47             C26-Zr1-H23=111.65             C27-Zr1-C2= 52.31              C27-Zr1-C3=145.07              
C27-Zr1-C4=112.62              C27-Zr1-C5= 91.06              C27-Zr1-C6=103.15              C27-Zr1-C7=136.53              
C27-Zr1-C13=136.42             C27-Zr1-C14=107.96             C27-Zr1-C15= 81.05             C27-Zr1-C16= 88.30             
C27-Zr1-C17=120.88             C27-Zr1-H23= 79.26             C27-Zr1-C26= 33.08             H23-C2-Zr1= 69.87              
H24-C2-Zr1=115.25              H24-C2-H23=109.33              H25-C2-Zr1=134.13              H25-C2-H23=107.71              
H25-C2-H24=108.68              C4-C3-Zr1= 73.77               C7-C3-Zr1= 72.76               C7-C3-C4=107.97                
H8-C3-Zr1=127.10               H8-C3-C4=125.48                H8-C3-C7=125.78                C3-C4-Zr1= 72.88               
C5-C4-Zr1= 72.78               C5-C4-C3=108.13                H9-C4-Zr1=127.63               H9-C4-C3=125.50                
H9-C4-C5=125.67                C4-C5-Zr1= 73.86               C6-C5-Zr1= 72.58               C6-C5-C4=107.98                
H10-C5-Zr1=126.42              H10-C5-C4=125.72               H10-C5-C6=125.68               C5-C6-Zr1= 73.74               
C7-C6-Zr1= 73.39               C7-C6-C5=107.89                H11-C6-Zr1=127.75              H11-C6-C5=125.87               
H11-C6-C7=125.20               C3-C7-Zr1= 73.65               C6-C7-Zr1= 72.95               C6-C7-C3=108.02                
H12-C7-Zr1=127.14              H12-C7-C3=125.93               H12-C7-C6=125.27               

 selected dihedral angles (degree)
 ---------------------------------
H23-C2-Zr1-C3=311.70          H23-C2-Zr1-C4=293.63          H23-C2-Zr1-C5=260.41          H23-C2-Zr1-C6=250.77          
H23-C2-Zr1-C7=287.31          H23-C2-Zr1-C13= 42.54         H23-C2-Zr1-C14= 87.39         H23-C2-Zr1-C15= 96.46         
H23-C2-Zr1-C16= 70.53         H23-C2-Zr1-C17= 40.73         H23-C2-Zr1-C26=175.99         H23-C2-Zr1-C27=166.14         
H24-C2-Zr1-C3= 54.22          H24-C2-Zr1-C4= 36.15          H24-C2-Zr1-C5=  2.94          H24-C2-Zr1-C6=353.29          
H24-C2-Zr1-C7= 29.83          H24-C2-Zr1-C13=145.06         H24-C2-Zr1-C14=189.91         H24-C2-Zr1-C15=198.99         
H24-C2-Zr1-C16=173.06         H24-C2-Zr1-C17=143.26         H24-C2-Zr1-H23=102.52         H24-C2-Zr1-C26=278.51         
H24-C2-Zr1-C27=268.66         H25-C2-Zr1-C3=216.20          H25-C2-Zr1-C4=198.13          H25-C2-Zr1-C5=164.91          
H25-C2-Zr1-C6=155.26          H25-C2-Zr1-C7=191.81          H25-C2-Zr1-C13=307.03         H25-C2-Zr1-C14=351.89         
H25-C2-Zr1-C15=  0.96         H25-C2-Zr1-C16=335.03         H25-C2-Zr1-C17=305.23         H25-C2-Zr1-H23=264.50         
H25-C2-Zr1-C26= 80.48         H25-C2-Zr1-C27= 70.64         C4-C3-Zr1-C2=326.10           C4-C3-Zr1-C5= 36.87           
C4-C3-Zr1-C6= 77.96           C4-C3-Zr1-C7=115.26           C4-C3-Zr1-C13=198.76          C4-C3-Zr1-C14=177.77          
C4-C3-Zr1-C15=197.93          C4-C3-Zr1-C16=236.35          C4-C3-Zr1-C17=231.39          C4-C3-Zr1-H23=305.88          
C4-C3-Zr1-C26= 67.71          C4-C3-Zr1-C27= 17.50          C7-C3-Zr1-C2=210.83           C7-C3-Zr1-C4=244.74           
C7-C3-Zr1-C5=281.61           C7-C3-Zr1-C6=322.70           C7-C3-Zr1-C13= 83.50          C7-C3-Zr1-C14= 62.51          
C7-C3-Zr1-C15= 82.67          C7-C3-Zr1-C16=121.08          C7-C3-Zr1-C17=116.13          C7-C3-Zr1-H23=190.62          
C7-C3-Zr1-C26=312.45          C7-C3-Zr1-C27=262.24          H8-C3-Zr1-C2= 88.63           H8-C3-Zr1-C4=122.54           
H8-C3-Zr1-C5=159.41           H8-C3-Zr1-C6=200.49           H8-C3-Zr1-C7=237.80           H8-C3-Zr1-C13=321.30          
H8-C3-Zr1-C14=300.31          H8-C3-Zr1-C15=320.47          H8-C3-Zr1-C16=358.88          H8-C3-Zr1-C17=353.93          
H8-C3-Zr1-H23= 68.41          H8-C3-Zr1-C26=190.24          H8-C3-Zr1-C27=140.03          C3-C4-Zr1-C2=147.89           
C3-C4-Zr1-C5=244.13           C3-C4-Zr1-C6=281.53           C3-C4-Zr1-C7=322.63           C3-C4-Zr1-C13= 19.61          
C3-C4-Zr1-C14=356.76          C3-C4-Zr1-C15= 49.16          C3-C4-Zr1-C16= 80.40          C3-C4-Zr1-C17= 55.01          
C3-C4-Zr1-H23=121.34          C3-C4-Zr1-C26=226.98          C3-C4-Zr1-C27=190.75          C5-C4-Zr1-C2=263.76           
C5-C4-Zr1-C3=115.87           C5-C4-Zr1-C6= 37.41           C5-C4-Zr1-C7= 78.50           C5-C4-Zr1-C13=135.48          
C5-C4-Zr1-C14=112.64          C5-C4-Zr1-C15=165.03          C5-C4-Zr1-C16=196.27          C5-C4-Zr1-C17=170.88          
C5-C4-Zr1-H23=237.22          C5-C4-Zr1-C26=342.85          C5-C4-Zr1-C27=306.62          H9-C4-Zr1-C2= 25.90           
H9-C4-Zr1-C3=238.00           H9-C4-Zr1-C5=122.13           H9-C4-Zr1-C6=159.54           H9-C4-Zr1-C7=200.63           
H9-C4-Zr1-C13=257.62          H9-C4-Zr1-C14=234.77          H9-C4-Zr1-C15=287.16          H9-C4-Zr1-C16=318.40          
H9-C4-Zr1-C17=293.01          H9-C4-Zr1-H23=359.35          H9-C4-Zr1-C26=104.99          H9-C4-Zr1-C27= 68.75          
Zr1-C4-C3-C7= 65.23           Zr1-C4-C3-H8=235.66           C5-C4-C3-Zr1=295.26           C5-C4-C3-C7=  0.50            
C5-C4-C3-H8=170.92            H9-C4-C3-Zr1=124.41           H9-C4-C3-C7=189.64            H9-C4-C3-H8=  0.07            
C4-C5-Zr1-C2= 80.07           C4-C5-Zr1-C3=323.14           C4-C5-Zr1-C6=244.68           C4-C5-Zr1-C7=282.16           
C4-C5-Zr1-C13=299.36          C4-C5-Zr1-C14=252.21          C4-C5-Zr1-C15=194.69          C4-C5-Zr1-C16= 44.55          
C4-C5-Zr1-C17=346.29          C4-C5-Zr1-H23= 52.91          C4-C5-Zr1-C26=164.57          C4-C5-Zr1-C27=132.19          
C6-C5-Zr1-C2=195.39           C6-C5-Zr1-C3= 78.46           C6-C5-Zr1-C4=115.32           C6-C5-Zr1-C7= 37.47           
C6-C5-Zr1-C13= 54.68          C6-C5-Zr1-C14=  7.53          C6-C5-Zr1-C15=310.01          C6-C5-Zr1-C16=159.87          
C6-C5-Zr1-C17=101.60          C6-C5-Zr1-H23=168.23          C6-C5-Zr1-C26=279.89          C6-C5-Zr1-C27=247.50          
H10-C5-Zr1-C2=317.27          H10-C5-Zr1-C3=200.34          H10-C5-Zr1-C4=237.20          H10-C5-Zr1-C6=121.88          
H10-C5-Zr1-C7=159.36          H10-C5-Zr1-C13=176.56         H10-C5-Zr1-C14=129.41         H10-C5-Zr1-C15= 71.89         
H10-C5-Zr1-C16=281.75         H10-C5-Zr1-C17=223.49         H10-C5-Zr1-H23=290.11         H10-C5-Zr1-C26= 41.77         
H10-C5-Zr1-C27=  9.39         Zr1-C5-C4-C3= 64.80           Zr1-C5-C4-H9=235.64           C6-C5-C4-Zr1=294.94           
C6-C5-C4-C3=359.74            C6-C5-C4-H9=170.57            H10-C5-C4-Zr1=123.59          H10-C5-C4-C3=188.39           
H10-C5-C4-H9=359.23           C5-C6-Zr1-C2= 17.55           C5-C6-Zr1-C3=282.33           C5-C6-Zr1-C4=322.97           
C5-C6-Zr1-C7=245.10           C5-C6-Zr1-C13=220.30          C5-C6-Zr1-C14=185.05          C5-C6-Zr1-C15=161.63          
C5-C6-Zr1-C16=198.26          C5-C6-Zr1-C17=242.79          C5-C6-Zr1-H23=345.77          C5-C6-Zr1-C26= 94.96          
C5-C6-Zr1-C27= 71.56          C7-C6-Zr1-C2=132.45           C7-C6-Zr1-C3= 37.23           C7-C6-Zr1-C4= 77.87           
C7-C6-Zr1-C5=114.90           C7-C6-Zr1-C13=335.20          C7-C6-Zr1-C14=299.94          C7-C6-Zr1-C15=276.53          
C7-C6-Zr1-C16=313.16          C7-C6-Zr1-C17=357.69          C7-C6-Zr1-H23=100.67          C7-C6-Zr1-C26=209.85          
C7-C6-Zr1-C27=186.45          H11-C6-Zr1-C2=254.45          H11-C6-Zr1-C3=159.23          H11-C6-Zr1-C4=199.87          
H11-C6-Zr1-C5=236.90          H11-C6-Zr1-C7=122.00          H11-C6-Zr1-C13= 97.20         H11-C6-Zr1-C14= 61.95         
H11-C6-Zr1-C15= 38.53         H11-C6-Zr1-C16= 75.16         H11-C6-Zr1-C17=119.69         H11-C6-Zr1-H23=222.67         
H11-C6-Zr1-C26=331.85         H11-C6-Zr1-C27=308.45         Zr1-C6-C5-C4= 65.91           Zr1-C6-C5-H10=237.26          
C7-C6-C5-Zr1=294.02           C7-C6-C5-C4=359.93            C7-C6-C5-H10=171.28           H11-C6-C5-Zr1=125.17          
H11-C6-C5-C4=191.09           H11-C6-C5-H10=  2.44          C3-C7-Zr1-C2= 44.67           C3-C7-Zr1-C4= 37.09           
C3-C7-Zr1-C5= 77.79           C3-C7-Zr1-C6=115.29           C3-C7-Zr1-C13=271.05          C3-C7-Zr1-C14=239.01          
C3-C7-Zr1-C15=237.24          C3-C7-Zr1-C16=277.05          C3-C7-Zr1-C17=293.63          C3-C7-Zr1-H23= 12.74          
C3-C7-Zr1-C26=146.44          C3-C7-Zr1-C27=124.44          C6-C7-Zr1-C2=289.38           C6-C7-Zr1-C3=244.71           
C6-C7-Zr1-C4=281.80           C6-C7-Zr1-C5=322.50           C6-C7-Zr1-C13=155.76          C6-C7-Zr1-C14=123.72          
C6-C7-Zr1-C15=121.94          C6-C7-Zr1-C16=161.76          C6-C7-Zr1-C17=178.34          C6-C7-Zr1-H23=257.45          
C6-C7-Zr1-C26= 31.15          C6-C7-Zr1-C27=  9.15          H12-C7-Zr1-C2=167.69          H12-C7-Zr1-C3=123.02          
H12-C7-Zr1-C4=160.11          H12-C7-Zr1-C5=200.80          H12-C7-Zr1-C6=238.31          H12-C7-Zr1-C13= 34.07         
H12-C7-Zr1-C14=  2.03         H12-C7-Zr1-C15=  0.25         H12-C7-Zr1-C16= 40.07         H12-C7-Zr1-C17= 56.65         
H12-C7-Zr1-H23=135.76         H12-C7-Zr1-C26=269.46         H12-C7-Zr1-C27=247.46         Zr1-C7-C3-C4=294.09           
Zr1-C7-C3-H8=123.70           C6-C7-C3-Zr1= 65.37           C6-C7-C3-C4=359.46            C6-C7-C3-H8=189.07            
H12-C7-C3-Zr1=235.63          H12-C7-C3-C4=169.73           H12-C7-C3-H8=359.34           Zr1-C7-C6-C5= 66.21           
Zr1-C7-C6-H11=235.15          C3-C7-C6-Zr1=294.17           C3-C7-C6-C5=  0.38            C3-C7-C6-H11=169.31           
H12-C7-C6-Zr1=123.82          H12-C7-C6-C5=190.03           H12-C7-C6-H11=358.97          

 CMA Distance (Angstroems)
 ---------------------------
R(CMA):  2.7881
           -------------------------------------------------
          |                Final Singlepoint                |
           -------------------------------------------------

          ...................................................
          :                      SETUP                      :
          :.................................................:
          :  # basis functions                  79          :
          :  # atomic orbitals                  78          :
          :  # shells                           46          :
          :  # electrons                        72          :
          :  max. iterations                   250          :
          :  Hamiltonian                  GFN2-xTB          :
          :  restarted?                      false          :
          :  GBSA solvation                  false          :
          :  PC potential                    false          :
          :  electronic temp.          300.0000000     K    :
          :  accuracy                    1.0000000          :
          :  -> integral cutoff          0.2500000E+02      :
          :  -> integral neglect         0.1000000E-07      :
          :  -> SCF convergence          0.1000000E-05 Eh   :
          :  -> wf. convergence          0.1000000E-03 e    :
          :  Broyden damping             0.4000000          :
          ...................................................

 iter      E             dE          RMSdq      gap      omega  full diag
   1    -38.2786122 -0.382786E+02  0.825E-05    1.79       0.0  T
   2    -38.2786122 -0.192770E-10  0.588E-05    1.79     305.3  T
   3    -38.2786122 -0.260627E-10  0.490E-05    1.79     366.6  T

   *** convergence criteria satisfied after 3 iterations ***

         #    Occupation            Energy/Eh            Energy/eV
      -------------------------------------------------------------
         1        2.0000           -0.8737511             -23.7760
       ...           ...                  ...                  ...
        30        2.0000           -0.5863500             -15.9554
        31        2.0000           -0.5813808             -15.8202
        32        2.0000           -0.5209488             -14.1757
        33        2.0000           -0.5206052             -14.1664
        34        2.0000           -0.5102056             -13.8834
        35        2.0000           -0.5050322             -13.7426
        36        2.0000           -0.4911540             -13.3650 (HOMO)
        37                         -0.4252153             -11.5707 (LUMO)
        38                         -0.4091656             -11.1340
        39                         -0.4027485             -10.9593
        40                         -0.4020701             -10.9409
        41                         -0.3972895             -10.8108
       ...                                ...                  ...
        78                          2.5147547              68.4300
      -------------------------------------------------------------
                  HL-Gap            0.0659388 Eh            1.7943 eV
             Fermi-level           -0.4581846 Eh          -12.4678 eV

 SCC (total)                   0 d,  0 h,  0 min,  0.152 sec
 SCC setup                      ...        0 min,  0.004 sec (  2.653%)
 Dispersion                     ...        0 min,  0.013 sec (  8.325%)
 classical contributions        ...        0 min,  0.008 sec (  5.548%)
 integral evaluation            ...        0 min,  0.031 sec ( 20.411%)
 iterations                     ...        0 min,  0.082 sec ( 54.073%)
 molecular gradient             ...        0 min,  0.013 sec (  8.863%)
 printout                       ...        0 min,  0.000 sec (  0.112%)

         :::::::::::::::::::::::::::::::::::::::::::::::::::::
         ::                     SUMMARY                     ::
         :::::::::::::::::::::::::::::::::::::::::::::::::::::
         :: total energy             -37.646491880934 Eh    ::
         :: gradient norm              0.000705497723 Eh/a0 ::
         :: HOMO-LUMO gap              1.794284982954 eV    ::
         ::.................................................::
         :: SCC energy               -38.278612174964 Eh    ::
         :: -> isotropic ES            0.087716121189 Eh    ::
         :: -> anisotropic ES         -0.013775198530 Eh    ::
         :: -> anisotropic XC          0.021100211662 Eh    ::
         :: -> dispersion             -0.028115991377 Eh    ::
         :: repulsion energy           0.631393792399 Eh    ::
         :: add. restraining           0.000047450896 Eh    ::
         :: total charge               1.000000000000 e     ::
         :::::::::::::::::::::::::::::::::::::::::::::::::::::

           -------------------------------------------------
          |                Property Printout                |
           -------------------------------------------------

    * Orbital Energies and Occupations

         #    Occupation            Energy/Eh            Energy/eV
      -------------------------------------------------------------
         1        2.0000           -0.8737511             -23.7760
       ...           ...                  ...                  ...
        24        2.0000           -0.5942196             -16.1695
        25        2.0000           -0.5926650             -16.1272
        26        2.0000           -0.5903379             -16.0639
        27        2.0000           -0.5901335             -16.0583
        28        2.0000           -0.5892823             -16.0352
        29        2.0000           -0.5880641             -16.0020
        30        2.0000           -0.5863500             -15.9554
        31        2.0000           -0.5813808             -15.8202
        32        2.0000           -0.5209488             -14.1757
        33        2.0000           -0.5206052             -14.1664
        34        2.0000           -0.5102056             -13.8834
        35        2.0000           -0.5050322             -13.7426
        36        2.0000           -0.4911540             -13.3650 (HOMO)
        37                         -0.4252153             -11.5707 (LUMO)
        38                         -0.4091656             -11.1340
        39                         -0.4027485             -10.9593
        40                         -0.4020701             -10.9409
        41                         -0.3972895             -10.8108
        42                         -0.3733554             -10.1595
        43                         -0.3062477              -8.3334
        44                         -0.3052519              -8.3063
        45                         -0.3044232              -8.2838
        46                         -0.3033515              -8.2546
        47                         -0.0551698              -1.5012
       ...                                ...                  ...
        78                          2.5147547              68.4300
      -------------------------------------------------------------
                  HL-Gap            0.0659388 Eh            1.7943 eV
             Fermi-level           -0.4581846 Eh          -12.4678 eV

     #   Z          covCN         q      C6AA      α(0)
     1  40 Zr      10.247     0.955   138.697    17.696
     2   6 C        3.688    -0.263    26.067     7.308
     3   6 C        3.758    -0.089    22.245     6.724
     4   6 C        3.753    -0.087    22.224     6.723
     5   6 C        3.759    -0.091    22.292     6.731
     6   6 C        3.763    -0.089    22.248     6.723
     7   6 C        3.762    -0.087    22.197     6.716
     8   1 H        0.925     0.080     1.974     2.197
     9   1 H        0.925     0.075     2.027     2.227
    10   1 H        0.925     0.082     1.958     2.188
    11   1 H        0.925     0.083     1.948     2.183
    12   1 H        0.925     0.085     1.931     2.173
    13   6 C        3.763    -0.083    22.128     6.705
    14   6 C        3.764    -0.093    22.315     6.733
    15   6 C        3.753    -0.090    22.277     6.730
    16   6 C        3.749    -0.089    22.269     6.730
    17   6 C        3.759    -0.092    22.313     6.734
    18   1 H        0.925     0.086     1.923     2.169
    19   1 H        0.925     0.080     1.976     2.198
    20   1 H        0.925     0.079     1.994     2.208
    21   1 H        0.925     0.078     1.995     2.209
    22   1 H        0.925     0.075     2.031     2.228
    23   1 H        1.365     0.086     1.909     2.157
    24   1 H        0.925     0.077     2.012     2.218
    25   1 H        0.925     0.080     1.977     2.199
    26   6 C        3.616    -0.208    25.192     7.241
    27   6 C        3.662    -0.073    22.181     6.756
    28   1 H        0.925     0.113     1.672     2.022
    29   1 H        0.925     0.119     1.622     1.991
    30   1 H        0.931     0.101     1.773     2.082
    31   1 H        0.925     0.100     1.787     2.091

 Mol. C6AA /au·bohr⁶  :       9441.367021
 Mol. C8AA /au·bohr⁸  :     320718.772593
 Mol. α(0) /au        :        142.993106


Wiberg/Mayer (AO) data.
largest (>0.10) Wiberg bond orders for each atom

 ---------------------------------------------------------------------------
     #   Z sym  total        # sym  WBO       # sym  WBO       # sym  WBO
 ---------------------------------------------------------------------------
     1  40 Zr   4.328 --     2 C    0.523    26 C    0.502    14 C    0.254
                             6 C    0.248     7 C    0.245    17 C    0.240
                             3 C    0.237     5 C    0.234    13 C    0.233
                             4 C    0.229    15 C    0.227    16 C    0.225
                            27 C    0.217    23 H    0.125
     2   6 C    3.906 --    25 H    0.962    24 H    0.948    23 H    0.819
                             1 Zr   0.523    27 C    0.389    26 C    0.163
     3   6 C    3.979 --     4 C    1.308     7 C    1.300     8 H    0.924
                             1 Zr   0.237
     4   6 C    3.981 --     5 C    1.312     3 C    1.308     9 H    0.926
                             1 Zr   0.229
     5   6 C    3.978 --     4 C    1.312     6 C    1.290    10 H    0.926
                             1 Zr   0.234
     6   6 C    3.981 --     7 C    1.301     5 C    1.290    11 H    0.922
                             1 Zr   0.248
     7   6 C    3.980 --     6 C    1.301     3 C    1.300    12 H    0.922
                             1 Zr   0.245
     8   1 H    0.991 --     3 C    0.924
     9   1 H    0.992 --     4 C    0.926
    10   1 H    0.990 --     5 C    0.926
    11   1 H    0.991 --     6 C    0.922
    12   1 H    0.990 --     7 C    0.922
    13   6 C    3.982 --    17 C    1.310    14 C    1.300    18 H    0.925
                             1 Zr   0.233
    14   6 C    3.978 --    13 C    1.300    15 C    1.289    19 H    0.919
                             1 Zr   0.254
    15   6 C    3.979 --    16 C    1.323    14 C    1.289    20 H    0.928
                             1 Zr   0.227
    16   6 C    3.979 --    15 C    1.323    17 C    1.295    21 H    0.928
                             1 Zr   0.225
    17   6 C    3.978 --    13 C    1.310    16 C    1.295    22 H    0.922
                             1 Zr   0.240
    18   1 H    0.991 --    13 C    0.925
    19   1 H    0.992 --    14 C    0.919
    20   1 H    0.991 --    15 C    0.928
    21   1 H    0.991 --    16 C    0.928
    22   1 H    0.992 --    17 C    0.922
    23   1 H    0.993 --     2 C    0.819     1 Zr   0.125
    24   1 H    0.993 --     2 C    0.948
    25   1 H    0.992 --     2 C    0.962
    26   6 C    3.927 --    27 C    1.371    31 H    0.914    30 H    0.885
                             1 Zr   0.502     2 C    0.163
    27   6 C    3.976 --    26 C    1.371    29 H    0.942    28 H    0.929
                             2 C    0.389     1 Zr   0.217
    28   1 H    0.986 --    27 C    0.929
    29   1 H    0.985 --    27 C    0.942
    30   1 H    0.989 --    26 C    0.885
    31   1 H    0.989 --    26 C    0.914
 ---------------------------------------------------------------------------

Topologies differ in total number of bonds
Writing topology from bond orders to xtbtopo.mol

molecular dipole:
                 x           y           z       tot (Debye)
 q only:       -3.136       0.137       0.556
   full:       -2.746       0.158       0.583       7.146
molecular quadrupole (traceless):
                xx          xy          yy          xz          yz          zz
 q only:       12.248      -1.612      -7.437      -0.873      -4.412      -4.812
  q+dip:       11.860      -0.321      -8.727      -1.685      -7.775      -3.133
   full:       11.744       0.019      -8.128      -2.627      -6.202      -3.616

           -------------------------------------------------
          |                Geometry Summary                 |
           -------------------------------------------------

      molecular mass/u    :      264.4982010
   center of mass at/Å    :       -1.2675252      -0.1747831       0.6464003
  moments of inertia/u·Å² :        0.5788053E+03   0.7243230E+03   0.9084579E+03
rotational constants/cm⁻¹ :        0.2912487E-01   0.2327364E-01   0.1855632E-01

 * 41 selected distances

     #   Z          #   Z                                           value/Å
     1  40 Zr       2   6 C                                       2.3973502
     1  40 Zr       3   6 C                                       2.4599029
     1  40 Zr       4   6 C                                       2.4714377
     3   6 C        4   6 C                                       1.4148868
     1  40 Zr       5   6 C                                       2.4575573
     4   6 C        5   6 C                                       1.4147191
     1  40 Zr       6   6 C                                       2.4425831
     5   6 C        6   6 C                                       1.4199027
     1  40 Zr       7   6 C                                       2.4483623
     3   6 C        7   6 C                                       1.4183380
     6   6 C        7   6 C                                       1.4160539
     3   6 C        8   1 H                                       1.0848029
     4   6 C        9   1 H                                       1.0845124
     5   6 C       10   1 H                                       1.0836065
     6   6 C       11   1 H                                       1.0844003
     7   6 C       12   1 H                                       1.0845532
     1  40 Zr      13   6 C                                       2.4536003
     1  40 Zr      14   6 C                                       2.4380175
    13   6 C       14   6 C                                       1.4176288
     1  40 Zr      15   6 C                                       2.4748353
    14   6 C       15   6 C                                       1.4197769
     1  40 Zr      16   6 C                                       2.4811456
    15   6 C       16   6 C                                       1.4117874
     1  40 Zr      17   6 C                                       2.4552047
    13   6 C       17   6 C                                       1.4154408
    16   6 C       17   6 C                                       1.4184312
    13   6 C       18   1 H                                       1.0837369
    14   6 C       19   1 H                                       1.0859039
    15   6 C       20   1 H                                       1.0831592 (min)
    16   6 C       21   1 H                                       1.0835919
    17   6 C       22   1 H                                       1.0857056
     2   6 C       23   1 H                                       1.1189102
     2   6 C       24   1 H                                       1.0914522
     2   6 C       25   1 H                                       1.0875057
     1  40 Zr      26   6 C                                       2.3484291
     1  40 Zr      27   6 C                                       2.5764069 (max)
    26   6 C       27   6 C                                       1.4190181
    27   6 C       28   1 H                                       1.0888777
    27   6 C       29   1 H                                       1.0852624
    26   6 C       30   1 H                                       1.0918262
    26   6 C       31   1 H                                       1.0885490

 * 3 distinct bonds (by element types)

   Z      Z             #   av. dist./Å        max./Å        min./Å
   1 H    6 C          17     1.0880210     1.1189102     1.0831592
   6 C    6 C          11     1.4169076     1.4199027     1.4117874
   6 C   40 Zr         13     2.4542179     2.5764069     2.3484291


optimized geometry written to: xtbopt.xyz


           -------------------------------------------------
          | TOTAL ENERGY              -37.646491880934 Eh   |
          | GRADIENT NORM               0.000705497723 Eh/α |
          | HOMO-LUMO GAP               1.794284982954 eV   |
           -------------------------------------------------

------------------------------------------------------------------------
 * finished run on 2026/07/21 at 14:54:09.217     
------------------------------------------------------------------------
 total:
 * wall-time:     0 d,  0 h,  0 min, 19.339 sec
 *  cpu-time:     0 d,  0 h,  2 min, 27.887 sec
 * ratio c/w:     7.647 speedup
 SCF:
 * wall-time:     0 d,  0 h,  0 min,  0.462 sec
 *  cpu-time:     0 d,  0 h,  0 min,  3.547 sec
 * ratio c/w:     7.670 speedup
 ANC optimizer:
 * wall-time:     0 d,  0 h,  0 min, 18.752 sec
 *  cpu-time:     0 d,  0 h,  2 min, 23.411 sec
 * ratio c/w:     7.648 speedup

