31
 energy: -37.646491880934 gnorm: 0.000705497723 xtb: 6.5.1 (b24c23e)
Zr          -1.31018154091383       -0.12628376882393        0.55576446914420
C           -1.00818045295494        1.23418634583515       -1.39492851070093
C            0.36395928658116       -1.92853999707274        0.57145418569789
C            0.04210827210274       -1.69973232132857       -0.78720808359993
C           -1.31635949320492       -2.04343776945937       -0.98178848740144
C           -1.83698351276726       -2.49301810779272        0.26036742727820
C           -0.79600709072159       -2.42660395314894        1.21805501227390
H            1.36107826408478       -1.89178081438778        0.99712973006103
H            0.75235578172039       -1.46040363253945       -1.57106858579482
H           -1.82390852080555       -2.10007247882930       -1.93750248475747
H           -2.79241743953866       -2.98404025739616        0.40858057123225
H           -0.83720075751743       -2.84494674780757        2.21782890829385
C           -0.32296511056784        0.14257395345594        2.78584803300952
C           -1.71546187492015        0.37959606167381        2.90603290154215
C           -2.00987325696223        1.57956050384271        2.20662352981192
C           -0.81399835189554        2.05601683971963        1.62695470879623
C            0.22987338825356        1.15944306591713        1.97109702481277
H            0.24280629210272       -0.59449929999190        3.34362143379329
H           -2.39035808403940       -0.14565338150476        3.57522282309061
H           -2.94510831973943        2.12408445921076        2.25204008613208
H           -0.68749488821940        3.01660634388842        1.14173737529282
H            1.28912544785544        1.32565876885607        1.80046903478539
H           -0.02722926630222        1.07504763528005       -0.88075985886978
H           -1.01040711942738        0.69463503388126       -2.34368930708916
H           -1.10615114341216        2.29789737118855       -1.59886257862773
C           -3.58901941052472        0.01201660825063        0.00541090140475
C           -3.12689583027409        1.05690750045963       -0.83616910097325
H           -3.21554795585323        2.07737878465264       -0.46679997394290
H           -3.32311113950168        0.96160207736253       -1.89928277918389
H           -4.05423384249946        0.27780452810842        0.95673452925435
H           -4.00729269022267       -0.86246840146619       -0.48982861478217
