      -----------------------------------------------------------      
     |                   =====================                   |     
     |                           x T B                           |     
     |                   =====================                   |     
     |                         S. Grimme                         |     
     |          Mulliken Center for Theoretical Chemistry        |     
     |                    University of Bonn                     |     
      -----------------------------------------------------------      

   * xtb version 6.5.1 (b24c23e) compiled by 'conda@728c89f4b128' on 2022-07-12

   xtb is free software: you can redistribute it and/or modify it under
   the terms of the GNU Lesser General Public License as published by
   the Free Software Foundation, either version 3 of the License, or
   (at your option) any later version.
   
   xtb is distributed in the hope that it will be useful,
   but WITHOUT ANY WARRANTY; without even the implied warranty of
   MERCHANTABILITY or FITNESS FOR A PARTICULAR PURPOSE.  See the
   GNU Lesser General Public License for more details.
   
   Cite this work as:
   * C. Bannwarth, E. Caldeweyher, S. Ehlert, A. Hansen, P. Pracht,
     J. Seibert, S. Spicher, S. Grimme, WIREs Comput. Mol. Sci., 2020, 11,
     e01493. DOI: 10.1002/wcms.1493
   
   for GFN2-xTB:
   * C. Bannwarth, S. Ehlert and S. Grimme., J. Chem. Theory Comput., 2019,
     15, 1652-1671. DOI: 10.1021/acs.jctc.8b01176
   for GFN1-xTB:
   * S. Grimme, C. Bannwarth, P. Shushkov, J. Chem. Theory Comput., 2017,
     13, 1989-2009. DOI: 10.1021/acs.jctc.7b00118
   for GFN0-xTB:
   * P. Pracht, E. Caldeweyher, S. Ehlert, S. Grimme, ChemRxiv, 2019, preprint.
     DOI: 10.26434/chemrxiv.8326202.v1
   for GFN-FF:
   * S. Spicher and S. Grimme, Angew. Chem. Int. Ed., 2020, 59, 15665-15673.
     DOI: 10.1002/anie.202004239
   
   for ALPB and GBSA implicit solvation:
   * S. Ehlert, M. Stahn, S. Spicher, S. Grimme, J. Chem. Theory Comput.,
     2021, 17, 4250-4261. DOI: 10.1021/acs.jctc.1c00471
   
   for DFT-D4:
   * E. Caldeweyher, C. Bannwarth and S. Grimme, J. Chem. Phys., 2017,
     147, 034112. DOI: 10.1063/1.4993215
   * E. Caldeweyher, S. Ehlert, A. Hansen, H. Neugebauer, S. Spicher,
     C. Bannwarth and S. Grimme, J. Chem. Phys., 2019, 150, 154122.
     DOI: 10.1063/1.5090222
   * E. Caldeweyher, J.-M. Mewes, S. Ehlert and S. Grimme, Phys. Chem. Chem. Phys.
     2020, 22, 8499-8512. DOI: 10.1039/D0CP00502A
   
   for sTDA-xTB:
   * S. Grimme and C. Bannwarth, J. Chem. Phys., 2016, 145, 054103.
     DOI: 10.1063/1.4959605
   
   in the mass-spec context:
   * V. Asgeirsson, C. Bauer and S. Grimme, Chem. Sci., 2017, 8, 4879.
     DOI: 10.1039/c7sc00601b
   * J. Koopman and S. Grimme, ACS Omega 2019, 4, 12, 15120-15133.
     DOI: 10.1021/acsomega.9b02011
   
   for metadynamics refer to:
   * S. Grimme, J. Chem. Theory Comput., 2019, 155, 2847-2862
     DOI: 10.1021/acs.jctc.9b00143
   
   for SPH calculations refer to:
   * S. Spicher and S. Grimme, J. Chem. Theory Comput., 2021, 17, 1701-1714
     DOI: 10.1021/acs.jctc.0c01306
   
   with help from (in alphabetical order)
   P. Atkinson, C. Bannwarth, F. Bohle, G. Brandenburg, E. Caldeweyher
   M. Checinski, S. Dohm, S. Ehlert, S. Ehrlich, I. Gerasimov, C. Hölzer
   A. Katbashev, J. Koopman, C. Lavigne, S. Lehtola, F. März, M. Müller,
   F. Musil, H. Neugebauer, J. Pisarek, C. Plett, P. Pracht, F. Pultar,
   J. Seibert, P. Shushkov, S. Spicher, M. Stahn, M. Steiner, T. Strunk,
   J. Stückrath, T. Rose, and J. Unsleber
   
 * started run on 2026/08/18 at 18:31:04.193     

           -------------------------------------------------
          |                Calculation Setup                |
           -------------------------------------------------

          program call               : /h/332/chchoi/miniconda3/envs/el-agente/bin/xtb product_init.xyz --opt --gfn 2 -P 4 --chrg 1 --uhf 0
          coordinate file            : product_init.xyz
          omp threads                :                     4

   ID    Z sym.   atoms
    1   40 Zr     1
    2    6 C      2-7, 13-17, 25, 28
    3    1 H      8-12, 18-24, 26, 27, 29-31

           -------------------------------------------------
          |                 G F N 2 - x T B                 |
           -------------------------------------------------

        Reference                      10.1021/acs.jctc.8b01176
      * Hamiltonian:
        H0-scaling (s, p, d)           1.850000    2.230000    2.230000
        zeta-weighting                 0.500000
      * Dispersion:
        s8                             2.700000
        a1                             0.520000
        a2                             5.000000
        s9                             5.000000
      * Repulsion:
        kExp                           1.500000    1.000000
        rExp                           1.000000
      * Coulomb:
        alpha                          2.000000
        third order                    shell-resolved
        anisotropic                    true
        a3                             3.000000
        a5                             4.000000
        cn-shift                       1.200000
        cn-exp                         4.000000
        max-rad                        5.000000


          ...................................................
          :                      SETUP                      :
          :.................................................:
          :  # basis functions                  79          :
          :  # atomic orbitals                  78          :
          :  # shells                           46          :
          :  # electrons                        72          :
          :  max. iterations                   250          :
          :  Hamiltonian                  GFN2-xTB          :
          :  restarted?                      false          :
          :  GBSA solvation                  false          :
          :  PC potential                    false          :
          :  electronic temp.          300.0000000     K    :
          :  accuracy                    1.0000000          :
          :  -> integral cutoff          0.2500000E+02      :
          :  -> integral neglect         0.1000000E-07      :
          :  -> SCF convergence          0.1000000E-05 Eh   :
          :  -> wf. convergence          0.1000000E-03 e    :
          :  Broyden damping             0.4000000          :
          ...................................................

 iter      E             dE          RMSdq      gap      omega  full diag
   1    -37.8054414 -0.378054E+02  0.138E+01    0.31       0.0  T
   2    -37.9694060 -0.163965E+00  0.608E+00    2.60       1.0  T
   3    -37.6840113  0.285395E+00  0.887E+00    0.34       1.0  T
   4    -38.0993146 -0.415303E+00  0.195E+00    1.96       1.0  T
   5    -38.1194700 -0.201554E-01  0.121E+00    1.60       1.0  T
   6    -38.1242434 -0.477337E-02  0.926E-01    1.55       1.0  T
   7    -38.1289189 -0.467544E-02  0.131E-01    1.37       1.0  T
   8    -38.1294013 -0.482456E-03  0.612E-02    1.35       1.0  T
   9    -38.1294241 -0.228172E-04  0.319E-02    1.36       1.0  T
  10    -38.1294260 -0.188493E-05  0.177E-02    1.36       1.0  T
  11    -38.1294287 -0.271897E-05  0.709E-03    1.36       2.5  T
  12    -38.1294289 -0.149759E-06  0.291E-03    1.36       6.2  T
  13    -38.1294289 -0.113995E-07  0.156E-03    1.36      11.5  T
  14    -38.1294289 -0.250520E-07  0.742E-04    1.36      24.2  T
  15    -38.1294289  0.167944E-09  0.563E-04    1.36      31.9  T

   *** convergence criteria satisfied after 15 iterations ***

         #    Occupation            Energy/Eh            Energy/eV
      -------------------------------------------------------------
         1        2.0000           -0.8368764             -22.7726
       ...           ...                  ...                  ...
        30        2.0000           -0.5540863             -15.0775
        31        2.0000           -0.5483867             -14.9224
        32        2.0000           -0.5175215             -14.0825
        33        2.0000           -0.5152761             -14.0214
        34        2.0000           -0.5059868             -13.7686
        35        2.0000           -0.5022280             -13.6663
        36        2.0000           -0.5013244             -13.6417 (HOMO)
        37                         -0.4513161             -12.2809 (LUMO)
        38                         -0.4508484             -12.2682
        39                         -0.4502280             -12.2513
        40                         -0.4442598             -12.0889
        41                         -0.4373259             -11.9002
       ...                                ...                  ...
        78                          1.3406294              36.4804
      -------------------------------------------------------------
                  HL-Gap            0.0500084 Eh            1.3608 eV
             Fermi-level           -0.4764728 Eh          -12.9655 eV

 SCC (total)                   0 d,  0 h,  0 min,  1.920 sec
 SCC setup                      ...        0 min,  0.003 sec (  0.149%)
 Dispersion                     ...        0 min,  0.053 sec (  2.742%)
 classical contributions        ...        0 min,  0.022 sec (  1.143%)
 integral evaluation            ...        0 min,  0.008 sec (  0.440%)
 iterations                     ...        0 min,  1.642 sec ( 85.540%)
 molecular gradient             ...        0 min,  0.192 sec (  9.977%)
 printout                       ...        0 min,  0.000 sec (  0.009%)

         :::::::::::::::::::::::::::::::::::::::::::::::::::::
         ::                     SUMMARY                     ::
         :::::::::::::::::::::::::::::::::::::::::::::::::::::
         :: total energy             -37.585742123232 Eh    ::
         :: gradient norm              0.177660057551 Eh/a0 ::
         :: HOMO-LUMO gap              1.360796808565 eV    ::
         ::.................................................::
         :: SCC energy               -38.129428922533 Eh    ::
         :: -> isotropic ES            0.087414643814 Eh    ::
         :: -> anisotropic ES         -0.003470408330 Eh    ::
         :: -> anisotropic XC          0.015404738294 Eh    ::
         :: -> dispersion             -0.024100783067 Eh    ::
         :: repulsion energy           0.543196278845 Eh    ::
         :: add. restraining           0.000000000000 Eh    ::
         :: total charge               0.999999999996 e     ::
         :::::::::::::::::::::::::::::::::::::::::::::::::::::

      ----------------------------------------------------------- 
     |                   =====================                   |
     |                        A N C O P T                        |
     |                   =====================                   |
     |               Approximate Normal Coordinate               |
     |                Rational Function Optimizer                |
      ----------------------------------------------------------- 

          ...................................................
          :                      SETUP                      :
          :.................................................:
          :   optimization level            normal          :
          :   max. optcycles                   200          :
          :   ANC micro-cycles                  20          :
          :   degrees of freedom                87          :
          :.................................................:
          :   RF solver                   davidson          :
          :   write xtbopt.log                true          :
          :   linear?                        false          :
          :   energy convergence         0.5000000E-05 Eh   :
          :   grad. convergence          0.1000000E-02 Eh/α :
          :   maximium RF displ.         1.0000000          :
          :   Hlow (freq-cutoff)         0.1000000E-01      :
          :   Hmax (freq-cutoff)         5.0000000          :
          :   S6 in model hess.         20.0000000          :
          ...................................................

generating ANC from model Hessian ...
Using Lindh-Hessian (1995)
 Shifting diagonal of input Hessian by    1.6347440574279511E-002
 Lowest  eigenvalues of input Hessian
    0.010000    0.016186    0.000000    0.000000    0.000000    0.000000
    0.000000    0.000000    0.016409    0.016572    0.016639    0.016682
    0.016801    0.016863    0.016944    0.017015    0.017083    0.017485
 Highest eigenvalues
    1.496232    1.496250    1.497492    1.497572    1.497587    1.497601


........................................................................
.............................. CYCLE    1 ..............................
........................................................................
   1    -38.1294289 -0.381294E+02  0.242E-04    1.36       0.0  T
   2    -38.1294289 -0.749978E-10  0.139E-04    1.36     128.9  T
   3    -38.1294289 -0.173600E-09  0.966E-05    1.36     186.0  T
     SCC iter.                  ...        0 min,  0.206 sec
     gradient                   ...        0 min,  0.215 sec
 * total energy  :   -37.5857421 Eh     change       -0.1271651E-08 Eh
   gradient norm :     0.1776597 Eh/α   predicted     0.0000000E+00 (-100.00%)
   displ. norm   :     0.5955272 α      lambda       -0.6501634E-01
   maximum displ.:     0.3063553 α      in ANC's #2, #22, #58, ...

........................................................................
.............................. CYCLE    2 ..............................
........................................................................
   1    -38.2071601 -0.382072E+02  0.105E+00    1.67       0.0  T
   2    -38.2079393 -0.779126E-03  0.485E-01    1.43       1.0  T
   3    -38.2079870 -0.477910E-04  0.495E-01    1.62       1.0  T
   4    -38.2086325 -0.645453E-03  0.767E-02    1.49       1.0  T
   5    -38.2087050 -0.725495E-04  0.534E-02    1.51       1.0  T
   6    -38.2087215 -0.164072E-04  0.237E-02    1.52       1.0  T
   7    -38.2087246 -0.310798E-05  0.107E-02    1.52       1.7  T
   8    -38.2087245  0.413455E-07  0.741E-03    1.52       2.4  T
   9    -38.2087248 -0.274073E-06  0.348E-03    1.52       5.2  T
  10    -38.2087248 -0.241603E-07  0.152E-03    1.52      11.8  T
  11    -38.2087248 -0.915704E-08  0.355E-04    1.52      50.6  T
  12    -38.2087248 -0.360117E-09  0.158E-04    1.52     113.5  T
     SCC iter.                  ...        0 min,  1.162 sec
     gradient                   ...        0 min,  0.184 sec
 * total energy  :   -37.6341851 Eh     change       -0.4844302E-01 Eh
   gradient norm :     0.0669478 Eh/α   predicted    -0.4405251E-01 (  -9.06%)
   displ. norm   :     0.8008937 α      lambda       -0.4397866E-01
   maximum displ.:     0.5276276 α      in ANC's #22, #2, #58, ...

........................................................................
.............................. CYCLE    3 ..............................
........................................................................
   1    -38.2593733 -0.382594E+02  0.122E+00    1.87       0.0  T
   2    -38.2602070 -0.833730E-03  0.713E-01    1.64       1.0  T
   3    -38.2599335  0.273457E-03  0.506E-01    1.81       1.0  T
   4    -38.2605330 -0.599440E-03  0.125E-01    1.67       1.0  T
   5    -38.2606263 -0.933634E-04  0.740E-02    1.70       1.0  T
   6    -38.2606628 -0.364790E-04  0.295E-02    1.71       1.0  T
   7    -38.2606639 -0.103039E-05  0.134E-02    1.71       1.3  T
   8    -38.2606641 -0.229008E-06  0.755E-03    1.71       2.4  T
   9    -38.2606642 -0.169997E-06  0.314E-03    1.71       5.7  T
  10    -38.2606643 -0.220299E-07  0.124E-03    1.71      14.4  T
  11    -38.2606643 -0.326722E-08  0.360E-04    1.71      49.9  T
  12    -38.2606643 -0.761901E-09  0.184E-04    1.71      97.6  T
     SCC iter.                  ...        0 min,  1.142 sec
     gradient                   ...        0 min,  0.174 sec
 * total energy  :   -37.6529160 Eh     change       -0.1873082E-01 Eh
   gradient norm :     0.1007539 Eh/α   predicted    -0.3609397E-01 (  92.70%)
   displ. norm   :     0.6743370 α      lambda       -0.2475327E-01
   maximum displ.:     0.4817716 α      in ANC's #1, #2, #24, ...

........................................................................
.............................. CYCLE    4 ..............................
........................................................................
   1    -38.2609576 -0.382610E+02  0.885E-01    1.69       0.0  T
   2    -38.2621934 -0.123586E-02  0.780E-01    1.58       1.0  T
   3    -38.2624200 -0.226550E-03  0.534E-01    1.62       1.0  T
   4    -38.2619980  0.421941E-03  0.242E-01    1.55       1.0  T
   5    -38.2626726 -0.674584E-03  0.134E-01    1.60       1.0  T
   6    -38.2626839 -0.113111E-04  0.414E-02    1.62       1.0  T
   7    -38.2626921 -0.815768E-05  0.210E-02    1.61       1.0  T
   8    -38.2626933 -0.121995E-05  0.952E-03    1.62       1.9  T
   9    -38.2626935 -0.133886E-06  0.422E-03    1.62       4.3  T
  10    -38.2626935 -0.261632E-07  0.129E-03    1.62      13.9  T
  11    -38.2626935 -0.507512E-08  0.440E-04    1.62      40.8  T
  12    -38.2626935 -0.934683E-09  0.210E-04    1.62      85.4  T
     SCC iter.                  ...        0 min,  1.212 sec
     gradient                   ...        0 min,  0.231 sec
 * total energy  :   -37.6525747 Eh     change        0.3413058E-03 Eh
   gradient norm :     0.1016264 Eh/α   predicted    -0.1800467E-01 (*******%)
   displ. norm   :     0.5495782 α      lambda       -0.3997084E-01
   maximum displ.:     0.3400911 α      in ANC's #1, #22, #2, ...

........................................................................
.............................. CYCLE    5 ..............................
........................................................................
   1    -38.2631856 -0.382632E+02  0.615E-01    1.62       0.0  T
   2    -38.2640386 -0.853045E-03  0.531E-01    1.77       1.0  T
   3    -38.2642616 -0.223019E-03  0.394E-01    1.71       1.0  T
   4    -38.2643392 -0.775336E-04  0.143E-01    1.76       1.0  T
   5    -38.2643822 -0.430002E-04  0.906E-02    1.73       1.0  T
   6    -38.2643906 -0.846512E-05  0.299E-02    1.72       1.0  T
   7    -38.2643940 -0.340290E-05  0.132E-02    1.72       1.4  T
   8    -38.2643947 -0.684820E-06  0.677E-03    1.72       2.7  T
   9    -38.2643949 -0.199174E-06  0.340E-03    1.72       5.3  T
  10    -38.2643949 -0.267372E-07  0.123E-03    1.72      14.5  T
  11    -38.2643950 -0.279690E-08  0.448E-04    1.72      40.1  T
  12    -38.2643950 -0.912003E-09  0.198E-04    1.72      90.8  T
     SCC iter.                  ...        0 min,  1.169 sec
     gradient                   ...        0 min,  0.266 sec
 * total energy  :   -37.6650164 Eh     change       -0.1244174E-01 Eh
   gradient norm :     0.0925601 Eh/α   predicted    -0.2602178E-01 ( 109.15%)
   displ. norm   :     0.3942614 α      lambda       -0.1573625E-01
   maximum displ.:     0.2677040 α      in ANC's #2, #23, #22, ...

........................................................................
.............................. CYCLE    6 ..............................
........................................................................
   1    -38.2834749 -0.382835E+02  0.623E-01    1.78       0.0  T
   2    -38.2836899 -0.214988E-03  0.436E-01    1.67       1.0  T
   3    -38.2836939 -0.403376E-05  0.254E-01    1.73       1.0  T
   4    -38.2837530 -0.590662E-04  0.878E-02    1.67       1.0  T
   5    -38.2837784 -0.253843E-04  0.426E-02    1.69       1.0  T
   6    -38.2837847 -0.627823E-05  0.195E-02    1.70       1.0  T
   7    -38.2837861 -0.140704E-05  0.815E-03    1.70       2.2  T
   8    -38.2837861 -0.680729E-07  0.354E-03    1.70       5.1  T
   9    -38.2837862 -0.638925E-07  0.139E-03    1.70      12.9  T
  10    -38.2837862 -0.470407E-08  0.541E-04    1.70      33.2  T
  11    -38.2837862 -0.142970E-08  0.237E-04    1.70      75.9  T
     SCC iter.                  ...        0 min,  1.062 sec
     gradient                   ...        0 min,  0.208 sec
 * total energy  :   -37.6728983 Eh     change       -0.7881901E-02 Eh
   gradient norm :     0.0279755 Eh/α   predicted    -0.9091146E-02 (  15.34%)
   displ. norm   :     0.5060623 α      lambda       -0.7366022E-02
   maximum displ.:     0.3134696 α      in ANC's #2, #3, #10, ...

........................................................................
.............................. CYCLE    7 ..............................
........................................................................
   1    -38.2995490 -0.382995E+02  0.360E-01    1.87       0.0  T
   2    -38.2996851 -0.136063E-03  0.230E-01    1.85       1.0  T
   3    -38.2995667  0.118370E-03  0.170E-01    1.90       1.0  T
   4    -38.2997535 -0.186818E-03  0.515E-02    1.87       1.0  T
   5    -38.2997862 -0.327093E-04  0.276E-02    1.88       1.0  T
   6    -38.2997869 -0.656965E-06  0.132E-02    1.88       1.4  T
   7    -38.2997873 -0.382857E-06  0.646E-03    1.88       2.8  T
   8    -38.2997874 -0.122735E-06  0.215E-03    1.88       8.4  T
   9    -38.2997874 -0.121576E-07  0.122E-03    1.88      14.8  T
  10    -38.2997874 -0.122675E-08  0.464E-04    1.88      38.7  T
  11    -38.2997874 -0.116416E-08  0.114E-04    1.88     157.5  T
     SCC iter.                  ...        0 min,  0.868 sec
     gradient                   ...        0 min,  0.217 sec
 * total energy  :   -37.6765149 Eh     change       -0.3616642E-02 Eh
   gradient norm :     0.0302037 Eh/α   predicted    -0.4626234E-02 (  27.92%)
   displ. norm   :     0.5171383 α      lambda       -0.6161273E-02
   maximum displ.:     0.3573829 α      in ANC's #2, #10, #3, ...

........................................................................
.............................. CYCLE    8 ..............................
........................................................................
   1    -38.2991589 -0.382992E+02  0.422E-01    1.67       0.0  T
   2    -38.2992510 -0.921618E-04  0.303E-01    1.69       1.0  T
   3    -38.2991511  0.998827E-04  0.138E-01    1.64       1.0  T
   4    -38.2992900 -0.138905E-03  0.430E-02    1.68       1.0  T
   5    -38.2992883  0.169955E-05  0.368E-02    1.68       1.0  T
   6    -38.2992932 -0.487642E-05  0.147E-02    1.69       1.2  T
   7    -38.2992936 -0.392585E-06  0.573E-03    1.69       3.1  T
   8    -38.2992940 -0.341712E-06  0.244E-03    1.69       7.4  T
   9    -38.2992940 -0.116101E-07  0.108E-03    1.69      16.7  T
  10    -38.2992940 -0.179303E-08  0.424E-04    1.69      42.3  T
  11    -38.2992940 -0.273232E-09  0.207E-04    1.69      86.6  T
     SCC iter.                  ...        0 min,  0.788 sec
     gradient                   ...        0 min,  0.089 sec
 * total energy  :   -37.6786502 Eh     change       -0.2135230E-02 Eh
   gradient norm :     0.0319097 Eh/α   predicted    -0.3904496E-02 (  82.86%)
   displ. norm   :     0.2883604 α      lambda       -0.3570372E-02
   maximum displ.:     0.1719114 α      in ANC's #10, #3, #9, ...

........................................................................
.............................. CYCLE    9 ..............................
........................................................................
   1    -38.3032179 -0.383032E+02  0.175E-01    1.74       0.0  T
   2    -38.3032540 -0.360962E-04  0.144E-01    1.74       1.0  T
   3    -38.3032527  0.126872E-05  0.842E-02    1.76       1.0  T
   4    -38.3032647 -0.119696E-04  0.272E-02    1.75       1.0  T
   5    -38.3032685 -0.386053E-05  0.188E-02    1.75       1.0  T
   6    -38.3032698 -0.126106E-05  0.867E-03    1.75       2.1  T
   7    -38.3032700 -0.211967E-06  0.428E-03    1.75       4.2  T
   8    -38.3032700 -0.273527E-07  0.125E-03    1.75      14.4  T
   9    -38.3032700 -0.934097E-08  0.698E-04    1.75      25.7  T
  10    -38.3032700 -0.116474E-08  0.217E-04    1.75      82.9  T
     SCC iter.                  ...        0 min,  0.498 sec
     gradient                   ...        0 min,  0.015 sec
 * total energy  :   -37.6809773 Eh     change       -0.2327100E-02 Eh
   gradient norm :     0.0140653 Eh/α   predicted    -0.1933629E-02 ( -16.91%)
   displ. norm   :     0.4014442 α      lambda       -0.1732826E-02
   maximum displ.:     0.2751821 α      in ANC's #10, #3, #2, ...

........................................................................
.............................. CYCLE   10 ..............................
........................................................................
   1    -38.3047433 -0.383047E+02  0.240E-01    1.80       0.0  T
   2    -38.3047610 -0.176794E-04  0.149E-01    1.79       1.0  T
   3    -38.3047375  0.234866E-04  0.686E-02    1.81       1.0  T
   4    -38.3047693 -0.318665E-04  0.179E-02    1.80       1.0  T
   5    -38.3047692  0.157941E-06  0.113E-02    1.80       1.6  T
   6    -38.3047700 -0.861328E-06  0.273E-03    1.80       6.6  T
   7    -38.3047701 -0.502525E-07  0.189E-03    1.80       9.5  T
   8    -38.3047701 -0.886494E-08  0.832E-04    1.80      21.6  T
   9    -38.3047701 -0.203482E-08  0.427E-04    1.80      42.1  T
     SCC iter.                  ...        0 min,  0.293 sec
     gradient                   ...        0 min,  0.080 sec
 * total energy  :   -37.6820815 Eh     change       -0.1104279E-02 Eh
   gradient norm :     0.0093315 Eh/α   predicted    -0.1006056E-02 (  -8.89%)
   displ. norm   :     0.3759126 α      lambda       -0.8740495E-03
   maximum displ.:     0.2481960 α      in ANC's #10, #3, #9, ...

........................................................................
.............................. CYCLE   11 ..............................
........................................................................
   1    -38.3033018 -0.383033E+02  0.146E-01    1.80       0.0  T
   2    -38.3033177 -0.159095E-04  0.809E-02    1.80       1.0  T
   3    -38.3032951  0.226144E-04  0.556E-02    1.81       1.0  T
   4    -38.3033292 -0.340678E-04  0.116E-02    1.81       1.5  T
   5    -38.3033300 -0.787628E-06  0.832E-03    1.81       2.2  T
   6    -38.3033301 -0.968145E-07  0.313E-03    1.81       5.7  T
   7    -38.3033301 -0.378546E-07  0.235E-03    1.81       7.6  T
   8    -38.3033301 -0.143076E-07  0.124E-03    1.81      14.5  T
   9    -38.3033301 -0.266495E-08  0.640E-04    1.81      28.0  T
  10    -38.3033301 -0.246385E-08  0.172E-04    1.81     104.6  T
     SCC iter.                  ...        0 min,  0.601 sec
     gradient                   ...        0 min,  0.138 sec
 * total energy  :   -37.6825977 Eh     change       -0.5161359E-03 Eh
   gradient norm :     0.0096938 Eh/α   predicted    -0.4987834E-03 (  -3.36%)
   displ. norm   :     0.3619450 α      lambda       -0.7748001E-03
   maximum displ.:     0.2187667 α      in ANC's #10, #6, #3, ...

........................................................................
.............................. CYCLE   12 ..............................
........................................................................
   1    -38.3034841 -0.383035E+02  0.318E-01    1.79       0.0  T
   2    -38.3035079 -0.238120E-04  0.210E-01    1.80       1.0  T
   3    -38.3033386  0.169317E-03  0.813E-02    1.78       1.0  T
   4    -38.3035299 -0.191275E-03  0.161E-02    1.80       1.1  T
   5    -38.3035310 -0.116340E-05  0.102E-02    1.80       1.8  T
   6    -38.3035310 -0.261099E-07  0.368E-03    1.80       4.9  T
   7    -38.3035311 -0.909586E-07  0.213E-03    1.80       8.5  T
   8    -38.3035312 -0.212300E-07  0.114E-03    1.80      15.8  T
   9    -38.3035312 -0.720821E-08  0.644E-04    1.80      27.9  T
  10    -38.3035312 -0.137139E-08  0.308E-04    1.80      58.4  T
     SCC iter.                  ...        0 min,  0.646 sec
     gradient                   ...        0 min,  0.140 sec
 * total energy  :   -37.6830999 Eh     change       -0.5021821E-03 Eh
   gradient norm :     0.0069386 Eh/α   predicted    -0.4381593E-03 ( -12.75%)
   displ. norm   :     0.3407540 α      lambda       -0.5950719E-03
   maximum displ.:     0.2202356 α      in ANC's #6, #10, #3, ...

........................................................................
.............................. CYCLE   13 ..............................
........................................................................
   1    -38.3064814 -0.383065E+02  0.185E-01    1.79       0.0  T
   2    -38.3064940 -0.126535E-04  0.119E-01    1.79       1.0  T
   3    -38.3064213  0.726745E-04  0.620E-02    1.78       1.0  T
   4    -38.3065066 -0.852476E-04  0.868E-03    1.79       2.1  T
   5    -38.3065070 -0.413710E-06  0.617E-03    1.79       2.9  T
   6    -38.3065071 -0.982871E-07  0.246E-03    1.79       7.3  T
   7    -38.3065071 -0.449761E-08  0.134E-03    1.79      13.4  T
   8    -38.3065071 -0.140786E-07  0.722E-04    1.79      24.9  T
   9    -38.3065071 -0.151405E-08  0.405E-04    1.79      44.3  T
     SCC iter.                  ...        0 min,  0.684 sec
     gradient                   ...        0 min,  0.155 sec
 * total energy  :   -37.6834949 Eh     change       -0.3950507E-03 Eh
   gradient norm :     0.0064998 Eh/α   predicted    -0.3320902E-03 ( -15.94%)
   displ. norm   :     0.3876003 α      lambda       -0.5389957E-03
   maximum displ.:     0.2481416 α      in ANC's #6, #3, #12, ...

........................................................................
.............................. CYCLE   14 ..............................
........................................................................
   1    -38.3076176 -0.383076E+02  0.278E-01    1.79       0.0  T
   2    -38.3076252 -0.759791E-05  0.186E-01    1.80       1.0  T
   3    -38.3075998  0.253817E-04  0.307E-02    1.79       1.0  T
   4    -38.3076280 -0.281852E-04  0.102E-02    1.80       1.8  T
   5    -38.3076287 -0.735609E-06  0.562E-03    1.80       3.2  T
   6    -38.3076288 -0.827101E-07  0.230E-03    1.80       7.8  T
   7    -38.3076288 -0.299372E-07  0.116E-03    1.80      15.5  T
   8    -38.3076288 -0.618795E-08  0.530E-04    1.80      33.9  T
   9    -38.3076288 -0.233740E-08  0.247E-04    1.80      72.6  T
     SCC iter.                  ...        0 min,  0.645 sec
     gradient                   ...        0 min,  0.169 sec
 * total energy  :   -37.6838673 Eh     change       -0.3723929E-03 Eh
   gradient norm :     0.0075910 Eh/α   predicted    -0.3099928E-03 ( -16.76%)
   displ. norm   :     0.4589998 α      lambda       -0.5877145E-03
   maximum displ.:     0.2844123 α      in ANC's #6, #12, #3, ...

........................................................................
.............................. CYCLE   15 ..............................
........................................................................
   1    -38.3067358 -0.383067E+02  0.275E-01    1.79       0.0  T
   2    -38.3067418 -0.604183E-05  0.187E-01    1.80       1.0  T
   3    -38.3067294  0.124168E-04  0.353E-02    1.79       1.0  T
   4    -38.3067439 -0.144833E-04  0.102E-02    1.80       1.8  T
   5    -38.3067440 -0.110987E-06  0.491E-03    1.80       3.7  T
   6    -38.3067440 -0.373827E-07  0.185E-03    1.80       9.7  T
   7    -38.3067440 -0.218059E-07  0.105E-03    1.80      17.1  T
   8    -38.3067440 -0.587777E-08  0.470E-04    1.80      38.2  T
   9    -38.3067440 -0.623757E-09  0.252E-04    1.80      71.4  T
     SCC iter.                  ...        0 min,  0.632 sec
     gradient                   ...        0 min,  0.180 sec
 * total energy  :   -37.6843466 Eh     change       -0.4793123E-03 Eh
   gradient norm :     0.0086035 Eh/α   predicted    -0.3557707E-03 ( -25.77%)
   displ. norm   :     0.5789057 α      lambda       -0.8004981E-03
   maximum displ.:     0.3391669 α      in ANC's #6, #12, #3, ...

........................................................................
.............................. CYCLE   16 ..............................
........................................................................
   1    -38.3053805 -0.383054E+02  0.317E-01    1.79       0.0  T
   2    -38.3053864 -0.585713E-05  0.209E-01    1.80       1.0  T
   3    -38.3053629  0.234681E-04  0.312E-02    1.80       1.0  T
   4    -38.3053884 -0.254648E-04  0.153E-02    1.79       1.2  T
   5    -38.3053900 -0.157009E-05  0.829E-03    1.80       2.2  T
   6    -38.3053901 -0.154763E-06  0.299E-03    1.79       6.0  T
   7    -38.3053902 -0.407173E-07  0.151E-03    1.79      11.9  T
   8    -38.3053902  0.188687E-08  0.833E-04    1.79      21.5  T
   9    -38.3053902 -0.417705E-08  0.590E-04    1.79      30.4  T
     SCC iter.                  ...        0 min,  0.612 sec
     gradient                   ...        0 min,  0.176 sec
 * total energy  :   -37.6849693 Eh     change       -0.6226658E-03 Eh
   gradient norm :     0.0089104 Eh/α   predicted    -0.5343916E-03 ( -14.18%)
   displ. norm   :     0.5574393 α      lambda       -0.7193807E-03
   maximum displ.:     0.2894029 α      in ANC's #6, #3, #12, ...

........................................................................
.............................. CYCLE   17 ..............................
........................................................................
   1    -38.3040393 -0.383040E+02  0.297E-01    1.81       0.0  T
   2    -38.3040472 -0.789286E-05  0.193E-01    1.80       1.0  T
   3    -38.3039855  0.616779E-04  0.495E-02    1.82       1.0  T
   4    -38.3040535 -0.680149E-04  0.139E-02    1.80       1.3  T
   5    -38.3040538 -0.251670E-06  0.800E-03    1.81       2.2  T
   6    -38.3040542 -0.449719E-06  0.249E-03    1.80       7.2  T
   7    -38.3040543 -0.274324E-07  0.119E-03    1.80      15.1  T
   8    -38.3040543  0.432721E-11  0.674E-04    1.80      26.6  T
   9    -38.3040543 -0.385717E-08  0.399E-04    1.80      45.0  T
     SCC iter.                  ...        0 min,  0.624 sec
     gradient                   ...        0 min,  0.197 sec
 * total energy  :   -37.6855191 Eh     change       -0.5498239E-03 Eh
   gradient norm :     0.0100384 Eh/α   predicted    -0.4714654E-03 ( -14.25%)
   displ. norm   :     0.5265268 α      lambda       -0.6620985E-03
   maximum displ.:     0.2803902 α      in ANC's #6, #3, #11, ...

........................................................................
.............................. CYCLE   18 ..............................
........................................................................
   1    -38.3045804 -0.383046E+02  0.233E-01    1.81       0.0  T
   2    -38.3045850 -0.456783E-05  0.149E-01    1.80       1.0  T
   3    -38.3045755  0.948322E-05  0.389E-02    1.81       1.0  T
   4    -38.3045874 -0.119036E-04  0.117E-02    1.80       1.5  T
   5    -38.3045872  0.190147E-06  0.511E-03    1.80       3.5  T
   6    -38.3045875 -0.262896E-06  0.210E-03    1.80       8.6  T
   7    -38.3045875 -0.667225E-07  0.953E-04    1.80      18.8  T
   8    -38.3045875 -0.196635E-08  0.353E-04    1.80      50.9  T
     SCC iter.                  ...        0 min,  0.454 sec
     gradient                   ...        0 min,  0.105 sec
 * total energy  :   -37.6860170 Eh     change       -0.4978977E-03 Eh
   gradient norm :     0.0083590 Eh/α   predicted    -0.4228301E-03 ( -15.08%)
   displ. norm   :     0.4866035 α      lambda       -0.5590169E-03
   maximum displ.:     0.2720897 α      in ANC's #6, #3, #8, ...

........................................................................
.............................. CYCLE   19 ..............................
........................................................................
   1    -38.3061962 -0.383062E+02  0.192E-01    1.81       0.0  T
   2    -38.3062027 -0.646378E-05  0.124E-01    1.80       1.0  T
   3    -38.3061908  0.119314E-04  0.368E-02    1.81       1.0  T
   4    -38.3062060 -0.151760E-04  0.112E-02    1.80       1.6  T
   5    -38.3062058  0.200713E-06  0.679E-03    1.80       2.6  T
   6    -38.3062063 -0.537020E-06  0.172E-03    1.80      10.4  T
   7    -38.3062063 -0.253381E-07  0.987E-04    1.80      18.2  T
   8    -38.3062063 -0.182960E-08  0.388E-04    1.80      46.3  T
     SCC iter.                  ...        0 min,  0.305 sec
     gradient                   ...        0 min,  0.014 sec
 * total energy  :   -37.6864198 Eh     change       -0.4028380E-03 Eh
   gradient norm :     0.0057431 Eh/α   predicted    -0.3456968E-03 ( -14.18%)
   displ. norm   :     0.4608221 α      lambda       -0.4109481E-03
   maximum displ.:     0.2834829 α      in ANC's #6, #3, #8, ...

........................................................................
.............................. CYCLE   20 ..............................
........................................................................
   1    -38.3064678 -0.383065E+02  0.158E-01    1.80       0.0  T
   2    -38.3064729 -0.510378E-05  0.102E-01    1.80       1.0  T
   3    -38.3064444  0.285436E-04  0.364E-02    1.80       1.0  T
   4    -38.3064768 -0.324443E-04  0.114E-02    1.80       1.6  T
   5    -38.3064773 -0.494571E-06  0.715E-03    1.80       2.5  T
   6    -38.3064775 -0.165906E-06  0.176E-03    1.80      10.2  T
   7    -38.3064775 -0.446585E-08  0.106E-03    1.80      16.9  T
   8    -38.3064775 -0.149183E-08  0.625E-04    1.80      28.8  T
   9    -38.3064775 -0.111991E-08  0.321E-04    1.80      55.9  T
     SCC iter.                  ...        0 min,  0.368 sec
     gradient                   ...        0 min,  0.049 sec
 * total energy  :   -37.6867017 Eh     change       -0.2818965E-03 Eh
   gradient norm :     0.0052244 Eh/α   predicted    -0.2491101E-03 ( -11.63%)
   displ. norm   :     0.2869526 α      lambda       -0.3126036E-03
   maximum displ.:     0.1476735 α      in ANC's #3, #6, #8, ...
 * RMSD in coord.:     1.0969523 α      energy gain  -0.1009596E+00 Eh

generating ANC from model Hessian ...
Using Lindh-Hessian (1995)
 Shifting diagonal of input Hessian by    9.7054366435784384E-003
 Lowest  eigenvalues of input Hessian
    0.000000    0.000000    0.000000    0.000000    0.000000    0.000000
    0.010000    0.010130    0.010273    0.010468    0.010873    0.010986
    0.011488    0.012232    0.017800    0.017884    0.018201    0.018576
 Highest eigenvalues
    1.669852    1.674037    1.721042    1.725184    1.727409    1.732222


........................................................................
.............................. CYCLE   21 ..............................
........................................................................
   1    -38.3138861 -0.383139E+02  0.135E-01    1.81       0.0  T
   2    -38.3138935 -0.732201E-05  0.851E-02    1.80       1.0  T
   3    -38.3138759  0.175371E-04  0.382E-02    1.80       1.0  T
   4    -38.3138982 -0.222825E-04  0.114E-02    1.80       1.6  T
   5    -38.3138986 -0.413417E-06  0.768E-03    1.80       2.3  T
   6    -38.3138989 -0.256145E-06  0.172E-03    1.80      10.5  T
   7    -38.3138989 -0.463924E-08  0.102E-03    1.80      17.6  T
   8    -38.3138989 -0.111775E-08  0.514E-04    1.80      35.0  T
   9    -38.3138989 -0.133954E-08  0.282E-04    1.80      63.7  T
     SCC iter.                  ...        0 min,  0.384 sec
     gradient                   ...        0 min,  0.062 sec
 * total energy  :   -37.6868282 Eh     change       -0.1264698E-03 Eh
   gradient norm :     0.0074298 Eh/α   predicted     0.0000000E+00 (-100.00%)
   displ. norm   :     0.0804345 α      lambda       -0.2043237E-03
   maximum displ.:     0.0374638 α      in ANC's #2, #7, #10, ...

........................................................................
.............................. CYCLE   22 ..............................
........................................................................
   1    -38.3112547 -0.383113E+02  0.391E-02    1.80       0.0  T
   2    -38.3112560 -0.130825E-05  0.241E-02    1.80       1.0  T
   3    -38.3112558  0.230809E-06  0.140E-02    1.80       1.3  T
   4    -38.3112567 -0.873147E-06  0.450E-03    1.80       4.0  T
   5    -38.3112566  0.598633E-07  0.241E-03    1.80       7.5  T
   6    -38.3112567 -0.778150E-07  0.601E-04    1.80      29.9  T
   7    -38.3112567 -0.180048E-08  0.350E-04    1.80      51.3  T
     SCC iter.                  ...        0 min,  0.284 sec
     gradient                   ...        0 min,  0.039 sec
 * total energy  :   -37.6869701 Eh     change       -0.1419163E-03 Eh
   gradient norm :     0.0026936 Eh/α   predicted    -0.1031479E-03 ( -27.32%)
   displ. norm   :     0.1059160 α      lambda       -0.9855277E-04
   maximum displ.:     0.0632359 α      in ANC's #2, #7, #10, ...

........................................................................
.............................. CYCLE   23 ..............................
........................................................................
   1    -38.3093794 -0.383094E+02  0.429E-02    1.80       0.0  T
   2    -38.3093802 -0.811051E-06  0.252E-02    1.80       1.0  T
   3    -38.3093791  0.111917E-05  0.126E-02    1.80       1.4  T
   4    -38.3093807 -0.157292E-05  0.291E-03    1.80       6.2  T
   5    -38.3093807 -0.261182E-07  0.189E-03    1.80       9.5  T
   6    -38.3093807 -0.109199E-07  0.520E-04    1.80      34.6  T
   7    -38.3093807 -0.685503E-09  0.334E-04    1.80      53.7  T
     SCC iter.                  ...        0 min,  0.291 sec
     gradient                   ...        0 min,  0.004 sec
 * total energy  :   -37.6870339 Eh     change       -0.6374916E-04 Eh
   gradient norm :     0.0014215 Eh/α   predicted    -0.4984514E-04 ( -21.81%)
   displ. norm   :     0.1223896 α      lambda       -0.3609952E-04
   maximum displ.:     0.0871062 α      in ANC's #2, #1, #7, ...

........................................................................
.............................. CYCLE   24 ..............................
........................................................................
   1    -38.3090898 -0.383091E+02  0.382E-02    1.80       0.0  T
   2    -38.3090904 -0.546786E-06  0.231E-02    1.80       1.0  T
   3    -38.3090894  0.103451E-05  0.105E-02    1.80       1.7  T
   4    -38.3090907 -0.132931E-05  0.268E-03    1.80       6.7  T
   5    -38.3090907 -0.354318E-07  0.176E-03    1.80      10.2  T
   6    -38.3090907 -0.926749E-08  0.484E-04    1.80      37.1  T
   7    -38.3090907 -0.623615E-09  0.318E-04    1.80      56.5  T
     SCC iter.                  ...        0 min,  0.254 sec
     gradient                   ...        0 min,  0.029 sec
 * total energy  :   -37.6870731 Eh     change       -0.3926645E-04 Eh
   gradient norm :     0.0021095 Eh/α   predicted    -0.1817355E-04 ( -53.72%)
   displ. norm   :     0.0713185 α      lambda       -0.3127737E-04
   maximum displ.:     0.0536276 α      in ANC's #2, #1, #6, ...

........................................................................
.............................. CYCLE   25 ..............................
........................................................................
   1    -38.3097479 -0.383097E+02  0.161E-02    1.80       0.0  T
   2    -38.3097480 -0.897661E-07  0.102E-02    1.80       1.8  T
   3    -38.3097478  0.166526E-06  0.363E-03    1.80       4.9  T
   4    -38.3097480 -0.206406E-06  0.116E-03    1.80      15.5  T
   5    -38.3097480 -0.701071E-09  0.600E-04    1.80      29.9  T
   6    -38.3097480 -0.247702E-08  0.226E-04    1.80      79.4  T
     SCC iter.                  ...        0 min,  0.268 sec
     gradient                   ...        0 min,  0.064 sec
 * total energy  :   -37.6871012 Eh     change       -0.2805762E-04 Eh
   gradient norm :     0.0014130 Eh/α   predicted    -0.1571931E-04 ( -43.97%)
   displ. norm   :     0.1791617 α      lambda       -0.4702741E-04
   maximum displ.:     0.1297895 α      in ANC's #2, #1, #3, ...

........................................................................
.............................. CYCLE   26 ..............................
........................................................................
   1    -38.3108540 -0.383109E+02  0.374E-02    1.80       0.0  T
   2    -38.3108545 -0.451932E-06  0.235E-02    1.80       1.0  T
   3    -38.3108536  0.842822E-06  0.795E-03    1.80       2.3  T
   4    -38.3108547 -0.102230E-05  0.248E-03    1.80       7.2  T
   5    -38.3108547 -0.885030E-08  0.139E-03    1.80      12.9  T
   6    -38.3108547 -0.887533E-08  0.339E-04    1.80      53.0  T
   7    -38.3108547 -0.149191E-08  0.223E-04    1.80      80.4  T
     SCC iter.                  ...        0 min,  0.333 sec
     gradient                   ...        0 min,  0.058 sec
 * total energy  :   -37.6871568 Eh     change       -0.5556821E-04 Eh
   gradient norm :     0.0011802 Eh/α   predicted    -0.2385203E-04 ( -57.08%)
   displ. norm   :     0.1869097 α      lambda       -0.3672995E-04
   maximum displ.:     0.1330463 α      in ANC's #2, #1, #3, ...

........................................................................
.............................. CYCLE   27 ..............................
........................................................................
   1    -38.3107884 -0.383108E+02  0.422E-02    1.80       0.0  T
   2    -38.3107888 -0.349710E-06  0.268E-02    1.80       1.0  T
   3    -38.3107878  0.101004E-05  0.697E-03    1.80       2.6  T
   4    -38.3107889 -0.113360E-05  0.236E-03    1.80       7.6  T
   5    -38.3107889 -0.255005E-07  0.135E-03    1.80      13.3  T
   6    -38.3107890 -0.795684E-08  0.408E-04    1.80      44.0  T
   7    -38.3107890 -0.949029E-09  0.166E-04    1.80     108.0  T
     SCC iter.                  ...        0 min,  0.373 sec
     gradient                   ...        0 min,  0.120 sec
 * total energy  :   -37.6872055 Eh     change       -0.4868292E-04 Eh
   gradient norm :     0.0013714 Eh/α   predicted    -0.1865249E-04 ( -61.69%)
   displ. norm   :     0.2268913 α      lambda       -0.4319320E-04
   maximum displ.:     0.1557766 α      in ANC's #2, #1, #3, ...

........................................................................
.............................. CYCLE   28 ..............................
........................................................................
   1    -38.3105250 -0.383105E+02  0.661E-02    1.80       0.0  T
   2    -38.3105255 -0.494029E-06  0.431E-02    1.80       1.0  T
   3    -38.3105239  0.166834E-05  0.861E-03    1.80       2.1  T
   4    -38.3105257 -0.183525E-05  0.356E-03    1.80       5.1  T
   5    -38.3105257 -0.519184E-07  0.188E-03    1.80       9.5  T
   6    -38.3105258 -0.204694E-07  0.721E-04    1.80      24.9  T
   7    -38.3105258 -0.160790E-08  0.340E-04    1.80      52.8  T
     SCC iter.                  ...        0 min,  0.124 sec
     gradient                   ...        0 min,  0.011 sec
 * total energy  :   -37.6872627 Eh     change       -0.5725296E-04 Eh
   gradient norm :     0.0011297 Eh/α   predicted    -0.2209221E-04 ( -61.41%)
   displ. norm   :     0.3293825 α      lambda       -0.5502666E-04
   maximum displ.:     0.2213106 α      in ANC's #2, #1, #3, ...

........................................................................
.............................. CYCLE   29 ..............................
........................................................................
   1    -38.3096143 -0.383096E+02  0.101E-01    1.80       0.0  T
   2    -38.3096156 -0.122999E-05  0.667E-02    1.80       1.0  T
   3    -38.3096122  0.333451E-05  0.131E-02    1.80       1.4  T
   4    -38.3096159 -0.369381E-05  0.537E-03    1.80       3.3  T
   5    -38.3096160 -0.112617E-06  0.286E-03    1.80       6.3  T
   6    -38.3096161 -0.499109E-07  0.108E-03    1.80      16.6  T
   7    -38.3096161 -0.557814E-08  0.534E-04    1.80      33.6  T
   8    -38.3096161 -0.457817E-09  0.279E-04    1.80      64.5  T
     SCC iter.                  ...        0 min,  0.161 sec
     gradient                   ...        0 min,  0.005 sec
 * total energy  :   -37.6873289 Eh     change       -0.6620201E-04 Eh
   gradient norm :     0.0012895 Eh/α   predicted    -0.2884031E-04 ( -56.44%)
   displ. norm   :     0.4211436 α      lambda       -0.5241044E-04
   maximum displ.:     0.2819228 α      in ANC's #2, #1, #3, ...

........................................................................
.............................. CYCLE   30 ..............................
........................................................................
   1    -38.3085088 -0.383085E+02  0.134E-01    1.80       0.0  T
   2    -38.3085107 -0.191609E-05  0.900E-02    1.80       1.0  T
   3    -38.3085057  0.494853E-05  0.172E-02    1.80       1.0  T
   4    -38.3085112 -0.542834E-05  0.754E-03    1.80       2.4  T
   5    -38.3085114 -0.236057E-06  0.378E-03    1.80       4.8  T
   6    -38.3085115 -0.653488E-07  0.129E-03    1.80      13.9  T
   7    -38.3085115 -0.108903E-07  0.671E-04    1.80      26.8  T
   8    -38.3085115 -0.136946E-08  0.288E-04    1.80      62.3  T
     SCC iter.                  ...        0 min,  0.143 sec
     gradient                   ...        0 min,  0.005 sec
 * total energy  :   -37.6873788 Eh     change       -0.4987704E-04 Eh
   gradient norm :     0.0021875 Eh/α   predicted    -0.2827138E-04 ( -43.32%)
   displ. norm   :     0.1429407 α      lambda       -0.2547423E-04
   maximum displ.:     0.0947392 α      in ANC's #2, #1, #3, ...

........................................................................
.............................. CYCLE   31 ..............................
........................................................................
   1    -38.3094355 -0.383094E+02  0.443E-02    1.80       0.0  T
   2    -38.3094358 -0.276556E-06  0.295E-02    1.80       1.0  T
   3    -38.3094349  0.868211E-06  0.645E-03    1.80       2.8  T
   4    -38.3094359 -0.951988E-06  0.260E-03    1.80       6.9  T
   5    -38.3094359 -0.385558E-07  0.139E-03    1.80      12.9  T
   6    -38.3094359 -0.818196E-08  0.474E-04    1.80      37.9  T
   7    -38.3094359 -0.126300E-08  0.225E-04    1.80      80.0  T
     SCC iter.                  ...        0 min,  0.111 sec
     gradient                   ...        0 min,  0.004 sec
 * total energy  :   -37.6873981 Eh     change       -0.1931549E-04 Eh
   gradient norm :     0.0014072 Eh/α   predicted    -0.1300133E-04 ( -32.69%)
   displ. norm   :     0.3226340 α      lambda       -0.2300457E-04
   maximum displ.:     0.2100492 α      in ANC's #2, #1, #3, ...

........................................................................
.............................. CYCLE   32 ..............................
........................................................................
   1    -38.3100617 -0.383101E+02  0.823E-02    1.80       0.0  T
   2    -38.3100629 -0.123939E-05  0.559E-02    1.80       1.0  T
   3    -38.3100587  0.420138E-05  0.135E-02    1.80       1.3  T
   4    -38.3100633 -0.454687E-05  0.538E-03    1.80       3.3  T
   5    -38.3100635 -0.180597E-06  0.284E-03    1.80       6.3  T
   6    -38.3100635 -0.233749E-07  0.817E-04    1.80      22.0  T
   7    -38.3100635 -0.565627E-08  0.426E-04    1.80      42.1  T
     SCC iter.                  ...        0 min,  0.142 sec
     gradient                   ...        0 min,  0.005 sec
 * total energy  :   -37.6874172 Eh     change       -0.1914058E-04 Eh
   gradient norm :     0.0010410 Eh/α   predicted    -0.1203499E-04 ( -37.12%)
   displ. norm   :     0.0418894 α      lambda       -0.5509694E-05
   maximum displ.:     0.0204730 α      in ANC's #1, #2, #6, ...

........................................................................
.............................. CYCLE   33 ..............................
........................................................................
   1    -38.3112273 -0.383112E+02  0.125E-02    1.80       0.0  T
   2    -38.3112274 -0.608916E-07  0.751E-03    1.80       2.4  T
   3    -38.3112273  0.139157E-06  0.361E-03    1.80       5.0  T
   4    -38.3112274 -0.177841E-06  0.109E-03    1.80      16.5  T
   5    -38.3112274  0.103857E-08  0.692E-04    1.80      26.0  T
   6    -38.3112274 -0.281606E-08  0.194E-04    1.80      92.6  T
     SCC iter.                  ...        0 min,  0.104 sec
     gradient                   ...        0 min,  0.014 sec
 * total energy  :   -37.6874214 Eh     change       -0.4196643E-05 Eh
   gradient norm :     0.0006024 Eh/α   predicted    -0.2759002E-05 ( -34.26%)
   displ. norm   :     0.1202186 α      lambda       -0.4334114E-05
   maximum displ.:     0.0688270 α      in ANC's #2, #1, #6, ...

   *** GEOMETRY OPTIMIZATION CONVERGED AFTER 33 ITERATIONS ***

------------------------------------------------------------------------
 total energy gain   :        -0.1016793 Eh      -63.8047 kcal/mol
 total RMSD          :         1.3551354 a0        0.7171 Å
 total power (kW/mol):        -8.0896666 (step)  -11.4765 (real)
------------------------------------------------------------------------

 ANCopt (total)                0 d,  0 h,  0 min, 23.261 sec
 optimizer setup                ...        0 min,  0.000 sec (  0.001%)
 model hessian                  ...        0 min,  0.050 sec (  0.214%)
 ANC generation                 ...        0 min,  0.025 sec (  0.109%)
 coordinate transformation      ...        0 min,  0.001 sec (  0.005%)
 single point calculation       ...        0 min, 22.783 sec ( 97.945%)
 optimization log               ...        0 min,  0.003 sec (  0.013%)
 hessian update                 ...        0 min,  0.303 sec (  1.301%)
 rational function              ...        0 min,  0.086 sec (  0.368%)

================
 final structure:
================
31
 xtb: 6.5.1 (b24c23e)
Zr          -0.52929599452190       -0.65511778959920        0.16991974888198
C           -1.70264932803204       -2.43580559189749       -0.26644097856710
C            1.76308145325013        0.06232439525734        0.75235949833431
C            1.79655411627210       -0.48436695113133       -0.55308882794494
C            1.46517392160725       -1.86294303476237       -0.45922026815920
C            1.22291087247748       -2.15972972618068        0.91019856980485
C            1.38314454560473       -0.96257354362017        1.65535376183848
H            2.10655462204010        1.05209589991925        1.03016774141459
H            2.18136757311352        0.01325310242542       -1.43778195214440
H            1.56548454697018       -2.59443780774145       -1.25436168377512
H            1.09115572825935       -3.15266388212453        1.32549172418284
H            1.41354034241498       -0.89313268306056        2.73906590369342
C           -0.72202943750481        1.72072829127685       -0.41465535882036
C           -0.99988293573143        1.61868433304958        0.97143425621003
C           -2.18309863430813        0.85247670527749        1.12877244970323
C           -2.64080201972186        0.48655664654292       -0.16465993827325
C           -1.72066450454761        1.00287640730537       -1.12061570954205
H            0.03805030223709        2.35195380535818       -0.86257573358475
H           -0.50164706757375        2.17501283659356        1.75864591210001
H           -2.74056243944386        0.73374572758814        2.05310103653866
H           -3.60211084807786        0.04311575266146       -0.39517023623826
H           -1.87577648207874        1.01969060330431       -2.19551278245211
H           -1.11058942028711       -3.33423029445320       -0.51330785900040
H           -2.54967289404270       -2.41063176085541       -0.96992889453809
C           -2.25162151036807       -2.60063559458696        1.17888780572785
H           -1.52153211743520       -2.20183026036804        1.94001820703875
H           -3.19407308354398       -2.04449519355217        1.28972172231136
C           -2.52614820966368       -4.06972376160115        1.52601895430877
H           -1.61010759423052       -4.65529095334861        1.47114391591899
H           -2.93462864671185       -4.16463132787693        2.52894520867826
H           -3.24393178641105       -4.48655816979786        0.82361467634706

 Bond Distances (Angstroems)
 ---------------------------
Zr1-C2=2.1767        Zr1-C3=2.4716        Zr1-C4=2.4416        Zr1-C5=2.4151        Zr1-C6=2.4253        Zr1-C7=2.4410        
Zr1-C13=2.4543       Zr1-C14=2.4564       Zr1-C15=2.4346       Zr1-C16=2.4236       Zr1-C17=2.4153       Zr1-C25=2.7874       
C2-Zr1=2.1767        C2-H23=1.1039        C2-H24=1.1014        C2-C25=1.5548        C3-Zr1=2.4716        C3-C4=1.4157         
C3-C7=1.4178         C3-H8=1.0839         C4-Zr1=2.4416        C4-C3=1.4157         C4-C5=1.4209         C4-H9=1.0855         
C5-Zr1=2.4151        C5-C4=1.4209         C5-C6=1.4220         C5-H10=1.0851        C6-Zr1=2.4253        C6-C5=1.4220         
C6-C7=1.4192         C6-H11=1.0843        C7-Zr1=2.4410        C7-C3=1.4178         C7-C6=1.4192         C7-H12=1.0864        
H8-C3=1.0839         H9-C4=1.0855         H10-C5=1.0851        H11-C6=1.0843        H12-C7=1.0864        C13-Zr1=2.4543       
C13-C14=1.4173       C13-C17=1.4181       C13-H18=1.0848       C14-Zr1=2.4564       C14-C13=1.4173       C14-C15=1.4184       
C14-H19=1.0851       C15-Zr1=2.4346       C15-C14=1.4184       C15-C16=1.4200       C15-H20=1.0859       C16-Zr1=2.4236       
C16-C15=1.4200       C16-C17=1.4238       C16-H21=1.0835       C17-Zr1=2.4153       C17-C13=1.4181       C17-C16=1.4238       
C17-H22=1.0862       H18-C13=1.0848       H19-C14=1.0851       H20-C15=1.0859       H21-C16=1.0835       H22-C17=1.0862       
H23-C2=1.1039        H24-C2=1.1014        C25-Zr1=2.7874       C25-C2=1.5548        C25-H26=1.1276       C25-H27=1.0999       
C25-C28=1.5343       H26-C25=1.1276       H27-C25=1.0999       C28-C25=1.5343       C28-H29=1.0886       C28-H30=1.0871       
C28-H31=1.0874       H29-C28=1.0886       H30-C28=1.0871       H31-C28=1.0874       
 C  H  Rav=1.0910 sigma=0.0111  Rmin=1.0835  Rmax=1.1276    17
 C  C  Rav=1.4402 sigma=0.0469  Rmin=1.4157  Rmax=1.5548    12
 Zr C  Rav=2.4452 sigma=0.1268  Rmin=2.1767  Rmax=2.7874    12

 selected bond angles (degree)
 --------------------
C3-Zr1-C2=141.69               C4-Zr1-C2=120.75               C4-Zr1-C3= 33.49               C5-Zr1-C2= 89.07               
C5-Zr1-C3= 55.99               C5-Zr1-C4= 34.02               C6-Zr1-C2= 86.74               C6-Zr1-C3= 55.81               
C6-Zr1-C4= 56.33               C6-Zr1-C5= 34.17               C7-Zr1-C2=116.19               C7-Zr1-C3= 33.54               
C7-Zr1-C4= 56.13               C7-Zr1-C5= 56.53               C7-Zr1-C6= 33.91               C13-Zr1-C2=134.57              
C13-Zr1-C3= 81.26              C13-Zr1-C4= 86.36              C13-Zr1-C5=119.14              C13-Zr1-C6=136.89              
C13-Zr1-C7=109.17              C14-Zr1-C2=136.00              C14-Zr1-C3= 80.33              C14-Zr1-C4=102.38              
C14-Zr1-C5=134.92              C14-Zr1-C6=127.81              C14-Zr1-C7= 93.91              C14-Zr1-C13= 33.55             
C15-Zr1-C2=102.67              C15-Zr1-C3=110.94              C15-Zr1-C4=136.09              C15-Zr1-C5=166.72              
C15-Zr1-C6=139.00              C15-Zr1-C7=111.75              C15-Zr1-C13= 56.01             C15-Zr1-C14= 33.71             
C16-Zr1-C2= 83.57              C16-Zr1-C3=134.74              C16-Zr1-C4=139.12              C16-Zr1-C5=156.80              
C16-Zr1-C6=164.54              C16-Zr1-C7=145.68              C16-Zr1-C13= 56.13             C16-Zr1-C14= 56.09             
C16-Zr1-C15= 33.99             C17-Zr1-C2=100.87              C17-Zr1-C3=112.59              C17-Zr1-C4=105.29              
C17-Zr1-C5=127.70              C17-Zr1-C6=160.96              C17-Zr1-C7=142.95              C17-Zr1-C13= 33.85             
C17-Zr1-C14= 56.25             C17-Zr1-C15= 56.65             C17-Zr1-C16= 34.22             C25-Zr1-C2= 33.75              
C25-Zr1-C3=133.66              C25-Zr1-C4=138.13              C25-Zr1-C5=104.80              C25-Zr1-C6= 84.43              
C25-Zr1-C7=100.13              C25-Zr1-C13=135.51             C25-Zr1-C14=114.18             C25-Zr1-C15= 82.53             
C25-Zr1-C16= 80.82             C25-Zr1-C17=111.58             H23-C2-Zr1=114.93              H24-C2-Zr1=121.60              
H24-C2-H23=106.75              C25-C2-Zr1= 95.20              C25-C2-H23=108.12              C25-C2-H24=108.94              
C4-C3-Zr1= 72.09               C7-C3-Zr1= 72.04               C7-C3-C4=108.33                H8-C3-Zr1=128.27               
H8-C3-C4=125.56                H8-C3-C7=125.58                C3-C4-Zr1= 74.42               C5-C4-Zr1= 71.97               
C5-C4-C3=107.95                H9-C4-Zr1=127.67               H9-C4-C3=125.65                H9-C4-C5=125.54                
C4-C5-Zr1= 74.01               C6-C5-Zr1= 73.31               C6-C5-C4=107.81                H10-C5-Zr1=127.19              
H10-C5-C4=125.74               H10-C5-C6=125.50               C5-C6-Zr1= 72.52               C7-C6-Zr1= 73.65               
C7-C6-C5=108.08                H11-C6-Zr1=126.67              H11-C6-C5=125.50               H11-C6-C7=125.81               
C3-C7-Zr1= 74.41               C6-C7-Zr1= 72.44               C6-C7-C3=107.80                H12-C7-Zr1=128.38              
H12-C7-C3=125.57               H12-C7-C6=125.51               

 selected dihedral angles (degree)
 ---------------------------------
H23-C2-Zr1-C3=343.58          H23-C2-Zr1-C4= 19.25          H23-C2-Zr1-C5=  6.22          H23-C2-Zr1-C6=332.10          
H23-C2-Zr1-C7=314.72          H23-C2-Zr1-C13=138.11         H23-C2-Zr1-C14=186.51         H23-C2-Zr1-C15=192.46         
H23-C2-Zr1-C16=164.17         H23-C2-Zr1-C17=134.50         H23-C2-Zr1-C25=247.25         H24-C2-Zr1-C3=212.35          
H24-C2-Zr1-C4=248.02          H24-C2-Zr1-C5=234.99          H24-C2-Zr1-C6=200.87          H24-C2-Zr1-C7=183.49          
H24-C2-Zr1-C13=  6.88         H24-C2-Zr1-C14= 55.28         H24-C2-Zr1-C15= 61.23         H24-C2-Zr1-C16= 32.94         
H24-C2-Zr1-C17=  3.27         H24-C2-Zr1-C25=116.02         C25-C2-Zr1-C3= 96.33          C25-C2-Zr1-C4=132.00          
C25-C2-Zr1-C5=118.96          C25-C2-Zr1-C6= 84.85          C25-C2-Zr1-C7= 67.47          C25-C2-Zr1-C13=250.86         
C25-C2-Zr1-C14=299.26         C25-C2-Zr1-C15=305.21         C25-C2-Zr1-C16=276.92         C25-C2-Zr1-C17=247.25         
C4-C3-Zr1-C2= 65.27           C4-C3-Zr1-C5= 37.61           C4-C3-Zr1-C6= 79.17           C4-C3-Zr1-C7=116.88           
C4-C3-Zr1-C13=263.33          C4-C3-Zr1-C14=229.34          C4-C3-Zr1-C15=214.97          C4-C3-Zr1-C16=244.44          
C4-C3-Zr1-C17=276.39          C4-C3-Zr1-C25=115.02          C7-C3-Zr1-C2=308.39           C7-C3-Zr1-C4=243.12           
C7-C3-Zr1-C5=280.73           C7-C3-Zr1-C6=322.29           C7-C3-Zr1-C13=146.45          C7-C3-Zr1-C14=112.46          
C7-C3-Zr1-C15= 98.09          C7-C3-Zr1-C16=127.56          C7-C3-Zr1-C17=159.51          C7-C3-Zr1-C25=358.14          
H8-C3-Zr1-C2=186.84           H8-C3-Zr1-C4=121.56           H8-C3-Zr1-C5=159.17           H8-C3-Zr1-C6=200.73           
H8-C3-Zr1-C7=238.44           H8-C3-Zr1-C13= 24.89          H8-C3-Zr1-C14=350.90          H8-C3-Zr1-C15=336.53          
H8-C3-Zr1-C16=  6.01          H8-C3-Zr1-C17= 37.96          H8-C3-Zr1-C25=236.58          C3-C4-Zr1-C2=220.94           
C3-C4-Zr1-C5=244.71           C3-C4-Zr1-C6=282.52           C3-C4-Zr1-C7=323.59           C3-C4-Zr1-C13= 79.63          
C3-C4-Zr1-C14= 49.96          C3-C4-Zr1-C15= 50.51          C3-C4-Zr1-C16=101.70          C3-C4-Zr1-C17=107.98          
C3-C4-Zr1-C25=259.14          C5-C4-Zr1-C2=336.23           C5-C4-Zr1-C3=115.29           C5-C4-Zr1-C6= 37.81           
C5-C4-Zr1-C7= 78.88           C5-C4-Zr1-C13=194.92          C5-C4-Zr1-C14=165.25          C5-C4-Zr1-C15=165.80          
C5-C4-Zr1-C16=217.00          C5-C4-Zr1-C17=223.27          C5-C4-Zr1-C25= 14.44          H9-C4-Zr1-C2= 97.62           
H9-C4-Zr1-C3=236.69           H9-C4-Zr1-C5=121.39           H9-C4-Zr1-C6=159.20           H9-C4-Zr1-C7=200.28           
H9-C4-Zr1-C13=316.32          H9-C4-Zr1-C14=286.65          H9-C4-Zr1-C15=287.20          H9-C4-Zr1-C16=338.39          
H9-C4-Zr1-C17=344.66          H9-C4-Zr1-C25=135.83          Zr1-C4-C3-C7= 63.36           Zr1-C4-C3-H8=235.31           
C5-C4-C3-Zr1=295.35           C5-C4-C3-C7=358.71            C5-C4-C3-H8=170.66            H9-C4-C3-Zr1=125.50           
H9-C4-C3-C7=188.86            H9-C4-C3-H8=  0.81            C4-C5-Zr1-C2=159.73           C4-C5-Zr1-C3=323.00           
C4-C5-Zr1-C6=245.29           C4-C5-Zr1-C7=282.40           C4-C5-Zr1-C13= 17.11          C4-C5-Zr1-C14=339.44          
C4-C5-Zr1-C15=312.20          C4-C5-Zr1-C16= 88.51          C4-C5-Zr1-C17= 56.68          C4-C5-Zr1-C25=189.91          
C6-C5-Zr1-C2=274.44           C6-C5-Zr1-C3= 77.71           C6-C5-Zr1-C4=114.71           C6-C5-Zr1-C7= 37.11           
C6-C5-Zr1-C13=131.82          C6-C5-Zr1-C14= 94.15          C6-C5-Zr1-C15= 66.91          C6-C5-Zr1-C16=203.22          
C6-C5-Zr1-C17=171.39          C6-C5-Zr1-C25=304.62          H10-C5-Zr1-C2= 36.69          H10-C5-Zr1-C3=199.96          
H10-C5-Zr1-C4=236.96          H10-C5-Zr1-C6=122.25          H10-C5-Zr1-C7=159.36          H10-C5-Zr1-C13=254.07         
H10-C5-Zr1-C14=216.40         H10-C5-Zr1-C15=189.16         H10-C5-Zr1-C16=325.47         H10-C5-Zr1-C17=293.64         
H10-C5-Zr1-C25= 66.87         Zr1-C5-C4-C3= 66.27           Zr1-C5-C4-H9=236.14           C6-C5-C4-Zr1=293.94           
C6-C5-C4-C3=  0.21            C6-C5-C4-H9=170.08            H10-C5-C4-Zr1=124.64          H10-C5-C4-C3=190.91           
H10-C5-C4-H9=  0.78           C5-C6-Zr1-C2= 93.16           C5-C6-Zr1-C3=281.73           C5-C6-Zr1-C4=322.36           
C5-C6-Zr1-C7=244.44           C5-C6-Zr1-C13=287.75          C5-C6-Zr1-C14=243.37          C5-C6-Zr1-C15=198.78          
C5-C6-Zr1-C16=144.36          C5-C6-Zr1-C17=338.71          C5-C6-Zr1-C25=126.93          C7-C6-Zr1-C2=208.72           
C7-C6-Zr1-C3= 37.29           C7-C6-Zr1-C4= 77.92           C7-C6-Zr1-C5=115.56           C7-C6-Zr1-C13= 43.31          
C7-C6-Zr1-C14=358.93          C7-C6-Zr1-C15=314.34          C7-C6-Zr1-C16=259.92          C7-C6-Zr1-C17= 94.26          
C7-C6-Zr1-C25=242.49          H11-C6-Zr1-C2=331.52          H11-C6-Zr1-C3=160.09          H11-C6-Zr1-C4=200.72          
H11-C6-Zr1-C5=238.36          H11-C6-Zr1-C7=122.80          H11-C6-Zr1-C13=166.12         H11-C6-Zr1-C14=121.73         
H11-C6-Zr1-C15= 77.15         H11-C6-Zr1-C16= 22.72         H11-C6-Zr1-C17=217.07         H11-C6-Zr1-C25=  5.29         
Zr1-C6-C5-C4= 66.53           Zr1-C6-C5-H10=235.86          C7-C6-C5-Zr1=294.41           C7-C6-C5-C4=  0.94            
C7-C6-C5-H10=170.27           H11-C6-C5-Zr1=122.99          H11-C6-C5-C4=189.52           H11-C6-C5-H10=358.85          
C3-C7-Zr1-C2=147.22           C3-C7-Zr1-C4= 36.35           C3-C7-Zr1-C5= 77.50           C3-C7-Zr1-C6=114.90           
C3-C7-Zr1-C13=324.66          C3-C7-Zr1-C14=294.05          C3-C7-Zr1-C15=264.56          C3-C7-Zr1-C16=267.16          
C3-C7-Zr1-C17=327.57          C3-C7-Zr1-C25=178.63          C6-C7-Zr1-C2= 32.31           C6-C7-Zr1-C3=245.10           
C6-C7-Zr1-C4=281.45           C6-C7-Zr1-C5=322.60           C6-C7-Zr1-C13=209.76          C6-C7-Zr1-C14=179.15          
C6-C7-Zr1-C15=149.66          C6-C7-Zr1-C16=152.26          C6-C7-Zr1-C17=212.67          C6-C7-Zr1-C25= 63.73          
H12-C7-Zr1-C2=270.54          H12-C7-Zr1-C3=123.32          H12-C7-Zr1-C4=159.67          H12-C7-Zr1-C5=200.83          
H12-C7-Zr1-C6=238.23          H12-C7-Zr1-C13= 87.99         H12-C7-Zr1-C14= 57.38         H12-C7-Zr1-C15= 27.89         
H12-C7-Zr1-C16= 30.48         H12-C7-Zr1-C17= 90.90         H12-C7-Zr1-C25=301.96         Zr1-C7-C3-C4=296.61           
Zr1-C7-C3-H8=124.66           C6-C7-C3-Zr1= 65.26           C6-C7-C3-C4=  1.86            C6-C7-C3-H8=189.92            
H12-C7-C3-Zr1=233.63          H12-C7-C3-C4=170.23           H12-C7-C3-H8=358.29           Zr1-C7-C6-C5= 64.85           
Zr1-C7-C6-H11=236.23          C3-C7-C6-Zr1=293.43           C3-C7-C6-C5=358.27            C3-C7-C6-H11=169.66           
H12-C7-C6-Zr1=125.05          H12-C7-C6-C5=189.90           H12-C7-C6-H11=  1.28          
           -------------------------------------------------
          |                Final Singlepoint                |
           -------------------------------------------------

          ...................................................
          :                      SETUP                      :
          :.................................................:
          :  # basis functions                  79          :
          :  # atomic orbitals                  78          :
          :  # shells                           46          :
          :  # electrons                        72          :
          :  max. iterations                   250          :
          :  Hamiltonian                  GFN2-xTB          :
          :  restarted?                      false          :
          :  GBSA solvation                  false          :
          :  PC potential                    false          :
          :  electronic temp.          300.0000000     K    :
          :  accuracy                    1.0000000          :
          :  -> integral cutoff          0.2500000E+02      :
          :  -> integral neglect         0.1000000E-07      :
          :  -> SCF convergence          0.1000000E-05 Eh   :
          :  -> wf. convergence          0.1000000E-03 e    :
          :  Broyden damping             0.4000000          :
          ...................................................

 iter      E             dE          RMSdq      gap      omega  full diag
   1    -38.3112274 -0.383112E+02  0.137E-04    1.80       0.0  T
   2    -38.3112274 -0.242011E-10  0.865E-05    1.80     207.6  T
   3    -38.3112274  0.222116E-10  0.800E-05    1.80     224.6  T

   *** convergence criteria satisfied after 3 iterations ***

         #    Occupation            Energy/Eh            Energy/eV
      -------------------------------------------------------------
         1        2.0000           -0.8732172             -23.7615
       ...           ...                  ...                  ...
        30        2.0000           -0.5634868             -15.3333
        31        2.0000           -0.5555227             -15.1165
        32        2.0000           -0.5329553             -14.5025
        33        2.0000           -0.5277685             -14.3613
        34        2.0000           -0.5183888             -14.1061
        35        2.0000           -0.5129364             -13.9577
        36        2.0000           -0.4949278             -13.4677 (HOMO)
        37                         -0.4287325             -11.6664 (LUMO)
        38                         -0.4245624             -11.5529
        39                         -0.4137828             -11.2596
        40                         -0.4055343             -11.0352
        41                         -0.3801230             -10.3437
       ...                                ...                  ...
        78                          2.5364433              69.0201
      -------------------------------------------------------------
                  HL-Gap            0.0661953 Eh            1.8013 eV
             Fermi-level           -0.4618301 Eh          -12.5670 eV

 SCC (total)                   0 d,  0 h,  0 min,  0.084 sec
 SCC setup                      ...        0 min,  0.005 sec (  6.030%)
 Dispersion                     ...        0 min,  0.000 sec (  0.141%)
 classical contributions        ...        0 min,  0.000 sec (  0.216%)
 integral evaluation            ...        0 min,  0.002 sec (  2.887%)
 iterations                     ...        0 min,  0.069 sec ( 82.065%)
 molecular gradient             ...        0 min,  0.007 sec (  8.462%)
 printout                       ...        0 min,  0.000 sec (  0.172%)

         :::::::::::::::::::::::::::::::::::::::::::::::::::::
         ::                     SUMMARY                     ::
         :::::::::::::::::::::::::::::::::::::::::::::::::::::
         :: total energy             -37.687421435234 Eh    ::
         :: gradient norm              0.000602449386 Eh/a0 ::
         :: HOMO-LUMO gap              1.801265762776 eV    ::
         ::.................................................::
         :: SCC energy               -38.311227442566 Eh    ::
         :: -> isotropic ES            0.086524094166 Eh    ::
         :: -> anisotropic ES         -0.011039013533 Eh    ::
         :: -> anisotropic XC          0.016309649084 Eh    ::
         :: -> dispersion             -0.026195084110 Eh    ::
         :: repulsion energy           0.623284258895 Eh    ::
         :: add. restraining           0.000000000000 Eh    ::
         :: total charge               1.000000000000 e     ::
         :::::::::::::::::::::::::::::::::::::::::::::::::::::

           -------------------------------------------------
          |                Property Printout                |
           -------------------------------------------------

    * Orbital Energies and Occupations

         #    Occupation            Energy/Eh            Energy/eV
      -------------------------------------------------------------
         1        2.0000           -0.8732172             -23.7615
       ...           ...                  ...                  ...
        24        2.0000           -0.5989812             -16.2991
        25        2.0000           -0.5969004             -16.2425
        26        2.0000           -0.5966291             -16.2351
        27        2.0000           -0.5956527             -16.2085
        28        2.0000           -0.5952715             -16.1982
        29        2.0000           -0.5760703             -15.6757
        30        2.0000           -0.5634868             -15.3333
        31        2.0000           -0.5555227             -15.1165
        32        2.0000           -0.5329553             -14.5025
        33        2.0000           -0.5277685             -14.3613
        34        2.0000           -0.5183888             -14.1061
        35        2.0000           -0.5129364             -13.9577
        36        2.0000           -0.4949278             -13.4677 (HOMO)
        37                         -0.4287325             -11.6664 (LUMO)
        38                         -0.4245624             -11.5529
        39                         -0.4137828             -11.2596
        40                         -0.4055343             -11.0352
        41                         -0.3801230             -10.3437
        42                         -0.3146279              -8.5615
        43                         -0.3131718              -8.5218
        44                         -0.3125478              -8.5049
        45                         -0.3103492              -8.4450
        46                         -0.0825006              -2.2450
        47                         -0.0380575              -1.0356
       ...                                ...                  ...
        78                          2.5364433              69.0201
      -------------------------------------------------------------
                  HL-Gap            0.0661953 Eh            1.8013 eV
             Fermi-level           -0.4618301 Eh          -12.5670 eV

     #   Z          covCN         q      C6AA      α(0)
     1  40 Zr       9.007     0.947   138.925    17.711
     2   6 C        3.626    -0.282    26.815     7.460
     3   6 C        3.751    -0.080    22.083     6.702
     4   6 C        3.759    -0.086    22.187     6.715
     5   6 C        3.768    -0.084    22.140     6.706
     6   6 C        3.767    -0.084    22.140     6.706
     7   6 C        3.757    -0.090    22.265     6.728
     8   1 H        0.925     0.091     1.869     2.138
     9   1 H        0.925     0.084     1.934     2.175
    10   1 H        0.925     0.092     1.863     2.134
    11   1 H        0.925     0.094     1.841     2.122
    12   1 H        0.925     0.079     1.985     2.203
    13   6 C        3.756    -0.081    22.109     6.704
    14   6 C        3.755    -0.084    22.158     6.712
    15   6 C        3.759    -0.090    22.263     6.727
    16   6 C        3.768    -0.082    22.098     6.700
    17   6 C        3.765    -0.087    22.210     6.717
    18   1 H        0.925     0.090     1.882     2.146
    19   1 H        0.925     0.087     1.909     2.161
    20   1 H        0.925     0.082     1.954     2.186
    21   1 H        0.925     0.098     1.804     2.101
    22   1 H        0.925     0.086     1.922     2.168
    23   1 H        0.927     0.082     1.953     2.185
    24   1 H        0.924     0.077     2.007     2.216
    25   6 C        4.272    -0.055    21.475     6.581
    26   1 H        1.007     0.056     2.232     2.334
    27   1 H        0.923     0.074     2.042     2.235
    28   6 C        3.750    -0.115    22.756     6.803
    29   1 H        0.925     0.056     2.252     2.347
    30   1 H        0.925     0.055     2.256     2.349
    31   1 H        0.925     0.068     2.105     2.269

 Mol. C6AA /au·bohr⁶  :       9466.322664
 Mol. C8AA /au·bohr⁸  :     320586.606098
 Mol. α(0) /au        :        143.138691


Wiberg/Mayer (AO) data.
largest (>0.10) Wiberg bond orders for each atom

 ---------------------------------------------------------------------------
     #   Z sym  total        # sym  WBO       # sym  WBO       # sym  WBO
 ---------------------------------------------------------------------------
     1  40 Zr   4.268 --     2 C    0.867    17 C    0.279     5 C    0.277
                            16 C    0.263     6 C    0.258    15 C    0.258
                             7 C    0.252     4 C    0.250    14 C    0.239
                            13 C    0.231     3 C    0.227    25 C    0.159
                            26 H    0.112
     2   6 C    3.834 --    25 C    0.975    24 H    0.913    23 H    0.906
                             1 Zr   0.867
     3   6 C    3.981 --     4 C    1.314     7 C    1.305     8 H    0.924
                             1 Zr   0.227
     4   6 C    3.979 --     3 C    1.314     5 C    1.286     9 H    0.919
                             1 Zr   0.250
     5   6 C    3.981 --     4 C    1.286     6 C    1.285    10 H    0.918
                             1 Zr   0.277
     6   6 C    3.980 --     7 C    1.296     5 C    1.285    11 H    0.920
                             1 Zr   0.258
     7   6 C    3.979 --     3 C    1.305     6 C    1.296    12 H    0.917
                             1 Zr   0.252
     8   1 H    0.989 --     3 C    0.924
     9   1 H    0.991 --     4 C    0.919
    10   1 H    0.989 --     5 C    0.918
    11   1 H    0.988 --     6 C    0.920
    12   1 H    0.992 --     7 C    0.917
    13   6 C    3.980 --    14 C    1.311    17 C    1.303    18 H    0.922
                             1 Zr   0.231
    14   6 C    3.980 --    13 C    1.311    15 C    1.300    19 H    0.921
                             1 Zr   0.239
    15   6 C    3.979 --    14 C    1.300    16 C    1.294    20 H    0.918
                             1 Zr   0.258
    16   6 C    3.981 --    15 C    1.294    17 C    1.275    21 H    0.922
                             1 Zr   0.263
    17   6 C    3.980 --    13 C    1.303    16 C    1.275    22 H    0.916
                             1 Zr   0.279
    18   1 H    0.990 --    13 C    0.922
    19   1 H    0.991 --    14 C    0.921
    20   1 H    0.991 --    15 C    0.918
    21   1 H    0.987 --    16 C    0.922
    22   1 H    0.990 --    17 C    0.916
    23   1 H    0.992 --     2 C    0.906
    24   1 H    0.993 --     2 C    0.913
    25   6 C    3.985 --    28 C    1.003     2 C    0.975    27 H    0.942
                            26 H    0.848     1 Zr   0.159
    26   1 H    0.996 --    25 C    0.848     1 Zr   0.112
    27   1 H    0.993 --    25 C    0.942
    28   6 C    3.987 --    25 C    1.003    30 H    0.983    31 H    0.981
                            29 H    0.979
    29   1 H    0.996 --    28 C    0.979
    30   1 H    0.997 --    28 C    0.983
    31   1 H    0.995 --    28 C    0.981
 ---------------------------------------------------------------------------

Topologies differ in total number of bonds
Writing topology from bond orders to xtbtopo.mol

molecular dipole:
                 x           y           z       tot (Debye)
 q only:       -1.277      -1.571       0.647
   full:       -1.170      -1.405       0.713       4.988
molecular quadrupole (traceless):
                xx          xy          yy          xz          yz          zz
 q only:       -1.205       7.869       3.568      -3.351      -3.710      -2.363
  q+dip:       -3.404      11.150       2.950      -3.771      -3.001       0.455
   full:       -4.136       8.794       0.744      -4.317      -3.484       3.392

           -------------------------------------------------
          |                Geometry Summary                 |
           -------------------------------------------------

      molecular mass/u    :      264.4982010
   center of mass at/Å    :       -0.5685200      -0.7129377       0.3277657
  moments of inertia/u·Å² :        0.6593226E+03   0.7504482E+03   0.1129559E+04
rotational constants/cm⁻¹ :        0.2556811E-01   0.2246342E-01   0.1492408E-01

 * 40 selected distances

     #   Z          #   Z                                           value/Å
     1  40 Zr       2   6 C                                       2.1766990
     1  40 Zr       3   6 C                                       2.4716300 (max)
     1  40 Zr       4   6 C                                       2.4416136
     3   6 C        4   6 C                                       1.4156933
     1  40 Zr       5   6 C                                       2.4150715
     4   6 C        5   6 C                                       1.4209492
     1  40 Zr       6   6 C                                       2.4253041
     5   6 C        6   6 C                                       1.4219993
     1  40 Zr       7   6 C                                       2.4409984
     3   6 C        7   6 C                                       1.4178035
     6   6 C        7   6 C                                       1.4191950
     3   6 C        8   1 H                                       1.0838815
     4   6 C        9   1 H                                       1.0855364
     5   6 C       10   1 H                                       1.0850792
     6   6 C       11   1 H                                       1.0843183
     7   6 C       12   1 H                                       1.0863601
     1  40 Zr      13   6 C                                       2.4542860
     1  40 Zr      14   6 C                                       2.4564313
    13   6 C       14   6 C                                       1.4173427
     1  40 Zr      15   6 C                                       2.4346055
    14   6 C       15   6 C                                       1.4183896
     1  40 Zr      16   6 C                                       2.4235971
    15   6 C       16   6 C                                       1.4199851
     1  40 Zr      17   6 C                                       2.4153233
    13   6 C       17   6 C                                       1.4180845
    16   6 C       17   6 C                                       1.4237594
    13   6 C       18   1 H                                       1.0848040
    14   6 C       19   1 H                                       1.0851004
    15   6 C       20   1 H                                       1.0859312
    16   6 C       21   1 H                                       1.0834619 (min)
    17   6 C       22   1 H                                       1.0861613
     2   6 C       23   1 H                                       1.1039227
     2   6 C       24   1 H                                       1.1013529
     2   6 C       25   6 C                                       1.5548360
    25   6 C       26   1 H                                       1.1275619
    25   6 C       27   1 H                                       1.0999052
    25   6 C       28   6 C                                       1.5343029
    28   6 C       29   1 H                                       1.0885912
    28   6 C       30   1 H                                       1.0870718
    28   6 C       31   1 H                                       1.0873528

 * 3 distinct bonds (by element types)

   Z      Z             #   av. dist./Å        max./Å        min./Å
   1 H    6 C          17     1.0909643     1.1275619     1.0834619
   6 C    6 C          12     1.4401951     1.5548360     1.4156933
   6 C   40 Zr         11     2.4141418     2.4716300     2.1766990


optimized geometry written to: xtbopt.xyz


           -------------------------------------------------
          | TOTAL ENERGY              -37.687421435234 Eh   |
          | GRADIENT NORM               0.000602449386 Eh/α |
          | HOMO-LUMO GAP               1.801265762776 eV   |
           -------------------------------------------------

------------------------------------------------------------------------
 * finished run on 2026/08/18 at 18:31:29.645     
------------------------------------------------------------------------
 total:
 * wall-time:     0 d,  0 h,  0 min, 25.452 sec
 *  cpu-time:     0 d,  0 h,  1 min,  9.514 sec
 * ratio c/w:     2.731 speedup
 SCF:
 * wall-time:     0 d,  0 h,  0 min,  1.920 sec
 *  cpu-time:     0 d,  0 h,  0 min,  3.893 sec
 * ratio c/w:     2.028 speedup
 ANC optimizer:
 * wall-time:     0 d,  0 h,  0 min, 23.354 sec
 *  cpu-time:     0 d,  0 h,  1 min,  5.254 sec
 * ratio c/w:     2.794 speedup

