      -----------------------------------------------------------      
     |                   =====================                   |     
     |                           x T B                           |     
     |                   =====================                   |     
     |                         S. Grimme                         |     
     |          Mulliken Center for Theoretical Chemistry        |     
     |                    University of Bonn                     |     
      -----------------------------------------------------------      

   * xtb version 6.5.1 (b24c23e) compiled by 'conda@728c89f4b128' on 2022-07-12

   xtb is free software: you can redistribute it and/or modify it under
   the terms of the GNU Lesser General Public License as published by
   the Free Software Foundation, either version 3 of the License, or
   (at your option) any later version.
   
   xtb is distributed in the hope that it will be useful,
   but WITHOUT ANY WARRANTY; without even the implied warranty of
   MERCHANTABILITY or FITNESS FOR A PARTICULAR PURPOSE.  See the
   GNU Lesser General Public License for more details.
   
   Cite this work as:
   * C. Bannwarth, E. Caldeweyher, S. Ehlert, A. Hansen, P. Pracht,
     J. Seibert, S. Spicher, S. Grimme, WIREs Comput. Mol. Sci., 2020, 11,
     e01493. DOI: 10.1002/wcms.1493
   
   for GFN2-xTB:
   * C. Bannwarth, S. Ehlert and S. Grimme., J. Chem. Theory Comput., 2019,
     15, 1652-1671. DOI: 10.1021/acs.jctc.8b01176
   for GFN1-xTB:
   * S. Grimme, C. Bannwarth, P. Shushkov, J. Chem. Theory Comput., 2017,
     13, 1989-2009. DOI: 10.1021/acs.jctc.7b00118
   for GFN0-xTB:
   * P. Pracht, E. Caldeweyher, S. Ehlert, S. Grimme, ChemRxiv, 2019, preprint.
     DOI: 10.26434/chemrxiv.8326202.v1
   for GFN-FF:
   * S. Spicher and S. Grimme, Angew. Chem. Int. Ed., 2020, 59, 15665-15673.
     DOI: 10.1002/anie.202004239
   
   for ALPB and GBSA implicit solvation:
   * S. Ehlert, M. Stahn, S. Spicher, S. Grimme, J. Chem. Theory Comput.,
     2021, 17, 4250-4261. DOI: 10.1021/acs.jctc.1c00471
   
   for DFT-D4:
   * E. Caldeweyher, C. Bannwarth and S. Grimme, J. Chem. Phys., 2017,
     147, 034112. DOI: 10.1063/1.4993215
   * E. Caldeweyher, S. Ehlert, A. Hansen, H. Neugebauer, S. Spicher,
     C. Bannwarth and S. Grimme, J. Chem. Phys., 2019, 150, 154122.
     DOI: 10.1063/1.5090222
   * E. Caldeweyher, J.-M. Mewes, S. Ehlert and S. Grimme, Phys. Chem. Chem. Phys.
     2020, 22, 8499-8512. DOI: 10.1039/D0CP00502A
   
   for sTDA-xTB:
   * S. Grimme and C. Bannwarth, J. Chem. Phys., 2016, 145, 054103.
     DOI: 10.1063/1.4959605
   
   in the mass-spec context:
   * V. Asgeirsson, C. Bauer and S. Grimme, Chem. Sci., 2017, 8, 4879.
     DOI: 10.1039/c7sc00601b
   * J. Koopman and S. Grimme, ACS Omega 2019, 4, 12, 15120-15133.
     DOI: 10.1021/acsomega.9b02011
   
   for metadynamics refer to:
   * S. Grimme, J. Chem. Theory Comput., 2019, 155, 2847-2862
     DOI: 10.1021/acs.jctc.9b00143
   
   for SPH calculations refer to:
   * S. Spicher and S. Grimme, J. Chem. Theory Comput., 2021, 17, 1701-1714
     DOI: 10.1021/acs.jctc.0c01306
   
   with help from (in alphabetical order)
   P. Atkinson, C. Bannwarth, F. Bohle, G. Brandenburg, E. Caldeweyher
   M. Checinski, S. Dohm, S. Ehlert, S. Ehrlich, I. Gerasimov, C. Hölzer
   A. Katbashev, J. Koopman, C. Lavigne, S. Lehtola, F. März, M. Müller,
   F. Musil, H. Neugebauer, J. Pisarek, C. Plett, P. Pracht, F. Pultar,
   J. Seibert, P. Shushkov, S. Spicher, M. Stahn, M. Steiner, T. Strunk,
   J. Stückrath, T. Rose, and J. Unsleber
   
 * started run on 2026/08/18 at 18:29:01.170     

           -------------------------------------------------
          |                Calculation Setup                |
           -------------------------------------------------

          program call               : /h/332/chchoi/miniconda3/envs/el-agente/bin/xtb reactant_init.xyz --opt --gfn 2 -P 4 --chrg 1 --uhf 0 --input detailed_input.inp
          coordinate file            : reactant_init.xyz
          omp threads                :                     4

   ID    Z sym.   atoms
    1   40 Zr     1
    2    6 C      2-7, 13-17, 26, 27
    3    1 H      8-12, 18-25, 28-31
constraining bond 1 26 to    2.5600000 Å, actual value:    2.5634266 Å
constraining bond 1 27 to    2.5600000 Å, actual value:    2.5634266 Å

molecular fragmentation (1/2 indicates fragments):
1111111111111111111111111222222
# atoms in fragment 1/2:    25     6
 fragment masses (1/2) :      236.44       28.05
CMA distance (Bohr)    :   5.713
constraining FC (au)   :  0.5000

           -------------------------------------------------
          |                 G F N 2 - x T B                 |
           -------------------------------------------------

        Reference                      10.1021/acs.jctc.8b01176
      * Hamiltonian:
        H0-scaling (s, p, d)           1.850000    2.230000    2.230000
        zeta-weighting                 0.500000
      * Dispersion:
        s8                             2.700000
        a1                             0.520000
        a2                             5.000000
        s9                             5.000000
      * Repulsion:
        kExp                           1.500000    1.000000
        rExp                           1.000000
      * Coulomb:
        alpha                          2.000000
        third order                    shell-resolved
        anisotropic                    true
        a3                             3.000000
        a5                             4.000000
        cn-shift                       1.200000
        cn-exp                         4.000000
        max-rad                        5.000000


          ...................................................
          :                      SETUP                      :
          :.................................................:
          :  # basis functions                  79          :
          :  # atomic orbitals                  78          :
          :  # shells                           46          :
          :  # electrons                        72          :
          :  max. iterations                   250          :
          :  Hamiltonian                  GFN2-xTB          :
          :  restarted?                      false          :
          :  GBSA solvation                  false          :
          :  PC potential                    false          :
          :  electronic temp.          300.0000000     K    :
          :  accuracy                    1.0000000          :
          :  -> integral cutoff          0.2500000E+02      :
          :  -> integral neglect         0.1000000E-07      :
          :  -> SCF convergence          0.1000000E-05 Eh   :
          :  -> wf. convergence          0.1000000E-03 e    :
          :  Broyden damping             0.4000000          :
          ...................................................

 iter      E             dE          RMSdq      gap      omega  full diag
   1    -37.9601354 -0.379601E+02  0.424E+00    0.57       0.0  T
   2    -38.0666125 -0.106477E+00  0.367E+00    1.52       1.0  T
   3    -38.1191899 -0.525774E-01  0.295E+00    0.94       1.0  T
   4    -38.1164784  0.271147E-02  0.140E+00    0.99       1.0  T
   5    -38.1137949  0.268351E-02  0.793E-01    0.73       1.0  T
   6    -38.1202114 -0.641645E-02  0.383E-01    0.95       1.0  T
   7    -38.1212743 -0.106294E-02  0.247E-01    0.88       1.0  T
   8    -38.1213143 -0.400100E-04  0.137E-01    0.87       1.0  T
   9    -38.1213019  0.124517E-04  0.649E-02    0.91       1.0  T
  10    -38.1213409 -0.390356E-04  0.371E-02    0.90       1.0  T
  11    -38.1213579 -0.169922E-04  0.152E-02    0.89       1.2  T
  12    -38.1213590 -0.111221E-05  0.447E-03    0.89       4.0  T
  13    -38.1213590 -0.387947E-07  0.188E-03    0.89       9.6  T
  14    -38.1213591 -0.224945E-07  0.122E-03    0.89      14.7  T
  15    -38.1213591 -0.155102E-07  0.446E-04    0.89      40.3  T
  16    -38.1213591 -0.213660E-10  0.258E-04    0.89      69.5  T

   *** convergence criteria satisfied after 16 iterations ***

         #    Occupation            Energy/Eh            Energy/eV
      -------------------------------------------------------------
         1        2.0000           -0.8637396             -23.5035
       ...           ...                  ...                  ...
        30        2.0000           -0.5741030             -15.6221
        31        2.0000           -0.5713656             -15.5476
        32        2.0000           -0.5095815             -13.8664
        33        2.0000           -0.5047474             -13.7349
        34        2.0000           -0.4945029             -13.4561
        35        2.0000           -0.4921678             -13.3926
        36        2.0000           -0.4861161             -13.2279 (HOMO)
        37                         -0.4533385             -12.3360 (LUMO)
        38                         -0.4377844             -11.9127
        39                         -0.4352875             -11.8448
        40                         -0.4313603             -11.7379
        41                         -0.4233749             -11.5206
       ...                                ...                  ...
        78                          1.3827423              37.6263
      -------------------------------------------------------------
                  HL-Gap            0.0327776 Eh            0.8919 eV
             Fermi-level           -0.4697264 Eh          -12.7819 eV

 SCC (total)                   0 d,  0 h,  0 min,  2.064 sec
 SCC setup                      ...        0 min,  0.028 sec (  1.366%)
 Dispersion                     ...        0 min,  0.054 sec (  2.631%)
 classical contributions        ...        0 min,  0.028 sec (  1.366%)
 integral evaluation            ...        0 min,  0.055 sec (  2.641%)
 iterations                     ...        0 min,  1.747 sec ( 84.623%)
 molecular gradient             ...        0 min,  0.151 sec (  7.315%)
 printout                       ...        0 min,  0.001 sec (  0.057%)

         :::::::::::::::::::::::::::::::::::::::::::::::::::::
         ::                     SUMMARY                     ::
         :::::::::::::::::::::::::::::::::::::::::::::::::::::
         :: total energy             -37.560808606205 Eh    ::
         :: gradient norm              0.186978353497 Eh/a0 ::
         :: HOMO-LUMO gap              0.891924041258 eV    ::
         ::.................................................::
         :: SCC energy               -38.121359078810 Eh    ::
         :: -> isotropic ES            0.097382457233 Eh    ::
         :: -> anisotropic ES         -0.002946632308 Eh    ::
         :: -> anisotropic XC          0.021570818862 Eh    ::
         :: -> dispersion             -0.027694242490 Eh    ::
         :: repulsion energy           0.559701657130 Eh    ::
         :: add. restraining           0.000041929180 Eh    ::
         :: total charge               1.000000000120 e     ::
         :::::::::::::::::::::::::::::::::::::::::::::::::::::

      ----------------------------------------------------------- 
     |                   =====================                   |
     |                        A N C O P T                        |
     |                   =====================                   |
     |               Approximate Normal Coordinate               |
     |                Rational Function Optimizer                |
      ----------------------------------------------------------- 

          ...................................................
          :                      SETUP                      :
          :.................................................:
          :   optimization level            normal          :
          :   max. optcycles                   200          :
          :   ANC micro-cycles                  20          :
          :   degrees of freedom                87          :
          :.................................................:
          :   RF solver                   davidson          :
          :   write xtbopt.log                true          :
          :   linear?                        false          :
          :   energy convergence         0.5000000E-05 Eh   :
          :   grad. convergence          0.1000000E-02 Eh/α :
          :   maximium RF displ.         1.0000000          :
          :   Hlow (freq-cutoff)         0.1000000E-01      :
          :   Hmax (freq-cutoff)         5.0000000          :
          :   S6 in model hess.         20.0000000          :
          ...................................................

generating ANC from model Hessian ...
Using Lindh-Hessian (1995)
 Shifting diagonal of input Hessian by    1.2420342695959236E-002
 Lowest  eigenvalues of input Hessian
    0.010000    0.012204    0.000000    0.000000    0.000000    0.000000
    0.000000    0.000000    0.012636    0.012768    0.012824    0.012961
    0.013031    0.013154    0.013221    0.013257    0.013481    0.013536
 Highest eigenvalues
    1.493448    1.493548    1.493797    1.493885    1.783673    3.047605


........................................................................
.............................. CYCLE    1 ..............................
........................................................................
   1    -38.1213591 -0.381214E+02  0.101E-04    0.89       0.0  T
   2    -38.1213591  0.886047E-11  0.118E-04    0.89     152.1  T
   3    -38.1213591 -0.117304E-09  0.649E-05    0.89     276.6  T
     SCC iter.                  ...        0 min,  0.277 sec
     gradient                   ...        0 min,  0.175 sec
 * total energy  :   -37.5608086 Eh     change       -0.4173089E-09 Eh
   gradient norm :     0.1869779 Eh/α   predicted     0.0000000E+00 (-100.00%)
   displ. norm   :     0.6437113 α      lambda       -0.7482518E-01
   maximum displ.:     0.3824569 α      in ANC's #24, #57, #13, ...

........................................................................
.............................. CYCLE    2 ..............................
........................................................................
   1    -38.2199138 -0.382199E+02  0.649E-01    1.21       0.0  T
   2    -38.2206410 -0.727285E-03  0.489E-01    1.19       1.0  T
   3    -38.2212444 -0.603406E-03  0.320E-01    1.25       1.0  T
   4    -38.2212671 -0.227003E-04  0.877E-02    1.21       1.0  T
   5    -38.2213110 -0.438524E-04  0.939E-02    1.25       1.0  T
   6    -38.2213700 -0.589851E-04  0.441E-02    1.23       1.0  T
   7    -38.2213790 -0.897569E-05  0.143E-02    1.22       1.3  T
   8    -38.2213794 -0.433617E-06  0.683E-03    1.22       2.6  T
   9    -38.2213795 -0.136251E-06  0.391E-03    1.22       4.6  T
  10    -38.2213797 -0.121165E-06  0.175E-03    1.22      10.3  T
  11    -38.2213797 -0.522549E-08  0.592E-04    1.22      30.3  T
  12    -38.2213797 -0.450387E-08  0.259E-04    1.22      69.4  T
     SCC iter.                  ...        0 min,  1.191 sec
     gradient                   ...        0 min,  0.199 sec
 * total energy  :   -37.6184257 Eh     change       -0.5761712E-01 Eh
   gradient norm :     0.0730258 Eh/α   predicted    -0.5293392E-01 (  -8.13%)
   displ. norm   :     0.7355996 α      lambda       -0.4143657E-01
   maximum displ.:     0.3966521 α      in ANC's #27, #13, #28, ...

........................................................................
.............................. CYCLE    3 ..............................
........................................................................
   1    -38.2710665 -0.382711E+02  0.838E-01    1.35       0.0  T
   2    -38.2719010 -0.834534E-03  0.570E-01    1.39       1.0  T
   3    -38.2717685  0.132514E-03  0.370E-01    1.45       1.0  T
   4    -38.2722468 -0.478364E-03  0.136E-01    1.43       1.0  T
   5    -38.2722628 -0.159856E-04  0.115E-01    1.44       1.0  T
   6    -38.2723471 -0.842629E-04  0.543E-02    1.43       1.0  T
   7    -38.2723613 -0.142309E-04  0.192E-02    1.42       1.0  T
   8    -38.2723624 -0.103312E-05  0.865E-03    1.42       2.1  T
   9    -38.2723627 -0.376799E-06  0.355E-03    1.42       5.1  T
  10    -38.2723628 -0.479470E-07  0.174E-03    1.42      10.3  T
  11    -38.2723628 -0.935995E-08  0.396E-04    1.42      45.4  T
  12    -38.2723628 -0.107540E-08  0.229E-04    1.42      78.6  T
     SCC iter.                  ...        0 min,  1.410 sec
     gradient                   ...        0 min,  0.253 sec
 * total energy  :   -37.6338476 Eh     change       -0.1542183E-01 Eh
   gradient norm :     0.0763093 Eh/α   predicted    -0.3192909E-01 ( 107.04%)
   displ. norm   :     0.5194126 α      lambda       -0.1601421E-01
   maximum displ.:     0.3413880 α      in ANC's #13, #27, #8, ...

........................................................................
.............................. CYCLE    4 ..............................
........................................................................
   1    -38.2835956 -0.382836E+02  0.291E-01    1.48       0.0  T
   2    -38.2836793 -0.836481E-04  0.191E-01    1.53       1.0  T
   3    -38.2836145  0.647309E-04  0.101E-01    1.50       1.0  T
   4    -38.2837232 -0.108652E-03  0.302E-02    1.52       1.0  T
   5    -38.2837310 -0.785570E-05  0.193E-02    1.52       1.0  T
   6    -38.2837306  0.435900E-06  0.136E-02    1.52       1.3  T
   7    -38.2837315 -0.929826E-06  0.700E-03    1.52       2.6  T
   8    -38.2837317 -0.209780E-06  0.296E-03    1.52       6.1  T
   9    -38.2837318 -0.165761E-07  0.163E-03    1.52      11.0  T
  10    -38.2837318 -0.108522E-07  0.482E-04    1.52      37.3  T
  11    -38.2837318 -0.233889E-09  0.159E-04    1.52     112.7  T
     SCC iter.                  ...        0 min,  1.073 sec
     gradient                   ...        0 min,  0.208 sec
 * total energy  :   -37.6440523 Eh     change       -0.1020469E-01 Eh
   gradient norm :     0.0205836 Eh/α   predicted    -0.1016733E-01 (  -0.37%)
   displ. norm   :     0.5644200 α      lambda       -0.6126876E-02
   maximum displ.:     0.4324227 α      in ANC's #13, #14, #7, ...

........................................................................
.............................. CYCLE    5 ..............................
........................................................................
   1    -38.2961064 -0.382961E+02  0.328E-01    1.48       0.0  T
   2    -38.2961700 -0.635885E-04  0.214E-01    1.48       1.0  T
   3    -38.2960948  0.751026E-04  0.102E-01    1.47       1.0  T
   4    -38.2961778 -0.829855E-04  0.513E-02    1.48       1.0  T
   5    -38.2962100 -0.321361E-04  0.331E-02    1.48       1.0  T
   6    -38.2962118 -0.186318E-05  0.147E-02    1.48       1.2  T
   7    -38.2962127 -0.911724E-06  0.569E-03    1.48       3.2  T
   8    -38.2962129 -0.126497E-06  0.287E-03    1.48       6.2  T
   9    -38.2962129 -0.401949E-07  0.156E-03    1.48      11.5  T
  10    -38.2962129 -0.163872E-07  0.638E-04    1.48      28.2  T
  11    -38.2962129 -0.980300E-09  0.123E-04    1.48     146.5  T
     SCC iter.                  ...        0 min,  0.944 sec
     gradient                   ...        0 min,  0.124 sec
 * total energy  :   -37.6476797 Eh     change       -0.3627498E-02 Eh
   gradient norm :     0.0477950 Eh/α   predicted    -0.4039345E-02 (  11.35%)
   displ. norm   :     0.6044670 α      lambda       -0.5804650E-02
   maximum displ.:     0.3911555 α      in ANC's #13, #14, #1, ...

........................................................................
.............................. CYCLE    6 ..............................
........................................................................
   1    -38.3075567 -0.383076E+02  0.406E-01    1.57       0.0  T
   2    -38.3077459 -0.189171E-03  0.344E-01    1.56       1.0  T
   3    -38.3077257  0.201985E-04  0.199E-01    1.58       1.0  T
   4    -38.3077641 -0.384069E-04  0.740E-02    1.57       1.0  T
   5    -38.3078322 -0.680603E-04  0.561E-02    1.57       1.0  T
   6    -38.3078364 -0.423722E-05  0.197E-02    1.58       1.0  T
   7    -38.3078372 -0.811297E-06  0.857E-03    1.58       2.1  T
   8    -38.3078373 -0.509786E-07  0.466E-03    1.58       3.9  T
   9    -38.3078375 -0.217224E-06  0.205E-03    1.58       8.8  T
  10    -38.3078375 -0.133938E-07  0.121E-03    1.58      14.9  T
  11    -38.3078375 -0.390617E-08  0.260E-04    1.58      69.2  T
  12    -38.3078375 -0.187526E-09  0.111E-04    1.58     162.1  T
     SCC iter.                  ...        0 min,  1.140 sec
     gradient                   ...        0 min,  0.269 sec
 * total energy  :   -37.6478033 Eh     change       -0.1235216E-03 Eh
   gradient norm :     0.0394870 Eh/α   predicted    -0.3962764E-02 (3108.15%)
   displ. norm   :     0.4358838 α      lambda       -0.8101068E-02
   maximum displ.:     0.2917268 α      in ANC's #1, #13, #7, ...

........................................................................
.............................. CYCLE    7 ..............................
........................................................................
   1    -38.3025608 -0.383026E+02  0.432E-01    1.60       0.0  T
   2    -38.3030856 -0.524799E-03  0.431E-01    1.51       1.0  T
   3    -38.3031490 -0.633793E-04  0.361E-01    1.51       1.0  T
   4    -38.3031223  0.267194E-04  0.133E-01    1.49       1.0  T
   5    -38.3032412 -0.118952E-03  0.824E-02    1.50       1.0  T
   6    -38.3032528 -0.115548E-04  0.268E-02    1.51       1.0  T
   7    -38.3032556 -0.279250E-05  0.149E-02    1.51       1.2  T
   8    -38.3032558 -0.263356E-06  0.724E-03    1.51       2.5  T
   9    -38.3032561 -0.239103E-06  0.396E-03    1.51       4.5  T
  10    -38.3032561 -0.302542E-07  0.139E-03    1.51      12.9  T
  11    -38.3032561 -0.477942E-08  0.344E-04    1.51      52.2  T
  12    -38.3032561 -0.110769E-08  0.163E-04    1.51     110.1  T
     SCC iter.                  ...        0 min,  1.298 sec
     gradient                   ...        0 min,  0.252 sec
 * total energy  :   -37.6448368 Eh     change        0.2966504E-02 Eh
   gradient norm :     0.0633911 Eh/α   predicted    -0.4820130E-02 (-262.49%)
   displ. norm   :     0.3406795 α      lambda       -0.1520007E-01
   maximum displ.:     0.2252948 α      in ANC's #28, #23, #25, ...

........................................................................
.............................. CYCLE    8 ..............................
........................................................................
   1    -38.2850037 -0.382850E+02  0.506E-01    1.42       0.0  T
   2    -38.2854523 -0.448617E-03  0.434E-01    1.39       1.0  T
   3    -38.2854785 -0.262214E-04  0.296E-01    1.35       1.0  T
   4    -38.2853829  0.955813E-04  0.137E-01    1.40       1.0  T
   5    -38.2856581 -0.275184E-03  0.687E-02    1.37       1.0  T
   6    -38.2856620 -0.385769E-05  0.308E-02    1.38       1.0  T
   7    -38.2856670 -0.501240E-05  0.134E-02    1.38       1.3  T
   8    -38.2856671 -0.889730E-07  0.729E-03    1.38       2.5  T
   9    -38.2856673 -0.193672E-06  0.295E-03    1.38       6.1  T
  10    -38.2856673 -0.547040E-07  0.129E-03    1.38      13.9  T
  11    -38.2856673 -0.149679E-08  0.323E-04    1.38      55.6  T
  12    -38.2856673 -0.100137E-08  0.190E-04    1.38      94.3  T
     SCC iter.                  ...        0 min,  1.205 sec
     gradient                   ...        0 min,  0.180 sec
 * total energy  :   -37.6489647 Eh     change       -0.4127911E-02 Eh
   gradient norm :     0.0544936 Eh/α   predicted    -0.8482114E-02 ( 105.48%)
   displ. norm   :     0.2518025 α      lambda       -0.6702232E-02
   maximum displ.:     0.1203103 α      in ANC's #24, #1, #28, ...

........................................................................
.............................. CYCLE    9 ..............................
........................................................................
   1    -38.3037140 -0.383037E+02  0.308E-01    1.50       0.0  T
   2    -38.3038812 -0.167175E-03  0.274E-01    1.49       1.0  T
   3    -38.3039223 -0.411786E-04  0.188E-01    1.51       1.0  T
   4    -38.3038975  0.248751E-04  0.609E-02    1.49       1.0  T
   5    -38.3039588 -0.613696E-04  0.450E-02    1.51       1.0  T
   6    -38.3039614 -0.258500E-05  0.163E-02    1.50       1.1  T
   7    -38.3039628 -0.142588E-05  0.700E-03    1.50       2.6  T
   8    -38.3039629 -0.885361E-07  0.348E-03    1.50       5.2  T
   9    -38.3039630 -0.700490E-07  0.192E-03    1.50       9.3  T
  10    -38.3039630 -0.221083E-07  0.873E-04    1.50      20.6  T
  11    -38.3039630 -0.925425E-09  0.260E-04    1.50      69.0  T
     SCC iter.                  ...        0 min,  1.364 sec
     gradient                   ...        0 min,  0.274 sec
 * total energy  :   -37.6509621 Eh     change       -0.1997415E-02 Eh
   gradient norm :     0.0205465 Eh/α   predicted    -0.3563595E-02 (  78.41%)
   displ. norm   :     0.1889538 α      lambda       -0.1816431E-02
   maximum displ.:     0.0961433 α      in ANC's #12, #7, #24, ...

........................................................................
.............................. CYCLE   10 ..............................
........................................................................
   1    -38.3007956 -0.383008E+02  0.136E-01    1.54       0.0  T
   2    -38.3008202 -0.246185E-04  0.103E-01    1.54       1.0  T
   3    -38.3008186  0.164396E-05  0.590E-02    1.54       1.0  T
   4    -38.3008246 -0.605218E-05  0.233E-02    1.54       1.0  T
   5    -38.3008295 -0.485777E-05  0.160E-02    1.54       1.1  T
   6    -38.3008305 -0.997542E-06  0.735E-03    1.54       2.4  T
   7    -38.3008307 -0.220939E-06  0.253E-03    1.54       7.1  T
   8    -38.3008307 -0.153197E-08  0.161E-03    1.54      11.1  T
   9    -38.3008307 -0.218466E-07  0.871E-04    1.54      20.6  T
  10    -38.3008307 -0.111896E-08  0.434E-04    1.54      41.4  T
     SCC iter.                  ...        0 min,  1.054 sec
     gradient                   ...        0 min,  0.264 sec
 * total energy  :   -37.6519956 Eh     change       -0.1033470E-02 Eh
   gradient norm :     0.0085718 Eh/α   predicted    -0.9406416E-03 (  -8.98%)
   displ. norm   :     0.2238320 α      lambda       -0.5914839E-03
   maximum displ.:     0.1592133 α      in ANC's #12, #7, #2, ...

........................................................................
.............................. CYCLE   11 ..............................
........................................................................
   1    -38.3000675 -0.383001E+02  0.153E-01    1.54       0.0  T
   2    -38.3000724 -0.486906E-05  0.104E-01    1.53       1.0  T
   3    -38.3000596  0.127862E-04  0.330E-02    1.53       1.0  T
   4    -38.3000733 -0.137211E-04  0.152E-02    1.53       1.2  T
   5    -38.3000754 -0.210253E-05  0.945E-03    1.53       1.9  T
   6    -38.3000757 -0.294539E-06  0.435E-03    1.53       4.1  T
   7    -38.3000758 -0.738464E-07  0.191E-03    1.53       9.4  T
   8    -38.3000758 -0.469227E-08  0.928E-04    1.53      19.4  T
   9    -38.3000758 -0.843755E-08  0.523E-04    1.53      34.3  T
     SCC iter.                  ...        0 min,  0.870 sec
     gradient                   ...        0 min,  0.139 sec
 * total energy  :   -37.6524068 Eh     change       -0.4112872E-03 Eh
   gradient norm :     0.0146174 Eh/α   predicted    -0.3105641E-03 ( -24.49%)
   displ. norm   :     0.3523462 α      lambda       -0.7331524E-03
   maximum displ.:     0.2709399 α      in ANC's #12, #7, #2, ...

........................................................................
.............................. CYCLE   12 ..............................
........................................................................
   1    -38.2983223 -0.382983E+02  0.226E-01    1.53       0.0  T
   2    -38.2983302 -0.788303E-05  0.142E-01    1.53       1.0  T
   3    -38.2982892  0.410442E-04  0.548E-02    1.53       1.0  T
   4    -38.2983365 -0.473760E-04  0.154E-02    1.53       1.2  T
   5    -38.2983363  0.215192E-06  0.804E-03    1.53       2.2  T
   6    -38.2983368 -0.454591E-06  0.324E-03    1.53       5.5  T
   7    -38.2983368 -0.609176E-07  0.212E-03    1.53       8.5  T
   8    -38.2983368 -0.794802E-08  0.105E-03    1.53      17.2  T
   9    -38.2983369 -0.858190E-08  0.425E-04    1.53      42.3  T
  10    -38.2983369 -0.901579E-09  0.184E-04    1.53      97.4  T
     SCC iter.                  ...        0 min,  1.216 sec
     gradient                   ...        0 min,  0.266 sec
 * total energy  :   -37.6529399 Eh     change       -0.5330265E-03 Eh
   gradient norm :     0.0166317 Eh/α   predicted    -0.4120871E-03 ( -22.69%)
   displ. norm   :     0.3607332 α      lambda       -0.8591647E-03
   maximum displ.:     0.2731909 α      in ANC's #12, #7, #2, ...

........................................................................
.............................. CYCLE   13 ..............................
........................................................................
   1    -38.2995438 -0.382995E+02  0.186E-01    1.53       0.0  T
   2    -38.2995521 -0.833468E-05  0.113E-01    1.52       1.0  T
   3    -38.2995125  0.396575E-04  0.569E-02    1.53       1.0  T
   4    -38.2995591 -0.465966E-04  0.110E-02    1.52       1.6  T
   5    -38.2995594 -0.275543E-06  0.709E-03    1.52       2.5  T
   6    -38.2995593  0.415245E-07  0.331E-03    1.53       5.4  T
   7    -38.2995595 -0.198789E-06  0.147E-03    1.53      12.2  T
   8    -38.2995595 -0.712819E-08  0.914E-04    1.53      19.6  T
   9    -38.2995595 -0.975739E-09  0.395E-04    1.53      45.4  T
     SCC iter.                  ...        0 min,  1.283 sec
     gradient                   ...        0 min,  0.302 sec
 * total energy  :   -37.6535329 Eh     change       -0.5930617E-03 Eh
   gradient norm :     0.0165169 Eh/α   predicted    -0.4854884E-03 ( -18.14%)
   displ. norm   :     0.2768464 α      lambda       -0.1106827E-02
   maximum displ.:     0.1821609 α      in ANC's #12, #7, #14, ...

........................................................................
.............................. CYCLE   14 ..............................
........................................................................
   1    -38.3043855 -0.383044E+02  0.118E-01    1.53       0.0  T
   2    -38.3044019 -0.164544E-04  0.632E-02    1.52       1.0  T
   3    -38.3043997  0.226016E-05  0.491E-02    1.53       1.0  T
   4    -38.3044116 -0.119642E-04  0.131E-02    1.52       1.4  T
   5    -38.3044118 -0.160532E-06  0.998E-03    1.53       1.8  T
   6    -38.3044122 -0.453708E-06  0.332E-03    1.52       5.4  T
   7    -38.3044123 -0.880267E-07  0.172E-03    1.52      10.4  T
   8    -38.3044123  0.372029E-08  0.145E-03    1.52      12.4  T
   9    -38.3044123 -0.725391E-08  0.718E-04    1.52      25.0  T
  10    -38.3044123 -0.164611E-08  0.262E-04    1.52      68.4  T
     SCC iter.                  ...        0 min,  1.259 sec
     gradient                   ...        0 min,  0.285 sec
 * total energy  :   -37.6542285 Eh     change       -0.6955345E-03 Eh
   gradient norm :     0.0115709 Eh/α   predicted    -0.5958322E-03 ( -14.33%)
   displ. norm   :     0.4992869 α      lambda       -0.1195752E-02
   maximum displ.:     0.4151514 α      in ANC's #12, #65, #14, ...

........................................................................
.............................. CYCLE   15 ..............................
........................................................................
   1    -38.3010417 -0.383010E+02  0.171E-01    1.50       0.0  T
   2    -38.3010779 -0.361806E-04  0.918E-02    1.53       1.0  T
   3    -38.3010826 -0.470421E-05  0.649E-02    1.51       1.0  T
   4    -38.3010895 -0.684475E-05  0.221E-02    1.52       1.0  T
   5    -38.3010923 -0.283557E-05  0.174E-02    1.52       1.0  T
   6    -38.3010925 -0.151018E-06  0.838E-03    1.52       2.1  T
   7    -38.3010928 -0.314242E-06  0.185E-03    1.52       9.7  T
   8    -38.3010928 -0.909999E-09  0.107E-03    1.52      16.8  T
   9    -38.3010928 -0.135064E-07  0.538E-04    1.52      33.4  T
  10    -38.3010928 -0.284999E-09  0.266E-04    1.52      67.4  T
     SCC iter.                  ...        0 min,  1.110 sec
     gradient                   ...        0 min,  0.188 sec
 * total energy  :   -37.6546387 Eh     change       -0.4102381E-03 Eh
   gradient norm :     0.0248333 Eh/α   predicted    -0.7469276E-03 (  82.07%)
   displ. norm   :     0.1575065 α      lambda       -0.1503282E-02
   maximum displ.:     0.0704891 α      in ANC's #3, #65, #2, ...

........................................................................
.............................. CYCLE   16 ..............................
........................................................................
   1    -38.3081440 -0.383081E+02  0.161E-01    1.51       0.0  T
   2    -38.3081673 -0.233221E-04  0.758E-02    1.50       1.0  T
   3    -38.3081609  0.634964E-05  0.588E-02    1.51       1.0  T
   4    -38.3081755 -0.145260E-04  0.186E-02    1.51       1.0  T
   5    -38.3081756 -0.189035E-06  0.119E-02    1.51       1.5  T
   6    -38.3081758 -0.174020E-06  0.351E-03    1.51       5.1  T
   7    -38.3081760 -0.150284E-06  0.162E-03    1.50      11.1  T
   8    -38.3081760 -0.251143E-08  0.109E-03    1.50      16.5  T
   9    -38.3081760  0.182076E-08  0.680E-04    1.50      26.4  T
  10    -38.3081760 -0.391887E-08  0.279E-04    1.50      64.3  T
     SCC iter.                  ...        0 min,  0.980 sec
     gradient                   ...        0 min,  0.370 sec
 * total energy  :   -37.6554034 Eh     change       -0.7647025E-03 Eh
   gradient norm :     0.0162060 Eh/α   predicted    -0.7702915E-03 (   0.73%)
   displ. norm   :     0.3139230 α      lambda       -0.1155483E-02
   maximum displ.:     0.2403510 α      in ANC's #12, #65, #51, ...

........................................................................
.............................. CYCLE   17 ..............................
........................................................................
   1    -38.3065372 -0.383065E+02  0.136E-01    1.50       0.0  T
   2    -38.3065471 -0.988993E-05  0.951E-02    1.51       1.0  T
   3    -38.3065234  0.236836E-04  0.466E-02    1.51       1.0  T
   4    -38.3065520 -0.286138E-04  0.123E-02    1.51       1.5  T
   5    -38.3065534 -0.139074E-05  0.902E-03    1.51       2.0  T
   6    -38.3065540 -0.571100E-06  0.307E-03    1.51       5.9  T
   7    -38.3065540 -0.553272E-07  0.122E-03    1.51      14.7  T
   8    -38.3065540 -0.291914E-08  0.937E-04    1.51      19.2  T
   9    -38.3065540 -0.402698E-08  0.429E-04    1.51      41.8  T
     SCC iter.                  ...        0 min,  1.366 sec
     gradient                   ...        0 min,  0.354 sec
 * total energy  :   -37.6561346 Eh     change       -0.7311621E-03 Eh
   gradient norm :     0.0097852 Eh/α   predicted    -0.6346743E-03 ( -13.20%)
   displ. norm   :     0.3789602 α      lambda       -0.8570098E-03
   maximum displ.:     0.2843205 α      in ANC's #12, #65, #51, ...

........................................................................
.............................. CYCLE   18 ..............................
........................................................................
   1    -38.3025771 -0.383026E+02  0.133E-01    1.52       0.0  T
   2    -38.3025883 -0.111898E-04  0.816E-02    1.53       1.0  T
   3    -38.3025714  0.168853E-04  0.538E-02    1.52       1.0  T
   4    -38.3025983 -0.269480E-04  0.124E-02    1.53       1.4  T
   5    -38.3025995 -0.114927E-05  0.792E-03    1.53       2.3  T
   6    -38.3025995 -0.474282E-07  0.443E-03    1.53       4.1  T
   7    -38.3025997 -0.203501E-06  0.137E-03    1.53      13.1  T
   8    -38.3025997 -0.254304E-08  0.756E-04    1.53      23.8  T
   9    -38.3025997 -0.530449E-08  0.352E-04    1.53      51.0  T
     SCC iter.                  ...        0 min,  1.297 sec
     gradient                   ...        0 min,  0.408 sec
 * total energy  :   -37.6564843 Eh     change       -0.3497648E-03 Eh
   gradient norm :     0.0157765 Eh/α   predicted    -0.4900419E-03 (  40.11%)
   displ. norm   :     0.1666013 α      lambda       -0.6526578E-03
   maximum displ.:     0.0685213 α      in ANC's #2, #7, #12, ...

........................................................................
.............................. CYCLE   19 ..............................
........................................................................
   1    -38.3070270 -0.383070E+02  0.161E-01    1.55       0.0  T
   2    -38.3070488 -0.217656E-04  0.739E-02    1.53       1.0  T
   3    -38.3070460  0.281923E-05  0.666E-02    1.55       1.0  T
   4    -38.3070551 -0.909088E-05  0.210E-02    1.54       1.0  T
   5    -38.3070563 -0.118535E-05  0.166E-02    1.54       1.1  T
   6    -38.3070563 -0.646893E-07  0.669E-03    1.54       2.7  T
   7    -38.3070566 -0.274781E-06  0.144E-03    1.54      12.5  T
   8    -38.3070566 -0.945685E-08  0.905E-04    1.54      19.8  T
   9    -38.3070566 -0.103303E-08  0.530E-04    1.54      33.9  T
     SCC iter.                  ...        0 min,  1.126 sec
     gradient                   ...        0 min,  0.369 sec
 * total energy  :   -37.6566429 Eh     change       -0.1585707E-03 Eh
   gradient norm :     0.0114907 Eh/α   predicted    -0.3353881E-03 ( 111.51%)
   displ. norm   :     0.1569453 α      lambda       -0.5055185E-03
   maximum displ.:     0.1116802 α      in ANC's #12, #65, #51, ...

........................................................................
.............................. CYCLE   20 ..............................
........................................................................
   1    -38.3064846 -0.383065E+02  0.773E-02    1.53       0.0  T
   2    -38.3064928 -0.819861E-05  0.385E-02    1.54       1.0  T
   3    -38.3064939 -0.108346E-05  0.295E-02    1.53       1.0  T
   4    -38.3064949 -0.970197E-06  0.913E-03    1.53       2.0  T
   5    -38.3064948  0.679969E-07  0.773E-03    1.53       2.3  T
   6    -38.3064949 -0.988598E-07  0.179E-03    1.53      10.0  T
   7    -38.3064949 -0.359489E-07  0.605E-04    1.53      29.7  T
   8    -38.3064950 -0.353009E-08  0.434E-04    1.53      41.4  T
     SCC iter.                  ...        0 min,  0.962 sec
     gradient                   ...        0 min,  0.276 sec
 * total energy  :   -37.6568773 Eh     change       -0.2344049E-03 Eh
   gradient norm :     0.0124458 Eh/α   predicted    -0.2589911E-03 (  10.49%)
   displ. norm   :     0.1232771 α      lambda       -0.2474744E-03
   maximum displ.:     0.0687373 α      in ANC's #12, #18, #65, ...
 * RMSD in coord.:     0.7273593 α      energy gain  -0.9606871E-01 Eh

generating ANC from model Hessian ...
Using Lindh-Hessian (1995)
 Shifting diagonal of input Hessian by    9.6946759462379125E-003
 Lowest  eigenvalues of input Hessian
    0.000000    0.000000    0.000000    0.000000    0.000000    0.000000
    0.010000    0.010196    0.010331    0.010493    0.010844    0.011404
    0.011636    0.011897    0.011985    0.014008    0.016813    0.017041
 Highest eigenvalues
    1.708255    1.739338    1.739654    1.743653    1.746566    3.106290


........................................................................
.............................. CYCLE   21 ..............................
........................................................................
   1    -38.3066026 -0.383066E+02  0.113E-01    1.54       0.0  T
   2    -38.3066044 -0.178548E-05  0.746E-02    1.54       1.0  T
   3    -38.3065992  0.512672E-05  0.190E-02    1.54       1.0  T
   4    -38.3066050 -0.579552E-05  0.708E-03    1.54       2.5  T
   5    -38.3066053 -0.236319E-06  0.463E-03    1.54       3.9  T
   6    -38.3066053 -0.630646E-07  0.194E-03    1.54       9.3  T
   7    -38.3066054 -0.285696E-07  0.109E-03    1.54      16.4  T
   8    -38.3066054 -0.394057E-08  0.626E-04    1.54      28.7  T
   9    -38.3066054 -0.156694E-08  0.316E-04    1.54      56.9  T
     SCC iter.                  ...        0 min,  1.158 sec
     gradient                   ...        0 min,  0.233 sec
 * total energy  :   -37.6569436 Eh     change       -0.6630374E-04 Eh
   gradient norm :     0.0096421 Eh/α   predicted     0.0000000E+00 (-100.00%)
   displ. norm   :     0.0848015 α      lambda       -0.2375264E-03
   maximum displ.:     0.0556659 α      in ANC's #6, #7, #16, ...

........................................................................
.............................. CYCLE   22 ..............................
........................................................................
   1    -38.3078134 -0.383078E+02  0.762E-02    1.55       0.0  T
   2    -38.3078148 -0.131981E-05  0.493E-02    1.54       1.0  T
   3    -38.3078086  0.613729E-05  0.262E-02    1.55       1.0  T
   4    -38.3078155 -0.687664E-05  0.657E-03    1.55       2.7  T
   5    -38.3078159 -0.352517E-06  0.370E-03    1.55       4.9  T
   6    -38.3078159 -0.502771E-07  0.163E-03    1.55      11.0  T
   7    -38.3078159 -0.235030E-07  0.587E-04    1.55      30.6  T
   8    -38.3078159 -0.122675E-08  0.428E-04    1.55      41.9  T
     SCC iter.                  ...        0 min,  1.223 sec
     gradient                   ...        0 min,  0.321 sec
 * total energy  :   -37.6570993 Eh     change       -0.1556458E-03 Eh
   gradient norm :     0.0033424 Eh/α   predicted    -0.1198044E-03 ( -23.03%)
   displ. norm   :     0.0976715 α      lambda       -0.8991438E-04
   maximum displ.:     0.0731350 α      in ANC's #6, #4, #7, ...

........................................................................
.............................. CYCLE   23 ..............................
........................................................................
   1    -38.3081501 -0.383082E+02  0.387E-02    1.54       0.0  T
   2    -38.3081505 -0.431598E-06  0.240E-02    1.55       1.0  T
   3    -38.3081483  0.216908E-05  0.964E-03    1.54       1.9  T
   4    -38.3081508 -0.249895E-05  0.253E-03    1.54       7.1  T
   5    -38.3081509 -0.347667E-07  0.173E-03    1.55      10.4  T
   6    -38.3081509 -0.111124E-07  0.785E-04    1.54      22.9  T
   7    -38.3081509 -0.239464E-08  0.329E-04    1.54      54.5  T
     SCC iter.                  ...        0 min,  1.043 sec
     gradient                   ...        0 min,  0.426 sec
 * total energy  :   -37.6571572 Eh     change       -0.5789588E-04 Eh
   gradient norm :     0.0017277 Eh/α   predicted    -0.4550508E-04 ( -21.40%)
   displ. norm   :     0.0971613 α      lambda       -0.2789970E-04
   maximum displ.:     0.0712079 α      in ANC's #6, #4, #3, ...

........................................................................
.............................. CYCLE   24 ..............................
........................................................................
   1    -38.3080294 -0.383080E+02  0.357E-02    1.55       0.0  T
   2    -38.3080297 -0.357771E-06  0.230E-02    1.55       1.0  T
   3    -38.3080281  0.166936E-05  0.933E-03    1.55       1.9  T
   4    -38.3080300 -0.189881E-05  0.231E-03    1.55       7.8  T
   5    -38.3080300 -0.522089E-07  0.158E-03    1.55      11.3  T
   6    -38.3080300 -0.269067E-08  0.668E-04    1.55      26.9  T
   7    -38.3080300 -0.591789E-08  0.232E-04    1.55      77.4  T
     SCC iter.                  ...        0 min,  1.024 sec
     gradient                   ...        0 min,  0.285 sec
 * total energy  :   -37.6571843 Eh     change       -0.2711436E-04 Eh
   gradient norm :     0.0020692 Eh/α   predicted    -0.1401184E-04 ( -48.32%)
   displ. norm   :     0.0395056 α      lambda       -0.1293480E-04
   maximum displ.:     0.0278827 α      in ANC's #6, #3, #4, ...

........................................................................
.............................. CYCLE   25 ..............................
........................................................................
   1    -38.3081462 -0.383081E+02  0.144E-02    1.55       0.0  T
   2    -38.3081463 -0.444334E-07  0.895E-03    1.55       2.0  T
   3    -38.3081462  0.116687E-06  0.299E-03    1.55       6.0  T
   4    -38.3081463 -0.140455E-06  0.921E-04    1.55      19.5  T
   5    -38.3081463  0.171903E-08  0.598E-04    1.55      30.0  T
     SCC iter.                  ...        0 min,  0.887 sec
     gradient                   ...        0 min,  0.326 sec
 * total energy  :   -37.6571931 Eh     change       -0.8827841E-05 Eh
   gradient norm :     0.0009578 Eh/α   predicted    -0.6479492E-05 ( -26.60%)
   displ. norm   :     0.0567862 α      lambda       -0.7217257E-05
   maximum displ.:     0.0385555 α      in ANC's #6, #3, #5, ...

........................................................................
.............................. CYCLE   26 ..............................
........................................................................
   1    -38.3082032 -0.383082E+02  0.208E-02    1.55       0.0  T
   2    -38.3082033 -0.129209E-06  0.134E-02    1.55       1.3  T
   3    -38.3082029  0.393933E-06  0.583E-03    1.54       3.1  T
   4    -38.3082034 -0.484906E-06  0.147E-03    1.55      12.2  T
   5    -38.3082034  0.720910E-09  0.984E-04    1.55      18.2  T
   6    -38.3082034 -0.527374E-08  0.483E-04    1.55      37.2  T
     SCC iter.                  ...        0 min,  1.031 sec
     gradient                   ...        0 min,  0.367 sec
 * total energy  :   -37.6571977 Eh     change       -0.4571435E-05 Eh
   gradient norm :     0.0009515 Eh/α   predicted    -0.3614427E-05 ( -20.93%)
   displ. norm   :     0.0172073 α      lambda       -0.2007046E-05
   maximum displ.:     0.0116834 α      in ANC's #3, #1, #6, ...

   *** GEOMETRY OPTIMIZATION CONVERGED AFTER 26 ITERATIONS ***

------------------------------------------------------------------------
 total energy gain   :        -0.0963891 Eh      -60.4851 kcal/mol
 total RMSD          :         0.7531956 a0        0.3986 Å
 total power (kW/mol):        -9.7334409 (step)   -6.0991 (real)
------------------------------------------------------------------------

 ANCopt (total)                0 d,  0 h,  0 min, 41.493 sec
 optimizer setup                ...        0 min,  0.000 sec (  0.001%)
 model hessian                  ...        0 min,  0.131 sec (  0.317%)
 ANC generation                 ...        0 min,  0.078 sec (  0.188%)
 coordinate transformation      ...        0 min,  0.000 sec (  0.001%)
 single point calculation       ...        0 min, 40.497 sec ( 97.600%)
 optimization log               ...        0 min,  0.003 sec (  0.006%)
 hessian update                 ...        0 min,  0.679 sec (  1.636%)
 rational function              ...        0 min,  0.082 sec (  0.198%)

================
 final structure:
================
31
 xtb: 6.5.1 (b24c23e)
Zr          -1.32371558377603       -0.01562471923389        0.39904266412291
C           -0.92831205898550        1.07347346317986       -1.48775200831119
C           -0.06854676926513       -2.07153307638206        1.11050647575338
C            0.36930406734371       -1.70471516176773       -0.18481576208545
C           -0.71059353371428       -1.91045134364894       -1.08138972418704
C           -1.81701434715727       -2.37113550003614       -0.33149579522908
C           -1.42612285526315       -2.44427282121008        1.03108938654678
H            0.56604977549956       -2.18491936031018        1.98014769676299
H            1.39240144889338       -1.48152297945485       -0.46930902614380
H           -0.64491209908221       -1.88766037593871       -2.16184021600432
H           -2.70628057453568       -2.82347148391788       -0.75011787160881
H           -2.00131854109075       -2.90276302780675        1.82843543684255
C            0.35712586816548        0.70856403928710        2.09753020617408
C           -0.78748701432251        0.29920330607805        2.82442301558156
C           -1.84248800176192        1.18389737604218        2.51550954950294
C           -1.34994370980148        2.14856725531265        1.59832284268440
C            0.00980546131813        1.84763462787202        1.33693449176614
H            1.36278503736069        0.32311929071505        2.22043071675604
H           -0.80793567115809       -0.45299848051591        3.60485093787143
H           -2.79110247040432        1.22608904301659        3.04062892024568
H           -1.85104538675475        3.05904742905798        1.29246093906867
H            0.70118433767975        2.47532721622479        0.78709984766088
H            0.14061027838907        0.98888644447313       -1.74814927428374
H           -1.49232087134163        0.66481181049844       -2.34336742489564
H           -1.15072801474155        2.15067233628971       -1.44718810861878
C           -3.83888565245092       -0.34845831398190        0.03470599061110
C           -3.64997057112235        0.97896296923705       -0.02072130188987
H           -3.83040623695170        1.61169474980191        0.84350878974294
H           -3.58334253641040        1.48819812488827       -0.98045614595828
H           -4.13798802283810       -0.84362042977826        0.96086219176329
H           -3.94388610171466       -0.91546743799399       -0.88680313022960

 Bond Distances (Angstroems)
 ---------------------------
Zr1-C2=2.2142        Zr1-C3=2.5117        Zr1-C4=2.4618        Zr1-C5=2.4815        Zr1-C6=2.5150        Zr1-C7=2.5116        
Zr1-C13=2.4969       Zr1-C14=2.5038       Zr1-C15=2.4875       Zr1-C16=2.4744       Zr1-C17=2.4758       Zr1-C26=2.5631       
Zr1-C27=2.5645       C2-Zr1=2.2142        C2-H23=1.1034        C2-H24=1.1033        C2-H25=1.1007        C3-Zr1=2.5117        
C3-C4=1.4157         C3-C7=1.4101         C3-H8=1.0825         C4-Zr1=2.4618        C4-C3=1.4157         C4-C5=1.4186         
C4-H9=1.0851         C5-Zr1=2.4815        C5-C4=1.4186         C5-C6=1.4138         C5-H10=1.0827        C6-Zr1=2.5150        
C6-C5=1.4138         C6-C7=1.4194         C6-H11=1.0820        C7-Zr1=2.5116        C7-C3=1.4101         C7-C6=1.4194         
C7-H12=1.0848        H8-C3=1.0825         H9-C4=1.0851         H10-C5=1.0827        H11-C6=1.0820        H12-C7=1.0848        
C13-Zr1=2.4969       C13-C14=1.4164       C13-C17=1.4130       C13-H18=1.0840       C14-Zr1=2.5038       C14-C13=1.4164       
C14-C15=1.4111       C14-H19=1.0841       C15-Zr1=2.4875       C15-C14=1.4111       C15-C16=1.4193       C15-H20=1.0851       
C16-Zr1=2.4744       C16-C15=1.4193       C16-C17=1.4170       C16-H21=1.0833       C17-Zr1=2.4758       C17-C13=1.4130       
C17-C16=1.4170       C17-H22=1.0837       H18-C13=1.0840       H19-C14=1.0841       H20-C15=1.0851       H21-C16=1.0833       
H22-C17=1.0837       H23-C2=1.1034        H24-C2=1.1033        H25-C2=1.1007        C26-Zr1=2.5631       C26-C27=1.3419       
C26-H30=1.0920       C26-H31=1.0871       C27-Zr1=2.5645       C27-C26=1.3419       C27-H28=1.0862       C27-H29=1.0885       
H28-C27=1.0862       H29-C27=1.0885       H30-C26=1.0920       H31-C26=1.0871       
 C  H  Rav=1.0881 sigma=0.0070  Rmin=1.0820  Rmax=1.1034    17
 C  C  Rav=1.4087 sigma=0.0213  Rmin=1.3419  Rmax=1.4194    11
 Zr C  Rav=2.4817 sigma=0.0828  Rmin=2.2142  Rmax=2.5645    13

 selected bond angles (degree)
 --------------------
C3-Zr1-C2=123.69               C4-Zr1-C2= 90.72               C4-Zr1-C3= 33.06               C5-Zr1-C2= 79.81               
C5-Zr1-C3= 54.58               C5-Zr1-C4= 33.35               C6-Zr1-C2=104.37               C6-Zr1-C3= 54.10               
C6-Zr1-C4= 54.79               C6-Zr1-C5= 32.86               C7-Zr1-C2=134.21               C7-Zr1-C3= 32.60               
C7-Zr1-C4= 54.85               C7-Zr1-C5= 54.68               C7-Zr1-C6= 32.80               C13-Zr1-C2=108.47              
C13-Zr1-C3= 73.04              C13-Zr1-C4= 84.11              C13-Zr1-C5=117.45              C13-Zr1-C6=126.96              
C13-Zr1-C7= 97.86              C14-Zr1-C2=136.50              C14-Zr1-C3= 73.83              C14-Zr1-C4= 99.71              
C14-Zr1-C5=128.39              C14-Zr1-C6=116.18              C14-Zr1-C7= 83.49              C14-Zr1-C13= 32.91             
C15-Zr1-C2=121.68              C15-Zr1-C3=104.95              C15-Zr1-C4=132.54              C15-Zr1-C5=158.03              
C15-Zr1-C6=131.14              C15-Zr1-C7=104.10              C15-Zr1-C13= 54.67             C15-Zr1-C14= 32.84             
C16-Zr1-C2= 89.12              C16-Zr1-C3=125.73              C16-Zr1-C4=136.25              C16-Zr1-C5=163.66              
C16-Zr1-C6=163.31              C16-Zr1-C7=136.33              C16-Zr1-C13= 54.81             C16-Zr1-C14= 54.75             
C16-Zr1-C15= 33.24             C17-Zr1-C2= 81.75              C17-Zr1-C3=103.86              C17-Zr1-C4=103.64              
C17-Zr1-C5=131.88              C17-Zr1-C6=157.00              C17-Zr1-C7=130.87              C17-Zr1-C13= 33.01             
C17-Zr1-C14= 54.76             C17-Zr1-C15= 55.05             C17-Zr1-C16= 33.27             C26-Zr1-C2= 96.78              
C26-Zr1-C3=115.11              C26-Zr1-C4=123.51              C26-Zr1-C5= 93.35              C26-Zr1-C6= 69.18              
C26-Zr1-C7= 82.54              C26-Zr1-C13=142.65             C26-Zr1-C14=111.36             C26-Zr1-C15= 88.79             
C26-Zr1-C16= 99.91             C26-Zr1-C17=132.85             C27-Zr1-C2= 80.31              C27-Zr1-C3=144.80              
C27-Zr1-C4=148.33              C27-Zr1-C5=115.00              C27-Zr1-C6= 97.92              C27-Zr1-C7=112.29              
C27-Zr1-C13=127.55             C27-Zr1-C14=107.70             C27-Zr1-C15= 76.29             C27-Zr1-C16= 74.37             
C27-Zr1-C17=104.99             C27-Zr1-C26= 30.34             H23-C2-Zr1=109.66              H24-C2-Zr1=112.79              
H24-C2-H23=106.49              H25-C2-Zr1=114.45              H25-C2-H23=106.23              H25-C2-H24=106.73              
C4-C3-Zr1= 71.54               C7-C3-Zr1= 73.70               C7-C3-C4=108.35                H8-C3-Zr1=127.32               
H8-C3-C4=125.51                H8-C3-C7=125.59                C3-C4-Zr1= 75.41               C5-C4-Zr1= 74.09               
C5-C4-C3=107.77                H9-C4-Zr1=124.71               H9-C4-C3=125.79                H9-C4-C5=125.58                
C4-C5-Zr1= 72.56               C6-C5-Zr1= 74.87               C6-C5-C4=107.93                H10-C5-Zr1=126.46              
H10-C5-C4=125.56               H10-C5-C6=125.71               C5-C6-Zr1= 72.27               C7-C6-Zr1= 73.47               
C7-C6-C5=108.09                H11-C6-Zr1=131.69              H11-C6-C5=125.05               H11-C6-C7=125.18               
C3-C7-Zr1= 73.70               C6-C7-Zr1= 73.73               C6-C7-C3=107.79                H12-C7-Zr1=127.97              
H12-C7-C3=125.51               H12-C7-C6=125.54               

 selected dihedral angles (degree)
 ---------------------------------
H23-C2-Zr1-C3=328.30          H23-C2-Zr1-C4=325.82          H23-C2-Zr1-C5=294.15          H23-C2-Zr1-C6=272.12          
H23-C2-Zr1-C7=288.11          H23-C2-Zr1-C13= 49.85         H23-C2-Zr1-C14= 70.80         H23-C2-Zr1-C15=109.17         
H23-C2-Zr1-C16=102.07         H23-C2-Zr1-C17= 69.50         H23-C2-Zr1-C26=201.94         H23-C2-Zr1-C27=176.35         
H24-C2-Zr1-C3= 86.79          H24-C2-Zr1-C4= 84.31          H24-C2-Zr1-C5= 52.64          H24-C2-Zr1-C6= 30.61          
H24-C2-Zr1-C7= 46.60          H24-C2-Zr1-C13=168.34         H24-C2-Zr1-C14=189.29         H24-C2-Zr1-C15=227.66         
H24-C2-Zr1-C16=220.56         H24-C2-Zr1-C17=187.99         H24-C2-Zr1-C26=320.43         H24-C2-Zr1-C27=294.84         
H25-C2-Zr1-C3=209.06          H25-C2-Zr1-C4=206.59          H25-C2-Zr1-C5=174.91          H25-C2-Zr1-C6=152.89          
H25-C2-Zr1-C7=168.87          H25-C2-Zr1-C13=290.62         H25-C2-Zr1-C14=311.56         H25-C2-Zr1-C15=349.93         
H25-C2-Zr1-C16=342.83         H25-C2-Zr1-C17=310.26         H25-C2-Zr1-C26= 82.70         H25-C2-Zr1-C27= 57.12         
C4-C3-Zr1-C2=355.45           C4-C3-Zr1-C5= 38.14           C4-C3-Zr1-C6= 78.88           C4-C3-Zr1-C7=116.32           
C4-C3-Zr1-C13=254.22          C4-C3-Zr1-C14=219.86          C4-C3-Zr1-C15=209.23          C4-C3-Zr1-C16=238.26          
C4-C3-Zr1-C17=266.21          C4-C3-Zr1-C26=113.43          C4-C3-Zr1-C27=121.92          C7-C3-Zr1-C2=239.13           
C7-C3-Zr1-C4=243.68           C7-C3-Zr1-C5=281.82           C7-C3-Zr1-C6=322.56           C7-C3-Zr1-C13=137.90          
C7-C3-Zr1-C14=103.54          C7-C3-Zr1-C15= 92.91          C7-C3-Zr1-C16=121.94          C7-C3-Zr1-C17=149.89          
C7-C3-Zr1-C26=357.11          C7-C3-Zr1-C27=  5.60          H8-C3-Zr1-C2=116.48           H8-C3-Zr1-C4=121.03           
H8-C3-Zr1-C5=159.17           H8-C3-Zr1-C6=199.92           H8-C3-Zr1-C7=237.35           H8-C3-Zr1-C13= 15.26          
H8-C3-Zr1-C14=340.89          H8-C3-Zr1-C15=330.26          H8-C3-Zr1-C16=359.29          H8-C3-Zr1-C17= 27.24          
H8-C3-Zr1-C26=234.46          H8-C3-Zr1-C27=242.95          C3-C4-Zr1-C2=176.22           C3-C4-Zr1-C5=246.28           
C3-C4-Zr1-C6=283.37           C3-C4-Zr1-C7=323.79           C3-C4-Zr1-C13= 67.72          C3-C4-Zr1-C14= 38.65          
C3-C4-Zr1-C15= 39.81          C3-C4-Zr1-C16= 86.73          C3-C4-Zr1-C17= 94.54          C3-C4-Zr1-C26=274.83          
C3-C4-Zr1-C27=248.75          C5-C4-Zr1-C2=289.93           C5-C4-Zr1-C3=113.72           C5-C4-Zr1-C6= 37.09           
C5-C4-Zr1-C7= 77.51           C5-C4-Zr1-C13=181.44          C5-C4-Zr1-C14=152.36          C5-C4-Zr1-C15=153.53          
C5-C4-Zr1-C16=200.45          C5-C4-Zr1-C17=208.25          C5-C4-Zr1-C26= 28.55          C5-C4-Zr1-C27=  2.47          
H9-C4-Zr1-C2= 52.52           H9-C4-Zr1-C3=236.30           H9-C4-Zr1-C5=122.59           H9-C4-Zr1-C6=159.67           
H9-C4-Zr1-C7=200.10           H9-C4-Zr1-C13=304.03          H9-C4-Zr1-C14=274.95          H9-C4-Zr1-C15=276.11          
H9-C4-Zr1-C16=323.04          H9-C4-Zr1-C17=330.84          H9-C4-Zr1-C26=151.14          H9-C4-Zr1-C27=125.06          
Zr1-C4-C3-C7= 65.01           Zr1-C4-C3-H8=236.84           C5-C4-C3-Zr1=292.39           C5-C4-C3-C7=357.40            
C5-C4-C3-H8=169.23            H9-C4-C3-Zr1=122.53           H9-C4-C3-C7=187.54            H9-C4-C3-H8=359.37            
C4-C5-Zr1-C2=107.24           C4-C5-Zr1-C3=322.21           C4-C5-Zr1-C6=245.22           C4-C5-Zr1-C7=281.94           
C4-C5-Zr1-C13=  1.61          C4-C5-Zr1-C14=324.31          C4-C5-Zr1-C15=298.62          C4-C5-Zr1-C16= 59.18          
C4-C5-Zr1-C17= 38.16          C4-C5-Zr1-C26=203.53          C4-C5-Zr1-C27=181.43          C6-C5-Zr1-C2=222.02           
C6-C5-Zr1-C3= 76.99           C6-C5-Zr1-C4=114.78           C6-C5-Zr1-C7= 36.72           C6-C5-Zr1-C13=116.39          
C6-C5-Zr1-C14= 79.09          C6-C5-Zr1-C15= 53.40          C6-C5-Zr1-C16=173.96          C6-C5-Zr1-C17=152.94          
C6-C5-Zr1-C26=318.31          C6-C5-Zr1-C27=296.21          H10-C5-Zr1-C2=345.52          H10-C5-Zr1-C3=200.49          
H10-C5-Zr1-C4=238.28          H10-C5-Zr1-C6=123.50          H10-C5-Zr1-C7=160.22          H10-C5-Zr1-C13=239.90         
H10-C5-Zr1-C14=202.60         H10-C5-Zr1-C15=176.90         H10-C5-Zr1-C16=297.47         H10-C5-Zr1-C17=276.44         
H10-C5-Zr1-C26= 81.81         H10-C5-Zr1-C27= 59.71         Zr1-C5-C4-C3= 68.50           Zr1-C5-C4-H9=238.39           
C6-C5-C4-Zr1=292.90           C6-C5-C4-C3=  1.40            C6-C5-C4-H9=171.29            H10-C5-C4-Zr1=122.76          
H10-C5-C4-C3=191.26           H10-C5-C4-H9=  1.15           C5-C6-Zr1-C2= 42.85           C5-C6-Zr1-C3=281.42           
C5-C6-Zr1-C4=322.34           C5-C6-Zr1-C7=244.22           C5-C6-Zr1-C13=275.83          C5-C6-Zr1-C14=239.05          
C5-C6-Zr1-C15=203.51          C5-C6-Zr1-C16=185.91          C5-C6-Zr1-C17=299.89          C5-C6-Zr1-C26=134.74          
C5-C6-Zr1-C27=124.82          C7-C6-Zr1-C2=158.63           C7-C6-Zr1-C3= 37.20           C7-C6-Zr1-C4= 78.13           
C7-C6-Zr1-C5=115.78           C7-C6-Zr1-C13= 31.62          C7-C6-Zr1-C14=354.83          C7-C6-Zr1-C15=319.29          
C7-C6-Zr1-C16=301.69          C7-C6-Zr1-C17= 55.67          C7-C6-Zr1-C26=250.52          C7-C6-Zr1-C27=240.60          
H11-C6-Zr1-C2=281.35          H11-C6-Zr1-C3=159.92          H11-C6-Zr1-C4=200.84          H11-C6-Zr1-C5=238.50          
H11-C6-Zr1-C7=122.72          H11-C6-Zr1-C13=154.33         H11-C6-Zr1-C14=117.55         H11-C6-Zr1-C15= 82.01         
H11-C6-Zr1-C16= 64.41         H11-C6-Zr1-C17=178.39         H11-C6-Zr1-C26= 13.24         H11-C6-Zr1-C27=  3.32         
Zr1-C6-C5-C4= 65.56           Zr1-C6-C5-H10=235.68          C7-C6-C5-Zr1=294.76           C7-C6-C5-C4=  0.32            
C7-C6-C5-H10=170.44           H11-C6-C5-Zr1=128.95          H11-C6-C5-C4=194.51           H11-C6-C5-H10=  4.63          
C3-C7-Zr1-C2= 85.14           C3-C7-Zr1-C4= 36.72           C3-C7-Zr1-C5= 77.86           C3-C7-Zr1-C6=114.65           
C3-C7-Zr1-C13=319.66          C3-C7-Zr1-C14=289.98          C3-C7-Zr1-C15=264.22          C3-C7-Zr1-C16=273.92          
C3-C7-Zr1-C17=319.90          C3-C7-Zr1-C26=177.36          C3-C7-Zr1-C27=183.48          C6-C7-Zr1-C2=330.50           
C6-C7-Zr1-C3=245.35           C6-C7-Zr1-C4=282.08           C6-C7-Zr1-C5=323.21           C6-C7-Zr1-C13=205.02          
C6-C7-Zr1-C14=175.33          C6-C7-Zr1-C15=149.57          C6-C7-Zr1-C16=159.27          C6-C7-Zr1-C17=205.25          
C6-C7-Zr1-C26= 62.71          C6-C7-Zr1-C27= 68.84          H12-C7-Zr1-C2=207.79          H12-C7-Zr1-C3=122.64          
H12-C7-Zr1-C4=159.37          H12-C7-Zr1-C5=200.50          H12-C7-Zr1-C6=237.29          H12-C7-Zr1-C13= 82.30         
H12-C7-Zr1-C14= 52.62         H12-C7-Zr1-C15= 26.86         H12-C7-Zr1-C16= 36.56         H12-C7-Zr1-C17= 82.54         
H12-C7-Zr1-C26=300.00         H12-C7-Zr1-C27=306.13         Zr1-C7-C3-C4=296.40           Zr1-C7-C3-H8=124.57           
C6-C7-C3-Zr1= 66.40           C6-C7-C3-C4=  2.80            C6-C7-C3-H8=190.97            H12-C7-C3-Zr1=234.63          
H12-C7-C3-C4=171.03           H12-C7-C3-H8=359.20           Zr1-C7-C6-C5= 64.45           Zr1-C7-C6-H11=230.24          
C3-C7-C6-Zr1=293.63           C3-C7-C6-C5=358.08            C3-C7-C6-H11=163.86           H12-C7-C6-Zr1=125.39          
H12-C7-C6-C5=189.85           H12-C7-C6-H11=355.63          

 CMA Distance (Angstroems)
 ---------------------------
R(CMA):  2.9139
           -------------------------------------------------
          |                Final Singlepoint                |
           -------------------------------------------------

          ...................................................
          :                      SETUP                      :
          :.................................................:
          :  # basis functions                  79          :
          :  # atomic orbitals                  78          :
          :  # shells                           46          :
          :  # electrons                        72          :
          :  max. iterations                   250          :
          :  Hamiltonian                  GFN2-xTB          :
          :  restarted?                      false          :
          :  GBSA solvation                  false          :
          :  PC potential                    false          :
          :  electronic temp.          300.0000000     K    :
          :  accuracy                    1.0000000          :
          :  -> integral cutoff          0.2500000E+02      :
          :  -> integral neglect         0.1000000E-07      :
          :  -> SCF convergence          0.1000000E-05 Eh   :
          :  -> wf. convergence          0.1000000E-03 e    :
          :  Broyden damping             0.4000000          :
          ...................................................

 iter      E             dE          RMSdq      gap      omega  full diag
   1    -38.3082034 -0.383082E+02  0.362E-04    1.55       0.0  T
   2    -38.3082034 -0.736406E-10  0.230E-04    1.55      78.1  T
   3    -38.3082034  0.272024E-09  0.206E-04    1.55      87.3  T

   *** convergence criteria satisfied after 3 iterations ***

         #    Occupation            Energy/Eh            Energy/eV
      -------------------------------------------------------------
         1        2.0000           -0.8689820             -23.6462
       ...           ...                  ...                  ...
        30        2.0000           -0.5758568             -15.6699
        31        2.0000           -0.5741604             -15.6237
        32        2.0000           -0.5206914             -14.1687
        33        2.0000           -0.5149749             -14.0132
        34        2.0000           -0.5058089             -13.7638
        35        2.0000           -0.4993492             -13.5880
        36        2.0000           -0.4931825             -13.4202 (HOMO)
        37                         -0.4363759             -11.8744 (LUMO)
        38                         -0.4156375             -11.3101
        39                         -0.4057393             -11.0407
        40                         -0.4041016             -10.9962
        41                         -0.3912217             -10.6457
       ...                                ...                  ...
        78                          2.4622104              67.0002
      -------------------------------------------------------------
                  HL-Gap            0.0568066 Eh            1.5458 eV
             Fermi-level           -0.4647792 Eh          -12.6473 eV

 SCC (total)                   0 d,  0 h,  0 min,  1.333 sec
 SCC setup                      ...        0 min,  0.025 sec (  1.878%)
 Dispersion                     ...        0 min,  0.082 sec (  6.172%)
 classical contributions        ...        0 min,  0.036 sec (  2.718%)
 integral evaluation            ...        0 min,  0.146 sec ( 10.942%)
 iterations                     ...        0 min,  0.671 sec ( 50.306%)
 molecular gradient             ...        0 min,  0.373 sec ( 27.964%)
 printout                       ...        0 min,  0.000 sec (  0.016%)

         :::::::::::::::::::::::::::::::::::::::::::::::::::::
         ::                     SUMMARY                     ::
         :::::::::::::::::::::::::::::::::::::::::::::::::::::
         :: total energy             -37.657197675735 Eh    ::
         :: gradient norm              0.000952016821 Eh/a0 ::
         :: HOMO-LUMO gap              1.545785683215 eV    ::
         ::.................................................::
         :: SCC energy               -38.308203422172 Eh    ::
         :: -> isotropic ES            0.092798135889 Eh    ::
         :: -> anisotropic ES         -0.012996197841 Eh    ::
         :: -> anisotropic XC          0.022086638847 Eh    ::
         :: -> dispersion             -0.028089915226 Eh    ::
         :: repulsion energy           0.650241910650 Eh    ::
         :: add. restraining           0.000054234992 Eh    ::
         :: total charge               1.000000000000 e     ::
         :::::::::::::::::::::::::::::::::::::::::::::::::::::

           -------------------------------------------------
          |                Property Printout                |
           -------------------------------------------------

    * Orbital Energies and Occupations

         #    Occupation            Energy/Eh            Energy/eV
      -------------------------------------------------------------
         1        2.0000           -0.8689820             -23.6462
       ...           ...                  ...                  ...
        24        2.0000           -0.5904052             -16.0657
        25        2.0000           -0.5893438             -16.0369
        26        2.0000           -0.5861021             -15.9486
        27        2.0000           -0.5859579             -15.9447
        28        2.0000           -0.5839733             -15.8907
        29        2.0000           -0.5836657             -15.8824
        30        2.0000           -0.5758568             -15.6699
        31        2.0000           -0.5741604             -15.6237
        32        2.0000           -0.5206914             -14.1687
        33        2.0000           -0.5149749             -14.0132
        34        2.0000           -0.5058089             -13.7638
        35        2.0000           -0.4993492             -13.5880
        36        2.0000           -0.4931825             -13.4202 (HOMO)
        37                         -0.4363759             -11.8744 (LUMO)
        38                         -0.4156375             -11.3101
        39                         -0.4057393             -11.0407
        40                         -0.4041016             -10.9962
        41                         -0.3912217             -10.6457
        42                         -0.3784758             -10.2989
        43                         -0.3037847              -8.2664
        44                         -0.3029391              -8.2434
        45                         -0.2998626              -8.1597
        46                         -0.2981587              -8.1133
        47                         -0.0652869              -1.7765
       ...                                ...                  ...
        78                          2.4622104              67.0002
      -------------------------------------------------------------
                  HL-Gap            0.0568066 Eh            1.5458 eV
             Fermi-level           -0.4647792 Eh          -12.6473 eV

     #   Z          covCN         q      C6AA      α(0)
     1  40 Zr       9.606     0.929   139.396    17.741
     2   6 C        3.574    -0.335    28.602     7.776
     3   6 C        3.739    -0.080    22.103     6.708
     4   6 C        3.759    -0.085    22.177     6.714
     5   6 C        3.749    -0.082    22.132     6.710
     6   6 C        3.737    -0.096    22.418     6.757
     7   6 C        3.733    -0.092    22.357     6.749
     8   1 H        0.925     0.083     1.950     2.184
     9   1 H        0.925     0.085     1.929     2.172
    10   1 H        0.925     0.087     1.906     2.159
    11   1 H        0.925     0.069     2.099     2.266
    12   1 H        0.925     0.071     2.070     2.250
    13   6 C        3.745    -0.084    22.179     6.718
    14   6 C        3.740    -0.085    22.210     6.724
    15   6 C        3.747    -0.097    22.429     6.755
    16   6 C        3.756    -0.095    22.374     6.744
    17   6 C        3.751    -0.080    22.091     6.703
    18   1 H        0.925     0.081     1.968     2.194
    19   1 H        0.925     0.078     2.005     2.214
    20   1 H        0.925     0.064     2.149     2.292
    21   1 H        0.925     0.077     2.014     2.219
    22   1 H        0.925     0.091     1.873     2.140
    23   1 H        0.931     0.061     2.182     2.310
    24   1 H        0.927     0.052     2.298     2.371
    25   1 H        0.926     0.057     2.236     2.338
    26   6 C        3.528    -0.092    23.605     7.146
    27   6 C        3.527    -0.092    23.610     7.147
    28   1 H        0.925     0.130     1.535     1.937
    29   1 H        0.925     0.140     1.458     1.888
    30   1 H        0.925     0.116     1.645     2.006
    31   1 H        0.925     0.126     1.565     1.956

 Mol. C6AA /au·bohr⁶  :       9510.956567
 Mol. C8AA /au·bohr⁸  :     322937.358695
 Mol. α(0) /au        :        143.986282


Wiberg/Mayer (AO) data.
largest (>0.10) Wiberg bond orders for each atom

 ---------------------------------------------------------------------------
     #   Z sym  total        # sym  WBO       # sym  WBO       # sym  WBO
 ---------------------------------------------------------------------------
     1  40 Zr   4.296 --     2 C    0.873     4 C    0.265    17 C    0.253
                            16 C    0.241     5 C    0.240    13 C    0.235
                             6 C    0.227    15 C    0.223     7 C    0.223
                            14 C    0.217     3 C    0.215    26 C    0.201
                            27 C    0.198
     2   6 C    3.811 --    25 H    0.925    24 H    0.922    23 H    0.912
                             1 Zr   0.873
     3   6 C    3.982 --     7 C    1.330     4 C    1.299     8 H    0.928
                             1 Zr   0.215
     4   6 C    3.981 --     3 C    1.299     5 C    1.288     9 H    0.919
                             1 Zr   0.265
     5   6 C    3.981 --     6 C    1.305     4 C    1.288    10 H    0.926
                             1 Zr   0.240
     6   6 C    3.979 --     5 C    1.305     7 C    1.282    11 H    0.933
                             1 Zr   0.227
     7   6 C    3.978 --     3 C    1.330     6 C    1.282    12 H    0.927
                             1 Zr   0.223
     8   1 H    0.991 --     3 C    0.928
     9   1 H    0.990 --     4 C    0.919
    10   1 H    0.990 --     5 C    0.926
    11   1 H    0.993 --     6 C    0.933
    12   1 H    0.994 --     7 C    0.927
    13   6 C    3.982 --    17 C    1.306    14 C    1.303    18 H    0.926
                             1 Zr   0.235
    14   6 C    3.981 --    15 C    1.322    13 C    1.303    19 H    0.927
                             1 Zr   0.217
    15   6 C    3.977 --    14 C    1.322    16 C    1.291    20 H    0.928
                             1 Zr   0.223
    16   6 C    3.978 --    17 C    1.293    15 C    1.291    21 H    0.928
                             1 Zr   0.241
    17   6 C    3.983 --    13 C    1.306    16 C    1.293    22 H    0.922
                             1 Zr   0.253
    18   1 H    0.991 --    13 C    0.926
    19   1 H    0.992 --    14 C    0.927
    20   1 H    0.994 --    15 C    0.928
    21   1 H    0.991 --    16 C    0.928
    22   1 H    0.989 --    17 C    0.922
    23   1 H    0.995 --     2 C    0.912
    24   1 H    0.996 --     2 C    0.922
    25   1 H    0.996 --     2 C    0.925
    26   6 C    3.987 --    27 C    1.817    31 H    0.920    30 H    0.913
                             1 Zr   0.201
    27   6 C    3.979 --    26 C    1.817    28 H    0.916    29 H    0.914
                             1 Zr   0.198
    28   1 H    0.982 --    27 C    0.916
    29   1 H    0.979 --    27 C    0.914
    30   1 H    0.986 --    26 C    0.913
    31   1 H    0.983 --    26 C    0.920
 ---------------------------------------------------------------------------

Topologies differ in total number of bonds
Writing topology from bond orders to xtbtopo.mol

molecular dipole:
                 x           y           z       tot (Debye)
 q only:       -3.949       0.025       0.756
   full:       -4.114      -0.069       0.827      10.666
molecular quadrupole (traceless):
                xx          xy          yy          xz          yz          zz
 q only:       22.284      -1.595     -11.224      -2.401      -1.309     -11.060
  q+dip:       22.376       0.158     -13.908      -4.867      -5.523      -8.468
   full:       23.958      -0.097     -13.947      -4.473      -3.561     -10.011

           -------------------------------------------------
          |                Geometry Summary                 |
           -------------------------------------------------

      molecular mass/u    :      264.4982010
   center of mass at/Å    :       -1.2631281      -0.1220317       0.5884150
  moments of inertia/u·Å² :        0.5854178E+03   0.7514514E+03   0.8985370E+03
rotational constants/cm⁻¹ :        0.2879590E-01   0.2243343E-01   0.1876120E-01

 * 39 selected distances

     #   Z          #   Z                                           value/Å
     1  40 Zr       2   6 C                                       2.2141531
     1  40 Zr       3   6 C                                       2.5116508
     1  40 Zr       4   6 C                                       2.4617542
     3   6 C        4   6 C                                       1.4156726
     1  40 Zr       5   6 C                                       2.4815253
     4   6 C        5   6 C                                       1.4185737
     1  40 Zr       6   6 C                                       2.5150472 (max)
     5   6 C        6   6 C                                       1.4137674
     1  40 Zr       7   6 C                                       2.5116335
     3   6 C        7   6 C                                       1.4100550
     6   6 C        7   6 C                                       1.4194309
     3   6 C        8   1 H                                       1.0825180
     4   6 C        9   1 H                                       1.0851173
     5   6 C       10   1 H                                       1.0826851
     6   6 C       11   1 H                                       1.0819644 (min)
     7   6 C       12   1 H                                       1.0848153
     1  40 Zr      13   6 C                                       2.4969058
     1  40 Zr      14   6 C                                       2.5038228
    13   6 C       14   6 C                                       1.4163645
     1  40 Zr      15   6 C                                       2.4874508
    14   6 C       15   6 C                                       1.4110771
     1  40 Zr      16   6 C                                       2.4744068
    15   6 C       16   6 C                                       1.4193025
     1  40 Zr      17   6 C                                       2.4758142
    13   6 C       17   6 C                                       1.4130179
    16   6 C       17   6 C                                       1.4169695
    13   6 C       18   1 H                                       1.0839847
    14   6 C       19   1 H                                       1.0841096
    15   6 C       20   1 H                                       1.0850807
    16   6 C       21   1 H                                       1.0833415
    17   6 C       22   1 H                                       1.0836610
     2   6 C       23   1 H                                       1.1034296
     2   6 C       24   1 H                                       1.1032625
     2   6 C       25   1 H                                       1.1006689
    26   6 C       27   6 C                                       1.3419421
    27   6 C       28   1 H                                       1.0861862
    27   6 C       29   1 H                                       1.0885086
    26   6 C       30   1 H                                       1.0919768
    26   6 C       31   1 H                                       1.0870620

 * 3 distinct bonds (by element types)

   Z      Z             #   av. dist./Å        max./Å        min./Å
   1 H    6 C          17     1.0881395     1.1034296     1.0819644
   6 C    6 C          11     1.4087430     1.4194309     1.3419421
   6 C   40 Zr         11     2.4667422     2.5150472     2.2141531


optimized geometry written to: xtbopt.xyz


           -------------------------------------------------
          | TOTAL ENERGY              -37.657197675735 Eh   |
          | GRADIENT NORM               0.000952016821 Eh/α |
          | HOMO-LUMO GAP               1.545785683215 eV   |
           -------------------------------------------------

------------------------------------------------------------------------
 * finished run on 2026/08/18 at 18:29:46.276     
------------------------------------------------------------------------
 total:
 * wall-time:     0 d,  0 h,  0 min, 45.106 sec
 *  cpu-time:     0 d,  0 h,  1 min,  6.815 sec
 * ratio c/w:     1.481 speedup
 SCF:
 * wall-time:     0 d,  0 h,  0 min,  2.066 sec
 *  cpu-time:     0 d,  0 h,  0 min,  3.941 sec
 * ratio c/w:     1.908 speedup
 ANC optimizer:
 * wall-time:     0 d,  0 h,  0 min, 42.839 sec
 *  cpu-time:     0 d,  0 h,  1 min,  2.600 sec
 * ratio c/w:     1.461 speedup

