31
 energy: -37.657197675735 gnorm: 0.000952016821 xtb: 6.5.1 (b24c23e)
Zr          -1.32371558377603       -0.01562471923389        0.39904266412291
C           -0.92831205898550        1.07347346317986       -1.48775200831119
C           -0.06854676926513       -2.07153307638206        1.11050647575338
C            0.36930406734371       -1.70471516176773       -0.18481576208545
C           -0.71059353371428       -1.91045134364894       -1.08138972418704
C           -1.81701434715727       -2.37113550003614       -0.33149579522908
C           -1.42612285526315       -2.44427282121008        1.03108938654678
H            0.56604977549956       -2.18491936031018        1.98014769676299
H            1.39240144889338       -1.48152297945485       -0.46930902614380
H           -0.64491209908221       -1.88766037593871       -2.16184021600432
H           -2.70628057453568       -2.82347148391788       -0.75011787160881
H           -2.00131854109075       -2.90276302780675        1.82843543684255
C            0.35712586816548        0.70856403928710        2.09753020617408
C           -0.78748701432251        0.29920330607805        2.82442301558156
C           -1.84248800176192        1.18389737604218        2.51550954950294
C           -1.34994370980148        2.14856725531265        1.59832284268440
C            0.00980546131813        1.84763462787202        1.33693449176614
H            1.36278503736069        0.32311929071505        2.22043071675604
H           -0.80793567115809       -0.45299848051591        3.60485093787143
H           -2.79110247040432        1.22608904301659        3.04062892024568
H           -1.85104538675475        3.05904742905798        1.29246093906867
H            0.70118433767975        2.47532721622479        0.78709984766088
H            0.14061027838907        0.98888644447313       -1.74814927428374
H           -1.49232087134163        0.66481181049844       -2.34336742489564
H           -1.15072801474155        2.15067233628971       -1.44718810861878
C           -3.83888565245092       -0.34845831398190        0.03470599061110
C           -3.64997057112235        0.97896296923705       -0.02072130188987
H           -3.83040623695170        1.61169474980191        0.84350878974294
H           -3.58334253641040        1.48819812488827       -0.98045614595828
H           -4.13798802283810       -0.84362042977826        0.96086219176329
H           -3.94388610171466       -0.91546743799399       -0.88680313022960
