      -----------------------------------------------------------      
     |                   =====================                   |     
     |                           x T B                           |     
     |                   =====================                   |     
     |                         S. Grimme                         |     
     |          Mulliken Center for Theoretical Chemistry        |     
     |                    University of Bonn                     |     
      -----------------------------------------------------------      

   * xtb version 6.5.1 (b24c23e) compiled by 'conda@728c89f4b128' on 2022-07-12

   xtb is free software: you can redistribute it and/or modify it under
   the terms of the GNU Lesser General Public License as published by
   the Free Software Foundation, either version 3 of the License, or
   (at your option) any later version.
   
   xtb is distributed in the hope that it will be useful,
   but WITHOUT ANY WARRANTY; without even the implied warranty of
   MERCHANTABILITY or FITNESS FOR A PARTICULAR PURPOSE.  See the
   GNU Lesser General Public License for more details.
   
   Cite this work as:
   * C. Bannwarth, E. Caldeweyher, S. Ehlert, A. Hansen, P. Pracht,
     J. Seibert, S. Spicher, S. Grimme, WIREs Comput. Mol. Sci., 2020, 11,
     e01493. DOI: 10.1002/wcms.1493
   
   for GFN2-xTB:
   * C. Bannwarth, S. Ehlert and S. Grimme., J. Chem. Theory Comput., 2019,
     15, 1652-1671. DOI: 10.1021/acs.jctc.8b01176
   for GFN1-xTB:
   * S. Grimme, C. Bannwarth, P. Shushkov, J. Chem. Theory Comput., 2017,
     13, 1989-2009. DOI: 10.1021/acs.jctc.7b00118
   for GFN0-xTB:
   * P. Pracht, E. Caldeweyher, S. Ehlert, S. Grimme, ChemRxiv, 2019, preprint.
     DOI: 10.26434/chemrxiv.8326202.v1
   for GFN-FF:
   * S. Spicher and S. Grimme, Angew. Chem. Int. Ed., 2020, 59, 15665-15673.
     DOI: 10.1002/anie.202004239
   
   for ALPB and GBSA implicit solvation:
   * S. Ehlert, M. Stahn, S. Spicher, S. Grimme, J. Chem. Theory Comput.,
     2021, 17, 4250-4261. DOI: 10.1021/acs.jctc.1c00471
   
   for DFT-D4:
   * E. Caldeweyher, C. Bannwarth and S. Grimme, J. Chem. Phys., 2017,
     147, 034112. DOI: 10.1063/1.4993215
   * E. Caldeweyher, S. Ehlert, A. Hansen, H. Neugebauer, S. Spicher,
     C. Bannwarth and S. Grimme, J. Chem. Phys., 2019, 150, 154122.
     DOI: 10.1063/1.5090222
   * E. Caldeweyher, J.-M. Mewes, S. Ehlert and S. Grimme, Phys. Chem. Chem. Phys.
     2020, 22, 8499-8512. DOI: 10.1039/D0CP00502A
   
   for sTDA-xTB:
   * S. Grimme and C. Bannwarth, J. Chem. Phys., 2016, 145, 054103.
     DOI: 10.1063/1.4959605
   
   in the mass-spec context:
   * V. Asgeirsson, C. Bauer and S. Grimme, Chem. Sci., 2017, 8, 4879.
     DOI: 10.1039/c7sc00601b
   * J. Koopman and S. Grimme, ACS Omega 2019, 4, 12, 15120-15133.
     DOI: 10.1021/acsomega.9b02011
   
   for metadynamics refer to:
   * S. Grimme, J. Chem. Theory Comput., 2019, 155, 2847-2862
     DOI: 10.1021/acs.jctc.9b00143
   
   for SPH calculations refer to:
   * S. Spicher and S. Grimme, J. Chem. Theory Comput., 2021, 17, 1701-1714
     DOI: 10.1021/acs.jctc.0c01306
   
   with help from (in alphabetical order)
   P. Atkinson, C. Bannwarth, F. Bohle, G. Brandenburg, E. Caldeweyher
   M. Checinski, S. Dohm, S. Ehlert, S. Ehrlich, I. Gerasimov, C. Hölzer
   A. Katbashev, J. Koopman, C. Lavigne, S. Lehtola, F. März, M. Müller,
   F. Musil, H. Neugebauer, J. Pisarek, C. Plett, P. Pracht, F. Pultar,
   J. Seibert, P. Shushkov, S. Spicher, M. Stahn, M. Steiner, T. Strunk,
   J. Stückrath, T. Rose, and J. Unsleber
   
 * started run on 2026/08/18 at 18:29:56.955     

           -------------------------------------------------
          |                Calculation Setup                |
           -------------------------------------------------

          program call               : /h/332/chchoi/miniconda3/envs/el-agente/bin/xtb reactant_opt.xyz --opt --gfn 2 -P 4 --chrg 1 --uhf 0 --input detailed_input.inp
          coordinate file            : reactant_opt.xyz
          omp threads                :                     4

   ID    Z sym.   atoms
    1   40 Zr     1
    2    6 C      2-7, 13-17, 26, 27
    3    1 H      8-12, 18-25, 28-31
constraining bond 2 27 to    2.2000000 Å, actual value:    3.0933054 Å
constraining bond 1 2 to    2.6000000 Å, actual value:    2.2141531 Å
constraining bond 1 26 to    2.4000000 Å, actual value:    2.5631233 Å
constraining bond 26 27 to    1.4000000 Å, actual value:    1.3419421 Å

           -------------------------------------------------
          |                 G F N 2 - x T B                 |
           -------------------------------------------------

        Reference                      10.1021/acs.jctc.8b01176
      * Hamiltonian:
        H0-scaling (s, p, d)           1.850000    2.230000    2.230000
        zeta-weighting                 0.500000
      * Dispersion:
        s8                             2.700000
        a1                             0.520000
        a2                             5.000000
        s9                             5.000000
      * Repulsion:
        kExp                           1.500000    1.000000
        rExp                           1.000000
      * Coulomb:
        alpha                          2.000000
        third order                    shell-resolved
        anisotropic                    true
        a3                             3.000000
        a5                             4.000000
        cn-shift                       1.200000
        cn-exp                         4.000000
        max-rad                        5.000000


          ...................................................
          :                      SETUP                      :
          :.................................................:
          :  # basis functions                  79          :
          :  # atomic orbitals                  78          :
          :  # shells                           46          :
          :  # electrons                        72          :
          :  max. iterations                   250          :
          :  Hamiltonian                  GFN2-xTB          :
          :  restarted?                      false          :
          :  GBSA solvation                  false          :
          :  PC potential                    false          :
          :  electronic temp.          300.0000000     K    :
          :  accuracy                    1.0000000          :
          :  -> integral cutoff          0.2500000E+02      :
          :  -> integral neglect         0.1000000E-07      :
          :  -> SCF convergence          0.1000000E-05 Eh   :
          :  -> wf. convergence          0.1000000E-03 e    :
          :  Broyden damping             0.4000000          :
          ...................................................

 iter      E             dE          RMSdq      gap      omega  full diag
   1    -38.1923896 -0.381924E+02  0.405E+00    1.22       0.0  T
   2    -38.2926218 -0.100232E+00  0.327E+00    1.84       1.0  T
   3    -38.3073413 -0.147195E-01  0.229E+00    1.51       1.0  T
   4    -38.3066835  0.657861E-03  0.444E-01    1.65       1.0  T
   5    -38.3077722 -0.108871E-02  0.321E-01    1.46       1.0  T
   6    -38.3081787 -0.406530E-03  0.174E-01    1.51       1.0  T
   7    -38.3081482  0.305546E-04  0.101E-01    1.53       1.0  T
   8    -38.3081994 -0.512411E-04  0.346E-02    1.54       1.0  T
   9    -38.3082017 -0.232045E-05  0.146E-02    1.55       1.2  T
  10    -38.3082032 -0.146187E-05  0.780E-03    1.55       2.3  T
  11    -38.3082034 -0.204889E-06  0.255E-03    1.54       7.0  T
  12    -38.3082034 -0.330177E-07  0.120E-03    1.55      15.0  T
  13    -38.3082034 -0.609133E-08  0.448E-04    1.55      40.1  T
  14    -38.3082034 -0.145233E-08  0.154E-04    1.55     117.0  T

   *** convergence criteria satisfied after 14 iterations ***

         #    Occupation            Energy/Eh            Energy/eV
      -------------------------------------------------------------
         1        2.0000           -0.8689818             -23.6462
       ...           ...                  ...                  ...
        30        2.0000           -0.5758573             -15.6699
        31        2.0000           -0.5741609             -15.6237
        32        2.0000           -0.5206911             -14.1687
        33        2.0000           -0.5149742             -14.0132
        34        2.0000           -0.5058084             -13.7637
        35        2.0000           -0.4993488             -13.5880
        36        2.0000           -0.4931832             -13.4202 (HOMO)
        37                         -0.4363757             -11.8744 (LUMO)
        38                         -0.4156378             -11.3101
        39                         -0.4057397             -11.0407
        40                         -0.4041020             -10.9962
        41                         -0.3912219             -10.6457
       ...                                ...                  ...
        78                          2.4622107              67.0002
      -------------------------------------------------------------
                  HL-Gap            0.0568074 Eh            1.5458 eV
             Fermi-level           -0.4647794 Eh          -12.6473 eV

 SCC (total)                   0 d,  0 h,  0 min,  1.638 sec
 SCC setup                      ...        0 min,  0.020 sec (  1.196%)
 Dispersion                     ...        0 min,  0.085 sec (  5.170%)
 classical contributions        ...        0 min,  0.034 sec (  2.104%)
 integral evaluation            ...        0 min,  0.073 sec (  4.459%)
 iterations                     ...        0 min,  1.249 sec ( 76.255%)
 molecular gradient             ...        0 min,  0.173 sec ( 10.588%)
 printout                       ...        0 min,  0.004 sec (  0.227%)

         :::::::::::::::::::::::::::::::::::::::::::::::::::::
         ::                     SUMMARY                     ::
         :::::::::::::::::::::::::::::::::::::::::::::::::::::
         :: total energy             -35.215370399719 Eh    ::
         :: gradient norm              3.323944262952 Eh/a0 ::
         :: HOMO-LUMO gap              1.545808246048 eV    ::
         ::.................................................::
         :: SCC energy               -38.308203422357 Eh    ::
         :: -> isotropic ES            0.092796977549 Eh    ::
         :: -> anisotropic ES         -0.012996043170 Eh    ::
         :: -> anisotropic XC          0.022086582421 Eh    ::
         :: -> dispersion             -0.028089897455 Eh    ::
         :: repulsion energy           0.650241910650 Eh    ::
         :: add. restraining           2.441881511192 Eh    ::
         :: total charge               1.000000000000 e     ::
         :::::::::::::::::::::::::::::::::::::::::::::::::::::

      ----------------------------------------------------------- 
     |                   =====================                   |
     |                        A N C O P T                        |
     |                   =====================                   |
     |               Approximate Normal Coordinate               |
     |                Rational Function Optimizer                |
      ----------------------------------------------------------- 

          ...................................................
          :                      SETUP                      :
          :.................................................:
          :   optimization level            normal          :
          :   max. optcycles                   200          :
          :   ANC micro-cycles                  20          :
          :   degrees of freedom                87          :
          :.................................................:
          :   RF solver                   davidson          :
          :   write xtbopt.log                true          :
          :   linear?                        false          :
          :   energy convergence         0.5000000E-05 Eh   :
          :   grad. convergence          0.1000000E-02 Eh/α :
          :   maximium RF displ.         1.0000000          :
          :   Hlow (freq-cutoff)         0.1000000E-01      :
          :   Hmax (freq-cutoff)         5.0000000          :
          :   S6 in model hess.         20.0000000          :
          ...................................................

generating ANC from model Hessian ...
Using Lindh-Hessian (1995)
 Shifting diagonal of input Hessian by   0.19212080164730236     
 Lowest  eigenvalues of input Hessian
    0.010000    0.058197    0.000000    0.000000    0.000000    0.000000
    0.000000    0.000000    0.192641    0.192834    0.193845    0.193886
    0.195288    0.196468    0.198816    0.199250    0.199424    0.199609
 Highest eigenvalues
    1.928379    1.928435    2.581091    3.006152    4.210633    5.206996


........................................................................
.............................. CYCLE    1 ..............................
........................................................................
   1    -38.3082034 -0.383082E+02  0.649E-05    1.55       0.0  T
   2    -38.3082034 -0.364793E-10  0.412E-05    1.55     435.7  T
   3    -38.3082034 -0.357190E-10  0.209E-05    1.55     859.4  T
     SCC iter.                  ...        0 min,  0.301 sec
     gradient                   ...        0 min,  0.217 sec
 * total energy  :   -35.2153704 Eh     change       -0.1978790E-09 Eh
   gradient norm :     3.3239443 Eh/α   predicted     0.0000000E+00 (-100.00%)
   displ. norm   :     0.6711923 α      lambda       -0.2194039E+01
   maximum displ.:     0.4292083 α      in ANC's #84, #85, #65, ...

........................................................................
.............................. CYCLE    2 ..............................
........................................................................
   1    -38.2441382 -0.382441E+02  0.112E+00    0.89       0.0  T
   2    -38.2423273  0.181092E-02  0.108E+00    1.55       1.0  T
   3    -38.2543168 -0.119895E-01  0.505E-01    1.20       1.0  T
   4    -38.2538510  0.465850E-03  0.269E-01    1.09       1.0  T
   5    -38.2542835 -0.432506E-03  0.164E-01    1.14       1.0  T
   6    -38.2547406 -0.457107E-03  0.554E-02    1.18       1.0  T
   7    -38.2547321  0.851485E-05  0.382E-02    1.19       1.0  T
   8    -38.2547514 -0.193470E-04  0.154E-02    1.17       1.2  T
   9    -38.2547522 -0.760925E-06  0.887E-03    1.17       2.0  T
  10    -38.2547523 -0.148204E-06  0.345E-03    1.17       5.2  T
  11    -38.2547524 -0.550444E-07  0.143E-03    1.17      12.6  T
  12    -38.2547524 -0.155553E-07  0.594E-04    1.17      30.3  T
  13    -38.2547524 -0.368565E-08  0.255E-04    1.17      70.4  T
     SCC iter.                  ...        0 min,  1.255 sec
     gradient                   ...        0 min,  0.219 sec
 * total energy  :   -36.8699801 Eh     change       -0.1654610E+01 Eh
   gradient norm :     1.6722141 Eh/α   predicted    -0.1592289E+01 (  -3.77%)
   displ. norm   :     0.5489017 α      lambda       -0.8803517E+00
   maximum displ.:     0.3412876 α      in ANC's #84, #85, #65, ...

........................................................................
.............................. CYCLE    3 ..............................
........................................................................
   1    -38.1403239 -0.381403E+02  0.175E+00    1.11       0.0  T
   2    -38.0953382  0.449857E-01  0.224E+00    1.90       1.0  T
   3    -38.1857250 -0.903868E-01  0.737E-01    1.43       1.0  T
   4    -38.1870182 -0.129316E-02  0.415E-01    1.20       1.0  T
   5    -38.1890055 -0.198736E-02  0.248E-01    1.27       1.0  T
   6    -38.1899108 -0.905291E-03  0.595E-02    1.28       1.0  T
   7    -38.1899081  0.268884E-05  0.432E-02    1.30       1.0  T
   8    -38.1899253 -0.171592E-04  0.173E-02    1.29       1.0  T
   9    -38.1899285 -0.321931E-05  0.928E-03    1.29       1.9  T
  10    -38.1899293 -0.782115E-06  0.418E-03    1.29       4.3  T
  11    -38.1899293 -0.651091E-07  0.174E-03    1.29      10.3  T
  12    -38.1899294 -0.304544E-07  0.125E-03    1.29      14.4  T
  13    -38.1899294 -0.105613E-07  0.483E-04    1.29      37.2  T
  14    -38.1899294 -0.182328E-08  0.217E-04    1.29      82.7  T
     SCC iter.                  ...        0 min,  1.875 sec
     gradient                   ...        0 min,  0.285 sec
 * total energy  :   -37.4479232 Eh     change       -0.5779431E+00 Eh
   gradient norm :     0.5240635 Eh/α   predicted    -0.5727992E+00 (  -0.89%)
   displ. norm   :     0.4704364 α      lambda       -0.1601094E+00
   maximum displ.:     0.3411332 α      in ANC's #1, #65, #85, ...

........................................................................
.............................. CYCLE    4 ..............................
........................................................................
   1    -38.1674726 -0.381675E+02  0.820E-01    1.42       0.0  T
   2    -38.1601819  0.729073E-02  0.844E-01    1.57       1.0  T
   3    -38.1738823 -0.137004E-01  0.405E-01    1.42       1.0  T
   4    -38.1742119 -0.329585E-03  0.120E-01    1.48       1.0  T
   5    -38.1744947 -0.282835E-03  0.529E-02    1.44       1.0  T
   6    -38.1744981 -0.339557E-05  0.370E-02    1.45       1.0  T
   7    -38.1745086 -0.104883E-04  0.176E-02    1.45       1.0  T
   8    -38.1745113 -0.268645E-05  0.700E-03    1.45       2.6  T
   9    -38.1745114 -0.868972E-07  0.361E-03    1.45       5.0  T
  10    -38.1745115 -0.104612E-06  0.157E-03    1.45      11.4  T
  11    -38.1745115 -0.227139E-08  0.952E-04    1.45      18.9  T
  12    -38.1745115 -0.761973E-08  0.404E-04    1.45      44.5  T
     SCC iter.                  ...        0 min,  1.650 sec
     gradient                   ...        0 min,  0.258 sec
 * total energy  :   -37.5377080 Eh     change       -0.8978483E-01 Eh
   gradient norm :     0.1567965 Eh/α   predicted    -0.9777350E-01 (   8.90%)
   displ. norm   :     0.5968196 α      lambda       -0.4901080E-01
   maximum displ.:     0.4570497 α      in ANC's #1, #25, #65, ...

........................................................................
.............................. CYCLE    5 ..............................
........................................................................
   1    -38.1510824 -0.381511E+02  0.120E+00    1.20       0.0  T
   2    -38.1328198  0.182627E-01  0.112E+00    1.36       1.0  T
   3    -38.1581570 -0.253373E-01  0.654E-01    1.24       1.0  T
   4    -38.1638765 -0.571945E-02  0.322E-01    1.22       1.0  T
   5    -38.1645665 -0.689990E-03  0.169E-01    1.25       1.0  T
   6    -38.1646958 -0.129342E-03  0.815E-02    1.24       1.0  T
   7    -38.1647319 -0.360782E-04  0.353E-02    1.25       1.0  T
   8    -38.1647459 -0.140098E-04  0.134E-02    1.25       1.3  T
   9    -38.1647464 -0.486164E-06  0.798E-03    1.25       2.3  T
  10    -38.1647473 -0.954907E-06  0.236E-03    1.25       7.6  T
  11    -38.1647473  0.224258E-07  0.197E-03    1.25       9.1  T
  12    -38.1647474 -0.465001E-07  0.698E-04    1.25      25.7  T
  13    -38.1647474 -0.103698E-08  0.418E-04    1.25      42.9  T
     SCC iter.                  ...        0 min,  1.780 sec
     gradient                   ...        0 min,  0.208 sec
 * total energy  :   -37.5375162 Eh     change        0.1918170E-03 Eh
   gradient norm :     0.3719082 Eh/α   predicted    -0.3323407E-01 (*******%)
   displ. norm   :     0.5800927 α      lambda       -0.7095714E-01
   maximum displ.:     0.4626732 α      in ANC's #1, #23, #25, ...

........................................................................
.............................. CYCLE    6 ..............................
........................................................................
   1    -38.2092302 -0.382092E+02  0.717E-01    1.45       0.0  T
   2    -38.2095269 -0.296640E-03  0.412E-01    1.40       1.0  T
   3    -38.2080541  0.147272E-02  0.409E-01    1.49       1.0  T
   4    -38.2104079 -0.235376E-02  0.144E-01    1.43       1.0  T
   5    -38.2107008 -0.292870E-03  0.629E-02    1.44       1.0  T
   6    -38.2107120 -0.111938E-04  0.326E-02    1.44       1.0  T
   7    -38.2107180 -0.605519E-05  0.918E-03    1.44       2.0  T
   8    -38.2107179  0.856887E-07  0.518E-03    1.44       3.5  T
   9    -38.2107181 -0.194415E-06  0.279E-03    1.44       6.4  T
  10    -38.2107182 -0.419543E-07  0.132E-03    1.44      13.6  T
  11    -38.2107182 -0.103412E-07  0.426E-04    1.44      42.1  T
  12    -38.2107182 -0.299419E-08  0.234E-04    1.44      76.8  T
     SCC iter.                  ...        0 min,  1.879 sec
     gradient                   ...        0 min,  0.228 sec
 * total energy  :   -37.5835627 Eh     change       -0.4604646E-01 Eh
   gradient norm :     0.1773746 Eh/α   predicted    -0.4741739E-01 (   2.98%)
   displ. norm   :     0.3909596 α      lambda       -0.2919690E-01
   maximum displ.:     0.1607582 α      in ANC's #1, #23, #25, ...

........................................................................
.............................. CYCLE    7 ..............................
........................................................................
   1    -38.2365179 -0.382365E+02  0.456E-01    1.43       0.0  T
   2    -38.2364844  0.334681E-04  0.262E-01    1.39       1.0  T
   3    -38.2356057  0.878678E-03  0.264E-01    1.46       1.0  T
   4    -38.2367129 -0.110713E-02  0.522E-02    1.41       1.0  T
   5    -38.2367555 -0.426801E-04  0.310E-02    1.41       1.0  T
   6    -38.2367597 -0.415039E-05  0.158E-02    1.42       1.1  T
   7    -38.2367603 -0.583736E-06  0.726E-03    1.41       2.5  T
   8    -38.2367603 -0.649002E-08  0.308E-03    1.42       5.8  T
   9    -38.2367604 -0.152489E-06  0.117E-03    1.41      15.4  T
  10    -38.2367604 -0.118420E-07  0.694E-04    1.41      25.9  T
  11    -38.2367604 -0.105791E-08  0.324E-04    1.41      55.4  T
     SCC iter.                  ...        0 min,  1.475 sec
     gradient                   ...        0 min,  0.297 sec
 * total energy  :   -37.6036703 Eh     change       -0.2010761E-01 Eh
   gradient norm :     0.0803690 Eh/α   predicted    -0.1682982E-01 ( -16.30%)
   displ. norm   :     0.4762332 α      lambda       -0.1846771E-01
   maximum displ.:     0.1711366 α      in ANC's #23, #25, #14, ...

........................................................................
.............................. CYCLE    8 ..............................
........................................................................
   1    -38.2521308 -0.382521E+02  0.531E-01    1.38       0.0  T
   2    -38.2522538 -0.123028E-03  0.328E-01    1.36       1.0  T
   3    -38.2518010  0.452814E-03  0.169E-01    1.38       1.0  T
   4    -38.2522908 -0.489768E-03  0.764E-02    1.39       1.0  T
   5    -38.2523572 -0.664437E-04  0.350E-02    1.37       1.0  T
   6    -38.2523623 -0.502718E-05  0.216E-02    1.38       1.0  T
   7    -38.2523643 -0.208789E-05  0.112E-02    1.37       1.6  T
   8    -38.2523647 -0.388986E-06  0.553E-03    1.38       3.2  T
   9    -38.2523651 -0.321606E-06  0.212E-03    1.38       8.5  T
  10    -38.2523651 -0.220762E-07  0.132E-03    1.38      13.6  T
  11    -38.2523651 -0.532902E-08  0.465E-04    1.38      38.6  T
  12    -38.2523651 -0.666496E-09  0.131E-04    1.38     137.0  T
     SCC iter.                  ...        0 min,  1.605 sec
     gradient                   ...        0 min,  0.120 sec
 * total energy  :   -37.6156779 Eh     change       -0.1200761E-01 Eh
   gradient norm :     0.0691083 Eh/α   predicted    -0.1132810E-01 (  -5.66%)
   displ. norm   :     0.3553943 α      lambda       -0.9170252E-02
   maximum displ.:     0.1275751 α      in ANC's #2, #23, #14, ...

........................................................................
.............................. CYCLE    9 ..............................
........................................................................
   1    -38.2553690 -0.382554E+02  0.516E-01    1.36       0.0  T
   2    -38.2554162 -0.472228E-04  0.402E-01    1.37       1.0  T
   3    -38.2544976  0.918691E-03  0.238E-01    1.34       1.0  T
   4    -38.2555969 -0.109934E-02  0.948E-02    1.38       1.0  T
   5    -38.2557092 -0.112342E-03  0.500E-02    1.35       1.0  T
   6    -38.2557300 -0.207816E-04  0.211E-02    1.37       1.0  T
   7    -38.2557308 -0.812876E-06  0.825E-03    1.36       2.2  T
   8    -38.2557309 -0.959270E-07  0.534E-03    1.36       3.4  T
   9    -38.2557312 -0.243927E-06  0.277E-03    1.36       6.5  T
  10    -38.2557312 -0.210747E-07  0.171E-03    1.36      10.5  T
  11    -38.2557312 -0.891610E-08  0.413E-04    1.36      43.5  T
  12    -38.2557312 -0.636298E-09  0.153E-04    1.36     117.7  T
     SCC iter.                  ...        0 min,  1.657 sec
     gradient                   ...        0 min,  0.269 sec
 * total energy  :   -37.6192122 Eh     change       -0.3534281E-02 Eh
   gradient norm :     0.0569714 Eh/α   predicted    -0.5164264E-02 (  46.12%)
   displ. norm   :     0.1240110 α      lambda       -0.3616977E-02
   maximum displ.:     0.0924489 α      in ANC's #2, #15, #7, ...

........................................................................
.............................. CYCLE   10 ..............................
........................................................................
   1    -38.2555598 -0.382556E+02  0.130E-01    1.35       0.0  T
   2    -38.2555859 -0.261293E-04  0.110E-01    1.36       1.0  T
   3    -38.2555821  0.379253E-05  0.768E-02    1.35       1.0  T
   4    -38.2555712  0.108763E-04  0.418E-02    1.36       1.0  T
   5    -38.2556036 -0.323618E-04  0.188E-02    1.35       1.0  T
   6    -38.2556058 -0.224921E-05  0.101E-02    1.36       1.8  T
   7    -38.2556064 -0.528003E-06  0.435E-03    1.36       4.1  T
   8    -38.2556064 -0.263552E-07  0.275E-03    1.36       6.5  T
   9    -38.2556064 -0.294732E-07  0.151E-03    1.36      11.9  T
  10    -38.2556064 -0.703628E-08  0.820E-04    1.36      21.9  T
  11    -38.2556064 -0.199271E-08  0.129E-04    1.36     138.9  T
     SCC iter.                  ...        0 min,  1.144 sec
     gradient                   ...        0 min,  0.213 sec
 * total energy  :   -37.6214424 Eh     change       -0.2230209E-02 Eh
   gradient norm :     0.0246360 Eh/α   predicted    -0.1836316E-02 ( -17.66%)
   displ. norm   :     0.1196781 α      lambda       -0.1885770E-02
   maximum displ.:     0.0567291 α      in ANC's #15, #16, #7, ...

........................................................................
.............................. CYCLE   11 ..............................
........................................................................
   1    -38.2551512 -0.382552E+02  0.114E-01    1.35       0.0  T
   2    -38.2551253  0.258261E-04  0.935E-02    1.37       1.0  T
   3    -38.2552029 -0.775925E-04  0.535E-02    1.36       1.0  T
   4    -38.2552168 -0.138151E-04  0.155E-02    1.36       1.2  T
   5    -38.2552222 -0.541522E-05  0.662E-03    1.36       2.7  T
   6    -38.2552223 -0.993131E-07  0.388E-03    1.36       4.6  T
   7    -38.2552223 -0.273212E-07  0.144E-03    1.36      12.5  T
   8    -38.2552223 -0.119115E-07  0.112E-03    1.36      16.0  T
   9    -38.2552223 -0.239798E-08  0.521E-04    1.36      34.4  T
  10    -38.2552223 -0.178326E-08  0.255E-04    1.36      70.4  T
     SCC iter.                  ...        0 min,  0.959 sec
     gradient                   ...        0 min,  0.186 sec
 * total energy  :   -37.6228759 Eh     change       -0.1433494E-02 Eh
   gradient norm :     0.0220780 Eh/α   predicted    -0.9563938E-03 ( -33.28%)
   displ. norm   :     0.2876963 α      lambda       -0.2963379E-02
   maximum displ.:     0.1472205 α      in ANC's #15, #7, #16, ...

........................................................................
.............................. CYCLE   12 ..............................
........................................................................
   1    -38.2548844 -0.382549E+02  0.204E-01    1.36       0.0  T
   2    -38.2548636  0.207943E-04  0.159E-01    1.37       1.0  T
   3    -38.2548977 -0.341117E-04  0.996E-02    1.35       1.0  T
   4    -38.2549843 -0.865908E-04  0.301E-02    1.37       1.0  T
   5    -38.2550039 -0.196243E-04  0.132E-02    1.36       1.4  T
   6    -38.2550042 -0.245647E-06  0.689E-03    1.36       2.6  T
   7    -38.2550043 -0.104538E-06  0.315E-03    1.36       5.7  T
   8    -38.2550043 -0.160998E-07  0.235E-03    1.36       7.6  T
   9    -38.2550043 -0.242704E-07  0.962E-04    1.36      18.7  T
  10    -38.2550043 -0.698975E-08  0.570E-04    1.36      31.5  T
     SCC iter.                  ...        0 min,  0.972 sec
     gradient                   ...        0 min,  0.210 sec
 * total energy  :   -37.6249785 Eh     change       -0.2102588E-02 Eh
   gradient norm :     0.0267485 Eh/α   predicted    -0.1604354E-02 ( -23.70%)
   displ. norm   :     0.2990924 α      lambda       -0.2182951E-02
   maximum displ.:     0.1461821 α      in ANC's #15, #7, #16, ...

........................................................................
.............................. CYCLE   13 ..............................
........................................................................
   1    -38.2538793 -0.382539E+02  0.208E-01    1.36       0.0  T
   2    -38.2538501  0.292705E-04  0.181E-01    1.37       1.0  T
   3    -38.2539720 -0.121879E-03  0.103E-01    1.36       1.0  T
   4    -38.2540002 -0.282172E-04  0.357E-02    1.37       1.0  T
   5    -38.2540274 -0.271984E-04  0.166E-02    1.36       1.1  T
   6    -38.2540281 -0.766796E-06  0.701E-03    1.37       2.6  T
   7    -38.2540284 -0.232654E-06  0.318E-03    1.36       5.7  T
   8    -38.2540284  0.577720E-08  0.225E-03    1.36       8.0  T
   9    -38.2540284 -0.274341E-07  0.102E-03    1.36      17.6  T
  10    -38.2540284 -0.572142E-08  0.575E-04    1.36      31.2  T
  11    -38.2540284 -0.179881E-09  0.162E-04    1.36     111.0  T
     SCC iter.                  ...        0 min,  1.124 sec
     gradient                   ...        0 min,  0.250 sec
 * total energy  :   -37.6265965 Eh     change       -0.1618074E-02 Eh
   gradient norm :     0.0265197 Eh/α   predicted    -0.1189130E-02 ( -26.51%)
   displ. norm   :     0.2943521 α      lambda       -0.1922573E-02
   maximum displ.:     0.1366371 α      in ANC's #7, #15, #16, ...

........................................................................
.............................. CYCLE   14 ..............................
........................................................................
   1    -38.2549108 -0.382549E+02  0.175E-01    1.38       0.0  T
   2    -38.2549243 -0.134733E-04  0.134E-01    1.37       1.0  T
   3    -38.2548657  0.586081E-04  0.689E-02    1.37       1.0  T
   4    -38.2549339 -0.682688E-04  0.333E-02    1.37       1.0  T
   5    -38.2549498 -0.158729E-04  0.160E-02    1.37       1.1  T
   6    -38.2549504 -0.573133E-06  0.668E-03    1.37       2.7  T
   7    -38.2549507 -0.342514E-06  0.245E-03    1.37       7.3  T
   8    -38.2549507  0.739951E-08  0.145E-03    1.37      12.4  T
   9    -38.2549507 -0.161090E-07  0.823E-04    1.37      21.8  T
  10    -38.2549507 -0.441809E-08  0.429E-04    1.37      41.9  T
     SCC iter.                  ...        0 min,  0.698 sec
     gradient                   ...        0 min,  0.200 sec
 * total energy  :   -37.6279769 Eh     change       -0.1380363E-02 Eh
   gradient norm :     0.0148101 Eh/α   predicted    -0.1044592E-02 ( -24.32%)
   displ. norm   :     0.2335102 α      lambda       -0.1233052E-02
   maximum displ.:     0.1152264 α      in ANC's #7, #15, #8, ...

........................................................................
.............................. CYCLE   15 ..............................
........................................................................
   1    -38.2568975 -0.382569E+02  0.148E-01    1.39       0.0  T
   2    -38.2569104 -0.129179E-04  0.107E-01    1.37       1.0  T
   3    -38.2568822  0.281700E-04  0.637E-02    1.39       1.0  T
   4    -38.2569193 -0.371249E-04  0.172E-02    1.37       1.0  T
   5    -38.2569222 -0.288684E-05  0.159E-02    1.38       1.1  T
   6    -38.2569237 -0.149211E-05  0.555E-03    1.38       3.2  T
   7    -38.2569241 -0.420118E-06  0.158E-03    1.38      11.4  T
   8    -38.2569241 -0.401741E-09  0.832E-04    1.38      21.6  T
   9    -38.2569242 -0.862887E-08  0.499E-04    1.38      36.0  T
     SCC iter.                  ...        0 min,  0.859 sec
     gradient                   ...        0 min,  0.175 sec
 * total energy  :   -37.6288559 Eh     change       -0.8789719E-03 Eh
   gradient norm :     0.0145660 Eh/α   predicted    -0.6501499E-03 ( -26.03%)
   displ. norm   :     0.2010854 α      lambda       -0.8674433E-03
   maximum displ.:     0.1063877 α      in ANC's #7, #8, #15, ...

........................................................................
.............................. CYCLE   16 ..............................
........................................................................
   1    -38.2582865 -0.382583E+02  0.134E-01    1.39       0.0  T
   2    -38.2582939 -0.736893E-05  0.892E-02    1.37       1.0  T
   3    -38.2582506  0.432998E-04  0.768E-02    1.40       1.0  T
   4    -38.2583102 -0.596313E-04  0.171E-02    1.38       1.1  T
   5    -38.2583158 -0.558276E-05  0.148E-02    1.38       1.2  T
   6    -38.2583170 -0.116469E-05  0.512E-03    1.38       3.5  T
   7    -38.2583173 -0.258451E-06  0.130E-03    1.38      13.8  T
   8    -38.2583173 -0.390166E-08  0.652E-04    1.38      27.5  T
   9    -38.2583173 -0.533822E-08  0.358E-04    1.38      50.1  T
     SCC iter.                  ...        0 min,  0.694 sec
     gradient                   ...        0 min,  0.100 sec
 * total energy  :   -37.6295124 Eh     change       -0.6565149E-03 Eh
   gradient norm :     0.0167443 Eh/α   predicted    -0.4512700E-03 ( -31.26%)
   displ. norm   :     0.2301257 α      lambda       -0.9682158E-03
   maximum displ.:     0.1249910 α      in ANC's #8, #7, #6, ...

........................................................................
.............................. CYCLE   17 ..............................
........................................................................
   1    -38.2589423 -0.382589E+02  0.152E-01    1.40       0.0  T
   2    -38.2589531 -0.108309E-04  0.100E-01    1.38       1.0  T
   3    -38.2588958  0.573223E-04  0.838E-02    1.41       1.0  T
   4    -38.2589747 -0.789412E-04  0.183E-02    1.39       1.0  T
   5    -38.2589803 -0.557097E-05  0.160E-02    1.39       1.1  T
   6    -38.2589817 -0.142624E-05  0.546E-03    1.39       3.3  T
   7    -38.2589820 -0.259195E-06  0.134E-03    1.39      13.4  T
   8    -38.2589820 -0.128018E-07  0.623E-04    1.39      28.8  T
   9    -38.2589820 -0.322225E-08  0.337E-04    1.39      53.3  T
     SCC iter.                  ...        0 min,  0.763 sec
     gradient                   ...        0 min,  0.172 sec
 * total energy  :   -37.6302315 Eh     change       -0.7191498E-03 Eh
   gradient norm :     0.0159025 Eh/α   predicted    -0.5097517E-03 ( -29.12%)
   displ. norm   :     0.2279279 α      lambda       -0.9466245E-03
   maximum displ.:     0.1435726 α      in ANC's #8, #7, #13, ...

........................................................................
.............................. CYCLE   18 ..............................
........................................................................
   1    -38.2592943 -0.382593E+02  0.144E-01    1.41       0.0  T
   2    -38.2593020 -0.772801E-05  0.935E-02    1.40       1.0  T
   3    -38.2592391  0.628861E-04  0.726E-02    1.42       1.0  T
   4    -38.2593167 -0.775663E-04  0.147E-02    1.41       1.2  T
   5    -38.2593200 -0.331543E-05  0.116E-02    1.41       1.6  T
   6    -38.2593207 -0.716885E-06  0.389E-03    1.41       4.6  T
   7    -38.2593209 -0.131966E-06  0.103E-03    1.41      17.4  T
   8    -38.2593209 -0.108351E-07  0.398E-04    1.41      45.1  T
   9    -38.2593209 -0.955090E-09  0.221E-04    1.41      81.4  T
     SCC iter.                  ...        0 min,  0.874 sec
     gradient                   ...        0 min,  0.174 sec
 * total energy  :   -37.6309421 Eh     change       -0.7105641E-03 Eh
   gradient norm :     0.0147035 Eh/α   predicted    -0.4979073E-03 ( -29.93%)
   displ. norm   :     0.2499721 α      lambda       -0.1043961E-02
   maximum displ.:     0.1657372 α      in ANC's #8, #7, #13, ...

........................................................................
.............................. CYCLE   19 ..............................
........................................................................
   1    -38.2593954 -0.382594E+02  0.157E-01    1.43       0.0  T
   2    -38.2594022 -0.680473E-05  0.105E-01    1.42       1.0  T
   3    -38.2593748  0.274804E-04  0.393E-02    1.44       1.0  T
   4    -38.2594062 -0.314744E-04  0.101E-02    1.42       1.8  T
   5    -38.2594065 -0.263146E-06  0.557E-03    1.43       3.2  T
   6    -38.2594065 -0.340562E-07  0.180E-03    1.42      10.0  T
   7    -38.2594066 -0.413308E-07  0.895E-04    1.43      20.1  T
   8    -38.2594066 -0.112485E-07  0.509E-04    1.43      35.3  T
     SCC iter.                  ...        0 min,  0.697 sec
     gradient                   ...        0 min,  0.205 sec
 * total energy  :   -37.6317335 Eh     change       -0.7913877E-03 Eh
   gradient norm :     0.0158278 Eh/α   predicted    -0.5546147E-03 ( -29.92%)
   displ. norm   :     0.2730405 α      lambda       -0.1190047E-02
   maximum displ.:     0.1792178 α      in ANC's #8, #7, #13, ...

........................................................................
.............................. CYCLE   20 ..............................
........................................................................
   1    -38.2598296 -0.382598E+02  0.177E-01    1.44       0.0  T
   2    -38.2598285  0.110637E-05  0.118E-01    1.44       1.0  T
   3    -38.2596584  0.170081E-03  0.863E-02    1.43       1.0  T
   4    -38.2598435 -0.185060E-03  0.122E-02    1.44       1.5  T
   5    -38.2598441 -0.678390E-06  0.101E-02    1.44       1.8  T
   6    -38.2598446 -0.438676E-06  0.217E-03    1.44       8.3  T
   7    -38.2598446 -0.539858E-07  0.117E-03    1.44      15.4  T
   8    -38.2598446 -0.926087E-08  0.675E-04    1.44      26.6  T
   9    -38.2598446 -0.284906E-09  0.404E-04    1.44      44.5  T
     SCC iter.                  ...        0 min,  0.804 sec
     gradient                   ...        0 min,  0.113 sec
 * total energy  :   -37.6326152 Eh     change       -0.8817366E-03 Eh
   gradient norm :     0.0179969 Eh/α   predicted    -0.6393960E-03 ( -27.48%)
   displ. norm   :     0.2482754 α      lambda       -0.1081536E-02
   maximum displ.:     0.1586567 α      in ANC's #8, #7, #13, ...
 * RMSD in coord.:     0.6891090 α      energy gain  -0.2417245E+01 Eh

generating ANC from model Hessian ...
Using Lindh-Hessian (1995)
 Shifting diagonal of input Hessian by    1.0520653826759046E-002
 Lowest  eigenvalues of input Hessian
    0.010000    0.010316    0.000000    0.000000    0.000000    0.000000
    0.000000    0.000000    0.010971    0.011526    0.011686    0.012286
    0.012757    0.013952    0.014909    0.015319    0.015786    0.017030
 Highest eigenvalues
    1.737305    1.738023    2.503811    2.865198    3.614687    4.671084


........................................................................
.............................. CYCLE   21 ..............................
........................................................................
   1    -38.2602604 -0.382603E+02  0.177E-01    1.45       0.0  T
   2    -38.2602450  0.153191E-04  0.124E-01    1.46       1.0  T
   3    -38.2601180  0.127045E-03  0.109E-01    1.44       1.0  T
   4    -38.2603093 -0.191303E-03  0.158E-02    1.46       1.1  T
   5    -38.2603104 -0.114334E-05  0.134E-02    1.45       1.3  T
   6    -38.2603113 -0.874711E-06  0.275E-03    1.45       6.5  T
   7    -38.2603114 -0.839612E-07  0.113E-03    1.45      15.9  T
   8    -38.2603114 -0.193824E-08  0.705E-04    1.45      25.5  T
   9    -38.2603114 -0.181303E-08  0.380E-04    1.45      47.3  T
     SCC iter.                  ...        0 min,  0.871 sec
     gradient                   ...        0 min,  0.053 sec
 * total energy  :   -37.6333861 Eh     change       -0.7708514E-03 Eh
   gradient norm :     0.0203230 Eh/α   predicted     0.0000000E+00 (-100.00%)
   displ. norm   :     0.2576250 α      lambda       -0.1711872E-02
   maximum displ.:     0.1438381 α      in ANC's #6, #7, #18, ...

........................................................................
.............................. CYCLE   22 ..............................
........................................................................
   1    -38.2638385 -0.382638E+02  0.177E-01    1.47       0.0  T
   2    -38.2638346  0.393376E-05  0.119E-01    1.47       1.0  T
   3    -38.2637273  0.107276E-03  0.105E-01    1.46       1.0  T
   4    -38.2638852 -0.157898E-03  0.191E-02    1.47       1.0  T
   5    -38.2638888 -0.353652E-05  0.115E-02    1.47       1.6  T
   6    -38.2638892 -0.421541E-06  0.424E-03    1.47       4.2  T
   7    -38.2638894 -0.175257E-06  0.216E-03    1.47       8.3  T
   8    -38.2638894 -0.143951E-07  0.138E-03    1.47      13.0  T
   9    -38.2638894 -0.580759E-08  0.625E-04    1.47      28.7  T
  10    -38.2638894 -0.200736E-08  0.243E-04    1.47      73.9  T
     SCC iter.                  ...        0 min,  0.937 sec
     gradient                   ...        0 min,  0.206 sec
 * total energy  :   -37.6344428 Eh     change       -0.1056668E-02 Eh
   gradient norm :     0.0074342 Eh/α   predicted    -0.9158812E-03 ( -13.32%)
   displ. norm   :     0.3512442 α      lambda       -0.1134271E-02
   maximum displ.:     0.2016080 α      in ANC's #6, #7, #1, ...

........................................................................
.............................. CYCLE   23 ..............................
........................................................................
   1    -38.2658507 -0.382659E+02  0.258E-01    1.48       0.0  T
   2    -38.2658470  0.370547E-05  0.178E-01    1.49       1.0  T
   3    -38.2654596  0.387482E-03  0.137E-01    1.47       1.0  T
   4    -38.2658834 -0.423857E-03  0.185E-02    1.49       1.0  T
   5    -38.2658863 -0.289506E-05  0.114E-02    1.48       1.6  T
   6    -38.2658866 -0.323590E-06  0.458E-03    1.49       3.9  T
   7    -38.2658867 -0.818835E-07  0.279E-03    1.49       6.4  T
   8    -38.2658867 -0.200889E-07  0.149E-03    1.49      12.0  T
   9    -38.2658867 -0.127135E-07  0.768E-04    1.49      23.4  T
  10    -38.2658867 -0.235440E-08  0.316E-04    1.49      56.8  T
     SCC iter.                  ...        0 min,  1.030 sec
     gradient                   ...        0 min,  0.164 sec
 * total energy  :   -37.6351660 Eh     change       -0.7232318E-03 Eh
   gradient norm :     0.0081180 Eh/α   predicted    -0.6371051E-03 ( -11.91%)
   displ. norm   :     0.3906433 α      lambda       -0.8350884E-03
   maximum displ.:     0.2512096 α      in ANC's #7, #6, #4, ...

........................................................................
.............................. CYCLE   24 ..............................
........................................................................
   1    -38.2650870 -0.382651E+02  0.195E-01    1.51       0.0  T
   2    -38.2651027 -0.157513E-04  0.127E-01    1.50       1.0  T
   3    -38.2650525  0.502324E-04  0.710E-02    1.51       1.0  T
   4    -38.2651044 -0.518647E-04  0.223E-02    1.51       1.0  T
   5    -38.2651154 -0.110104E-04  0.998E-03    1.50       1.8  T
   6    -38.2651158 -0.466001E-06  0.409E-03    1.51       4.4  T
   7    -38.2651160 -0.133626E-06  0.187E-03    1.51       9.6  T
   8    -38.2651160 -0.610896E-08  0.127E-03    1.51      14.1  T
   9    -38.2651160 -0.152797E-08  0.749E-04    1.51      24.0  T
  10    -38.2651160 -0.265280E-08  0.410E-04    1.51      43.9  T
     SCC iter.                  ...        0 min,  0.884 sec
     gradient                   ...        0 min,  0.095 sec
 * total energy  :   -37.6357189 Eh     change       -0.5528892E-03 Eh
   gradient norm :     0.0245142 Eh/α   predicted    -0.4812628E-03 ( -12.95%)
   displ. norm   :     0.3209361 α      lambda       -0.6580123E-03
   maximum displ.:     0.2005558 α      in ANC's #7, #6, #4, ...

........................................................................
.............................. CYCLE   25 ..............................
........................................................................
   1    -38.2648637 -0.382649E+02  0.141E-01    1.52       0.0  T
   2    -38.2648701 -0.639964E-05  0.827E-02    1.51       1.0  T
   3    -38.2648557  0.143901E-04  0.419E-02    1.52       1.0  T
   4    -38.2648728 -0.170864E-04  0.110E-02    1.51       1.6  T
   5    -38.2648737 -0.908594E-06  0.622E-03    1.51       2.9  T
   6    -38.2648739 -0.249096E-06  0.261E-03    1.51       6.9  T
   7    -38.2648740 -0.522079E-07  0.101E-03    1.51      17.8  T
   8    -38.2648740 -0.155413E-08  0.736E-04    1.51      24.4  T
   9    -38.2648740 -0.177638E-08  0.326E-04    1.51      55.1  T
     SCC iter.                  ...        0 min,  0.903 sec
     gradient                   ...        0 min,  0.206 sec
 * total energy  :   -37.6361790 Eh     change       -0.4601322E-03 Eh
   gradient norm :     0.0175892 Eh/α   predicted    -0.3628944E-03 ( -21.13%)
   displ. norm   :     0.2593969 α      lambda       -0.4513358E-03
   maximum displ.:     0.1812685 α      in ANC's #7, #4, #6, ...

........................................................................
.............................. CYCLE   26 ..............................
........................................................................
   1    -38.2656640 -0.382657E+02  0.119E-01    1.52       0.0  T
   2    -38.2656663 -0.230448E-05  0.691E-02    1.51       1.0  T
   3    -38.2656548  0.115299E-04  0.355E-02    1.51       1.0  T
   4    -38.2656676 -0.128520E-04  0.104E-02    1.52       1.7  T
   5    -38.2656678 -0.181518E-06  0.797E-03    1.51       2.3  T
   6    -38.2656681 -0.360029E-06  0.206E-03    1.51       8.7  T
   7    -38.2656682 -0.237931E-07  0.977E-04    1.51      18.4  T
   8    -38.2656682 -0.699508E-09  0.575E-04    1.51      31.3  T
     SCC iter.                  ...        0 min,  0.748 sec
     gradient                   ...        0 min,  0.240 sec
 * total energy  :   -37.6364897 Eh     change       -0.3107123E-03 Eh
   gradient norm :     0.0074322 Eh/α   predicted    -0.2408537E-03 ( -22.48%)
   displ. norm   :     0.3775346 α      lambda       -0.3671090E-03
   maximum displ.:     0.2924157 α      in ANC's #7, #6, #4, ...

........................................................................
.............................. CYCLE   27 ..............................
........................................................................
   1    -38.2636870 -0.382637E+02  0.180E-01    1.52       0.0  T
   2    -38.2636888 -0.183653E-05  0.114E-01    1.52       1.0  T
   3    -38.2636042  0.846245E-04  0.707E-02    1.51       1.0  T
   4    -38.2636939 -0.897099E-04  0.146E-02    1.52       1.2  T
   5    -38.2636960 -0.213483E-05  0.831E-03    1.52       2.2  T
   6    -38.2636964 -0.345796E-06  0.176E-03    1.52      10.2  T
   7    -38.2636964 -0.202247E-07  0.100E-03    1.52      17.9  T
   8    -38.2636964 -0.425463E-08  0.529E-04    1.52      34.0  T
   9    -38.2636964 -0.265656E-08  0.195E-04    1.52      92.2  T
     SCC iter.                  ...        0 min,  0.775 sec
     gradient                   ...        0 min,  0.212 sec
 * total energy  :   -37.6366427 Eh     change       -0.1529555E-03 Eh
   gradient norm :     0.0221340 Eh/α   predicted    -0.2097200E-03 (  37.11%)
   displ. norm   :     0.1435860 α      lambda       -0.4066650E-03
   maximum displ.:     0.0813399 α      in ANC's #7, #2, #4, ...

........................................................................
.............................. CYCLE   28 ..............................
........................................................................
   1    -38.2681812 -0.382682E+02  0.663E-02    1.52       0.0  T
   2    -38.2681757  0.551956E-05  0.596E-02    1.51       1.0  T
   3    -38.2681952 -0.194384E-04  0.330E-02    1.52       1.0  T
   4    -38.2681992 -0.398998E-05  0.818E-03    1.51       2.2  T
   5    -38.2681999 -0.707902E-06  0.501E-03    1.52       3.6  T
   6    -38.2681999 -0.148883E-07  0.199E-03    1.52       9.0  T
   7    -38.2681999 -0.370577E-07  0.985E-04    1.51      18.2  T
   8    -38.2681999 -0.816948E-08  0.556E-04    1.51      32.3  T
     SCC iter.                  ...        0 min,  0.690 sec
     gradient                   ...        0 min,  0.134 sec
 * total energy  :   -37.6368411 Eh     change       -0.1983980E-03 Eh
   gradient norm :     0.0068868 Eh/α   predicted    -0.2075266E-03 (   4.60%)
   displ. norm   :     0.2373006 α      lambda       -0.2140603E-03
   maximum displ.:     0.1714655 α      in ANC's #7, #4, #2, ...

........................................................................
.............................. CYCLE   29 ..............................
........................................................................
   1    -38.2678133 -0.382678E+02  0.106E-01    1.52       0.0  T
   2    -38.2678147 -0.147627E-05  0.720E-02    1.52       1.0  T
   3    -38.2677901  0.246748E-04  0.337E-02    1.53       1.0  T
   4    -38.2678152 -0.251243E-04  0.115E-02    1.52       1.6  T
   5    -38.2678169 -0.170541E-05  0.522E-03    1.52       3.4  T
   6    -38.2678169 -0.137784E-07  0.223E-03    1.52       8.1  T
   7    -38.2678170 -0.614358E-07  0.998E-04    1.52      18.0  T
   8    -38.2678170 -0.162966E-08  0.716E-04    1.52      25.1  T
     SCC iter.                  ...        0 min,  0.697 sec
     gradient                   ...        0 min,  0.229 sec
 * total energy  :   -37.6369932 Eh     change       -0.1521713E-03 Eh
   gradient norm :     0.0054408 Eh/α   predicted    -0.1130576E-03 ( -25.70%)
   displ. norm   :     0.3425635 α      lambda       -0.2175223E-03
   maximum displ.:     0.2338778 α      in ANC's #7, #2, #4, ...

........................................................................
.............................. CYCLE   30 ..............................
........................................................................
   1    -38.2664028 -0.382664E+02  0.110E-01    1.53       0.0  T
   2    -38.2664031 -0.351547E-06  0.729E-02    1.52       1.0  T
   3    -38.2663524  0.507591E-04  0.465E-02    1.53       1.0  T
   4    -38.2664066 -0.541806E-04  0.983E-03    1.53       1.8  T
   5    -38.2664070 -0.408424E-06  0.654E-03    1.53       2.7  T
   6    -38.2664071 -0.176467E-06  0.171E-03    1.53      10.5  T
   7    -38.2664072 -0.353692E-07  0.872E-04    1.53      20.6  T
   8    -38.2664072 -0.375278E-08  0.434E-04    1.53      41.4  T
     SCC iter.                  ...        0 min,  0.677 sec
     gradient                   ...        0 min,  0.067 sec
 * total energy  :   -37.6371207 Eh     change       -0.1274298E-03 Eh
   gradient norm :     0.0140630 Eh/α   predicted    -0.1215281E-03 (  -4.63%)
   displ. norm   :     0.1578121 α      lambda       -0.1733112E-03
   maximum displ.:     0.1027335 α      in ANC's #2, #3, #7, ...

........................................................................
.............................. CYCLE   31 ..............................
........................................................................
   1    -38.2679593 -0.382680E+02  0.341E-02    1.53       0.0  T
   2    -38.2679592  0.879283E-07  0.205E-02    1.53       1.0  T
   3    -38.2679580  0.124991E-05  0.185E-02    1.53       1.0  T
   4    -38.2679630 -0.496259E-05  0.481E-03    1.53       3.7  T
   5    -38.2679632 -0.213936E-06  0.282E-03    1.53       6.4  T
   6    -38.2679632 -0.129300E-07  0.117E-03    1.53      15.4  T
   7    -38.2679632 -0.138839E-07  0.619E-04    1.53      29.0  T
   8    -38.2679632 -0.320653E-08  0.309E-04    1.53      58.2  T
     SCC iter.                  ...        0 min,  0.949 sec
     gradient                   ...        0 min,  0.263 sec
 * total energy  :   -37.6372419 Eh     change       -0.1212072E-03 Eh
   gradient norm :     0.0060702 Eh/α   predicted    -0.8881424E-04 ( -26.73%)
   displ. norm   :     0.2828238 α      lambda       -0.1610251E-03
   maximum displ.:     0.1603657 α      in ANC's #2, #7, #3, ...

........................................................................
.............................. CYCLE   32 ..............................
........................................................................
   1    -38.2672028 -0.382672E+02  0.706E-02    1.53       0.0  T
   2    -38.2672037 -0.906893E-06  0.434E-02    1.53       1.0  T
   3    -38.2672006  0.315901E-05  0.159E-02    1.53       1.1  T
   4    -38.2672041 -0.353184E-05  0.650E-03    1.53       2.8  T
   5    -38.2672039  0.141258E-06  0.550E-03    1.53       3.3  T
   6    -38.2672043 -0.330402E-06  0.135E-03    1.53      13.3  T
   7    -38.2672043 -0.964141E-08  0.831E-04    1.53      21.6  T
   8    -38.2672043 -0.116366E-08  0.608E-04    1.53      29.6  T
     SCC iter.                  ...        0 min,  0.830 sec
     gradient                   ...        0 min,  0.245 sec
 * total energy  :   -37.6373692 Eh     change       -0.1273025E-03 Eh
   gradient norm :     0.0051619 Eh/α   predicted    -0.8695377E-04 ( -31.70%)
   displ. norm   :     0.3772069 α      lambda       -0.1995402E-03
   maximum displ.:     0.2222614 α      in ANC's #2, #3, #7, ...

........................................................................
.............................. CYCLE   33 ..............................
........................................................................
   1    -38.2667320 -0.382667E+02  0.816E-02    1.53       0.0  T
   2    -38.2667329 -0.946375E-06  0.549E-02    1.53       1.0  T
   3    -38.2667282  0.468000E-05  0.148E-02    1.53       1.2  T
   4    -38.2667328 -0.453743E-05  0.947E-03    1.53       1.9  T
   5    -38.2667333 -0.581647E-06  0.540E-03    1.53       3.3  T
   6    -38.2667335 -0.171516E-06  0.161E-03    1.53      11.1  T
   7    -38.2667335 -0.278676E-07  0.535E-04    1.53      33.6  T
   8    -38.2667335 -0.174074E-08  0.360E-04    1.53      49.9  T
     SCC iter.                  ...        0 min,  1.002 sec
     gradient                   ...        0 min,  0.337 sec
 * total energy  :   -37.6375309 Eh     change       -0.1617200E-03 Eh
   gradient norm :     0.0043385 Eh/α   predicted    -0.1139687E-03 ( -29.53%)
   displ. norm   :     0.4865437 α      lambda       -0.2491540E-03
   maximum displ.:     0.2856303 α      in ANC's #2, #3, #7, ...

........................................................................
.............................. CYCLE   34 ..............................
........................................................................
   1    -38.2660334 -0.382660E+02  0.122E-01    1.54       0.0  T
   2    -38.2660335 -0.830288E-07  0.866E-02    1.54       1.0  T
   3    -38.2659530  0.804445E-04  0.561E-02    1.53       1.0  T
   4    -38.2660398 -0.867439E-04  0.143E-02    1.54       1.3  T
   5    -38.2660421 -0.230612E-05  0.816E-03    1.54       2.2  T
   6    -38.2660423 -0.225223E-06  0.234E-03    1.54       7.7  T
   7    -38.2660423 -0.381712E-07  0.774E-04    1.54      23.2  T
   8    -38.2660423 -0.153555E-08  0.469E-04    1.54      38.3  T
     SCC iter.                  ...        0 min,  0.928 sec
     gradient                   ...        0 min,  0.295 sec
 * total energy  :   -37.6377242 Eh     change       -0.1933133E-03 Eh
   gradient norm :     0.0052760 Eh/α   predicted    -0.1540716E-03 ( -20.30%)
   displ. norm   :     0.4512205 α      lambda       -0.2574196E-03
   maximum displ.:     0.2769771 α      in ANC's #3, #2, #4, ...

........................................................................
.............................. CYCLE   35 ..............................
........................................................................
   1    -38.2683824 -0.382684E+02  0.964E-02    1.53       0.0  T
   2    -38.2683826 -0.152431E-06  0.690E-02    1.54       1.0  T
   3    -38.2683346  0.479799E-04  0.449E-02    1.53       1.0  T
   4    -38.2683889 -0.543199E-04  0.127E-02    1.54       1.4  T
   5    -38.2683910 -0.204877E-05  0.598E-03    1.54       3.0  T
   6    -38.2683911 -0.130239E-06  0.201E-03    1.54       9.0  T
   7    -38.2683911 -0.308669E-07  0.616E-04    1.54      29.2  T
   8    -38.2683911 -0.170560E-08  0.409E-04    1.54      44.0  T
     SCC iter.                  ...        0 min,  0.959 sec
     gradient                   ...        0 min,  0.272 sec
 * total energy  :   -37.6378867 Eh     change       -0.1625226E-03 Eh
   gradient norm :     0.0072012 Eh/α   predicted    -0.1549175E-03 (  -4.68%)
   displ. norm   :     0.6400361 α      lambda       -0.2895791E-03
   maximum displ.:     0.3479652 α      in ANC's #2, #3, #7, ...

........................................................................
.............................. CYCLE   36 ..............................
........................................................................
   1    -38.2609573 -0.382610E+02  0.193E-01    1.54       0.0  T
   2    -38.2609568  0.500232E-06  0.134E-01    1.54       1.0  T
   3    -38.2607521  0.204671E-03  0.933E-02    1.52       1.0  T
   4    -38.2609749 -0.222831E-03  0.202E-02    1.54       1.0  T
   5    -38.2609781 -0.320605E-05  0.115E-02    1.54       1.6  T
   6    -38.2609784 -0.221675E-06  0.335E-03    1.54       5.4  T
   7    -38.2609785 -0.101886E-06  0.146E-03    1.54      12.3  T
   8    -38.2609785 -0.380662E-08  0.762E-04    1.54      23.6  T
   9    -38.2609785 -0.245070E-08  0.467E-04    1.54      38.4  T
     SCC iter.                  ...        0 min,  1.065 sec
     gradient                   ...        0 min,  0.292 sec
 * total energy  :   -37.6377906 Eh     change        0.9609501E-04 Eh
   gradient norm :     0.0269812 Eh/α   predicted    -0.2041041E-03 (-312.40%)
   displ. norm   :     0.2101585 α      lambda       -0.6362958E-03
   maximum displ.:     0.1297912 α      in ANC's #7, #2, #3, ...

........................................................................
.............................. CYCLE   37 ..............................
........................................................................
   1    -38.2715523 -0.382716E+02  0.730E-02    1.54       0.0  T
   2    -38.2715546 -0.233816E-05  0.456E-02    1.54       1.0  T
   3    -38.2715506  0.405576E-05  0.189E-02    1.54       1.0  T
   4    -38.2715552 -0.463466E-05  0.963E-03    1.54       1.9  T
   5    -38.2715554 -0.202726E-06  0.610E-03    1.54       2.9  T
   6    -38.2715557 -0.315212E-06  0.219E-03    1.54       8.2  T
   7    -38.2715557 -0.255379E-07  0.937E-04    1.54      19.2  T
   8    -38.2715558 -0.688377E-08  0.551E-04    1.54      32.6  T
     SCC iter.                  ...        0 min,  1.014 sec
     gradient                   ...        0 min,  0.166 sec
 * total energy  :   -37.6380263 Eh     change       -0.2356110E-03 Eh
   gradient norm :     0.0065418 Eh/α   predicted    -0.3322013E-03 (  41.00%)
   displ. norm   :     0.1309811 α      lambda       -0.1558956E-03
   maximum displ.:     0.0881314 α      in ANC's #3, #2, #4, ...

........................................................................
.............................. CYCLE   38 ..............................
........................................................................
   1    -38.2694425 -0.382694E+02  0.575E-02    1.54       0.0  T
   2    -38.2694413  0.123945E-05  0.392E-02    1.53       1.0  T
   3    -38.2694332  0.812439E-05  0.326E-02    1.54       1.0  T
   4    -38.2694492 -0.160338E-04  0.653E-03    1.53       2.8  T
   5    -38.2694495 -0.297514E-06  0.458E-03    1.54       3.9  T
   6    -38.2694495 -0.176411E-07  0.146E-03    1.53      12.3  T
   7    -38.2694495 -0.149956E-07  0.700E-04    1.53      25.7  T
   8    -38.2694495 -0.104757E-08  0.507E-04    1.53      35.4  T
     SCC iter.                  ...        0 min,  1.047 sec
     gradient                   ...        0 min,  0.250 sec
 * total energy  :   -37.6380675 Eh     change       -0.4127548E-04 Eh
   gradient norm :     0.0047962 Eh/α   predicted    -0.7928851E-04 (  92.10%)
   displ. norm   :     0.1221522 α      lambda       -0.7187468E-04
   maximum displ.:     0.0618754 α      in ANC's #3, #2, #8, ...

........................................................................
.............................. CYCLE   39 ..............................
........................................................................
   1    -38.2688895 -0.382689E+02  0.426E-02    1.54       0.0  T
   2    -38.2688900 -0.507004E-06  0.260E-02    1.54       1.0  T
   3    -38.2688889  0.103743E-05  0.105E-02    1.54       1.7  T
   4    -38.2688901 -0.113518E-05  0.431E-03    1.54       4.2  T
   5    -38.2688902 -0.977335E-07  0.302E-03    1.54       5.9  T
   6    -38.2688902 -0.516273E-08  0.880E-04    1.54      20.4  T
   7    -38.2688902 -0.102452E-07  0.407E-04    1.54      44.1  T
     SCC iter.                  ...        0 min,  0.841 sec
     gradient                   ...        0 min,  0.261 sec
 * total energy  :   -37.6381125 Eh     change       -0.4500266E-04 Eh
   gradient norm :     0.0018082 Eh/α   predicted    -0.3647482E-04 ( -18.95%)
   displ. norm   :     0.2828184 α      lambda       -0.4312854E-04
   maximum displ.:     0.1614413 α      in ANC's #3, #2, #8, ...

........................................................................
.............................. CYCLE   40 ..............................
........................................................................
   1    -38.2685377 -0.382685E+02  0.670E-02    1.54       0.0  T
   2    -38.2685382 -0.450022E-06  0.461E-02    1.54       1.0  T
   3    -38.2685201  0.181052E-04  0.295E-02    1.53       1.0  T
   4    -38.2685395 -0.194556E-04  0.712E-03    1.54       2.5  T
   5    -38.2685402 -0.650271E-06  0.422E-03    1.54       4.3  T
   6    -38.2685402 -0.474776E-07  0.115E-03    1.54      15.6  T
   7    -38.2685402 -0.162942E-07  0.443E-04    1.54      40.5  T
   8    -38.2685402 -0.108793E-08  0.249E-04    1.54      72.0  T
     SCC iter.                  ...        0 min,  0.812 sec
     gradient                   ...        0 min,  0.306 sec
 * total energy  :   -37.6381116 Eh     change        0.9068119E-06 Eh
   gradient norm :     0.0125109 Eh/α   predicted    -0.2233316E-04 (*******%)
   displ. norm   :     0.0329631 α      lambda       -0.4633609E-04
   maximum displ.:     0.0199052 α      in ANC's #3, #7, #5, ...

........................................................................
.............................. CYCLE   41 ..............................
........................................................................
   1    -38.2687694 -0.382688E+02  0.206E-02    1.54       0.0  T
   2    -38.2687689  0.462378E-06  0.169E-02    1.54       1.1  T
   3    -38.2687699 -0.999701E-06  0.112E-02    1.54       1.6  T
   4    -38.2687708 -0.870519E-06  0.196E-03    1.54       9.2  T
   5    -38.2687709 -0.528103E-07  0.121E-03    1.54      14.9  T
   6    -38.2687709 -0.255986E-08  0.646E-04    1.54      27.8  T
   7    -38.2687709 -0.128211E-08  0.350E-04    1.54      51.4  T
     SCC iter.                  ...        0 min,  0.813 sec
     gradient                   ...        0 min,  0.063 sec
 * total energy  :   -37.6381414 Eh     change       -0.2979739E-04 Eh
   gradient norm :     0.0042053 Eh/α   predicted    -0.2319539E-04 ( -22.16%)
   displ. norm   :     0.0332444 α      lambda       -0.1314870E-04
   maximum displ.:     0.0177720 α      in ANC's #2, #4, #6, ...

........................................................................
.............................. CYCLE   42 ..............................
........................................................................
   1    -38.2700122 -0.382700E+02  0.188E-02    1.54       0.0  T
   2    -38.2700120  0.278837E-06  0.139E-02    1.54       1.3  T
   3    -38.2700115  0.426620E-06  0.104E-02    1.54       1.7  T
   4    -38.2700130 -0.144007E-05  0.147E-03    1.54      12.2  T
   5    -38.2700130 -0.764241E-08  0.850E-04    1.54      21.1  T
   6    -38.2700130 -0.290719E-08  0.384E-04    1.54      46.7  T
     SCC iter.                  ...        0 min,  0.670 sec
     gradient                   ...        0 min,  0.235 sec
 * total energy  :   -37.6381470 Eh     change       -0.5561679E-05 Eh
   gradient norm :     0.0014690 Eh/α   predicted    -0.6582653E-05 (  18.36%)
   displ. norm   :     0.0910967 α      lambda       -0.6073513E-05
   maximum displ.:     0.0637698 α      in ANC's #3, #2, #8, ...
 * RMSD in coord.:     0.8115288 α      energy gain  -0.5531752E-02 Eh

generating ANC from model Hessian ...
Using Lindh-Hessian (1995)
 Shifting diagonal of input Hessian by    1.0315595094587949E-002
 Lowest  eigenvalues of input Hessian
    0.010000    0.010188    0.000000    0.000000    0.000000    0.000000
    0.000000    0.000000    0.010756    0.011247    0.011514    0.011868
    0.012177    0.013828    0.015004    0.016113    0.016148    0.016927
 Highest eigenvalues
    1.732720    1.733809    2.425537    2.868077    3.501139    4.834526


........................................................................
.............................. CYCLE   43 ..............................
........................................................................
   1    -38.2688910 -0.382689E+02  0.209E-02    1.54       0.0  T
   2    -38.2688911 -0.916508E-07  0.129E-02    1.54       1.4  T
   3    -38.2688908  0.300479E-06  0.458E-03    1.54       3.9  T
   4    -38.2688911 -0.332391E-06  0.186E-03    1.54       9.6  T
   5    -38.2688911 -0.195662E-07  0.109E-03    1.54      16.5  T
   6    -38.2688911  0.484035E-08  0.551E-04    1.54      32.6  T
   7    -38.2688911 -0.596482E-08  0.161E-04    1.54     111.4  T
     SCC iter.                  ...        0 min,  0.820 sec
     gradient                   ...        0 min,  0.224 sec
 * total energy  :   -37.6381476 Eh     change       -0.5759237E-06 Eh
   gradient norm :     0.0029025 Eh/α   predicted     0.0000000E+00 (-100.00%)
   displ. norm   :     0.0138953 α      lambda        0.8764181E-05
   maximum displ.:     0.0102574 α      in ANC's #7, #2, #10, ...

........................................................................
.............................. CYCLE   44 ..............................
........................................................................
   1    -38.2695121 -0.382695E+02  0.616E-03    1.54       0.0  T
   2    -38.2695121 -0.128829E-07  0.435E-03    1.54       4.1  T
   3    -38.2695121  0.735750E-07  0.224E-03    1.54       8.0  T
   4    -38.2695121 -0.713909E-07  0.117E-03    1.54      15.4  T
   5    -38.2695121 -0.166481E-07  0.777E-04    1.54      23.1  T
   6    -38.2695121 -0.143806E-08  0.171E-04    1.54     104.9  T
     SCC iter.                  ...        0 min,  0.745 sec
     gradient                   ...        0 min,  0.188 sec
 * total energy  :   -37.6381523 Eh     change       -0.4704047E-05 Eh
   gradient norm :     0.0004658 Eh/α   predicted    -0.3797366E-05 ( -19.27%)
   displ. norm   :     0.0292862 α      lambda       -0.3716844E-05
   maximum displ.:     0.0209843 α      in ANC's #7, #2, #12, ...

   *** GEOMETRY OPTIMIZATION CONVERGED AFTER 44 ITERATIONS ***

------------------------------------------------------------------------
 total energy gain   :        -2.4227819 Eh    -1520.3186 kcal/mol
 total RMSD          :         1.2201377 a0        0.6457 Å
 total power (kW/mol):      -144.5684756 (step) -106.1137 (real)
------------------------------------------------------------------------

 ANCopt (total)                0 d,  0 h,  0 min, 59.945 sec
 optimizer setup                ...        0 min,  0.000 sec (  0.001%)
 model hessian                  ...        0 min,  0.204 sec (  0.340%)
 ANC generation                 ...        0 min,  0.099 sec (  0.166%)
 coordinate transformation      ...        0 min,  0.001 sec (  0.001%)
 single point calculation       ...        0 min, 58.771 sec ( 98.042%)
 optimization log               ...        0 min,  0.004 sec (  0.007%)
 hessian update                 ...        0 min,  0.663 sec (  1.106%)
 rational function              ...        0 min,  0.200 sec (  0.333%)

================
 final structure:
================
31
 xtb: 6.5.1 (b24c23e)
Zr          -1.27613999959363       -0.14453256872541        0.62441431749168
C           -1.59726692054410        1.27420212273899       -1.52164258446383
C           -0.19218865262811       -2.27123617637778        1.12163753037125
C            0.49913285292685       -1.72097410734689        0.01162100373969
C           -0.39317219004940       -1.69688978427081       -1.08879771265988
C           -1.63762944152233       -2.20930042159911       -0.65777584479840
C           -1.52043647258441       -2.55581082130560        0.71606180045188
H            0.25766159475529       -2.56888974818489        2.06254442902576
H            1.56613815308133       -1.52875765829912       -0.03809769828270
H           -0.12291120549079       -1.48117515469474       -2.11622985402249
H           -2.47711115936185       -2.44199290988877       -1.30178502314765
H           -2.24914916980047       -3.11579246935987        1.29406046379907
C            0.46460304454080        0.59508083593653        2.19282365962991
C           -0.68636011532681        0.26727453485123        2.95471685122514
C           -1.70573952795803        1.19704003005557        2.62453398223074
C           -1.19150738535188        2.08235582707663        1.64466978553415
C            0.14957795087037        1.70693666428963        1.37606488503515
H            1.45317434963443        0.17032809403168        2.32658859573672
H           -0.72349342904321       -0.43973003351718        3.77718188757617
H           -2.63256553240038        1.32840222085407        3.17028437764717
H           -1.68183609318331        2.97995821968826        1.28663856933425
H            0.86044130110651        2.27821517616336        0.78744698801602
H           -0.54629776192190        1.06409795854770       -1.20107198586747
H           -1.76315470686460        0.85865722060128       -2.51064426444428
H           -1.75854155703291        2.34721733615672       -1.54231577022301
C           -3.66754695169204       -0.08671446490161        0.53813201540323
C           -3.51381623690059        0.69045247404914       -0.62364947784822
H           -3.80057061370252        1.73677885873574       -0.55615155177310
H           -3.80600570005518        0.23449671618651       -1.56598637909242
H           -4.05351623870840        0.42447815312776        1.42106137488210
H           -4.03885253519305       -1.10464115462606        0.40674993949908

 Bond Distances (Angstroems)
 ---------------------------
Zr1-C2=2.5926        Zr1-C3=2.4382        Zr1-C4=2.4520        Zr1-C5=2.4748        Zr1-C6=2.4572        Zr1-C7=2.4254        
Zr1-C13=2.4571       Zr1-C14=2.4388       Zr1-C15=2.4464       Zr1-C16=2.4509       Zr1-C17=2.4547       Zr1-H23=2.3078       
Zr1-C26=2.3937       Zr1-C27=2.6948       C2-Zr1=2.5926        C2-H23=1.1187        C2-H24=1.0855        C2-H25=1.0853        
C3-Zr1=2.4382        C3-C4=1.4187         C3-C7=1.4176         C3-H8=1.0846         C4-Zr1=2.4520        C4-C3=1.4187         
C4-C5=1.4169         C4-H9=1.0853         C5-Zr1=2.4748        C5-C4=1.4169         C5-C6=1.4132         C5-H10=1.0841        
C6-Zr1=2.4572        C6-C5=1.4132         C6-C7=1.4217         C6-H11=1.0833        C7-Zr1=2.4254        C7-C3=1.4176         
C7-C6=1.4217         C7-H12=1.0857        H8-C3=1.0846         H9-C4=1.0853         H10-C5=1.0841        H11-C6=1.0833        
H12-C7=1.0857        C13-Zr1=2.4571       C13-C14=1.4187       C13-C17=1.4151       C13-H18=1.0842       C14-Zr1=2.4388       
C14-C13=1.4187       C14-C15=1.4187       C14-H19=1.0852       C15-Zr1=2.4464       C15-C14=1.4187       C15-C16=1.4172       
C15-H20=1.0836       C16-Zr1=2.4509       C16-C15=1.4172       C16-C17=1.4183       C16-H21=1.0837       C17-Zr1=2.4547       
C17-C13=1.4151       C17-C16=1.4183       C17-H22=1.0854       H18-C13=1.0842       H19-C14=1.0852       H20-C15=1.0836       
H21-C16=1.0837       H22-C17=1.0854       H23-Zr1=2.3078       H23-C2=1.1187        H24-C2=1.0855        H25-C2=1.0853        
C26-Zr1=2.3937       C26-C27=1.4062       C26-H30=1.0908       C26-H31=1.0915       C27-Zr1=2.6948       C27-C26=1.4062       
C27-H28=1.0870       C27-H29=1.0869       H28-C27=1.0870       H29-C27=1.0869       H30-C26=1.0908       H31-C26=1.0915       
 C  H  Rav=1.0877 sigma=0.0081  Rmin=1.0833  Rmax=1.1187    17
 C  C  Rav=1.4166 sigma=0.0039  Rmin=1.4062  Rmax=1.4217    11
 Zr H  Rav=2.3078 sigma=0.0000  Rmin=2.3078  Rmax=2.3078     1
 Zr C  Rav=2.4751 sigma=0.0769  Rmin=2.3937  Rmax=2.6948    13

 selected bond angles (degree)
 --------------------
C3-Zr1-C2=134.52               C4-Zr1-C2=103.57               C4-Zr1-C3= 33.73               C5-Zr1-C2= 79.30               
C5-Zr1-C3= 55.63               C5-Zr1-C4= 33.42               C6-Zr1-C2= 90.55               C6-Zr1-C3= 55.87               
C6-Zr1-C4= 55.66               C6-Zr1-C5= 33.30               C7-Zr1-C2=124.25               C7-Zr1-C3= 33.89               
C7-Zr1-C4= 56.16               C7-Zr1-C5= 55.84               C7-Zr1-C6= 33.85               C13-Zr1-C2=116.83              
C13-Zr1-C3= 79.48              C13-Zr1-C4= 80.80              C13-Zr1-C5=112.21              C13-Zr1-C6=133.65              
C13-Zr1-C7=110.27              C14-Zr1-C2=136.76              C14-Zr1-C3= 81.08              C14-Zr1-C4= 99.92              
C14-Zr1-C5=132.93              C14-Zr1-C6=132.54              C14-Zr1-C7= 98.98              C14-Zr1-C13= 33.69             
C15-Zr1-C2=110.79              C15-Zr1-C3=112.93              C15-Zr1-C4=133.16              C15-Zr1-C5=166.56              
C15-Zr1-C6=149.49              C15-Zr1-C7=119.78              C15-Zr1-C13= 55.77             C15-Zr1-C14= 33.76             
C16-Zr1-C2= 81.47              C16-Zr1-C3=133.81              C16-Zr1-C4=131.54              C16-Zr1-C5=147.76              
C16-Zr1-C6=170.32              C16-Zr1-C7=153.01              C16-Zr1-C13= 55.69             C16-Zr1-C14= 55.98             
C16-Zr1-C15= 33.64             C17-Zr1-C2= 84.99              C17-Zr1-C3=109.71              C17-Zr1-C4= 98.10              
C17-Zr1-C5=118.55              C17-Zr1-C6=151.52              C17-Zr1-C7=142.83              C17-Zr1-C13= 33.49             
C17-Zr1-C14= 55.92             C17-Zr1-C15= 55.81             C17-Zr1-C16= 33.61             H23-Zr1-C2= 25.55              
H23-Zr1-C3=118.52              H23-Zr1-C4= 84.84              H23-Zr1-C5= 70.62              H23-Zr1-C6= 94.23              
H23-Zr1-C7=125.62              H23-Zr1-C13= 97.08             H23-Zr1-C14=126.22             H23-Zr1-C15=114.52             
H23-Zr1-C16= 80.94             H23-Zr1-C17= 70.34             C26-Zr1-C2= 80.40              C26-Zr1-C3=118.20              
C26-Zr1-C4=136.87              C26-Zr1-C5=110.28              C26-Zr1-C6= 81.63              C26-Zr1-C7= 85.68              
C26-Zr1-C13=136.35             C26-Zr1-C14=105.78             C26-Zr1-C15= 80.84             C26-Zr1-C16= 91.58             
C26-Zr1-C17=124.97             C26-Zr1-H23=105.95             C27-Zr1-C2= 49.02              C27-Zr1-C3=137.21              
C27-Zr1-C4=133.21              C27-Zr1-C5= 99.79              C27-Zr1-C6= 84.06              C27-Zr1-C7=104.00              
C27-Zr1-C13=142.25             C27-Zr1-C14=126.23             C27-Zr1-C15= 93.61             C27-Zr1-C16= 86.56             
C27-Zr1-C17=112.98             C27-Zr1-H23= 74.57             C27-Zr1-C26= 31.38             H23-C2-Zr1= 62.85              
H24-C2-Zr1=124.31              H24-C2-H23=109.44              H25-C2-Zr1=125.12              H25-C2-H23=109.32              
H25-C2-H24=109.78              C4-C3-Zr1= 73.67               C7-C3-Zr1= 72.56               C7-C3-C4=108.09                
H8-C3-Zr1=126.92               H8-C3-C4=125.67                H8-C3-C7=125.57                C3-C4-Zr1= 72.60               
C5-C4-Zr1= 74.17               C5-C4-C3=107.90                H9-C4-Zr1=127.54               H9-C4-C3=125.70                
H9-C4-C5=125.49                C4-C5-Zr1= 72.41               C6-C5-Zr1= 72.67               C6-C5-C4=108.15                
H10-C5-Zr1=128.33              H10-C5-C4=125.62               H10-C5-C6=125.50               C5-C6-Zr1= 74.03               
C7-C6-Zr1= 71.85               C7-C6-C5=108.09                H11-C6-Zr1=127.21              H11-C6-C5=125.38               
H11-C6-C7=125.87               C3-C7-Zr1= 73.55               C6-C7-Zr1= 74.30               C6-C7-C3=107.74                
H12-C7-Zr1=126.91              H12-C7-C3=125.46               H12-C7-C6=125.79               

 selected dihedral angles (degree)
 ---------------------------------
H23-C2-Zr1-C3=300.28          H23-C2-Zr1-C4=316.00          H23-C2-Zr1-C5=292.84          H23-C2-Zr1-C6=261.32          
H23-C2-Zr1-C7=257.92          H23-C2-Zr1-C13= 42.44         H23-C2-Zr1-C14= 77.03         H23-C2-Zr1-C15=103.60         
H23-C2-Zr1-C16= 86.82         H23-C2-Zr1-C17= 53.15         H23-C2-Zr1-C26=179.90         H23-C2-Zr1-C27=179.68         
H24-C2-Zr1-C3= 36.18          H24-C2-Zr1-C4= 51.90          H24-C2-Zr1-C5= 28.73          H24-C2-Zr1-C6=357.22          
H24-C2-Zr1-C7=353.82          H24-C2-Zr1-C13=138.34         H24-C2-Zr1-C14=172.93         H24-C2-Zr1-C15=199.50         
H24-C2-Zr1-C16=182.72         H24-C2-Zr1-C17=149.05         H24-C2-Zr1-H23= 95.90         H24-C2-Zr1-C26=275.80         
H24-C2-Zr1-C27=275.58         H25-C2-Zr1-C3=204.90          H25-C2-Zr1-C4=220.62          H25-C2-Zr1-C5=197.45          
H25-C2-Zr1-C6=165.94          H25-C2-Zr1-C7=162.54          H25-C2-Zr1-C13=307.06         H25-C2-Zr1-C14=341.65         
H25-C2-Zr1-C15=  8.22         H25-C2-Zr1-C16=351.44         H25-C2-Zr1-C17=317.77         H25-C2-Zr1-H23=264.62         
H25-C2-Zr1-C26= 84.52         H25-C2-Zr1-C27= 84.30         C4-C3-Zr1-C2= 28.32           C4-C3-Zr1-C5= 37.20           
C4-C3-Zr1-C6= 77.76           C4-C3-Zr1-C7=115.55           C4-C3-Zr1-C13=270.84          C4-C3-Zr1-C14=236.69          
C4-C3-Zr1-C15=225.26          C4-C3-Zr1-C16=257.39          C4-C3-Zr1-C17=285.48          C4-C3-Zr1-H23=  3.23          
C4-C3-Zr1-C26=133.50          C4-C3-Zr1-C27=101.36          C7-C3-Zr1-C2=272.77           C7-C3-Zr1-C4=244.45           
C7-C3-Zr1-C5=281.64           C7-C3-Zr1-C6=322.20           C7-C3-Zr1-C13=155.29          C7-C3-Zr1-C14=121.14          
C7-C3-Zr1-C15=109.71          C7-C3-Zr1-C16=141.84          C7-C3-Zr1-C17=169.93          C7-C3-Zr1-H23=247.68          
C7-C3-Zr1-C26= 17.95          C7-C3-Zr1-C27=345.81          H8-C3-Zr1-C2=150.99           H8-C3-Zr1-C4=122.67           
H8-C3-Zr1-C5=159.87           H8-C3-Zr1-C6=200.43           H8-C3-Zr1-C7=238.22           H8-C3-Zr1-C13= 33.52          
H8-C3-Zr1-C14=359.36          H8-C3-Zr1-C15=347.93          H8-C3-Zr1-C16= 20.07          H8-C3-Zr1-C17= 48.15          
H8-C3-Zr1-H23=125.91          H8-C3-Zr1-C26=256.17          H8-C3-Zr1-C27=224.04          C3-C4-Zr1-C2=200.36           
C3-C4-Zr1-C5=244.94           C3-C4-Zr1-C6=281.57           C3-C4-Zr1-C7=322.72           C3-C4-Zr1-C13= 84.81          
C3-C4-Zr1-C14= 56.94          C3-C4-Zr1-C15= 63.73          C3-C4-Zr1-C16=109.79          C3-C4-Zr1-C17=113.59          
C3-C4-Zr1-H23=182.85          C3-C4-Zr1-C26=290.74          C3-C4-Zr1-C27=246.03          C5-C4-Zr1-C2=315.42           
C5-C4-Zr1-C3=115.06           C5-C4-Zr1-C6= 36.63           C5-C4-Zr1-C7= 77.79           C5-C4-Zr1-C13=199.87          
C5-C4-Zr1-C14=172.01          C5-C4-Zr1-C15=178.80          C5-C4-Zr1-C16=224.85          C5-C4-Zr1-C17=228.66          
C5-C4-Zr1-H23=297.92          C5-C4-Zr1-C26= 45.81          C5-C4-Zr1-C27=  1.09          H9-C4-Zr1-C2= 78.32           
H9-C4-Zr1-C3=237.96           H9-C4-Zr1-C5=122.90           H9-C4-Zr1-C6=159.53           H9-C4-Zr1-C7=200.68           
H9-C4-Zr1-C13=322.77          H9-C4-Zr1-C14=294.90          H9-C4-Zr1-C15=301.69          H9-C4-Zr1-C16=347.75          
H9-C4-Zr1-C17=351.55          H9-C4-Zr1-H23= 60.81          H9-C4-Zr1-C26=168.70          H9-C4-Zr1-C27=123.99          
Zr1-C4-C3-C7= 64.89           Zr1-C4-C3-H8=235.93           C5-C4-C3-Zr1=293.68           C5-C4-C3-C7=358.57            
C5-C4-C3-H8=169.61            H9-C4-C3-Zr1=124.14           H9-C4-C3-C7=189.03            H9-C4-C3-H8=  0.07            
C4-C5-Zr1-C2=136.03           C4-C5-Zr1-C3=322.46           C4-C5-Zr1-C6=243.81           C4-C5-Zr1-C7=281.15           
C4-C5-Zr1-C13= 21.25          C4-C5-Zr1-C14=349.22          C4-C5-Zr1-C15=356.22          C4-C5-Zr1-C16= 81.64          
C4-C5-Zr1-C17= 57.79          C4-C5-Zr1-H23=111.10          C4-C5-Zr1-C26=211.50          C4-C5-Zr1-C27=180.81          
C6-C5-Zr1-C2=252.21           C6-C5-Zr1-C3= 78.64           C6-C5-Zr1-C4=116.19           C6-C5-Zr1-C7= 37.34           
C6-C5-Zr1-C13=137.44          C6-C5-Zr1-C14=105.40          C6-C5-Zr1-C15=112.41          C6-C5-Zr1-C16=197.83          
C6-C5-Zr1-C17=173.98          C6-C5-Zr1-H23=227.29          C6-C5-Zr1-C26=327.69          C6-C5-Zr1-C27=296.99          
H10-C5-Zr1-C2= 14.14          H10-C5-Zr1-C3=200.57          H10-C5-Zr1-C4=238.12          H10-C5-Zr1-C6=121.93          
H10-C5-Zr1-C7=159.27          H10-C5-Zr1-C13=259.36         H10-C5-Zr1-C14=227.33         H10-C5-Zr1-C15=234.34         
H10-C5-Zr1-C16=319.76         H10-C5-Zr1-C17=295.91         H10-C5-Zr1-H23=349.22         H10-C5-Zr1-C26= 89.62         
H10-C5-Zr1-C27= 58.92         Zr1-C5-C4-C3= 65.28           Zr1-C5-C4-H9=234.85           C6-C5-C4-Zr1=295.65           
C6-C5-C4-C3=  0.93            C6-C5-C4-H9=170.50            H10-C5-C4-Zr1=124.98          H10-C5-C4-C3=190.26           
H10-C5-C4-H9=359.82           C5-C6-Zr1-C2= 69.34           C5-C6-Zr1-C3=282.14           C5-C6-Zr1-C4=323.23           
C5-C6-Zr1-C7=244.30           C5-C6-Zr1-C13=300.06          C5-C6-Zr1-C14=253.33          C5-C6-Zr1-C15=205.04          
C5-C6-Zr1-C16=103.69          C5-C6-Zr1-C17=348.86          C5-C6-Zr1-H23= 44.03          C5-C6-Zr1-C26=149.55          
C5-C6-Zr1-C27=118.02          C7-C6-Zr1-C2=185.05           C7-C6-Zr1-C3= 37.84           C7-C6-Zr1-C4= 78.93           
C7-C6-Zr1-C5=115.70           C7-C6-Zr1-C13= 55.76          C7-C6-Zr1-C14=  9.03          C7-C6-Zr1-C15=320.74          
C7-C6-Zr1-C16=219.40          C7-C6-Zr1-C17=104.56          C7-C6-Zr1-H23=159.73          C7-C6-Zr1-C26=265.26          
C7-C6-Zr1-C27=233.72          H11-C6-Zr1-C2=306.74          H11-C6-Zr1-C3=159.54          H11-C6-Zr1-C4=200.62          
H11-C6-Zr1-C5=237.39          H11-C6-Zr1-C7=121.69          H11-C6-Zr1-C13=177.46         H11-C6-Zr1-C14=130.72         
H11-C6-Zr1-C15= 82.43         H11-C6-Zr1-C16=341.09         H11-C6-Zr1-C17=226.25         H11-C6-Zr1-H23=281.42         
H11-C6-Zr1-C26= 26.95         H11-C6-Zr1-C27=355.41         Zr1-C6-C5-C4= 64.18           Zr1-C6-C5-H10=234.87          
C7-C6-C5-Zr1=295.75           C7-C6-C5-C4=359.93            C7-C6-C5-H10=170.61           H11-C6-C5-Zr1=124.63          
H11-C6-C5-C4=188.81           H11-C6-C5-H10=359.49          C3-C7-Zr1-C2=120.50           C3-C7-Zr1-C4= 37.09           
C3-C7-Zr1-C5= 77.68           C3-C7-Zr1-C6=114.40           C3-C7-Zr1-C13=334.02          C3-C7-Zr1-C14=301.12          
C3-C7-Zr1-C15=272.67          C3-C7-Zr1-C16=280.80          C3-C7-Zr1-C17=344.19          C3-C7-Zr1-H23= 89.25          
C3-C7-Zr1-C26=195.80          C3-C7-Zr1-C27=170.12          C6-C7-Zr1-C2=  6.11           C6-C7-Zr1-C3=245.60           
C6-C7-Zr1-C4=282.70           C6-C7-Zr1-C5=323.29           C6-C7-Zr1-C13=219.62          C6-C7-Zr1-C14=186.73          
C6-C7-Zr1-C15=158.28          C6-C7-Zr1-C16=166.40          C6-C7-Zr1-C17=229.80          C6-C7-Zr1-H23=334.85          
C6-C7-Zr1-C26= 81.41          C6-C7-Zr1-C27= 55.72          H12-C7-Zr1-C2=242.83          H12-C7-Zr1-C3=122.33          
H12-C7-Zr1-C4=159.42          H12-C7-Zr1-C5=200.01          H12-C7-Zr1-C6=236.72          H12-C7-Zr1-C13= 96.34         
H12-C7-Zr1-C14= 63.45         H12-C7-Zr1-C15= 35.00         H12-C7-Zr1-C16= 43.12         H12-C7-Zr1-C17=106.52         
H12-C7-Zr1-H23=211.57         H12-C7-Zr1-C26=318.13         H12-C7-Zr1-C27=292.45         Zr1-C7-C3-C4=294.38           
Zr1-C7-C3-H8=123.32           C6-C7-C3-Zr1= 67.01           C6-C7-C3-C4=  1.39            C6-C7-C3-H8=190.33            
H12-C7-C3-Zr1=236.05          H12-C7-C3-C4=170.43           H12-C7-C3-H8=359.37           Zr1-C7-C6-C5= 65.69           
Zr1-C7-C6-H11=236.76          C3-C7-C6-Zr1=293.50           C3-C7-C6-C5=359.19            C3-C7-C6-H11=170.25           
H12-C7-C6-Zr1=124.50          H12-C7-C6-C5=190.19           H12-C7-C6-H11=  1.26          
           -------------------------------------------------
          |                Final Singlepoint                |
           -------------------------------------------------

          ...................................................
          :                      SETUP                      :
          :.................................................:
          :  # basis functions                  79          :
          :  # atomic orbitals                  78          :
          :  # shells                           46          :
          :  # electrons                        72          :
          :  max. iterations                   250          :
          :  Hamiltonian                  GFN2-xTB          :
          :  restarted?                      false          :
          :  GBSA solvation                  false          :
          :  PC potential                    false          :
          :  electronic temp.          300.0000000     K    :
          :  accuracy                    1.0000000          :
          :  -> integral cutoff          0.2500000E+02      :
          :  -> integral neglect         0.1000000E-07      :
          :  -> SCF convergence          0.1000000E-05 Eh   :
          :  -> wf. convergence          0.1000000E-03 e    :
          :  Broyden damping             0.4000000          :
          ...................................................

 iter      E             dE          RMSdq      gap      omega  full diag
   1    -38.2695121 -0.382695E+02  0.885E-05    1.54       0.0  T
   2    -38.2695121 -0.431299E-10  0.593E-05    1.54     303.1  T
   3    -38.2695121 -0.590319E-10  0.418E-05    1.54     430.2  T

   *** convergence criteria satisfied after 3 iterations ***

         #    Occupation            Energy/Eh            Energy/eV
      -------------------------------------------------------------
         1        2.0000           -0.8727060             -23.7475
       ...           ...                  ...                  ...
        30        2.0000           -0.5829435             -15.8627
        31        2.0000           -0.5730036             -15.5922
        32        2.0000           -0.5235636             -14.2469
        33        2.0000           -0.5228999             -14.2288
        34        2.0000           -0.5130767             -13.9615
        35        2.0000           -0.5082222             -13.8294
        36        2.0000           -0.4830617             -13.1448 (HOMO)
        37                         -0.4265555             -11.6072 (LUMO)
        38                         -0.4100484             -11.1580
        39                         -0.4085518             -11.1173
        40                         -0.4051749             -11.0254
        41                         -0.4041102             -10.9964
       ...                                ...                  ...
        78                          2.4324610              66.1906
      -------------------------------------------------------------
                  HL-Gap            0.0565062 Eh            1.5376 eV
             Fermi-level           -0.4548086 Eh          -12.3760 eV

 SCC (total)                   0 d,  0 h,  0 min,  0.519 sec
 SCC setup                      ...        0 min,  0.017 sec (  3.223%)
 Dispersion                     ...        0 min,  0.042 sec (  8.116%)
 classical contributions        ...        0 min,  0.007 sec (  1.407%)
 integral evaluation            ...        0 min,  0.057 sec ( 10.936%)
 iterations                     ...        0 min,  0.216 sec ( 41.563%)
 molecular gradient             ...        0 min,  0.180 sec ( 34.660%)
 printout                       ...        0 min,  0.000 sec (  0.038%)

         :::::::::::::::::::::::::::::::::::::::::::::::::::::
         ::                     SUMMARY                     ::
         :::::::::::::::::::::::::::::::::::::::::::::::::::::
         :: total energy             -37.638152269988 Eh    ::
         :: gradient norm              0.000465305244 Eh/a0 ::
         :: HOMO-LUMO gap              1.537613183770 eV    ::
         ::.................................................::
         :: SCC energy               -38.269512143113 Eh    ::
         :: -> isotropic ES            0.087279736348 Eh    ::
         :: -> anisotropic ES         -0.012874414175 Eh    ::
         :: -> anisotropic XC          0.020625661216 Eh    ::
         :: -> dispersion             -0.027709829202 Eh    ::
         :: repulsion energy           0.630290037713 Eh    ::
         :: add. restraining           0.000383674715 Eh    ::
         :: total charge               1.000000000000 e     ::
         :::::::::::::::::::::::::::::::::::::::::::::::::::::

           -------------------------------------------------
          |                Property Printout                |
           -------------------------------------------------

    * Orbital Energies and Occupations

         #    Occupation            Energy/Eh            Energy/eV
      -------------------------------------------------------------
         1        2.0000           -0.8727060             -23.7475
       ...           ...                  ...                  ...
        24        2.0000           -0.5966503             -16.2357
        25        2.0000           -0.5946471             -16.1812
        26        2.0000           -0.5930191             -16.1369
        27        2.0000           -0.5922950             -16.1172
        28        2.0000           -0.5917791             -16.1031
        29        2.0000           -0.5903239             -16.0635
        30        2.0000           -0.5829435             -15.8627
        31        2.0000           -0.5730036             -15.5922
        32        2.0000           -0.5235636             -14.2469
        33        2.0000           -0.5228999             -14.2288
        34        2.0000           -0.5130767             -13.9615
        35        2.0000           -0.5082222             -13.8294
        36        2.0000           -0.4830617             -13.1448 (HOMO)
        37                         -0.4265555             -11.6072 (LUMO)
        38                         -0.4100484             -11.1580
        39                         -0.4085518             -11.1173
        40                         -0.4051749             -11.0254
        41                         -0.4041102             -10.9964
        42                         -0.3658851              -9.9562
        43                         -0.3098546              -8.4316
        44                         -0.3083033              -8.3894
        45                         -0.3071510              -8.3580
        46                         -0.3060928              -8.3292
        47                         -0.0589143              -1.6031
       ...                                ...                  ...
        78                          2.4324610              66.1906
      -------------------------------------------------------------
                  HL-Gap            0.0565062 Eh            1.5376 eV
             Fermi-level           -0.4548086 Eh          -12.3760 eV

     #   Z          covCN         q      C6AA      α(0)
     1  40 Zr      10.005     0.953   138.746    17.699
     2   6 C        3.594    -0.241    26.110     7.399
     3   6 C        3.765    -0.084    22.150     6.708
     4   6 C        3.759    -0.090    22.269     6.728
     5   6 C        3.749    -0.086    22.214     6.722
     6   6 C        3.758    -0.089    22.243     6.724
     7   6 C        3.766    -0.090    22.265     6.725
     8   1 H        0.925     0.087     1.907     2.160
     9   1 H        0.925     0.080     1.976     2.198
    10   1 H        0.925     0.079     1.991     2.206
    11   1 H        0.925     0.086     1.923     2.169
    12   1 H        0.925     0.084     1.941     2.179
    13   6 C        3.758    -0.084    22.160     6.711
    14   6 C        3.763    -0.089    22.244     6.723
    15   6 C        3.761    -0.087    22.206     6.717
    16   6 C        3.760    -0.091    22.277     6.729
    17   6 C        3.757    -0.089    22.252     6.725
    18   1 H        0.925     0.085     1.928     2.171
    19   1 H        0.925     0.084     1.940     2.178
    20   1 H        0.925     0.083     1.944     2.181
    21   1 H        0.925     0.085     1.932     2.174
    22   1 H        0.925     0.077     2.013     2.219
    23   1 H        1.305     0.076     2.012     2.215
    24   1 H        0.925     0.071     2.074     2.252
    25   1 H        0.925     0.072     2.064     2.247
    26   6 C        3.605    -0.214    25.399     7.283
    27   6 C        3.563    -0.066    22.680     6.940
    28   1 H        0.925     0.106     1.732     2.058
    29   1 H        0.925     0.106     1.731     2.057
    30   1 H        0.925     0.094     1.844     2.124
    31   1 H        0.925     0.094     1.840     2.122

 Mol. C6AA /au·bohr⁶  :       9473.198525
 Mol. C8AA /au·bohr⁸  :     321501.587325
 Mol. α(0) /au        :        143.441208


Wiberg/Mayer (AO) data.
largest (>0.10) Wiberg bond orders for each atom

 ---------------------------------------------------------------------------
     #   Z sym  total        # sym  WBO       # sym  WBO       # sym  WBO
 ---------------------------------------------------------------------------
     1  40 Zr   4.327 --    26 C    0.536     2 C    0.466     7 C    0.258
                            14 C    0.255    15 C    0.245     3 C    0.244
                             4 C    0.243     6 C    0.237    17 C    0.237
                            16 C    0.237    13 C    0.235     5 C    0.229
                            27 C    0.204    23 H    0.132
     2   6 C    3.914 --    25 H    0.966    24 H    0.966    23 H    0.818
                             1 Zr   0.466    27 C    0.444    26 C    0.158
     3   6 C    3.981 --     4 C    1.299     7 C    1.299     8 H    0.922
                             1 Zr   0.244
     4   6 C    3.979 --     5 C    1.301     3 C    1.299     9 H    0.922
                             1 Zr   0.243
     5   6 C    3.981 --     6 C    1.317     4 C    1.301    10 H    0.926
                             1 Zr   0.229
     6   6 C    3.979 --     5 C    1.317     7 C    1.285    11 H    0.926
                             1 Zr   0.237
     7   6 C    3.979 --     3 C    1.299     6 C    1.285    12 H    0.919
                             1 Zr   0.258
     8   1 H    0.990 --     3 C    0.922
     9   1 H    0.991 --     4 C    0.922
    10   1 H    0.992 --     5 C    0.926
    11   1 H    0.990 --     6 C    0.926
    12   1 H    0.991 --     7 C    0.919
    13   6 C    3.981 --    17 C    1.310    14 C    1.298    18 H    0.924
                             1 Zr   0.235
    14   6 C    3.979 --    13 C    1.298    15 C    1.290    19 H    0.921
                             1 Zr   0.255
    15   6 C    3.981 --    16 C    1.302    14 C    1.290    20 H    0.924
                             1 Zr   0.245
    16   6 C    3.978 --    15 C    1.302    17 C    1.299    21 H    0.925
                             1 Zr   0.237
    17   6 C    3.980 --    13 C    1.310    16 C    1.299    22 H    0.923
                             1 Zr   0.237
    18   1 H    0.990 --    13 C    0.924
    19   1 H    0.991 --    14 C    0.921
    20   1 H    0.991 --    15 C    0.924
    21   1 H    0.990 --    16 C    0.925
    22   1 H    0.992 --    17 C    0.923
    23   1 H    0.994 --     2 C    0.818     1 Zr   0.132
    24   1 H    0.994 --     2 C    0.966
    25   1 H    0.993 --     2 C    0.966
    26   6 C    3.918 --    27 C    1.330    31 H    0.900    30 H    0.900
                             1 Zr   0.536     2 C    0.158
    27   6 C    3.978 --    26 C    1.330    28 H    0.943    29 H    0.943
                             2 C    0.444     1 Zr   0.204
    28   1 H    0.987 --    27 C    0.943
    29   1 H    0.987 --    27 C    0.943
    30   1 H    0.991 --    26 C    0.900
    31   1 H    0.990 --    26 C    0.900
 ---------------------------------------------------------------------------

Topologies differ in total number of bonds
Writing topology from bond orders to xtbtopo.mol

molecular dipole:
                 x           y           z       tot (Debye)
 q only:       -3.053      -0.063       0.858
   full:       -2.648      -0.032       0.820       7.046
molecular quadrupole (traceless):
                xx          xy          yy          xz          yz          zz
 q only:       12.170      -1.024      -8.175      -2.113      -3.556      -3.996
  q+dip:       11.295      -0.613      -9.339      -2.516      -7.125      -1.956
   full:       10.245       0.124      -8.339      -3.671      -5.897      -1.906

           -------------------------------------------------
          |                Geometry Summary                 |
           -------------------------------------------------

      molecular mass/u    :      264.4982010
   center of mass at/Å    :       -1.2181653      -0.1708803       0.6588603
  moments of inertia/u·Å² :        0.6044847E+03   0.7241325E+03   0.9294038E+03
rotational constants/cm⁻¹ :        0.2788761E-01   0.2327976E-01   0.1813811E-01

 * 39 selected distances

     #   Z          #   Z                                           value/Å
     1  40 Zr       3   6 C                                       2.4382475
     1  40 Zr       4   6 C                                       2.4519948
     3   6 C        4   6 C                                       1.4187497
     1  40 Zr       5   6 C                                       2.4747811 (max)
     4   6 C        5   6 C                                       1.4169369
     1  40 Zr       6   6 C                                       2.4572248
     5   6 C        6   6 C                                       1.4131591
     1  40 Zr       7   6 C                                       2.4253544
     3   6 C        7   6 C                                       1.4176449
     6   6 C        7   6 C                                       1.4217011
     3   6 C        8   1 H                                       1.0845593
     4   6 C        9   1 H                                       1.0853201
     5   6 C       10   1 H                                       1.0840622
     6   6 C       11   1 H                                       1.0833390 (min)
     7   6 C       12   1 H                                       1.0856723
     1  40 Zr      13   6 C                                       2.4570558
     1  40 Zr      14   6 C                                       2.4387981
    13   6 C       14   6 C                                       1.4186806
     1  40 Zr      15   6 C                                       2.4463958
    14   6 C       15   6 C                                       1.4186682
     1  40 Zr      16   6 C                                       2.4509421
    15   6 C       16   6 C                                       1.4171637
     1  40 Zr      17   6 C                                       2.4547077
    13   6 C       17   6 C                                       1.4151182
    16   6 C       17   6 C                                       1.4183083
    13   6 C       18   1 H                                       1.0842423
    14   6 C       19   1 H                                       1.0852112
    15   6 C       20   1 H                                       1.0835618
    16   6 C       21   1 H                                       1.0836507
    17   6 C       22   1 H                                       1.0854294
     2   6 C       23   1 H                                       1.1186803
     2   6 C       24   1 H                                       1.0855049
     2   6 C       25   1 H                                       1.0852644
     1  40 Zr      26   6 C                                       2.3936616
    26   6 C       27   6 C                                       1.4061857
    27   6 C       28   1 H                                       1.0870065
    27   6 C       29   1 H                                       1.0868622
    26   6 C       30   1 H                                       1.0908046
    26   6 C       31   1 H                                       1.0914688

 * 3 distinct bonds (by element types)

   Z      Z             #   av. dist./Å        max./Å        min./Å
   1 H    6 C          17     1.0876847     1.1186803     1.0833390
   6 C    6 C          11     1.4165742     1.4217011     1.4061857
   6 C   40 Zr         11     2.4444694     2.4747811     2.3936616


optimized geometry written to: xtbopt.xyz


           -------------------------------------------------
          | TOTAL ENERGY              -37.638152269988 Eh   |
          | GRADIENT NORM               0.000465305244 Eh/α |
          | HOMO-LUMO GAP               1.537613183770 eV   |
           -------------------------------------------------

------------------------------------------------------------------------
 * finished run on 2026/08/18 at 18:30:59.327     
------------------------------------------------------------------------
 total:
 * wall-time:     0 d,  0 h,  1 min,  2.372 sec
 *  cpu-time:     0 d,  0 h,  1 min, 49.331 sec
 * ratio c/w:     1.753 speedup
 SCF:
 * wall-time:     0 d,  0 h,  0 min,  1.639 sec
 *  cpu-time:     0 d,  0 h,  0 min,  3.633 sec
 * ratio c/w:     2.216 speedup
 ANC optimizer:
 * wall-time:     0 d,  0 h,  1 min,  0.549 sec
 *  cpu-time:     0 d,  0 h,  1 min, 45.420 sec
 * ratio c/w:     1.741 speedup

