31
 energy: -37.638152269988 gnorm: 0.000465305244 xtb: 6.5.1 (b24c23e)
Zr          -1.27613999959363       -0.14453256872541        0.62441431749168
C           -1.59726692054410        1.27420212273899       -1.52164258446383
C           -0.19218865262811       -2.27123617637778        1.12163753037125
C            0.49913285292685       -1.72097410734689        0.01162100373969
C           -0.39317219004940       -1.69688978427081       -1.08879771265988
C           -1.63762944152233       -2.20930042159911       -0.65777584479840
C           -1.52043647258441       -2.55581082130560        0.71606180045188
H            0.25766159475529       -2.56888974818489        2.06254442902576
H            1.56613815308133       -1.52875765829912       -0.03809769828270
H           -0.12291120549079       -1.48117515469474       -2.11622985402249
H           -2.47711115936185       -2.44199290988877       -1.30178502314765
H           -2.24914916980047       -3.11579246935987        1.29406046379907
C            0.46460304454080        0.59508083593653        2.19282365962991
C           -0.68636011532681        0.26727453485123        2.95471685122514
C           -1.70573952795803        1.19704003005557        2.62453398223074
C           -1.19150738535188        2.08235582707663        1.64466978553415
C            0.14957795087037        1.70693666428963        1.37606488503515
H            1.45317434963443        0.17032809403168        2.32658859573672
H           -0.72349342904321       -0.43973003351718        3.77718188757617
H           -2.63256553240038        1.32840222085407        3.17028437764717
H           -1.68183609318331        2.97995821968826        1.28663856933425
H            0.86044130110651        2.27821517616336        0.78744698801602
H           -0.54629776192190        1.06409795854770       -1.20107198586747
H           -1.76315470686460        0.85865722060128       -2.51064426444428
H           -1.75854155703291        2.34721733615672       -1.54231577022301
C           -3.66754695169204       -0.08671446490161        0.53813201540323
C           -3.51381623690059        0.69045247404914       -0.62364947784822
H           -3.80057061370252        1.73677885873574       -0.55615155177310
H           -3.80600570005518        0.23449671618651       -1.56598637909242
H           -4.05351623870840        0.42447815312776        1.42106137488210
H           -4.03885253519305       -1.10464115462606        0.40674993949908
