77
Co-porphyrin with four meso hydrogens replaced by phenyl groups
Co       0.00213612       0.13787848       0.09524498
N       -1.98277208       0.27020450       0.12851130
N        1.98698421       0.00559604       0.06164614
N        0.13337154       2.12219088       0.03510295
N       -0.12911804      -1.84635142       0.15548049
C       -2.88845897      -0.76359753       0.17543220
H       -5.13244254      -0.88651031       0.22059519
C       -2.74447649       1.41499025       0.10918090
C       -4.15126504       1.09686010       0.14451062
H       -4.95253607       1.83443491       0.13782295
C       -4.24109246      -0.26170451       0.18579335
C       -2.24965136       2.70894874       0.06230173
C        1.27802652       2.88308906      -0.00850144
C        0.95904831       4.28968904      -0.04360884
H        1.69636618       5.09036142      -0.08085817
C       -0.39990775       4.38022203      -0.02080383
H       -1.02538144       5.27166657      -0.03519997
C       -0.90118557       3.02819900       0.02798516
C       -2.56834625      -2.11188080       0.20906685
H        1.02960706      -4.99581576       0.22656209
C        0.40414276      -4.10437090       0.21200056
C        0.90542573      -2.75237790       0.16263305
H       -1.69213381      -4.81447120       0.27263218
C       -1.27378045      -2.60722756       0.19946839
C       -0.95480627      -4.01381857       0.23501181
C        2.57258107       2.38771270      -0.01842927
H        4.95673549      -1.55866098       0.05083505
C        4.15546561      -0.82107541       0.04461107
C        4.24528105       0.53749658       0.00355315
H        5.13661938       1.16230354      -0.03148740
C        2.89266143       1.03940517       0.01458137
C        2.74869036      -1.13919981       0.08047596
C        2.25388287      -2.43315432       0.12767337
C        3.69319274       3.36846386      -0.06799365
C        4.24115888       3.86347728       1.11788317
C        5.29182634       4.78301377       1.07141241
C        5.79452766       5.20753684      -0.16093516
C        5.24656152       4.71252342      -1.34681198
C        4.19589406       3.79298693      -1.30034122
H        3.84928935       3.53254985       2.07853207
H        5.71898105       5.16889037       1.99583607
H        6.61355190       5.92434088      -0.19716040
H        5.63843106       5.04345085      -2.30746088
H        3.76873936       3.40711033      -2.22476488
C       -3.68893220      -3.09265443       0.25876828
C       -4.19153792      -3.51711492       1.49117640
C       -5.24218125      -4.43667247       1.53777566
C       -5.79021886      -4.93176954       0.35196679
C       -5.28761314      -4.50730905      -0.88044133
C       -4.23696981      -3.58775149      -0.92704059
H       -3.76432750      -3.13117311       2.41554709
H       -5.63397626      -4.76755112       2.49847175
H       -6.60922429      -5.64859000       0.38829219
H       -5.71482356      -4.89325086      -1.80481203
H       -3.84517480      -3.25687284      -1.88773669
C       -3.23122535       3.82984402       0.04793908
C       -3.66873796       4.39063086       1.25031582
C       -4.58904592       5.44156422       1.23684962
C       -5.07184127       5.93171073       0.02100668
C       -4.63432866       5.37092388      -1.18137006
C       -3.71402070       4.31999053      -1.16790386
H       -3.29238568       4.00854815       2.19809889
H       -4.93009906       5.87871302       2.17413543
H       -5.78924669       6.75094224       0.01050941
H       -5.01068094       5.75300660      -2.12915314
H       -3.37296756       3.88284173      -2.10518967
C        3.23544756      -3.55406056       0.14181433
C        3.71835732      -4.04434785       1.35755506
C        4.63865656      -5.09529149       1.37081340
C        5.07604603      -5.65594784       0.16833100
C        4.59313626      -5.16566054      -1.04740973
C        3.67283702      -4.11471691      -1.06066807
H        3.37740018      -3.60730078       2.29492323
H        5.01509803      -5.47748395       2.31851680
H        5.79344465      -6.47518737       0.17866624
H        4.93409341      -5.60270762      -1.98477790
H        3.29639555      -3.73252445      -2.00837147
