17

C     -0.919591   -0.600371   -1.418576
C     -0.171454   -0.081452   -0.181083
C     -0.451554   -1.027342    1.002434
C     -0.662683    1.344120    0.135646
O      1.227776   -0.074311   -0.502365
C      2.270165    0.328064    0.344598
O      2.051227    0.736478    1.515330
Cl     3.917080    0.260106   -0.242495
H     -0.723913    0.058851   -2.291677
H     -2.016106   -0.632031   -1.238107
H     -0.574023   -1.624736   -1.676313
H     -0.028286   -2.033892    0.797046
H     -0.002084   -0.644900    1.941381
H     -1.545555   -1.130162    1.169968
H     -0.390586    2.035588   -0.690382
H     -0.213332    1.727904    1.074103
H     -1.767081    1.358086    0.260491
