31
 energy: -37.647387477016 gnorm: 0.000636174786 xtb: 6.5.1 (b24c23e)
Zr          -1.29905264373443       -0.05780375494479        0.52656692744495
C           -1.48053040658246        1.28515406437600       -1.27130135852952
C            0.20530606372231       -1.98696316397288        0.78448593659751
C            0.41430651865926       -1.48919741267580       -0.52216096320156
C           -0.77377939325430       -1.70545601766900       -1.26534824146296
C           -1.71906070132156       -2.31424793108016       -0.41243765025485
C           -1.12569514345467       -2.46796923866588        0.86748402211793
H            0.97410793500062       -2.11975668188148        1.53642213194384
H            1.36808993670640       -1.17211470785319       -0.93190003475693
H           -0.88118724364792       -1.57338379090359       -2.33509311188191
H           -2.66243671662001       -2.74377637514344       -0.72714832675075
H           -1.54270426985909       -3.03379960974847        1.69521621369683
C           -0.46695344605441        0.12458572742366        2.83084734904724
C           -1.73123498936643        0.75931133269465        2.79180510357852
C           -1.61343858201772        1.91425204313779        1.97313331003332
C           -0.28182018849530        1.98339625379352        1.50579585462600
C            0.42558585060538        0.87191468609835        2.02228662336373
H           -0.19482970640468       -0.68828973252791        3.49489355077077
H           -2.57127098282887        0.51726077299719        3.43389628164796
H           -2.36520964257545        2.68547088152047        1.85389578795458
H            0.15899597913199        2.81981418862765        0.97506297968586
H            1.49772916150108        0.72081942867916        1.95324935791571
H           -0.38342908151971        1.11494686105031       -1.10770893810285
H           -1.67032199389838        1.09664821598881       -2.32885952280095
H           -1.69660077480433        2.34054155678147       -1.07539556373142
C           -3.64843052895723       -0.07075148905527        0.57686570397527
C           -3.43710530404666        0.43739372155628       -0.72900255687221
H           -3.84019558720239        1.41877908411239       -0.95464032739099
H           -3.47924689433502       -0.26418544537531       -1.56051828273868
H           -4.10337678190594        0.59930431864587        1.30266715647826
H           -3.86129080244229       -1.13236283599540        0.71002490759353
