      -----------------------------------------------------------      
     |                   =====================                   |     
     |                           x T B                           |     
     |                   =====================                   |     
     |                         S. Grimme                         |     
     |          Mulliken Center for Theoretical Chemistry        |     
     |                    University of Bonn                     |     
      -----------------------------------------------------------      

   * xtb version 6.5.1 (b24c23e) compiled by 'conda@728c89f4b128' on 2022-07-12

   xtb is free software: you can redistribute it and/or modify it under
   the terms of the GNU Lesser General Public License as published by
   the Free Software Foundation, either version 3 of the License, or
   (at your option) any later version.
   
   xtb is distributed in the hope that it will be useful,
   but WITHOUT ANY WARRANTY; without even the implied warranty of
   MERCHANTABILITY or FITNESS FOR A PARTICULAR PURPOSE.  See the
   GNU Lesser General Public License for more details.
   
   Cite this work as:
   * C. Bannwarth, E. Caldeweyher, S. Ehlert, A. Hansen, P. Pracht,
     J. Seibert, S. Spicher, S. Grimme, WIREs Comput. Mol. Sci., 2020, 11,
     e01493. DOI: 10.1002/wcms.1493
   
   for GFN2-xTB:
   * C. Bannwarth, S. Ehlert and S. Grimme., J. Chem. Theory Comput., 2019,
     15, 1652-1671. DOI: 10.1021/acs.jctc.8b01176
   for GFN1-xTB:
   * S. Grimme, C. Bannwarth, P. Shushkov, J. Chem. Theory Comput., 2017,
     13, 1989-2009. DOI: 10.1021/acs.jctc.7b00118
   for GFN0-xTB:
   * P. Pracht, E. Caldeweyher, S. Ehlert, S. Grimme, ChemRxiv, 2019, preprint.
     DOI: 10.26434/chemrxiv.8326202.v1
   for GFN-FF:
   * S. Spicher and S. Grimme, Angew. Chem. Int. Ed., 2020, 59, 15665-15673.
     DOI: 10.1002/anie.202004239
   
   for ALPB and GBSA implicit solvation:
   * S. Ehlert, M. Stahn, S. Spicher, S. Grimme, J. Chem. Theory Comput.,
     2021, 17, 4250-4261. DOI: 10.1021/acs.jctc.1c00471
   
   for DFT-D4:
   * E. Caldeweyher, C. Bannwarth and S. Grimme, J. Chem. Phys., 2017,
     147, 034112. DOI: 10.1063/1.4993215
   * E. Caldeweyher, S. Ehlert, A. Hansen, H. Neugebauer, S. Spicher,
     C. Bannwarth and S. Grimme, J. Chem. Phys., 2019, 150, 154122.
     DOI: 10.1063/1.5090222
   * E. Caldeweyher, J.-M. Mewes, S. Ehlert and S. Grimme, Phys. Chem. Chem. Phys.
     2020, 22, 8499-8512. DOI: 10.1039/D0CP00502A
   
   for sTDA-xTB:
   * S. Grimme and C. Bannwarth, J. Chem. Phys., 2016, 145, 054103.
     DOI: 10.1063/1.4959605
   
   in the mass-spec context:
   * V. Asgeirsson, C. Bauer and S. Grimme, Chem. Sci., 2017, 8, 4879.
     DOI: 10.1039/c7sc00601b
   * J. Koopman and S. Grimme, ACS Omega 2019, 4, 12, 15120-15133.
     DOI: 10.1021/acsomega.9b02011
   
   for metadynamics refer to:
   * S. Grimme, J. Chem. Theory Comput., 2019, 155, 2847-2862
     DOI: 10.1021/acs.jctc.9b00143
   
   for SPH calculations refer to:
   * S. Spicher and S. Grimme, J. Chem. Theory Comput., 2021, 17, 1701-1714
     DOI: 10.1021/acs.jctc.0c01306
   
   with help from (in alphabetical order)
   P. Atkinson, C. Bannwarth, F. Bohle, G. Brandenburg, E. Caldeweyher
   M. Checinski, S. Dohm, S. Ehlert, S. Ehrlich, I. Gerasimov, C. Hölzer
   A. Katbashev, J. Koopman, C. Lavigne, S. Lehtola, F. März, M. Müller,
   F. Musil, H. Neugebauer, J. Pisarek, C. Plett, P. Pracht, F. Pultar,
   J. Seibert, P. Shushkov, S. Spicher, M. Stahn, M. Steiner, T. Strunk,
   J. Stückrath, T. Rose, and J. Unsleber
   
 * started run on 2026/07/30 at 13:25:12.748     

           -------------------------------------------------
          |                Calculation Setup                |
           -------------------------------------------------

          program call               : /h/332/chchoi/miniconda3/envs/el-agente/bin/xtb alanine_enantiomer_init.xyz --opt --gfn 2 -P 4 --chrg 0 --uhf 0
          coordinate file            : alanine_enantiomer_init.xyz
          omp threads                :                     4

   ID    Z sym.   atoms
    1    8 O      1, 2
    2    7 N      3
    3    6 C      4-6
    4    1 H      7-13

           -------------------------------------------------
          |                 G F N 2 - x T B                 |
           -------------------------------------------------

        Reference                      10.1021/acs.jctc.8b01176
      * Hamiltonian:
        H0-scaling (s, p, d)           1.850000    2.230000    2.230000
        zeta-weighting                 0.500000
      * Dispersion:
        s8                             2.700000
        a1                             0.520000
        a2                             5.000000
        s9                             5.000000
      * Repulsion:
        kExp                           1.500000    1.000000
        rExp                           1.000000
      * Coulomb:
        alpha                          2.000000
        third order                    shell-resolved
        anisotropic                    true
        a3                             3.000000
        a5                             4.000000
        cn-shift                       1.200000
        cn-exp                         4.000000
        max-rad                        5.000000


          ...................................................
          :                      SETUP                      :
          :.................................................:
          :  # basis functions                  31          :
          :  # atomic orbitals                  31          :
          :  # shells                           19          :
          :  # electrons                        36          :
          :  max. iterations                   250          :
          :  Hamiltonian                  GFN2-xTB          :
          :  restarted?                      false          :
          :  GBSA solvation                  false          :
          :  PC potential                    false          :
          :  electronic temp.          300.0000000     K    :
          :  accuracy                    1.0000000          :
          :  -> integral cutoff          0.2500000E+02      :
          :  -> integral neglect         0.1000000E-07      :
          :  -> SCF convergence          0.1000000E-05 Eh   :
          :  -> wf. convergence          0.1000000E-03 e    :
          :  Broyden damping             0.4000000          :
          ...................................................

 iter      E             dE          RMSdq      gap      omega  full diag
   1    -21.1911308 -0.211911E+02  0.425E+00    3.94       0.0  T
   2    -21.2270676 -0.359367E-01  0.217E+00    3.66       1.0  T
   3    -21.2291005 -0.203293E-02  0.125E+00    3.90       1.0  T
   4    -21.2322976 -0.319713E-02  0.183E-01    3.52       1.0  T
   5    -21.2324362 -0.138558E-03  0.698E-02    3.49       1.0  T
   6    -21.2324425 -0.636206E-05  0.292E-02    3.48       1.0  T
   7    -21.2324443 -0.176233E-05  0.673E-03    3.48       4.1  T
   8    -21.2324444 -0.101017E-06  0.321E-03    3.49       8.6  T
   9    -21.2324444 -0.270941E-07  0.736E-04    3.49      37.7  T
  10    -21.2324444 -0.738112E-09  0.365E-04    3.49      76.1  T

   *** convergence criteria satisfied after 10 iterations ***

         #    Occupation            Energy/Eh            Energy/eV
      -------------------------------------------------------------
         1        2.0000           -0.7419112             -20.1884
       ...           ...                  ...                  ...
        12        2.0000           -0.4984677             -13.5640
        13        2.0000           -0.4885180             -13.2933
        14        2.0000           -0.4777886             -13.0013
        15        2.0000           -0.4701371             -12.7931
        16        2.0000           -0.4606960             -12.5362
        17        2.0000           -0.4252481             -11.5716
        18        2.0000           -0.3798981             -10.3376 (HOMO)
        19                         -0.2517940              -6.8517 (LUMO)
        20                          0.0287261               0.7817
        21                          0.0389885               1.0609
        22                          0.0981288               2.6702
        23                          0.1193925               3.2488
       ...                                ...                  ...
        31                          0.5751798              15.6514
      -------------------------------------------------------------
                  HL-Gap            0.1281041 Eh            3.4859 eV
             Fermi-level           -0.3158461 Eh           -8.5946 eV

 SCC (total)                   0 d,  0 h,  0 min,  0.254 sec
 SCC setup                      ...        0 min,  0.002 sec (  0.930%)
 Dispersion                     ...        0 min,  0.000 sec (  0.056%)
 classical contributions        ...        0 min,  0.005 sec (  1.995%)
 integral evaluation            ...        0 min,  0.000 sec (  0.160%)
 iterations                     ...        0 min,  0.239 sec ( 94.375%)
 molecular gradient             ...        0 min,  0.006 sec (  2.415%)
 printout                       ...        0 min,  0.000 sec (  0.060%)

         :::::::::::::::::::::::::::::::::::::::::::::::::::::
         ::                     SUMMARY                     ::
         :::::::::::::::::::::::::::::::::::::::::::::::::::::
         :: total energy             -21.035774722721 Eh    ::
         :: gradient norm              0.060826017840 Eh/a0 ::
         :: HOMO-LUMO gap              3.485889683094 eV    ::
         ::.................................................::
         :: SCC energy               -21.232444436233 Eh    ::
         :: -> isotropic ES            0.057535330673 Eh    ::
         :: -> anisotropic ES          0.005317891985 Eh    ::
         :: -> anisotropic XC          0.007276455862 Eh    ::
         :: -> dispersion             -0.006972075931 Eh    ::
         :: repulsion energy           0.196660191969 Eh    ::
         :: add. restraining           0.000000000000 Eh    ::
         :: total charge              -0.000000000000 e     ::
         :::::::::::::::::::::::::::::::::::::::::::::::::::::

      ----------------------------------------------------------- 
     |                   =====================                   |
     |                        A N C O P T                        |
     |                   =====================                   |
     |               Approximate Normal Coordinate               |
     |                Rational Function Optimizer                |
      ----------------------------------------------------------- 

          ...................................................
          :                      SETUP                      :
          :.................................................:
          :   optimization level            normal          :
          :   max. optcycles                   200          :
          :   ANC micro-cycles                  20          :
          :   degrees of freedom                33          :
          :.................................................:
          :   RF solver                   davidson          :
          :   write xtbopt.log                true          :
          :   linear?                        false          :
          :   energy convergence         0.5000000E-05 Eh   :
          :   grad. convergence          0.1000000E-02 Eh/α :
          :   maximium RF displ.         1.0000000          :
          :   Hlow (freq-cutoff)         0.1000000E-01      :
          :   Hmax (freq-cutoff)         5.0000000          :
          :   S6 in model hess.         20.0000000          :
          ...................................................

generating ANC from model Hessian ...
Using Lindh-Hessian (1995)
 Shifting diagonal of input Hessian by    4.0132552481323578E-003
 Lowest  eigenvalues of input Hessian
    0.000000    0.000000    0.000000    0.000000    0.000000    0.000000
    0.010000    0.013812    0.015499    0.017434    0.021520    0.027025
    0.048468    0.059466    0.065393    0.065972    0.075656    0.082568
 Highest eigenvalues
    1.149997    1.257583    1.310607    1.415599    1.682320    2.250910


........................................................................
.............................. CYCLE    1 ..............................
........................................................................
   1    -21.2324444 -0.212324E+02  0.729E-05    3.49       0.0  T
   2    -21.2324444 -0.586553E-11  0.434E-05    3.49     639.6  T
   3    -21.2324444 -0.731859E-12  0.214E-05    3.49    1294.5  T
     SCC iter.                  ...        0 min,  0.076 sec
     gradient                   ...        0 min,  0.011 sec
 * total energy  :   -21.0357747 Eh     change       -0.1701466E-09 Eh
   gradient norm :     0.0608279 Eh/α   predicted     0.0000000E+00 (-100.00%)
   displ. norm   :     0.2443535 α      lambda       -0.6306566E-02
   maximum displ.:     0.1505859 α      in ANC's #5, #4, #3, ...

........................................................................
.............................. CYCLE    2 ..............................
........................................................................
   1    -21.2463126 -0.212463E+02  0.244E-01    3.86       0.0  T
   2    -21.2463637 -0.510842E-04  0.149E-01    3.82       1.0  T
   3    -21.2463590  0.464796E-05  0.583E-02    3.84       1.0  T
   4    -21.2463740 -0.150367E-04  0.701E-03    3.83       4.0  T
   5    -21.2463741 -0.530606E-07  0.436E-03    3.83       6.4  T
   6    -21.2463741 -0.276309E-07  0.878E-04    3.83      31.6  T
   7    -21.2463741 -0.643013E-09  0.378E-04    3.83      73.3  T
     SCC iter.                  ...        0 min,  0.151 sec
     gradient                   ...        0 min,  0.004 sec
 * total energy  :   -21.0394665 Eh     change       -0.3691812E-02 Eh
   gradient norm :     0.0143296 Eh/α   predicted    -0.3341563E-02 (  -9.49%)
   displ. norm   :     0.1138646 α      lambda       -0.5980177E-03
   maximum displ.:     0.0720918 α      in ANC's #5, #4, #3, ...

........................................................................
.............................. CYCLE    3 ..............................
........................................................................
   1    -21.2491186 -0.212491E+02  0.928E-02    3.87       0.0  T
   2    -21.2491326 -0.139703E-04  0.536E-02    3.86       1.0  T
   3    -21.2491327 -0.145969E-06  0.225E-02    3.87       1.2  T
   4    -21.2491336 -0.892854E-06  0.425E-03    3.86       6.5  T
   5    -21.2491337 -0.108636E-06  0.131E-03    3.86      21.1  T
   6    -21.2491337 -0.128518E-08  0.477E-04    3.86      58.1  T
   7    -21.2491337 -0.110013E-09  0.103E-04    3.86     269.5  T
     SCC iter.                  ...        0 min,  0.129 sec
     gradient                   ...        0 min,  0.001 sec
 * total energy  :   -21.0398305 Eh     change       -0.3640151E-03 Eh
   gradient norm :     0.0061965 Eh/α   predicted    -0.3028863E-03 ( -16.79%)
   displ. norm   :     0.0821354 α      lambda       -0.1427432E-03
   maximum displ.:     0.0424022 α      in ANC's #5, #3, #4, ...

........................................................................
.............................. CYCLE    4 ..............................
........................................................................
   1    -21.2495966 -0.212496E+02  0.588E-02    3.85       0.0  T
   2    -21.2496012 -0.454930E-05  0.339E-02    3.85       1.0  T
   3    -21.2496012 -0.667954E-07  0.113E-02    3.85       2.5  T
   4    -21.2496014 -0.171627E-06  0.259E-03    3.85      10.7  T
   5    -21.2496015 -0.391358E-07  0.102E-03    3.85      27.1  T
   6    -21.2496015 -0.702173E-09  0.425E-04    3.85      65.3  T
   7    -21.2496015 -0.252768E-09  0.122E-04    3.85     227.6  T
     SCC iter.                  ...        0 min,  0.145 sec
     gradient                   ...        0 min,  0.004 sec
 * total energy  :   -21.0399202 Eh     change       -0.8967949E-04 Eh
   gradient norm :     0.0030022 Eh/α   predicted    -0.7185416E-04 ( -19.88%)
   displ. norm   :     0.0873972 α      lambda       -0.7984275E-04
   maximum displ.:     0.0493830 α      in ANC's #3, #6, #2, ...

........................................................................
.............................. CYCLE    5 ..............................
........................................................................
   1    -21.2495154 -0.212495E+02  0.741E-02    3.82       0.0  T
   2    -21.2495174 -0.193225E-05  0.434E-02    3.82       1.0  T
   3    -21.2495175 -0.101942E-06  0.589E-03    3.82       4.7  T
   4    -21.2495176 -0.111504E-06  0.198E-03    3.83      14.0  T
   5    -21.2495176 -0.916643E-08  0.109E-03    3.83      25.5  T
   6    -21.2495176 -0.726654E-09  0.259E-04    3.83     106.9  T
   7    -21.2495176 -0.155151E-09  0.965E-05    3.83     287.4  T
     SCC iter.                  ...        0 min,  0.127 sec
     gradient                   ...        0 min,  0.004 sec
 * total energy  :   -21.0399745 Eh     change       -0.5428181E-04 Eh
   gradient norm :     0.0040696 Eh/α   predicted    -0.4022443E-04 ( -25.90%)
   displ. norm   :     0.1435524 α      lambda       -0.8828290E-04
   maximum displ.:     0.0759833 α      in ANC's #3, #1, #6, ...

........................................................................
.............................. CYCLE    6 ..............................
........................................................................
   1    -21.2493138 -0.212493E+02  0.107E-01    3.80       0.0  T
   2    -21.2493147 -0.865011E-06  0.624E-02    3.80       1.0  T
   3    -21.2493150 -0.300006E-06  0.526E-03    3.80       5.3  T
   4    -21.2493151 -0.142527E-06  0.284E-03    3.80       9.8  T
   5    -21.2493151 -0.666008E-08  0.827E-04    3.80      33.5  T
   6    -21.2493151 -0.147096E-08  0.255E-04    3.80     108.6  T
     SCC iter.                  ...        0 min,  0.114 sec
     gradient                   ...        0 min,  0.005 sec
 * total energy  :   -21.0400413 Eh     change       -0.6683697E-04 Eh
   gradient norm :     0.0069542 Eh/α   predicted    -0.4504940E-04 ( -32.60%)
   displ. norm   :     0.2299698 α      lambda       -0.1340281E-03
   maximum displ.:     0.1329847 α      in ANC's #1, #3, #6, ...

........................................................................
.............................. CYCLE    7 ..............................
........................................................................
   1    -21.2484084 -0.212484E+02  0.168E-01    3.76       0.0  T
   2    -21.2484119 -0.353267E-05  0.975E-02    3.76       1.0  T
   3    -21.2484121 -0.178357E-06  0.118E-02    3.76       2.4  T
   4    -21.2484130 -0.940055E-06  0.451E-03    3.76       6.1  T
   5    -21.2484131 -0.305874E-07  0.229E-03    3.76      12.1  T
   6    -21.2484131 -0.445292E-08  0.317E-04    3.76      87.4  T
   7    -21.2484131 -0.103658E-09  0.107E-04    3.76     260.1  T
     SCC iter.                  ...        0 min,  0.140 sec
     gradient                   ...        0 min,  0.002 sec
 * total energy  :   -21.0401278 Eh     change       -0.8646509E-04 Eh
   gradient norm :     0.0110215 Eh/α   predicted    -0.7056055E-04 ( -18.39%)
   displ. norm   :     0.1416943 α      lambda       -0.1441695E-03
   maximum displ.:     0.0890755 α      in ANC's #1, #2, #6, ...

........................................................................
.............................. CYCLE    8 ..............................
........................................................................
   1    -21.2491753 -0.212492E+02  0.948E-02    3.78       0.0  T
   2    -21.2491799 -0.459618E-05  0.546E-02    3.78       1.0  T
   3    -21.2491801 -0.169287E-06  0.935E-03    3.78       3.0  T
   4    -21.2491802 -0.154507E-06  0.245E-03    3.78      11.3  T
   5    -21.2491802 -0.163197E-07  0.142E-03    3.78      19.5  T
   6    -21.2491802 -0.135933E-08  0.218E-04    3.78     127.0  T
   7    -21.2491802 -0.841140E-10  0.986E-05    3.78     281.3  T
     SCC iter.                  ...        0 min,  0.155 sec
     gradient                   ...        0 min,  0.006 sec
 * total energy  :   -21.0402368 Eh     change       -0.1089381E-03 Eh
   gradient norm :     0.0074203 Eh/α   predicted    -0.7353148E-04 ( -32.50%)
   displ. norm   :     0.2092621 α      lambda       -0.1781925E-03
   maximum displ.:     0.1193630 α      in ANC's #1, #3, #6, ...

........................................................................
.............................. CYCLE    9 ..............................
........................................................................
   1    -21.2490897 -0.212491E+02  0.167E-01    3.79       0.0  T
   2    -21.2490921 -0.238730E-05  0.977E-02    3.79       1.0  T
   3    -21.2490926 -0.546277E-06  0.769E-03    3.79       3.6  T
   4    -21.2490929 -0.290000E-06  0.393E-03    3.79       7.1  T
   5    -21.2490929 -0.157834E-07  0.178E-03    3.79      15.6  T
   6    -21.2490929 -0.307104E-08  0.406E-04    3.79      68.4  T
   7    -21.2490929 -0.711548E-09  0.167E-04    3.79     165.8  T
     SCC iter.                  ...        0 min,  0.165 sec
     gradient                   ...        0 min,  0.004 sec
 * total energy  :   -21.0403675 Eh     change       -0.1307540E-03 Eh
   gradient norm :     0.0072397 Eh/α   predicted    -0.9299688E-04 ( -28.88%)
   displ. norm   :     0.1647022 α      lambda       -0.2012201E-03
   maximum displ.:     0.0957027 α      in ANC's #1, #3, #6, ...

........................................................................
.............................. CYCLE   10 ..............................
........................................................................
   1    -21.2514635 -0.212515E+02  0.146E-01    3.86       0.0  T
   2    -21.2514689 -0.545928E-05  0.856E-02    3.85       1.0  T
   3    -21.2514674  0.156610E-05  0.186E-02    3.86       1.5  T
   4    -21.2514702 -0.286378E-05  0.372E-03    3.85       7.4  T
   5    -21.2514702 -0.801477E-08  0.209E-03    3.85      13.3  T
   6    -21.2514702 -0.414898E-08  0.426E-04    3.85      65.2  T
   7    -21.2514702 -0.743086E-09  0.131E-04    3.85     211.7  T
     SCC iter.                  ...        0 min,  0.145 sec
     gradient                   ...        0 min,  0.004 sec
 * total energy  :   -21.0404820 Eh     change       -0.1145206E-03 Eh
   gradient norm :     0.0052744 Eh/α   predicted    -0.1033390E-03 (  -9.76%)
   displ. norm   :     0.5993467 α      lambda       -0.3751882E-03
   maximum displ.:     0.3464489 α      in ANC's #1, #3, #6, ...

........................................................................
.............................. CYCLE   11 ..............................
........................................................................
   1    -21.2403809 -0.212404E+02  0.533E-01    3.58       0.0  T
   2    -21.2404349 -0.540208E-04  0.312E-01    3.64       1.0  T
   3    -21.2404047  0.302099E-04  0.735E-02    3.63       1.0  T
   4    -21.2404532 -0.484564E-04  0.140E-02    3.65       2.0  T
   5    -21.2404533 -0.129798E-06  0.593E-03    3.64       4.7  T
   6    -21.2404533 -0.266246E-07  0.152E-03    3.64      18.3  T
   7    -21.2404533 -0.743599E-08  0.574E-04    3.64      48.3  T
   8    -21.2404533 -0.499032E-09  0.153E-04    3.64     181.2  T
     SCC iter.                  ...        0 min,  0.204 sec
     gradient                   ...        0 min,  0.073 sec
 * total energy  :   -21.0397041 Eh     change        0.7779199E-03 Eh
   gradient norm :     0.0429699 Eh/α   predicted    -0.2549857E-03 (-132.78%)
   displ. norm   :     0.3565583 α      lambda       -0.2478279E-02
   maximum displ.:     0.2004578 α      in ANC's #3, #1, #6, ...

........................................................................
.............................. CYCLE   12 ..............................
........................................................................
   1    -21.2510053 -0.212510E+02  0.341E-01    3.92       0.0  T
   2    -21.2510600 -0.547750E-04  0.200E-01    3.86       1.0  T
   3    -21.2510452  0.148081E-04  0.667E-02    3.87       1.0  T
   4    -21.2510732 -0.279612E-04  0.920E-03    3.85       3.0  T
   5    -21.2510732 -0.630293E-07  0.439E-03    3.85       6.3  T
   6    -21.2510733 -0.126369E-07  0.130E-03    3.85      21.4  T
   7    -21.2510733 -0.420351E-08  0.453E-04    3.85      61.3  T
   8    -21.2510733 -0.314298E-09  0.120E-04    3.85     231.9  T
     SCC iter.                  ...        0 min,  0.009 sec
     gradient                   ...        0 min,  0.001 sec
 * total energy  :   -21.0406206 Eh     change       -0.9165415E-03 Eh
   gradient norm :     0.0049356 Eh/α   predicted    -0.1396673E-02 (  52.39%)
   displ. norm   :     0.0610987 α      lambda       -0.9521823E-04
   maximum displ.:     0.0468569 α      in ANC's #4, #5, #3, ...

........................................................................
.............................. CYCLE   13 ..............................
........................................................................
   1    -21.2517942 -0.212518E+02  0.564E-02    3.84       0.0  T
   2    -21.2517983 -0.407155E-05  0.332E-02    3.84       1.0  T
   3    -21.2517983 -0.192645E-07  0.106E-02    3.84       2.6  T
   4    -21.2517984 -0.135533E-06  0.224E-03    3.84      12.4  T
   5    -21.2517984 -0.310610E-07  0.919E-04    3.84      30.2  T
   6    -21.2517984 -0.334545E-09  0.316E-04    3.84      87.9  T
     SCC iter.                  ...        0 min,  0.009 sec
     gradient                   ...        0 min,  0.002 sec
 * total energy  :   -21.0406787 Eh     change       -0.5807303E-04 Eh
   gradient norm :     0.0054612 Eh/α   predicted    -0.4778616E-04 ( -17.71%)
   displ. norm   :     0.1282061 α      lambda       -0.1199120E-03
   maximum displ.:     0.0732226 α      in ANC's #4, #1, #3, ...

........................................................................
.............................. CYCLE   14 ..............................
........................................................................
   1    -21.2511999 -0.212512E+02  0.119E-01    3.81       0.0  T
   2    -21.2512011 -0.122682E-05  0.701E-02    3.82       1.0  T
   3    -21.2512015 -0.365883E-06  0.499E-03    3.82       5.6  T
   4    -21.2512016 -0.818626E-07  0.290E-03    3.82       9.6  T
   5    -21.2512016 -0.739634E-08  0.128E-03    3.82      21.6  T
   6    -21.2512016 -0.206975E-08  0.230E-04    3.82     120.8  T
   7    -21.2512016 -0.160682E-09  0.111E-04    3.82     250.8  T
     SCC iter.                  ...        0 min,  0.010 sec
     gradient                   ...        0 min,  0.001 sec
 * total energy  :   -21.0407786 Eh     change       -0.9983044E-04 Eh
   gradient norm :     0.0080919 Eh/α   predicted    -0.6094274E-04 ( -38.95%)
   displ. norm   :     0.3428510 α      lambda       -0.2697253E-03
   maximum displ.:     0.1991028 α      in ANC's #1, #4, #3, ...

........................................................................
.............................. CYCLE   15 ..............................
........................................................................
   1    -21.2477545 -0.212478E+02  0.307E-01    3.71       0.0  T
   2    -21.2477629 -0.839831E-05  0.179E-01    3.73       1.0  T
   3    -21.2477619  0.106182E-05  0.233E-02    3.72       1.2  T
   4    -21.2477665 -0.463048E-05  0.794E-03    3.73       3.5  T
   5    -21.2477666 -0.361250E-07  0.272E-03    3.73      10.2  T
   6    -21.2477666 -0.990127E-08  0.659E-04    3.73      42.1  T
   7    -21.2477666 -0.189203E-08  0.246E-04    3.73     112.6  T
     SCC iter.                  ...        0 min,  0.009 sec
     gradient                   ...        0 min,  0.001 sec
 * total energy  :   -21.0408257 Eh     change       -0.4719306E-04 Eh
   gradient norm :     0.0220004 Eh/α   predicted    -0.1507167E-03 ( 219.36%)
   displ. norm   :     0.1094825 α      lambda       -0.3244031E-03
   maximum displ.:     0.0574108 α      in ANC's #1, #3, #4, ...

........................................................................
.............................. CYCLE   16 ..............................
........................................................................
   1    -21.2504066 -0.212504E+02  0.113E-01    3.83       0.0  T
   2    -21.2504127 -0.614045E-05  0.665E-02    3.81       1.0  T
   3    -21.2504111  0.166309E-05  0.220E-02    3.81       1.3  T
   4    -21.2504142 -0.310651E-05  0.318E-03    3.81       8.7  T
   5    -21.2504142 -0.590164E-08  0.175E-03    3.81      15.8  T
   6    -21.2504142 -0.240836E-08  0.449E-04    3.81      61.8  T
   7    -21.2504142 -0.620748E-09  0.157E-04    3.81     176.4  T
     SCC iter.                  ...        0 min,  0.011 sec
     gradient                   ...        0 min,  0.001 sec
 * total energy  :   -21.0409917 Eh     change       -0.1659346E-03 Eh
   gradient norm :     0.0064651 Eh/α   predicted    -0.1641444E-03 (  -1.08%)
   displ. norm   :     0.1178446 α      lambda       -0.1218332E-03
   maximum displ.:     0.0649582 α      in ANC's #1, #4, #5, ...

........................................................................
.............................. CYCLE   17 ..............................
........................................................................
   1    -21.2505567 -0.212506E+02  0.879E-02    3.82       0.0  T
   2    -21.2505579 -0.120671E-05  0.513E-02    3.82       1.0  T
   3    -21.2505578  0.767700E-07  0.711E-03    3.82       3.9  T
   4    -21.2505582 -0.383076E-06  0.235E-03    3.82      11.8  T
   5    -21.2505582 -0.580818E-08  0.121E-03    3.82      22.9  T
   6    -21.2505582 -0.923137E-09  0.289E-04    3.82      96.0  T
   7    -21.2505582 -0.228649E-09  0.109E-04    3.82     253.7  T
     SCC iter.                  ...        0 min,  0.009 sec
     gradient                   ...        0 min,  0.001 sec
 * total energy  :   -21.0410952 Eh     change       -0.1035714E-03 Eh
   gradient norm :     0.0038888 Eh/α   predicted    -0.6176251E-04 ( -40.37%)
   displ. norm   :     0.3726644 α      lambda       -0.2805532E-03
   maximum displ.:     0.2100383 α      in ANC's #1, #4, #5, ...

........................................................................
.............................. CYCLE   18 ..............................
........................................................................
   1    -21.2476447 -0.212476E+02  0.297E-01    3.76       0.0  T
   2    -21.2476524 -0.770086E-05  0.173E-01    3.76       1.0  T
   3    -21.2476540 -0.160029E-05  0.149E-02    3.76       1.9  T
   4    -21.2476551 -0.109354E-05  0.751E-03    3.76       3.7  T
   5    -21.2476552 -0.769622E-07  0.363E-03    3.76       7.6  T
   6    -21.2476552 -0.132775E-07  0.584E-04    3.76      47.5  T
   7    -21.2476552 -0.736087E-09  0.248E-04    3.76     111.9  T
     SCC iter.                  ...        0 min,  0.009 sec
     gradient                   ...        0 min,  0.001 sec
 * total energy  :   -21.0412354 Eh     change       -0.1401262E-03 Eh
   gradient norm :     0.0126000 Eh/α   predicted    -0.1597629E-03 (  14.01%)
   displ. norm   :     0.0250559 α      lambda       -0.1307176E-03
   maximum displ.:     0.0153709 α      in ANC's #3, #4, #20, ...

........................................................................
.............................. CYCLE   19 ..............................
........................................................................
   1    -21.2498402 -0.212498E+02  0.287E-02    3.82       0.0  T
   2    -21.2498422 -0.207342E-05  0.175E-02    3.81       1.6  T
   3    -21.2498426 -0.315694E-06  0.930E-03    3.81       3.0  T
   4    -21.2498427 -0.133292E-06  0.118E-03    3.81      23.5  T
   5    -21.2498427 -0.154902E-08  0.675E-04    3.81      41.1  T
   6    -21.2498427 -0.611365E-09  0.278E-04    3.81      99.9  T
     SCC iter.                  ...        0 min,  0.007 sec
     gradient                   ...        0 min,  0.001 sec
 * total energy  :   -21.0413179 Eh     change       -0.8253355E-04 Eh
   gradient norm :     0.0044829 Eh/α   predicted    -0.6539969E-04 ( -20.76%)
   displ. norm   :     0.1837571 α      lambda       -0.1271950E-03
   maximum displ.:     0.1121869 α      in ANC's #1, #5, #4, ...

........................................................................
.............................. CYCLE   20 ..............................
........................................................................
   1    -21.2503599 -0.212504E+02  0.149E-01    3.81       0.0  T
   2    -21.2503611 -0.115379E-05  0.872E-02    3.80       1.0  T
   3    -21.2503616 -0.494560E-06  0.589E-03    3.80       4.7  T
   4    -21.2503617 -0.117201E-06  0.348E-03    3.80       8.0  T
   5    -21.2503617 -0.781898E-08  0.748E-04    3.80      37.1  T
   6    -21.2503617 -0.161247E-08  0.252E-04    3.80     109.8  T
     SCC iter.                  ...        0 min,  0.008 sec
     gradient                   ...        0 min,  0.004 sec
 * total energy  :   -21.0414214 Eh     change       -0.1035147E-03 Eh
   gradient norm :     0.0040850 Eh/α   predicted    -0.6574315E-04 ( -36.49%)
   displ. norm   :     0.3626557 α      lambda       -0.2063360E-03
   maximum displ.:     0.2258757 α      in ANC's #1, #4, #5, ...
 * RMSD in coord.:     0.6802500 α      energy gain  -0.5646702E-02 Eh

generating ANC from model Hessian ...
Using Lindh-Hessian (1995)
 Shifting diagonal of input Hessian by    4.1284494828288491E-003
 Lowest  eigenvalues of input Hessian
    0.000000    0.000000    0.000000    0.000000    0.000000    0.000000
    0.010000    0.013843    0.016974    0.017773    0.020666    0.027318
    0.052629    0.057753    0.062662    0.064779    0.076156    0.086506
 Highest eigenvalues
    1.172749    1.257036    1.344783    1.418391    1.746537    2.336478


........................................................................
.............................. CYCLE   21 ..............................
........................................................................
   1    -21.2487356 -0.212487E+02  0.293E-01    3.71       0.0  T
   2    -21.2487414 -0.578097E-05  0.171E-01    3.72       1.0  T
   3    -21.2487415 -0.116681E-06  0.187E-02    3.71       1.5  T
   4    -21.2487442 -0.272703E-05  0.743E-03    3.72       3.7  T
   5    -21.2487443 -0.300234E-07  0.153E-03    3.72      18.2  T
   6    -21.2487443 -0.270762E-08  0.413E-04    3.72      67.1  T
   7    -21.2487443 -0.117225E-09  0.159E-04    3.72     174.7  T
     SCC iter.                  ...        0 min,  0.008 sec
     gradient                   ...        0 min,  0.001 sec
 * total energy  :   -21.0415051 Eh     change       -0.8367205E-04 Eh
   gradient norm :     0.0145116 Eh/α   predicted     0.0000000E+00 (-100.00%)
   displ. norm   :     0.0645767 α      lambda       -0.2552940E-03
   maximum displ.:     0.0534835 α      in ANC's #1, #5, #4, ...

........................................................................
.............................. CYCLE   22 ..............................
........................................................................
   1    -21.2510431 -0.212510E+02  0.429E-02    3.80       0.0  T
   2    -21.2510472 -0.415305E-05  0.261E-02    3.78       1.1  T
   3    -21.2510477 -0.527575E-06  0.140E-02    3.78       2.0  T
   4    -21.2510481 -0.362197E-06  0.177E-03    3.78      15.7  T
   5    -21.2510481 -0.262628E-08  0.101E-03    3.78      27.5  T
   6    -21.2510481 -0.786883E-09  0.312E-04    3.78      89.0  T
   7    -21.2510481 -0.212218E-09  0.104E-04    3.78     265.9  T
     SCC iter.                  ...        0 min,  0.004 sec
     gradient                   ...        0 min,  0.001 sec
 * total energy  :   -21.0416666 Eh     change       -0.1614778E-03 Eh
   gradient norm :     0.0036245 Eh/α   predicted    -0.1281778E-03 ( -20.62%)
   displ. norm   :     0.0679598 α      lambda       -0.7737496E-04
   maximum displ.:     0.0501380 α      in ANC's #1, #5, #6, ...

........................................................................
.............................. CYCLE   23 ..............................
........................................................................
   1    -21.2517767 -0.212518E+02  0.516E-02    3.80       0.0  T
   2    -21.2517775 -0.865646E-06  0.304E-02    3.80       1.0  T
   3    -21.2517773  0.281212E-06  0.844E-03    3.80       3.3  T
   4    -21.2517778 -0.501696E-06  0.138E-03    3.80      20.1  T
   5    -21.2517778 -0.822489E-09  0.678E-04    3.80      40.9  T
   6    -21.2517778 -0.257803E-09  0.953E-05    3.80     291.2  T
     SCC iter.                  ...        0 min,  0.005 sec
     gradient                   ...        0 min,  0.001 sec
 * total energy  :   -21.0417217 Eh     change       -0.5514854E-04 Eh
   gradient norm :     0.0029855 Eh/α   predicted    -0.3886423E-04 ( -29.53%)
   displ. norm   :     0.1370378 α      lambda       -0.8875798E-04
   maximum displ.:     0.1094065 α      in ANC's #1, #4, #6, ...

........................................................................
.............................. CYCLE   24 ..............................
........................................................................
   1    -21.2518087 -0.212518E+02  0.900E-02    3.80       0.0  T
   2    -21.2518094 -0.721697E-06  0.526E-02    3.80       1.0  T
   3    -21.2518095 -0.781354E-07  0.539E-03    3.80       5.1  T
   4    -21.2518097 -0.217471E-06  0.238E-03    3.80      11.6  T
   5    -21.2518097 -0.473582E-08  0.807E-04    3.80      34.4  T
   6    -21.2518097 -0.105940E-08  0.221E-04    3.80     125.7  T
     SCC iter.                  ...        0 min,  0.005 sec
     gradient                   ...        0 min,  0.001 sec
 * total energy  :   -21.0417973 Eh     change       -0.7560401E-04 Eh
   gradient norm :     0.0031397 Eh/α   predicted    -0.4521222E-04 ( -40.20%)
   displ. norm   :     0.2175359 α      lambda       -0.1251528E-03
   maximum displ.:     0.1665173 α      in ANC's #1, #4, #6, ...

........................................................................
.............................. CYCLE   25 ..............................
........................................................................
   1    -21.2507435 -0.212507E+02  0.160E-01    3.75       0.0  T
   2    -21.2507459 -0.234460E-05  0.938E-02    3.76       1.0  T
   3    -21.2507458  0.799321E-07  0.116E-02    3.75       2.4  T
   4    -21.2507468 -0.106704E-05  0.422E-03    3.76       6.6  T
   5    -21.2507468 -0.915488E-08  0.116E-03    3.76      23.8  T
   6    -21.2507469 -0.304577E-08  0.430E-04    3.76      64.6  T
   7    -21.2507469 -0.397826E-09  0.122E-04    3.76     228.2  T
     SCC iter.                  ...        0 min,  0.006 sec
     gradient                   ...        0 min,  0.001 sec
 * total energy  :   -21.0418924 Eh     change       -0.9503370E-04 Eh
   gradient norm :     0.0048155 Eh/α   predicted    -0.6553532E-04 ( -31.04%)
   displ. norm   :     0.1543721 α      lambda       -0.7083027E-04
   maximum displ.:     0.1299380 α      in ANC's #1, #4, #6, ...

........................................................................
.............................. CYCLE   26 ..............................
........................................................................
   1    -21.2504682 -0.212505E+02  0.101E-01    3.73       0.0  T
   2    -21.2504707 -0.249526E-05  0.590E-02    3.73       1.0  T
   3    -21.2504704  0.359630E-06  0.109E-02    3.73       2.5  T
   4    -21.2504713 -0.881213E-06  0.273E-03    3.73      10.2  T
   5    -21.2504713 -0.128216E-07  0.156E-03    3.73      17.8  T
   6    -21.2504713 -0.190336E-08  0.223E-04    3.73     124.2  T
   7    -21.2504713 -0.488214E-10  0.856E-05    3.73     324.1  T
     SCC iter.                  ...        0 min,  0.006 sec
     gradient                   ...        0 min,  0.001 sec
 * total energy  :   -21.0419442 Eh     change       -0.5181337E-04 Eh
   gradient norm :     0.0069776 Eh/α   predicted    -0.3625996E-04 ( -30.02%)
   displ. norm   :     0.1068592 α      lambda       -0.7788280E-04
   maximum displ.:     0.0953862 α      in ANC's #1, #4, #5, ...

........................................................................
.............................. CYCLE   27 ..............................
........................................................................
   1    -21.2513658 -0.212514E+02  0.557E-02    3.74       0.0  T
   2    -21.2513672 -0.135472E-05  0.321E-02    3.74       1.0  T
   3    -21.2513672 -0.425445E-07  0.535E-03    3.73       5.2  T
   4    -21.2513673 -0.761165E-07  0.144E-03    3.73      19.2  T
   5    -21.2513673 -0.500574E-08  0.806E-04    3.73      34.4  T
   6    -21.2513673 -0.336637E-09  0.150E-04    3.73     185.1  T
     SCC iter.                  ...        0 min,  0.005 sec
     gradient                   ...        0 min,  0.001 sec
 * total energy  :   -21.0420073 Eh     change       -0.6311140E-04 Eh
   gradient norm :     0.0048348 Eh/α   predicted    -0.3938606E-04 ( -37.59%)
   displ. norm   :     0.2779282 α      lambda       -0.1479162E-03
   maximum displ.:     0.2394544 α      in ANC's #1, #4, #5, ...

........................................................................
.............................. CYCLE   28 ..............................
........................................................................
   1    -21.2513955 -0.212514E+02  0.159E-01    3.72       0.0  T
   2    -21.2513998 -0.428370E-05  0.925E-02    3.71       1.0  T
   3    -21.2513998  0.185097E-07  0.121E-02    3.71       2.3  T
   4    -21.2514007 -0.977718E-06  0.419E-03    3.71       6.6  T
   5    -21.2514008 -0.279189E-07  0.232E-03    3.71      12.0  T
   6    -21.2514008 -0.413820E-08  0.400E-04    3.71      69.3  T
   7    -21.2514008 -0.611287E-09  0.189E-04    3.71     146.5  T
     SCC iter.                  ...        0 min,  0.009 sec
     gradient                   ...        0 min,  0.001 sec
 * total energy  :   -21.0421054 Eh     change       -0.9812864E-04 Eh
   gradient norm :     0.0073573 Eh/α   predicted    -0.7966639E-04 ( -18.81%)
   displ. norm   :     0.1702405 α      lambda       -0.1228417E-03
   maximum displ.:     0.1335828 α      in ANC's #1, #5, #3, ...

........................................................................
.............................. CYCLE   29 ..............................
........................................................................
   1    -21.2520463 -0.212520E+02  0.799E-02    3.75       0.0  T
   2    -21.2520477 -0.137019E-05  0.468E-02    3.74       1.0  T
   3    -21.2520474  0.255344E-06  0.925E-03    3.74       3.0  T
   4    -21.2520480 -0.627682E-06  0.230E-03    3.74      12.1  T
   5    -21.2520480 -0.250607E-08  0.983E-04    3.74      28.2  T
   6    -21.2520480 -0.145328E-08  0.285E-04    3.74      97.3  T
     SCC iter.                  ...        0 min,  0.005 sec
     gradient                   ...        0 min,  0.001 sec
 * total energy  :   -21.0421907 Eh     change       -0.8529859E-04 Eh
   gradient norm :     0.0061990 Eh/α   predicted    -0.6319989E-04 ( -25.91%)
   displ. norm   :     0.3103458 α      lambda       -0.1574977E-03
   maximum displ.:     0.2319698 α      in ANC's #1, #4, #3, ...

........................................................................
.............................. CYCLE   30 ..............................
........................................................................
   1    -21.2498307 -0.212498E+02  0.174E-01    3.69       0.0  T
   2    -21.2498350 -0.437588E-05  0.102E-01    3.70       1.0  T
   3    -21.2498342  0.804750E-06  0.169E-02    3.69       1.6  T
   4    -21.2498366 -0.241315E-05  0.508E-03    3.69       5.5  T
   5    -21.2498367 -0.124556E-07  0.193E-03    3.69      14.4  T
   6    -21.2498367 -0.301273E-08  0.361E-04    3.69      76.8  T
   7    -21.2498367 -0.111495E-09  0.154E-04    3.69     180.2  T
     SCC iter.                  ...        0 min,  0.005 sec
     gradient                   ...        0 min,  0.001 sec
 * total energy  :   -21.0422771 Eh     change       -0.8636296E-04 Eh
   gradient norm :     0.0104853 Eh/α   predicted    -0.8633306E-04 (  -0.03%)
   displ. norm   :     0.1241749 α      lambda       -0.2196818E-03
   maximum displ.:     0.0798732 α      in ANC's #3, #4, #6, ...

........................................................................
.............................. CYCLE   31 ..............................
........................................................................
   1    -21.2509043 -0.212509E+02  0.738E-02    3.74       0.0  T
   2    -21.2509199 -0.156079E-04  0.427E-02    3.73       1.0  T
   3    -21.2509209 -0.977017E-06  0.220E-02    3.74       1.3  T
   4    -21.2509213 -0.449024E-06  0.450E-03    3.73       6.2  T
   5    -21.2509214 -0.958273E-07  0.129E-03    3.73      21.5  T
   6    -21.2509214 -0.120487E-08  0.332E-04    3.73      83.4  T
   7    -21.2509214 -0.271896E-09  0.167E-04    3.73     165.7  T
     SCC iter.                  ...        0 min,  0.005 sec
     gradient                   ...        0 min,  0.001 sec
 * total energy  :   -21.0423676 Eh     change       -0.9054546E-04 Eh
   gradient norm :     0.0075393 Eh/α   predicted    -0.1115337E-03 (  23.18%)
   displ. norm   :     0.1000112 α      lambda       -0.1296574E-03
   maximum displ.:     0.0747175 α      in ANC's #1, #4, #6, ...

........................................................................
.............................. CYCLE   32 ..............................
........................................................................
   1    -21.2509316 -0.212509E+02  0.642E-02    3.70       0.0  T
   2    -21.2509353 -0.366027E-05  0.375E-02    3.70       1.0  T
   3    -21.2509351  0.163977E-06  0.136E-02    3.70       2.0  T
   4    -21.2509358 -0.713030E-06  0.228E-03    3.70      12.2  T
   5    -21.2509358 -0.157681E-07  0.122E-03    3.70      22.7  T
   6    -21.2509358 -0.987448E-09  0.190E-04    3.70     145.7  T
   7    -21.2509358 -0.148404E-09  0.791E-05    3.70     350.8  T
     SCC iter.                  ...        0 min,  0.005 sec
     gradient                   ...        0 min,  0.001 sec
 * total energy  :   -21.0424596 Eh     change       -0.9200896E-04 Eh
   gradient norm :     0.0055546 Eh/α   predicted    -0.6547797E-04 ( -28.84%)
   displ. norm   :     0.1943489 α      lambda       -0.1016361E-03
   maximum displ.:     0.1413475 α      in ANC's #1, #4, #3, ...

........................................................................
.............................. CYCLE   33 ..............................
........................................................................
   1    -21.2503297 -0.212503E+02  0.111E-01    3.66       0.0  T
   2    -21.2503334 -0.365323E-05  0.652E-02    3.66       1.0  T
   3    -21.2503327  0.723529E-06  0.150E-02    3.66       1.8  T
   4    -21.2503343 -0.167928E-05  0.338E-03    3.66       8.2  T
   5    -21.2503343 -0.101227E-07  0.189E-03    3.66      14.6  T
   6    -21.2503343 -0.267636E-08  0.286E-04    3.66      97.1  T
   7    -21.2503343 -0.350891E-09  0.129E-04    3.66     214.8  T
     SCC iter.                  ...        0 min,  0.005 sec
     gradient                   ...        0 min,  0.001 sec
 * total energy  :   -21.0425210 Eh     change       -0.6132350E-04 Eh
   gradient norm :     0.0090225 Eh/α   predicted    -0.5273752E-04 ( -14.00%)
   displ. norm   :     0.0558206 α      lambda       -0.1164872E-03
   maximum displ.:     0.0287070 α      in ANC's #4, #1, #23, ...

........................................................................
.............................. CYCLE   34 ..............................
........................................................................
   1    -21.2532926 -0.212533E+02  0.517E-02    3.70       0.0  T
   2    -21.2532953 -0.268186E-05  0.296E-02    3.69       1.0  T
   3    -21.2532952  0.735221E-07  0.130E-02    3.69       2.1  T
   4    -21.2532958 -0.630863E-06  0.189E-03    3.69      14.6  T
   5    -21.2532958 -0.415315E-08  0.919E-04    3.69      30.2  T
   6    -21.2532958 -0.478078E-09  0.200E-04    3.69     138.9  T
     SCC iter.                  ...        0 min,  0.004 sec
     gradient                   ...        0 min,  0.001 sec
 * total energy  :   -21.0425519 Eh     change       -0.3094183E-04 Eh
   gradient norm :     0.0078023 Eh/α   predicted    -0.5842448E-04 (  88.82%)
   displ. norm   :     0.1902016 α      lambda       -0.1200501E-03
   maximum displ.:     0.1201090 α      in ANC's #1, #4, #3, ...

........................................................................
.............................. CYCLE   35 ..............................
........................................................................
   1    -21.2514381 -0.212514E+02  0.103E-01    3.65       0.0  T
   2    -21.2514398 -0.169751E-05  0.609E-02    3.66       1.0  T
   3    -21.2514397  0.110892E-06  0.976E-03    3.65       2.8  T
   4    -21.2514404 -0.758018E-06  0.323E-03    3.66       8.6  T
   5    -21.2514404 -0.587413E-08  0.128E-03    3.66      21.7  T
   6    -21.2514405 -0.138700E-08  0.245E-04    3.66     113.3  T
   7    -21.2514405 -0.613021E-10  0.105E-04    3.66     263.6  T
     SCC iter.                  ...        0 min,  0.007 sec
     gradient                   ...        0 min,  0.001 sec
 * total energy  :   -21.0426372 Eh     change       -0.8534717E-04 Eh
   gradient norm :     0.0068624 Eh/α   predicted    -0.6219765E-04 ( -27.12%)
   displ. norm   :     0.1416342 α      lambda       -0.8400535E-04
   maximum displ.:     0.0804621 α      in ANC's #4, #1, #3, ...

........................................................................
.............................. CYCLE   36 ..............................
........................................................................
   1    -21.2506627 -0.212507E+02  0.839E-02    3.65       0.0  T
   2    -21.2506646 -0.190493E-05  0.495E-02    3.65       1.0  T
   3    -21.2506647 -0.113810E-06  0.722E-03    3.65       3.8  T
   4    -21.2506649 -0.252547E-06  0.275E-03    3.65      10.1  T
   5    -21.2506650 -0.197866E-07  0.143E-03    3.65      19.4  T
   6    -21.2506650 -0.151961E-08  0.212E-04    3.65     130.9  T
   7    -21.2506650 -0.446967E-10  0.998E-05    3.65     277.9  T
     SCC iter.                  ...        0 min,  0.006 sec
     gradient                   ...        0 min,  0.001 sec
 * total energy  :   -21.0426848 Eh     change       -0.4757518E-04 Eh
   gradient norm :     0.0083238 Eh/α   predicted    -0.4284339E-04 (  -9.95%)
   displ. norm   :     0.0390189 α      lambda       -0.6161327E-04
   maximum displ.:     0.0198274 α      in ANC's #1, #4, #6, ...

........................................................................
.............................. CYCLE   37 ..............................
........................................................................
   1    -21.2519593 -0.212520E+02  0.303E-02    3.69       0.0  T
   2    -21.2519602 -0.920472E-06  0.179E-02    3.68       1.5  T
   3    -21.2519602  0.372733E-07  0.761E-03    3.68       3.6  T
   4    -21.2519604 -0.231994E-06  0.100E-03    3.67      27.7  T
   5    -21.2519604 -0.101005E-08  0.550E-04    3.67      50.4  T
   6    -21.2519604 -0.352287E-09  0.193E-04    3.68     143.8  T
     SCC iter.                  ...        0 min,  0.005 sec
     gradient                   ...        0 min,  0.001 sec
 * total energy  :   -21.0427293 Eh     change       -0.4444869E-04 Eh
   gradient norm :     0.0042089 Eh/α   predicted    -0.3085464E-04 ( -30.58%)
   displ. norm   :     0.3076879 α      lambda       -0.1340520E-03
   maximum displ.:     0.2038444 α      in ANC's #1, #4, #15, ...

........................................................................
.............................. CYCLE   38 ..............................
........................................................................
   1    -21.2513910 -0.212514E+02  0.192E-01    3.61       0.0  T
   2    -21.2514049 -0.138103E-04  0.113E-01    3.61       1.0  T
   3    -21.2514027  0.212294E-05  0.291E-02    3.60       1.0  T
   4    -21.2514081 -0.538585E-05  0.612E-03    3.61       4.5  T
   5    -21.2514082 -0.549150E-07  0.342E-03    3.61       8.1  T
   6    -21.2514082 -0.882942E-08  0.432E-04    3.61      64.2  T
   7    -21.2514082 -0.189029E-09  0.137E-04    3.61     202.2  T
     SCC iter.                  ...        0 min,  0.005 sec
     gradient                   ...        0 min,  0.001 sec
 * total energy  :   -21.0427471 Eh     change       -0.1787927E-04 Eh
   gradient norm :     0.0113061 Eh/α   predicted    -0.7337001E-04 ( 310.36%)
   displ. norm   :     0.0997491 α      lambda       -0.1525450E-03
   maximum displ.:     0.0702603 α      in ANC's #1, #4, #3, ...

........................................................................
.............................. CYCLE   39 ..............................
........................................................................
   1    -21.2532170 -0.212532E+02  0.661E-02    3.69       0.0  T
   2    -21.2532218 -0.487957E-05  0.397E-02    3.68       1.0  T
   3    -21.2532219 -0.240549E-07  0.178E-02    3.68       1.6  T
   4    -21.2532230 -0.110770E-05  0.248E-03    3.68      11.2  T
   5    -21.2532230 -0.328055E-08  0.126E-03    3.68      21.9  T
   6    -21.2532230 -0.147078E-08  0.328E-04    3.68      84.4  T
   7    -21.2532230 -0.188532E-09  0.134E-04    3.68     206.6  T
     SCC iter.                  ...        0 min,  0.005 sec
     gradient                   ...        0 min,  0.001 sec
 * total energy  :   -21.0428110 Eh     change       -0.6380803E-04 Eh
   gradient norm :     0.0029069 Eh/α   predicted    -0.7703015E-04 (  20.72%)
   displ. norm   :     0.0859485 α      lambda       -0.3096156E-04
   maximum displ.:     0.0556505 α      in ANC's #4, #1, #15, ...

........................................................................
.............................. CYCLE   40 ..............................
........................................................................
   1    -21.2527070 -0.212527E+02  0.547E-02    3.67       0.0  T
   2    -21.2527075 -0.496030E-06  0.322E-02    3.67       1.0  T
   3    -21.2527076 -0.107664E-06  0.308E-03    3.67       9.0  T
   4    -21.2527076 -0.373676E-07  0.155E-03    3.67      17.9  T
   5    -21.2527076 -0.394446E-08  0.863E-04    3.67      32.1  T
   6    -21.2527076 -0.699991E-09  0.118E-04    3.67     235.1  T
     SCC iter.                  ...        0 min,  0.007 sec
     gradient                   ...        0 min,  0.001 sec
 * total energy  :   -21.0428362 Eh     change       -0.2528304E-04 Eh
   gradient norm :     0.0021681 Eh/α   predicted    -0.1559468E-04 ( -38.32%)
   displ. norm   :     0.2564313 α      lambda       -0.6099949E-04
   maximum displ.:     0.1507594 α      in ANC's #4, #1, #15, ...

........................................................................
.............................. CYCLE   41 ..............................
........................................................................
   1    -21.2507263 -0.212507E+02  0.159E-01    3.61       0.0  T
   2    -21.2507349 -0.856567E-05  0.933E-02    3.62       1.0  T
   3    -21.2507331  0.181645E-05  0.247E-02    3.61       1.1  T
   4    -21.2507373 -0.418064E-05  0.489E-03    3.62       5.7  T
   5    -21.2507373 -0.212663E-07  0.260E-03    3.62      10.7  T
   6    -21.2507373 -0.507464E-08  0.324E-04    3.62      85.7  T
   7    -21.2507373 -0.151349E-09  0.146E-04    3.62     189.5  T
     SCC iter.                  ...        0 min,  0.005 sec
     gradient                   ...        0 min,  0.001 sec
 * total energy  :   -21.0428364 Eh     change       -0.2048488E-06 Eh
   gradient norm :     0.0073163 Eh/α   predicted    -0.3250609E-04 (*******%)
   displ. norm   :     0.1215418 α      lambda       -0.7949701E-04
   maximum displ.:     0.0764612 α      in ANC's #1, #4, #3, ...

........................................................................
.............................. CYCLE   42 ..............................
........................................................................
   1    -21.2527931 -0.212528E+02  0.721E-02    3.67       0.0  T
   2    -21.2527994 -0.631166E-05  0.425E-02    3.66       1.0  T
   3    -21.2527995 -0.115939E-06  0.186E-02    3.67       1.5  T
   4    -21.2528005 -0.102342E-05  0.262E-03    3.66      10.6  T
   5    -21.2528005 -0.141389E-07  0.145E-03    3.66      19.2  T
   6    -21.2528005 -0.143478E-08  0.180E-04    3.66     153.7  T
   7    -21.2528005 -0.305178E-10  0.618E-05    3.66     448.9  T
     SCC iter.                  ...        0 min,  0.005 sec
     gradient                   ...        0 min,  0.001 sec
 * total energy  :   -21.0428638 Eh     change       -0.2740189E-04 Eh
   gradient norm :     0.0028169 Eh/α   predicted    -0.4033636E-04 (  47.20%)
   displ. norm   :     0.0321366 α      lambda       -0.1261757E-04
   maximum displ.:     0.0225222 α      in ANC's #1, #4, #3, ...
 * RMSD in coord.:     0.7074541 α      energy gain  -0.1442419E-02 Eh

generating ANC from model Hessian ...
Using Lindh-Hessian (1995)
 Shifting diagonal of input Hessian by    3.9683149195207795E-003
 Lowest  eigenvalues of input Hessian
    0.000000    0.000000    0.000000    0.000000    0.000000    0.000000
    0.010000    0.013380    0.015954    0.018084    0.021883    0.026527
    0.052060    0.057220    0.062869    0.064799    0.076258    0.092700
 Highest eigenvalues
    1.173699    1.217801    1.355021    1.464503    1.776510    2.370829


........................................................................
.............................. CYCLE   43 ..............................
........................................................................
   1    -21.2525977 -0.212526E+02  0.188E-02    3.67       0.0  T
   2    -21.2525993 -0.151726E-05  0.103E-02    3.67       2.7  T
   3    -21.2525993 -0.389706E-07  0.555E-03    3.67       5.0  T
   4    -21.2525993 -0.296424E-08  0.141E-03    3.67      19.7  T
   5    -21.2525993 -0.120889E-07  0.331E-04    3.67      83.9  T
   6    -21.2525993 -0.648264E-10  0.139E-04    3.67     199.0  T
     SCC iter.                  ...        0 min,  0.110 sec
     gradient                   ...        0 min,  0.003 sec
 * total energy  :   -21.0428688 Eh     change       -0.4992626E-05 Eh
   gradient norm :     0.0012899 Eh/α   predicted     0.0000000E+00 (-100.00%)
   displ. norm   :     0.0153288 α      lambda       -0.4260090E-05
   maximum displ.:     0.0087289 α      in ANC's #5, #6, #4, ...

........................................................................
.............................. CYCLE   44 ..............................
........................................................................
   1    -21.2527052 -0.212527E+02  0.125E-02    3.66       0.0  T
   2    -21.2527054 -0.134328E-06  0.753E-03    3.66       3.7  T
   3    -21.2527054 -0.277783E-09  0.193E-03    3.66      14.4  T
   4    -21.2527054 -0.724341E-08  0.415E-04    3.66      66.8  T
   5    -21.2527054 -0.786475E-09  0.174E-04    3.66     159.4  T
     SCC iter.                  ...        0 min,  0.074 sec
     gradient                   ...        0 min,  0.004 sec
 * total energy  :   -21.0428728 Eh     change       -0.3969153E-05 Eh
   gradient norm :     0.0005099 Eh/α   predicted    -0.2131373E-05 ( -46.30%)
   displ. norm   :     0.0357264 α      lambda       -0.4637201E-05
   maximum displ.:     0.0230509 α      in ANC's #1, #4, #5, ...

   *** GEOMETRY OPTIMIZATION CONVERGED AFTER 44 ITERATIONS ***

------------------------------------------------------------------------
 total energy gain   :        -0.0070981 Eh       -4.4541 kcal/mol
 total RMSD          :         1.2936974 a0        0.6846 Å
 total power (kW/mol):        -0.4235457 (step)   -8.4924 (real)
------------------------------------------------------------------------

 ANCopt (total)                0 d,  0 h,  0 min,  2.194 sec
 optimizer setup                ...        0 min,  0.000 sec (  0.019%)
 model hessian                  ...        0 min,  0.017 sec (  0.784%)
 ANC generation                 ...        0 min,  0.006 sec (  0.270%)
 coordinate transformation      ...        0 min,  0.000 sec (  0.009%)
 single point calculation       ...        0 min,  2.157 sec ( 98.276%)
 optimization log               ...        0 min,  0.002 sec (  0.092%)
 hessian update                 ...        0 min,  0.004 sec (  0.181%)
 rational function              ...        0 min,  0.006 sec (  0.259%)

================
 final structure:
================
13
 xtb: 6.5.1 (b24c23e)
O            1.51805149646359       -0.11197725343679        0.83328930286536
O            1.00590503155570       -0.18065600221258       -1.33561566020201
N           -1.53197436954770       -1.10172826321455       -0.63675873040269
C           -0.78120531594894       -0.27185520473974        0.28421870147125
C           -1.28515854601114        1.18109381493283        0.38849211626399
C            0.65977031068300       -0.20132654632374       -0.18554513806709
H           -0.80560536491945       -0.73394777953445        1.27766230086789
H           -0.68418094010581        1.74180192762163        1.09969094001952
H           -1.22733861767146        1.66646508408980       -0.58442959959597
H           -2.31991340106496        1.18646237433316        0.72497145373590
H           -1.24248262841337       -0.89811554212577       -1.58872321466052
H           -2.52532214830399       -0.91571174757722       -0.55730987186350
H            2.42899142328433       -0.03888948181268        0.50510435956780

 Bond Distances (Angstroems)
 ---------------------------
O1-C6=1.3352         O1-H13=0.9710        O2-C6=1.2012         N3-C4=1.4493         N3-H11=1.0156        N3-H12=1.0137        
C4-N3=1.4493         C4-C5=1.5414         C4-C6=1.5173         C4-H7=1.0959         C5-C4=1.5414         C5-H8=1.0869         
C5-H9=1.0888         C5-H10=1.0881        C6-O1=1.3352         C6-O2=1.2012         C6-C4=1.5173         H7-C4=1.0959         
H8-C5=1.0869         H9-C5=1.0888         H10-C5=1.0881        H11-N3=1.0156        H12-N3=1.0137        H13-O1=0.9710        
 C  H  Rav=1.0899 sigma=0.0035  Rmin=1.0869  Rmax=1.0959     4
 C  C  Rav=1.5293 sigma=0.0121  Rmin=1.5173  Rmax=1.5414     2
 N  H  Rav=1.0147 sigma=0.0009  Rmin=1.0137  Rmax=1.0156     2
 N  C  Rav=1.4493 sigma=0.0000  Rmin=1.4493  Rmax=1.4493     1
 O  H  Rav=0.9710 sigma=0.0000  Rmin=0.9710  Rmax=0.9710     1
 O  C  Rav=1.2682 sigma=0.0670  Rmin=1.2012  Rmax=1.3352     2

 selected bond angles (degree)
 --------------------
H13-O1-C6=110.50               H11-N3-C4=109.46               H12-N3-C4=110.65               H12-N3-H11=108.42              
C5-C4-N3=114.42                C6-C4-N3=108.77                C6-C4-C5=106.72                H7-C4-N3=108.85                
H7-C4-C5=109.20                H7-C4-C6=108.75                H8-C5-C4=110.47                H9-C5-C4=110.02                
H9-C5-H8=108.99                H10-C5-C4=109.66               H10-C5-H8=108.72               H10-C5-H9=108.94               
O2-C6-O1=122.97                C4-C6-O1=112.17                C4-C6-O2=124.81                

 selected dihedral angles (degree)
 ---------------------------------
C5-C4-N3-H11= 78.57           C5-C4-N3-H12=319.14           C6-C4-N3-H11=319.37           C6-C4-N3-H12=199.94           
H7-C4-N3-H11=201.02           H7-C4-N3-H12= 81.59           H8-C5-C4-N3=179.53            H8-C5-C4-C6=299.89            
H8-C5-C4-H7= 57.27            H9-C5-C4-N3=299.91            H9-C5-C4-C6= 60.27            H9-C5-C4-H7=177.65            
H10-C5-C4-N3= 59.72           H10-C5-C4-C6=180.08           H10-C5-C4-H7=297.46           O2-C6-O1-H13=359.51           
C4-C6-O1-H13=181.86           O1-C6-C4-N3=213.07            O1-C6-C4-C5= 89.16            O1-C6-C4-H7=331.48            
O2-C6-C4-N3= 35.48            O2-C6-C4-C5=271.56            O2-C6-C4-H7=153.88            
           -------------------------------------------------
          |                Final Singlepoint                |
           -------------------------------------------------

          ...................................................
          :                      SETUP                      :
          :.................................................:
          :  # basis functions                  31          :
          :  # atomic orbitals                  31          :
          :  # shells                           19          :
          :  # electrons                        36          :
          :  max. iterations                   250          :
          :  Hamiltonian                  GFN2-xTB          :
          :  restarted?                      false          :
          :  GBSA solvation                  false          :
          :  PC potential                    false          :
          :  electronic temp.          300.0000000     K    :
          :  accuracy                    1.0000000          :
          :  -> integral cutoff          0.2500000E+02      :
          :  -> integral neglect         0.1000000E-07      :
          :  -> SCF convergence          0.1000000E-05 Eh   :
          :  -> wf. convergence          0.1000000E-03 e    :
          :  Broyden damping             0.4000000          :
          ...................................................

 iter      E             dE          RMSdq      gap      omega  full diag
   1    -21.2527054 -0.212527E+02  0.633E-05    3.66       0.0  T
   2    -21.2527054 -0.984457E-11  0.375E-05    3.66     738.7  T
   3    -21.2527054 -0.155609E-11  0.225E-05    3.66    1234.9  T

   *** convergence criteria satisfied after 3 iterations ***

         #    Occupation            Energy/Eh            Energy/eV
      -------------------------------------------------------------
         1        2.0000           -0.7509731             -20.4350
       ...           ...                  ...                  ...
        12        2.0000           -0.5049589             -13.7406
        13        2.0000           -0.4871089             -13.2549
        14        2.0000           -0.4803478             -13.0709
        15        2.0000           -0.4790299             -13.0351
        16        2.0000           -0.4615212             -12.5586
        17        2.0000           -0.4226870             -11.5019
        18        2.0000           -0.3745096             -10.1909 (HOMO)
        19                         -0.2399050              -6.5281 (LUMO)
        20                          0.0326808               0.8893
        21                          0.0638496               1.7374
        22                          0.0862500               2.3470
        23                          0.1274465               3.4680
       ...                                ...                  ...
        31                          0.6416468              17.4601
      -------------------------------------------------------------
                  HL-Gap            0.1346046 Eh            3.6628 eV
             Fermi-level           -0.3072073 Eh           -8.3595 eV

 SCC (total)                   0 d,  0 h,  0 min,  0.123 sec
 SCC setup                      ...        0 min,  0.002 sec (  1.367%)
 Dispersion                     ...        0 min,  0.000 sec (  0.027%)
 classical contributions        ...        0 min,  0.000 sec (  0.008%)
 integral evaluation            ...        0 min,  0.000 sec (  0.221%)
 iterations                     ...        0 min,  0.082 sec ( 66.530%)
 molecular gradient             ...        0 min,  0.039 sec ( 31.729%)
 printout                       ...        0 min,  0.000 sec (  0.100%)

         :::::::::::::::::::::::::::::::::::::::::::::::::::::
         ::                     SUMMARY                     ::
         :::::::::::::::::::::::::::::::::::::::::::::::::::::
         :: total energy             -21.042872805185 Eh    ::
         :: gradient norm              0.000510005634 Eh/a0 ::
         :: HOMO-LUMO gap              3.662777385725 eV    ::
         ::.................................................::
         :: SCC energy               -21.252705372314 Eh    ::
         :: -> isotropic ES            0.058239079921 Eh    ::
         :: -> anisotropic ES          0.002991311183 Eh    ::
         :: -> anisotropic XC          0.006449543306 Eh    ::
         :: -> dispersion             -0.007007667874 Eh    ::
         :: repulsion energy           0.209822469239 Eh    ::
         :: add. restraining           0.000000000000 Eh    ::
         :: total charge               0.000000000000 e     ::
         :::::::::::::::::::::::::::::::::::::::::::::::::::::

           -------------------------------------------------
          |                Property Printout                |
           -------------------------------------------------

    * Orbital Energies and Occupations

         #    Occupation            Energy/Eh            Energy/eV
      -------------------------------------------------------------
         1        2.0000           -0.7509731             -20.4350
       ...           ...                  ...                  ...
         6        2.0000           -0.5963508             -16.2275
         7        2.0000           -0.5866731             -15.9642
         8        2.0000           -0.5798759             -15.7792
         9        2.0000           -0.5651394             -15.3782
        10        2.0000           -0.5213636             -14.1870
        11        2.0000           -0.5131318             -13.9630
        12        2.0000           -0.5049589             -13.7406
        13        2.0000           -0.4871089             -13.2549
        14        2.0000           -0.4803478             -13.0709
        15        2.0000           -0.4790299             -13.0351
        16        2.0000           -0.4615212             -12.5586
        17        2.0000           -0.4226870             -11.5019
        18        2.0000           -0.3745096             -10.1909 (HOMO)
        19                         -0.2399050              -6.5281 (LUMO)
        20                          0.0326808               0.8893
        21                          0.0638496               1.7374
        22                          0.0862500               2.3470
        23                          0.1274465               3.4680
        24                          0.1375498               3.7429
        25                          0.1632617               4.4426
        26                          0.1906544               5.1880
        27                          0.2203430               5.9958
        28                          0.2282358               6.2106
        29                          0.2417861               6.5793
       ...                                ...                  ...
        31                          0.6416468              17.4601
      -------------------------------------------------------------
                  HL-Gap            0.1346046 Eh            3.6628 eV
             Fermi-level           -0.3072073 Eh           -8.3595 eV

     #   Z          covCN         q      C6AA      α(0)
     1   8 O        1.659    -0.374    20.354     6.090
     2   8 O        0.856    -0.403    21.743     6.252
     3   7 N        2.633    -0.344    28.859     7.978
     4   6 C        3.782     0.032    20.048     6.378
     5   6 C        3.757    -0.113    22.716     6.795
     6   6 C        2.698     0.359    20.913     7.485
     7   1 H        0.924     0.060     2.204     2.322
     8   1 H        0.925     0.047     2.362     2.403
     9   1 H        0.925     0.047     2.355     2.400
    10   1 H        0.925     0.049     2.335     2.390
    11   1 H        0.860     0.159     1.338     1.812
    12   1 H        0.860     0.149     1.409     1.860
    13   1 H        0.804     0.333     0.631     1.247

 Mol. C6AA /au·bohr⁶  :       1404.841441
 Mol. C8AA /au·bohr⁸  :      29713.224732
 Mol. α(0) /au        :         55.412716


Wiberg/Mayer (AO) data.
largest (>0.10) Wiberg bond orders for each atom

 ---------------------------------------------------------------------------
     #   Z sym  total        # sym  WBO       # sym  WBO       # sym  WBO
 ---------------------------------------------------------------------------
     1   8 O    2.204 --     6 C    1.139    13 H    0.864     2 O    0.174
     2   8 O    2.048 --     6 C    1.770     1 O    0.174
     3   7 N    3.008 --     4 C    1.026    12 H    0.962    11 H    0.956
     4   6 C    3.988 --     3 N    1.026     5 C    0.968     7 H    0.957
                             6 C    0.953
     5   6 C    3.994 --     9 H    0.987     8 H    0.985    10 H    0.982
                             4 C    0.968
     6   6 C    3.910 --     2 O    1.770     1 O    1.139     4 C    0.953
     7   1 H    0.996 --     4 C    0.957
     8   1 H    0.998 --     5 C    0.985
     9   1 H    0.998 --     5 C    0.987
    10   1 H    0.998 --     5 C    0.982
    11   1 H    0.975 --     3 N    0.956
    12   1 H    0.978 --     3 N    0.962
    13   1 H    0.889 --     1 O    0.864
 ---------------------------------------------------------------------------

Topologies differ in total number of bonds
Writing topology from bond orders to xtbtopo.mol

molecular dipole:
                 x           y           z       tot (Debye)
 q only:       -0.202       0.304       0.588
   full:       -0.172       0.644       0.540       2.180
molecular quadrupole (traceless):
                xx          xy          yy          xz          yz          zz
 q only:        5.834      -0.395      -1.732       2.816      -0.098      -4.103
  q+dip:        8.520      -1.551      -3.748       2.954      -0.978      -4.772
   full:        8.388      -1.570      -3.202       3.246      -0.658      -5.186

           -------------------------------------------------
          |                Geometry Summary                 |
           -------------------------------------------------

      molecular mass/u    :       89.0933060
   center of mass at/Å    :       -0.0493507      -0.1076061      -0.1147187
  moments of inertia/u·Å² :        0.9834103E+02   0.1698414E+03   0.2090519E+03
rotational constants/cm⁻¹ :        0.1714201E+00   0.9925513E-01   0.8063850E-01

 * 10 selected distances

     #   Z          #   Z                                           value/Å
     3   7 N        4   6 C                                       1.4493251 (max)
     1   8 O        6   6 C                                       1.3351606
     2   8 O        6   6 C                                       1.2012073
     4   6 C        7   1 H                                       1.0959267
     5   6 C        8   1 H                                       1.0869092
     5   6 C        9   1 H                                       1.0888091
     5   6 C       10   1 H                                       1.0881016
     3   7 N       11   1 H                                       1.0156280
     3   7 N       12   1 H                                       1.0137328
     1   8 O       13   1 H                                       0.9710092 (min)

 * 5 distinct bonds (by element types)

   Z      Z             #   av. dist./Å        max./Å        min./Å
   1 H    6 C           4     1.0899366     1.0959267     1.0869092
   1 H    7 N           2     1.0146804     1.0156280     1.0137328
   6 C    7 N           1     1.4493251     1.4493251     1.4493251
   1 H    8 O           1     0.9710092     0.9710092     0.9710092
   6 C    8 O           2     1.2681840     1.3351606     1.2012073


optimized geometry written to: xtbopt.xyz


           -------------------------------------------------
          | TOTAL ENERGY              -21.042872805185 Eh   |
          | GRADIENT NORM               0.000510005634 Eh/α |
          | HOMO-LUMO GAP               3.662777385725 eV   |
           -------------------------------------------------

------------------------------------------------------------------------
 * finished run on 2026/07/30 at 13:25:15.368     
------------------------------------------------------------------------
 total:
 * wall-time:     0 d,  0 h,  0 min,  2.620 sec
 *  cpu-time:     0 d,  0 h,  0 min, 19.446 sec
 * ratio c/w:     7.423 speedup
 SCF:
 * wall-time:     0 d,  0 h,  0 min,  0.254 sec
 *  cpu-time:     0 d,  0 h,  0 min,  1.937 sec
 * ratio c/w:     7.633 speedup
 ANC optimizer:
 * wall-time:     0 d,  0 h,  0 min,  2.325 sec
 *  cpu-time:     0 d,  0 h,  0 min, 17.271 sec
 * ratio c/w:     7.429 speedup

