13
Properties=species:S:1:pos:R:3 pbc="F F F"
O        1.45730000      -1.04380000       0.26820000
O        1.24920000       1.11650000      -0.40470000
N       -1.30936668      -1.15638205      -0.43551522
C       -0.70850000      -0.11360000       0.39370000
C       -1.43986357       1.20358370       0.17324910
C        0.74700000       0.09030000       0.03080000
H       -0.76660000      -0.37370000       1.45580000
H       -0.97214468       2.01254430       0.74515298
H       -1.42108152       1.49464140      -0.88287513
H       -2.48664841       1.14261014       0.49284437
H       -1.23824332      -0.89296464      -1.41796414
H       -2.30771489      -1.22401747      -0.23834500
H        2.40620000      -0.93410000       0.04470000
