      -----------------------------------------------------------      
     |                   =====================                   |     
     |                           x T B                           |     
     |                   =====================                   |     
     |                         S. Grimme                         |     
     |          Mulliken Center for Theoretical Chemistry        |     
     |                    University of Bonn                     |     
      -----------------------------------------------------------      

   * xtb version 6.5.1 (b24c23e) compiled by 'conda@728c89f4b128' on 2022-07-12

   xtb is free software: you can redistribute it and/or modify it under
   the terms of the GNU Lesser General Public License as published by
   the Free Software Foundation, either version 3 of the License, or
   (at your option) any later version.
   
   xtb is distributed in the hope that it will be useful,
   but WITHOUT ANY WARRANTY; without even the implied warranty of
   MERCHANTABILITY or FITNESS FOR A PARTICULAR PURPOSE.  See the
   GNU Lesser General Public License for more details.
   
   Cite this work as:
   * C. Bannwarth, E. Caldeweyher, S. Ehlert, A. Hansen, P. Pracht,
     J. Seibert, S. Spicher, S. Grimme, WIREs Comput. Mol. Sci., 2020, 11,
     e01493. DOI: 10.1002/wcms.1493
   
   for GFN2-xTB:
   * C. Bannwarth, S. Ehlert and S. Grimme., J. Chem. Theory Comput., 2019,
     15, 1652-1671. DOI: 10.1021/acs.jctc.8b01176
   for GFN1-xTB:
   * S. Grimme, C. Bannwarth, P. Shushkov, J. Chem. Theory Comput., 2017,
     13, 1989-2009. DOI: 10.1021/acs.jctc.7b00118
   for GFN0-xTB:
   * P. Pracht, E. Caldeweyher, S. Ehlert, S. Grimme, ChemRxiv, 2019, preprint.
     DOI: 10.26434/chemrxiv.8326202.v1
   for GFN-FF:
   * S. Spicher and S. Grimme, Angew. Chem. Int. Ed., 2020, 59, 15665-15673.
     DOI: 10.1002/anie.202004239
   
   for ALPB and GBSA implicit solvation:
   * S. Ehlert, M. Stahn, S. Spicher, S. Grimme, J. Chem. Theory Comput.,
     2021, 17, 4250-4261. DOI: 10.1021/acs.jctc.1c00471
   
   for DFT-D4:
   * E. Caldeweyher, C. Bannwarth and S. Grimme, J. Chem. Phys., 2017,
     147, 034112. DOI: 10.1063/1.4993215
   * E. Caldeweyher, S. Ehlert, A. Hansen, H. Neugebauer, S. Spicher,
     C. Bannwarth and S. Grimme, J. Chem. Phys., 2019, 150, 154122.
     DOI: 10.1063/1.5090222
   * E. Caldeweyher, J.-M. Mewes, S. Ehlert and S. Grimme, Phys. Chem. Chem. Phys.
     2020, 22, 8499-8512. DOI: 10.1039/D0CP00502A
   
   for sTDA-xTB:
   * S. Grimme and C. Bannwarth, J. Chem. Phys., 2016, 145, 054103.
     DOI: 10.1063/1.4959605
   
   in the mass-spec context:
   * V. Asgeirsson, C. Bauer and S. Grimme, Chem. Sci., 2017, 8, 4879.
     DOI: 10.1039/c7sc00601b
   * J. Koopman and S. Grimme, ACS Omega 2019, 4, 12, 15120-15133.
     DOI: 10.1021/acsomega.9b02011
   
   for metadynamics refer to:
   * S. Grimme, J. Chem. Theory Comput., 2019, 155, 2847-2862
     DOI: 10.1021/acs.jctc.9b00143
   
   for SPH calculations refer to:
   * S. Spicher and S. Grimme, J. Chem. Theory Comput., 2021, 17, 1701-1714
     DOI: 10.1021/acs.jctc.0c01306
   
   with help from (in alphabetical order)
   P. Atkinson, C. Bannwarth, F. Bohle, G. Brandenburg, E. Caldeweyher
   M. Checinski, S. Dohm, S. Ehlert, S. Ehrlich, I. Gerasimov, C. Hölzer
   A. Katbashev, J. Koopman, C. Lavigne, S. Lehtola, F. März, M. Müller,
   F. Musil, H. Neugebauer, J. Pisarek, C. Plett, P. Pracht, F. Pultar,
   J. Seibert, P. Shushkov, S. Spicher, M. Stahn, M. Steiner, T. Strunk,
   J. Stückrath, T. Rose, and J. Unsleber
   
 * started run on 2026/07/30 at 13:24:02.444     

           -------------------------------------------------
          |                Calculation Setup                |
           -------------------------------------------------

          program call               : /h/332/chchoi/miniconda3/envs/el-agente/bin/xtb stilbene_twist90_init.xyz --opt --gfn 2 -P 4 --chrg 0 --uhf 0 --input detailed_input.inp
          coordinate file            : stilbene_twist90_init.xyz
          omp threads                :                     4

   ID    Z sym.   atoms
    1    6 C      1-14
    2    1 H      15-26
constraining bond 3 4 to    1.3549532 Å, actual value:    1.3549534 Å
constraining angle 1 3 4 2 to   90.0000000°, actual value:   90.0000000°

           -------------------------------------------------
          |                 G F N 2 - x T B                 |
           -------------------------------------------------

        Reference                      10.1021/acs.jctc.8b01176
      * Hamiltonian:
        H0-scaling (s, p, d)           1.850000    2.230000    2.230000
        zeta-weighting                 0.500000
      * Dispersion:
        s8                             2.700000
        a1                             0.520000
        a2                             5.000000
        s9                             5.000000
      * Repulsion:
        kExp                           1.500000    1.000000
        rExp                           1.000000
      * Coulomb:
        alpha                          2.000000
        third order                    shell-resolved
        anisotropic                    true
        a3                             3.000000
        a5                             4.000000
        cn-shift                       1.200000
        cn-exp                         4.000000
        max-rad                        5.000000


          ...................................................
          :                      SETUP                      :
          :.................................................:
          :  # basis functions                  68          :
          :  # atomic orbitals                  68          :
          :  # shells                           40          :
          :  # electrons                        68          :
          :  max. iterations                   250          :
          :  Hamiltonian                  GFN2-xTB          :
          :  restarted?                      false          :
          :  GBSA solvation                  false          :
          :  PC potential                    false          :
          :  electronic temp.          300.0000000     K    :
          :  accuracy                    1.0000000          :
          :  -> integral cutoff          0.2500000E+02      :
          :  -> integral neglect         0.1000000E-07      :
          :  -> SCF convergence          0.1000000E-05 Eh   :
          :  -> wf. convergence          0.1000000E-03 e    :
          :  Broyden damping             0.4000000          :
          ...................................................

 iter      E             dE          RMSdq      gap      omega  full diag
   1    -36.6042673 -0.366043E+02  0.442E+00    0.05       0.0  T
   2    -36.5135077  0.907596E-01  0.343E+00    0.19       1.0  T
   3    -36.3490647  0.164443E+00  0.427E+00    1.86       1.0  T
   4    -36.4648398 -0.115775E+00  0.307E+00    0.87       1.0  T
   5    -36.5534531 -0.886133E-01  0.208E+00    0.12       1.0  T
   6    -36.5189194  0.345336E-01  0.235E+00    0.18       1.0  T
   7    -36.5464446 -0.275251E-01  0.209E+00    0.13       1.0  T
   8    -36.6270220 -0.805775E-01  0.369E-01    0.04       1.0  T
   9    -36.6287162 -0.169421E-02  0.217E-01    0.03       1.0  T
  10    -36.6295594 -0.843139E-03  0.270E-02    0.03       1.0  T
  11    -36.6295688 -0.945869E-05  0.273E-02    0.03       1.0  T
  12    -36.6295745 -0.564929E-05  0.200E-02    0.03       1.0  T
  13    -36.6295510  0.234218E-04  0.400E-02    0.03       1.0  T
  14    -36.6295706 -0.195518E-04  0.244E-02    0.03       1.0  T
  15    -36.6295802 -0.964655E-05  0.975E-03    0.03       2.0  T
  16    -36.6295820 -0.171958E-05  0.237E-03    0.03       8.3  T
  17    -36.6295821 -0.923086E-07  0.915E-04    0.03      21.4  T
  18    -36.6295821 -0.149502E-07  0.236E-04    0.03      83.0  T

   *** convergence criteria satisfied after 18 iterations ***

         #    Occupation            Energy/Eh            Energy/eV
      -------------------------------------------------------------
         1        2.0000           -0.6424130             -17.4809
       ...           ...                  ...                  ...
        28        2.0000           -0.4219487             -11.4818
        29        2.0000           -0.4194602             -11.4141
        30        2.0000           -0.4091495             -11.1335
        31        2.0000           -0.4076205             -11.0919
        32        2.0000           -0.4004224             -10.8960
        33        2.0000           -0.3993624             -10.8672
        34        1.2778           -0.3148940              -8.5687 (HOMO)
        35        0.7222           -0.3138100              -8.5392 (LUMO)
        36                         -0.2233141              -6.0767
        37                         -0.2219615              -6.0399
        38                         -0.2006262              -5.4593
        39                         -0.1982469              -5.3946
       ...                                ...                  ...
        68                          0.6686886              18.1959
      -------------------------------------------------------------
                  HL-Gap            0.0010841 Eh            0.0295 eV
             Fermi-level           -0.3143520 Eh           -8.5540 eV

 SCC (total)                   0 d,  0 h,  0 min,  6.489 sec
 SCC setup                      ...        0 min,  0.066 sec (  1.011%)
 Dispersion                     ...        0 min,  0.081 sec (  1.254%)
 classical contributions        ...        0 min,  0.098 sec (  1.517%)
 integral evaluation            ...        0 min,  0.190 sec (  2.933%)
 iterations                     ...        0 min,  5.394 sec ( 83.125%)
 molecular gradient             ...        0 min,  0.659 sec ( 10.158%)
 printout                       ...        0 min,  0.000 sec (  0.003%)

         :::::::::::::::::::::::::::::::::::::::::::::::::::::
         ::                     SUMMARY                     ::
         :::::::::::::::::::::::::::::::::::::::::::::::::::::
         :: total energy             -35.946938485166 Eh    ::
         :: gradient norm              0.139709412305 Eh/a0 ::
         :: HOMO-LUMO gap              0.029498606404 eV    ::
         ::.................................................::
         :: SCC energy               -36.629582073879 Eh    ::
         :: -> isotropic ES            0.001947760269 Eh    ::
         :: -> anisotropic ES          0.004705887677 Eh    ::
         :: -> anisotropic XC          0.026643676223 Eh    ::
         :: -> dispersion             -0.025296749808 Eh    ::
         :: repulsion energy           0.682645323323 Eh    ::
         :: add. restraining           0.000000000000 Eh    ::
         :: total charge              -0.000000000000 e     ::
         :::::::::::::::::::::::::::::::::::::::::::::::::::::

      ----------------------------------------------------------- 
     |                   =====================                   |
     |                        A N C O P T                        |
     |                   =====================                   |
     |               Approximate Normal Coordinate               |
     |                Rational Function Optimizer                |
      ----------------------------------------------------------- 

          ...................................................
          :                      SETUP                      :
          :.................................................:
          :   optimization level            normal          :
          :   max. optcycles                   200          :
          :   ANC micro-cycles                  20          :
          :   degrees of freedom                72          :
          :.................................................:
          :   RF solver                   davidson          :
          :   write xtbopt.log                true          :
          :   linear?                        false          :
          :   energy convergence         0.5000000E-05 Eh   :
          :   grad. convergence          0.1000000E-02 Eh/α :
          :   maximium RF displ.         1.0000000          :
          :   Hlow (freq-cutoff)         0.1000000E-01      :
          :   Hmax (freq-cutoff)         5.0000000          :
          :   S6 in model hess.         20.0000000          :
          ...................................................

generating ANC from model Hessian ...
Using Lindh-Hessian (1995)
 Shifting diagonal of input Hessian by    8.8997885570692194E-003
 Lowest  eigenvalues of input Hessian
    0.000000    0.000000    0.000000    0.000000    0.000000    0.000000
    0.010000    0.010040    0.010373    0.014660    0.015960    0.017424
    0.023126    0.023245    0.025518    0.028310    0.030940    0.032072
 Highest eigenvalues
    1.901699    1.947240    1.968301    1.976059    2.139923    5.814046


........................................................................
.............................. CYCLE    1 ..............................
........................................................................
   1    -36.6295821 -0.366296E+02  0.117E-04    0.03       0.0  T
   2    -36.6295819  0.144098E-06  0.270E-03    0.03       7.3  T
   3    -36.6295821 -0.144321E-06  0.461E-05    0.03     425.8  T
   4    -36.6295821 -0.280949E-10  0.250E-05    0.03     784.2  T
     SCC iter.                  ...        0 min,  1.362 sec
     gradient                   ...        0 min,  0.728 sec
 * total energy  :   -35.9469385 Eh     change       -0.1057977E-08 Eh
   gradient norm :     0.1397096 Eh/α   predicted     0.0000000E+00 (-100.00%)
   displ. norm   :     0.3755589 α      lambda       -0.1455375E-01
   maximum displ.:     0.2350283 α      in ANC's #14, #9, #16, ...

........................................................................
.............................. CYCLE    2 ..............................
........................................................................
   1    -36.6673447 -0.366673E+02  0.504E-01    0.47       0.0  T
   2    -36.6670096  0.335051E-03  0.326E-01    0.47       1.0  T
   3    -36.6390437  0.279659E-01  0.114E+00    0.51       1.0  T
   4    -36.6673534 -0.283097E-01  0.435E-02    0.46       1.0  T
   5    -36.6673872 -0.337316E-04  0.110E-02    0.46       1.8  T
   6    -36.6673879 -0.771507E-06  0.606E-03    0.46       3.2  T
   7    -36.6673884 -0.428244E-06  0.237E-03    0.46       8.3  T
   8    -36.6673884 -0.880765E-07  0.158E-03    0.46      12.4  T
   9    -36.6673885 -0.514757E-07  0.236E-04    0.46      83.1  T
  10    -36.6673885 -0.374456E-09  0.950E-05    0.46     206.4  T
     SCC iter.                  ...        0 min,  2.945 sec
     gradient                   ...        0 min,  0.653 sec
 * total energy  :   -35.9674890 Eh     change       -0.2055053E-01 Eh
   gradient norm :     0.0636909 Eh/α   predicted    -0.8304754E-02 ( -59.59%)
   displ. norm   :     0.6362504 α      lambda       -0.3017622E-01
   maximum displ.:     0.4224369 α      in ANC's #14, #16, #9, ...

........................................................................
.............................. CYCLE    3 ..............................
........................................................................
   1    -36.6829839 -0.366830E+02  0.533E-01    1.19       0.0  T
   2    -36.6830274 -0.434282E-04  0.316E-01    1.19       1.0  T
   3    -36.6829906  0.367910E-04  0.431E-02    1.19       1.0  T
   4    -36.6830313 -0.407201E-04  0.226E-02    1.19       1.0  T
   5    -36.6830317 -0.373131E-06  0.201E-02    1.19       1.0  T
   6    -36.6830408 -0.908575E-05  0.330E-03    1.19       5.9  T
   7    -36.6830408 -0.462614E-07  0.118E-03    1.19      16.6  T
   8    -36.6830408 -0.221465E-07  0.409E-04    1.19      48.0  T
   9    -36.6830408 -0.994859E-09  0.227E-04    1.19      86.6  T
     SCC iter.                  ...        0 min,  2.452 sec
     gradient                   ...        0 min,  0.465 sec
 * total energy  :   -35.9877318 Eh     change       -0.2024275E-01 Eh
   gradient norm :     0.0667764 Eh/α   predicted    -0.2120022E-01 (   4.73%)
   displ. norm   :     0.4063436 α      lambda       -0.1130825E-01
   maximum displ.:     0.2414337 α      in ANC's #14, #9, #12, ...

........................................................................
.............................. CYCLE    4 ..............................
........................................................................
   1    -36.6970317 -0.366970E+02  0.331E-01    1.54       0.0  T
   2    -36.6970449 -0.132433E-04  0.194E-01    1.54       1.0  T
   3    -36.6969520  0.929552E-04  0.563E-02    1.54       1.0  T
   4    -36.6970567 -0.104711E-03  0.797E-03    1.54       2.5  T
   5    -36.6970573 -0.670343E-06  0.551E-03    1.54       3.6  T
   6    -36.6970578 -0.492237E-06  0.216E-03    1.54       9.1  T
   7    -36.6970579 -0.567239E-07  0.622E-04    1.54      31.5  T
   8    -36.6970579 -0.126250E-08  0.279E-04    1.54      70.2  T
     SCC iter.                  ...        0 min,  2.277 sec
     gradient                   ...        0 min,  0.499 sec
 * total energy  :   -35.9960662 Eh     change       -0.8334400E-02 Eh
   gradient norm :     0.0696019 Eh/α   predicted    -0.6587767E-02 ( -20.96%)
   displ. norm   :     0.3649846 α      lambda       -0.1088013E-01
   maximum displ.:     0.1908085 α      in ANC's #9, #14, #11, ...

........................................................................
.............................. CYCLE    5 ..............................
........................................................................
   1    -36.7144146 -0.367144E+02  0.308E-01    1.81       0.0  T
   2    -36.7144469 -0.322230E-04  0.179E-01    1.81       1.0  T
   3    -36.7143258  0.121015E-03  0.687E-02    1.81       1.0  T
   4    -36.7144667 -0.140859E-03  0.112E-02    1.82       1.8  T
   5    -36.7144686 -0.191976E-05  0.594E-03    1.82       3.3  T
   6    -36.7144692 -0.584969E-06  0.274E-03    1.82       7.2  T
   7    -36.7144693 -0.918058E-07  0.792E-04    1.82      24.8  T
   8    -36.7144693 -0.516145E-09  0.379E-04    1.82      51.7  T
     SCC iter.                  ...        0 min,  2.281 sec
     gradient                   ...        0 min,  0.730 sec
 * total energy  :   -36.0038512 Eh     change       -0.7785078E-02 Eh
   gradient norm :     0.0540015 Eh/α   predicted    -0.6164757E-02 ( -20.81%)
   displ. norm   :     0.3435194 α      lambda       -0.5196440E-02
   maximum displ.:     0.2129207 α      in ANC's #9, #14, #3, ...

........................................................................
.............................. CYCLE    6 ..............................
........................................................................
   1    -36.7172555 -0.367173E+02  0.290E-01    2.01       0.0  T
   2    -36.7172731 -0.176457E-04  0.169E-01    2.02       1.0  T
   3    -36.7172176  0.555183E-04  0.492E-02    2.02       1.0  T
   4    -36.7172799 -0.623483E-04  0.105E-02    2.02       1.9  T
   5    -36.7172821 -0.215204E-05  0.354E-03    2.02       5.5  T
   6    -36.7172823 -0.165924E-06  0.219E-03    2.02       9.0  T
   7    -36.7172823 -0.433131E-07  0.465E-04    2.02      42.2  T
   8    -36.7172823 -0.105884E-08  0.229E-04    2.02      85.6  T
     SCC iter.                  ...        0 min,  2.006 sec
     gradient                   ...        0 min,  0.648 sec
 * total energy  :   -36.0070337 Eh     change       -0.3182453E-02 Eh
   gradient norm :     0.0163147 Eh/α   predicted    -0.2904825E-02 (  -8.72%)
   displ. norm   :     0.3261048 α      lambda       -0.2241211E-02
   maximum displ.:     0.1462329 α      in ANC's #9, #6, #4, ...

........................................................................
.............................. CYCLE    7 ..............................
........................................................................
   1    -36.7152967 -0.367153E+02  0.245E-01    2.13       0.0  T
   2    -36.7153088 -0.121319E-04  0.148E-01    2.13       1.0  T
   3    -36.7151970  0.111764E-03  0.713E-02    2.13       1.0  T
   4    -36.7153167 -0.119646E-03  0.183E-02    2.13       1.1  T
   5    -36.7153215 -0.481091E-05  0.686E-03    2.13       2.9  T
   6    -36.7153217 -0.173914E-06  0.261E-03    2.13       7.5  T
   7    -36.7153217 -0.862039E-07  0.853E-04    2.13      23.0  T
   8    -36.7153217 -0.560720E-08  0.373E-04    2.13      52.6  T
     SCC iter.                  ...        0 min,  2.202 sec
     gradient                   ...        0 min,  0.613 sec
 * total energy  :   -36.0054071 Eh     change        0.1626639E-02 Eh
   gradient norm :     0.0508628 Eh/α   predicted    -0.1239786E-02 (-176.22%)
   displ. norm   :     0.1700455 α      lambda       -0.4808297E-02
   maximum displ.:     0.0995563 α      in ANC's #6, #15, #5, ...

........................................................................
.............................. CYCLE    8 ..............................
........................................................................
   1    -36.7162294 -0.367162E+02  0.143E-01    2.12       0.0  T
   2    -36.7162349 -0.546946E-05  0.881E-02    2.12       1.0  T
   3    -36.7161675  0.673962E-04  0.578E-02    2.12       1.0  T
   4    -36.7162421 -0.745965E-04  0.140E-02    2.12       1.4  T
   5    -36.7162447 -0.260634E-05  0.554E-03    2.12       3.5  T
   6    -36.7162449 -0.184326E-06  0.159E-03    2.12      12.4  T
   7    -36.7162449 -0.275430E-07  0.651E-04    2.12      30.1  T
   8    -36.7162449 -0.333823E-08  0.281E-04    2.12      69.7  T
     SCC iter.                  ...        0 min,  1.859 sec
     gradient                   ...        0 min,  0.590 sec
 * total energy  :   -36.0077707 Eh     change       -0.2363673E-02 Eh
   gradient norm :     0.0041278 Eh/α   predicted    -0.2473672E-02 (   4.65%)
   displ. norm   :     0.0840168 α      lambda       -0.1183107E-03
   maximum displ.:     0.0599661 α      in ANC's #4, #3, #1, ...

........................................................................
.............................. CYCLE    9 ..............................
........................................................................
   1    -36.7168871 -0.367169E+02  0.259E-02    2.11       0.0  T
   2    -36.7168872 -0.676892E-07  0.154E-02    2.11       1.3  T
   3    -36.7168857  0.147491E-05  0.802E-03    2.11       2.4  T
   4    -36.7168873 -0.159106E-05  0.843E-04    2.11      23.3  T
   5    -36.7168873 -0.102377E-07  0.454E-04    2.11      43.2  T
   6    -36.7168873 -0.309492E-08  0.144E-04    2.11     136.1  T
     SCC iter.                  ...        0 min,  1.139 sec
     gradient                   ...        0 min,  0.594 sec
 * total energy  :   -36.0078664 Eh     change       -0.9568848E-04 Eh
   gradient norm :     0.0035359 Eh/α   predicted    -0.5957537E-04 ( -37.74%)
   displ. norm   :     0.2289405 α      lambda       -0.2405122E-03
   maximum displ.:     0.1699895 α      in ANC's #4, #3, #1, ...

........................................................................
.............................. CYCLE   10 ..............................
........................................................................
   1    -36.7160075 -0.367160E+02  0.691E-02    2.12       0.0  T
   2    -36.7160077 -0.184135E-06  0.409E-02    2.12       1.0  T
   3    -36.7160046  0.313484E-05  0.118E-02    2.12       1.7  T
   4    -36.7160080 -0.338184E-05  0.137E-03    2.12      14.3  T
   5    -36.7160080 -0.202104E-07  0.681E-04    2.12      28.8  T
   6    -36.7160080 -0.361128E-08  0.236E-04    2.12      83.0  T
     SCC iter.                  ...        0 min,  1.127 sec
     gradient                   ...        0 min,  0.608 sec
 * total energy  :   -36.0080059 Eh     change       -0.1394784E-03 Eh
   gradient norm :     0.0033200 Eh/α   predicted    -0.1265613E-03 (  -9.26%)
   displ. norm   :     0.1045380 α      lambda       -0.5733936E-04
   maximum displ.:     0.0764563 α      in ANC's #3, #4, #1, ...

........................................................................
.............................. CYCLE   11 ..............................
........................................................................
   1    -36.7165854 -0.367166E+02  0.243E-02    2.11       0.0  T
   2    -36.7165854 -0.309633E-07  0.143E-02    2.12       1.4  T
   3    -36.7165834  0.202888E-05  0.989E-03    2.12       2.0  T
   4    -36.7165856 -0.222124E-05  0.936E-04    2.12      21.0  T
   5    -36.7165856 -0.149749E-07  0.422E-04    2.12      46.5  T
   6    -36.7165856 -0.209968E-08  0.149E-04    2.12     131.4  T
     SCC iter.                  ...        0 min,  1.280 sec
     gradient                   ...        0 min,  0.651 sec
 * total energy  :   -36.0080422 Eh     change       -0.3634128E-04 Eh
   gradient norm :     0.0025561 Eh/α   predicted    -0.2898638E-04 ( -20.24%)
   displ. norm   :     0.0528637 α      lambda       -0.2046640E-04
   maximum displ.:     0.0448037 α      in ANC's #3, #1, #4, ...

........................................................................
.............................. CYCLE   12 ..............................
........................................................................
   1    -36.7167118 -0.367167E+02  0.139E-02    2.12       0.0  T
   2    -36.7167118 -0.179475E-07  0.812E-03    2.12       2.4  T
   3    -36.7167117  0.104143E-06  0.206E-03    2.12       9.5  T
   4    -36.7167118 -0.114247E-06  0.448E-04    2.12      43.8  T
   5    -36.7167118 -0.411143E-08  0.138E-04    2.12     142.6  T
     SCC iter.                  ...        0 min,  0.905 sec
     gradient                   ...        0 min,  0.561 sec
 * total energy  :   -36.0080592 Eh     change       -0.1698487E-04 Eh
   gradient norm :     0.0012380 Eh/α   predicted    -0.1026448E-04 ( -39.57%)
   displ. norm   :     0.0803043 α      lambda       -0.1977969E-04
   maximum displ.:     0.0648665 α      in ANC's #3, #1, #4, ...

........................................................................
.............................. CYCLE   13 ..............................
........................................................................
   1    -36.7168323 -0.367168E+02  0.326E-02    2.12       0.0  T
   2    -36.7168324 -0.417920E-07  0.191E-02    2.12       1.0  T
   3    -36.7168317  0.630091E-06  0.509E-03    2.12       3.9  T
   4    -36.7168324 -0.679144E-06  0.757E-04    2.12      25.9  T
   5    -36.7168324 -0.141930E-07  0.230E-04    2.12      85.1  T
     SCC iter.                  ...        0 min,  1.042 sec
     gradient                   ...        0 min,  0.355 sec
 * total energy  :   -36.0080801 Eh     change       -0.2091772E-04 Eh
   gradient norm :     0.0015539 Eh/α   predicted    -0.9919432E-05 ( -52.58%)
   displ. norm   :     0.0635040 α      lambda       -0.1017641E-04
   maximum displ.:     0.0501825 α      in ANC's #3, #1, #4, ...

........................................................................
.............................. CYCLE   14 ..............................
........................................................................
   1    -36.7166969 -0.367167E+02  0.245E-02    2.12       0.0  T
   2    -36.7166970 -0.201069E-07  0.144E-02    2.12       1.4  T
   3    -36.7166969  0.982052E-07  0.197E-03    2.12      10.0  T
   4    -36.7166970 -0.111415E-06  0.402E-04    2.12      48.8  T
   5    -36.7166970 -0.275956E-08  0.179E-04    2.12     109.8  T
     SCC iter.                  ...        0 min,  1.176 sec
     gradient                   ...        0 min,  0.374 sec
 * total energy  :   -36.0080932 Eh     change       -0.1309475E-04 Eh
   gradient norm :     0.0013888 Eh/α   predicted    -0.5101676E-05 ( -61.04%)
   displ. norm   :     0.0746990 α      lambda       -0.1075682E-04
   maximum displ.:     0.0555537 α      in ANC's #3, #1, #4, ...

........................................................................
.............................. CYCLE   15 ..............................
........................................................................
   1    -36.7167432 -0.367167E+02  0.300E-02    2.12       0.0  T
   2    -36.7167433 -0.315712E-07  0.176E-02    2.12       1.1  T
   3    -36.7167430  0.238867E-06  0.321E-03    2.12       6.1  T
   4    -36.7167433 -0.261510E-06  0.537E-04    2.12      36.5  T
   5    -36.7167433 -0.550695E-08  0.213E-04    2.12      92.3  T
     SCC iter.                  ...        0 min,  0.938 sec
     gradient                   ...        0 min,  0.523 sec
 * total energy  :   -36.0081058 Eh     change       -0.1258179E-04 Eh
   gradient norm :     0.0007034 Eh/α   predicted    -0.5392835E-05 ( -57.14%)
   displ. norm   :     0.0753008 α      lambda       -0.7088439E-05
   maximum displ.:     0.0554689 α      in ANC's #3, #1, #2, ...

........................................................................
.............................. CYCLE   16 ..............................
........................................................................
   1    -36.7167018 -0.367167E+02  0.280E-02    2.13       0.0  T
   2    -36.7167019 -0.289875E-07  0.165E-02    2.13       1.2  T
   3    -36.7167017  0.194968E-06  0.290E-03    2.13       6.8  T
   4    -36.7167019 -0.214681E-06  0.540E-04    2.13      36.3  T
   5    -36.7167019 -0.567652E-08  0.217E-04    2.13      90.2  T
     SCC iter.                  ...        0 min,  1.089 sec
     gradient                   ...        0 min,  0.492 sec
 * total energy  :   -36.0081128 Eh     change       -0.7017244E-05 Eh
   gradient norm :     0.0004194 Eh/α   predicted    -0.3555526E-05 ( -49.33%)
   displ. norm   :     0.0484353 α      lambda       -0.2520605E-05
   maximum displ.:     0.0352877 α      in ANC's #3, #1, #2, ...

........................................................................
.............................. CYCLE   17 ..............................
........................................................................
   1    -36.7166520 -0.367167E+02  0.158E-02    2.13       0.0  T
   2    -36.7166520 -0.694349E-08  0.926E-03    2.13       2.1  T
   3    -36.7166518  0.227771E-06  0.309E-03    2.13       6.4  T
   4    -36.7166521 -0.243847E-06  0.349E-04    2.13      56.1  T
   5    -36.7166521 -0.269011E-08  0.137E-04    2.13     143.0  T
     SCC iter.                  ...        0 min,  1.111 sec
     gradient                   ...        0 min,  0.409 sec
 * total energy  :   -36.0081153 Eh     change       -0.2472577E-05 Eh
   gradient norm :     0.0003737 Eh/α   predicted    -0.1263657E-05 ( -48.89%)
   displ. norm   :     0.0300010 α      lambda       -0.8277480E-06
   maximum displ.:     0.0209234 α      in ANC's #3, #1, #4, ...

   *** GEOMETRY OPTIMIZATION CONVERGED AFTER 17 ITERATIONS ***

------------------------------------------------------------------------
 total energy gain   :        -0.0611768 Eh      -38.3890 kcal/mol
 total RMSD          :         0.4617407 a0        0.2443 Å
 total power (kW/mol):        -9.4482198 (step)   -3.5636 (real)
------------------------------------------------------------------------

 ANCopt (total)                0 d,  0 h,  0 min, 45.073 sec
 optimizer setup                ...        0 min,  0.001 sec (  0.001%)
 model hessian                  ...        0 min,  0.048 sec (  0.105%)
 ANC generation                 ...        0 min,  0.196 sec (  0.434%)
 coordinate transformation      ...        0 min,  0.000 sec (  0.001%)
 single point calculation       ...        0 min, 43.951 sec ( 97.510%)
 optimization log               ...        0 min,  0.001 sec (  0.003%)
 hessian update                 ...        0 min,  0.822 sec (  1.825%)
 rational function              ...        0 min,  0.053 sec (  0.118%)

================
 final structure:
================
26
 xtb: 6.5.1 (b24c23e)
C           -1.97992340071115        0.21679825934642       -0.05329627265991
C            1.04107064353246       -1.14396184597870       -1.25159719295362
C           -0.54294827504669        0.40788373131551       -0.03967788920404
C            0.43256111472121       -0.53506417756210       -0.08535030806656
C           -2.54754395859957       -1.00147515833943       -0.44651975066277
C            0.44405621368155       -1.05208834170449       -2.51507148195611
C           -2.83240140007369        1.23741337173990        0.37692326341224
C            2.27159002137960       -1.79836374860998       -1.14596648916908
C           -3.90974277772155       -1.20272235169369       -0.36258732504885
C            1.08043620085858       -1.55203120420921       -3.63231247160372
C           -4.19538284943000        1.03268382769820        0.45342873397546
C            2.90149000010457       -2.30186609777729       -2.26633820554030
C           -4.74064447265386       -0.18749802660390        0.08657653028689
C            2.31113263107313       -2.18004153807240       -3.51432397507730
H           -0.32269095634629        1.18639702315496        0.69949174942564
H            1.23431248370662       -0.32676437087123        0.63238070328283
H           -1.90139807293401       -1.79558298499230       -0.79132581190716
H           -0.51193347048506       -0.55799041219064       -2.61001621167267
H           -2.41394520050700        2.19255681163672        0.66217137084357
H            2.73662827425271       -1.89894024161126       -0.17516007197298
H           -4.33048363593697       -2.15477632407299       -0.65273864979787
H            0.61441380599220       -1.45768732865290       -4.60262440860151
H           -4.83922270524872        1.82913028326173        0.79803767319199
H            3.85730831488930       -2.79615598527783       -2.16799801457052
H           -5.80699099167560       -0.34640200855086        0.14984391095787
H            2.80644310317817       -2.57316266138218       -4.38971804491149

 Bond Distances (Angstroems)
 ---------------------------
C1-C3=1.4497         C1-C5=1.4004         C1-C7=1.3977         C2-C4=1.4495         C2-C6=1.4004         C2-C8=1.3977         
C3-C1=1.4497         C3-C4=1.3575         C3-H15=1.0959        C4-C2=1.4495         C4-C3=1.3575         C4-H16=1.0961        
C5-C1=1.4004         C5-C9=1.3795         C5-H17=1.0803        C6-C2=1.4004         C6-C10=1.3795        C6-H18=1.0803        
C7-C1=1.3977         C7-C11=1.3804        C7-H19=1.0811        C8-C2=1.3977         C8-C12=1.3804        C8-H20=1.0811        
C9-C5=1.3795         C9-C13=1.3867        C9-H21=1.0806        C10-C6=1.3795        C10-C14=1.3867       C10-H22=1.0805       
C11-C7=1.3804        C11-C13=1.3859       C11-H23=1.0806       C12-C8=1.3804        C12-C14=1.3859       C12-H24=1.0805       
C13-C9=1.3867        C13-C11=1.3859       C13-H25=1.0800       C14-C10=1.3867       C14-C12=1.3859       C14-H26=1.0799       
H15-C3=1.0959        H16-C4=1.0961        H17-C5=1.0803        H18-C6=1.0803        H19-C7=1.0811        H20-C8=1.0811        
H21-C9=1.0806        H22-C10=1.0805       H23-C11=1.0806       H24-C12=1.0805       H25-C13=1.0800       H26-C14=1.0799       
 C  H  Rav=1.0831 sigma=0.0058  Rmin=1.0799  Rmax=1.0961    12
 C  C  Rav=1.3945 sigma=0.0240  Rmin=1.3575  Rmax=1.4497    15

 selected bond angles (degree)
 --------------------
C5-C1-C3=121.27                C7-C1-C3=120.36                C7-C1-C5=118.33                C6-C2-C4=121.29                
C8-C2-C4=120.36                C8-C2-C6=118.31                C4-C3-C1=128.35                H15-C3-C1=107.41               
H15-C3-C4=111.82               C3-C4-C2=128.35                H16-C4-C2=107.43               H16-C4-C3=111.81               
C9-C5-C1=120.67                H17-C5-C1=119.12               H17-C5-C9=120.19               C10-C6-C2=120.68               
H18-C6-C2=119.11               H18-C6-C10=120.18              C11-C7-C1=120.73               H19-C7-C1=119.36               
H19-C7-C11=119.91              C12-C8-C2=120.74               H20-C8-C2=119.35               H20-C8-C12=119.91              
C13-C9-C5=120.30               H21-C9-C5=119.78               H21-C9-C13=119.92              C14-C10-C6=120.31              
H22-C10-C6=119.78              H22-C10-C14=119.91             

 selected dihedral angles (degree)
 ---------------------------------
C4-C3-C1-C5=344.05            C4-C3-C1-C7=161.65            H15-C3-C1-C5=205.91           H15-C3-C1-C7= 23.51           
C3-C4-C2-C6=343.89            C3-C4-C2-C8=161.50            H16-C4-C2-C6=205.72           H16-C4-C2-C8= 23.32           
C2-C4-C3-C1= 87.04            C2-C4-C3-H15=223.73           H16-C4-C3-C1=223.78           H16-C4-C3-H15=  0.47          
C9-C5-C1-C3=175.26            C9-C5-C1-C7=357.61            H17-C5-C1-C3=357.00           H17-C5-C1-C7=179.35           
C10-C6-C2-C4=175.29           C10-C6-C2-C8=357.63           H18-C6-C2-C4=357.03           H18-C6-C2-C8=179.37           
C11-C7-C1-C3=184.44           C11-C7-C1-C5=  2.10           H19-C7-C1-C3=  3.77           H19-C7-C1-C5=181.43           
C12-C8-C2-C4=184.41           C12-C8-C2-C6=  2.09           H20-C8-C2-C4=  3.72           H20-C8-C2-C6=181.40           
C13-C9-C5-C1=  1.41           C13-C9-C5-H17=179.65          H21-C9-C5-C1=181.13           H21-C9-C5-H17=359.37          
C14-C10-C6-C2=  1.40          C14-C10-C6-H18=179.64         H22-C10-C6-C2=181.08          H22-C10-C6-H18=359.32         
           -------------------------------------------------
          |                Final Singlepoint                |
           -------------------------------------------------

          ...................................................
          :                      SETUP                      :
          :.................................................:
          :  # basis functions                  68          :
          :  # atomic orbitals                  68          :
          :  # shells                           40          :
          :  # electrons                        68          :
          :  max. iterations                   250          :
          :  Hamiltonian                  GFN2-xTB          :
          :  restarted?                      false          :
          :  GBSA solvation                  false          :
          :  PC potential                    false          :
          :  electronic temp.          300.0000000     K    :
          :  accuracy                    1.0000000          :
          :  -> integral cutoff          0.2500000E+02      :
          :  -> integral neglect         0.1000000E-07      :
          :  -> SCF convergence          0.1000000E-05 Eh   :
          :  -> wf. convergence          0.1000000E-03 e    :
          :  Broyden damping             0.4000000          :
          ...................................................

 iter      E             dE          RMSdq      gap      omega  full diag
   1    -36.7166521 -0.367167E+02  0.392E-05    2.13       0.0  T
   2    -36.7166521 -0.125411E-10  0.243E-05    2.13     808.3  T
   3    -36.7166521 -0.597566E-11  0.148E-05    2.13    1322.0  T

   *** convergence criteria satisfied after 3 iterations ***

         #    Occupation            Energy/Eh            Energy/eV
      -------------------------------------------------------------
         1        2.0000           -0.6442924             -17.5321
       ...           ...                  ...                  ...
        28        2.0000           -0.4224208             -11.4947
        29        2.0000           -0.4178619             -11.3706
        30        2.0000           -0.4148639             -11.2890
        31        2.0000           -0.4089432             -11.1279
        32        2.0000           -0.4033040             -10.9745
        33        2.0000           -0.4031648             -10.9707
        34        2.0000           -0.3578578              -9.7378 (HOMO)
        35                         -0.2796948              -7.6109 (LUMO)
        36                         -0.2204390              -5.9985
        37                         -0.2200804              -5.9887
        38                         -0.2088510              -5.6831
        39                         -0.1825344              -4.9670
       ...                                ...                  ...
        68                          0.6806471              18.5213
      -------------------------------------------------------------
                  HL-Gap            0.0781630 Eh            2.1269 eV
             Fermi-level           -0.3187763 Eh           -8.6743 eV

 SCC (total)                   0 d,  0 h,  0 min,  1.320 sec
 SCC setup                      ...        0 min,  0.051 sec (  3.859%)
 Dispersion                     ...        0 min,  0.107 sec (  8.132%)
 classical contributions        ...        0 min,  0.041 sec (  3.086%)
 integral evaluation            ...        0 min,  0.226 sec ( 17.092%)
 iterations                     ...        0 min,  0.534 sec ( 40.438%)
 molecular gradient             ...        0 min,  0.361 sec ( 27.377%)
 printout                       ...        0 min,  0.000 sec (  0.013%)

         :::::::::::::::::::::::::::::::::::::::::::::::::::::
         ::                     SUMMARY                     ::
         :::::::::::::::::::::::::::::::::::::::::::::::::::::
         :: total energy             -36.008115311677 Eh    ::
         :: gradient norm              0.000373996024 Eh/a0 ::
         :: HOMO-LUMO gap              2.126924255523 eV    ::
         ::.................................................::
         :: SCC energy               -36.716652055968 Eh    ::
         :: -> isotropic ES            0.001596459744 Eh    ::
         :: -> anisotropic ES          0.004525968520 Eh    ::
         :: -> anisotropic XC          0.025057718703 Eh    ::
         :: -> dispersion             -0.024974028928 Eh    ::
         :: repulsion energy           0.707213940540 Eh    ::
         :: add. restraining           0.001360577069 Eh    ::
         :: total charge              -0.000000000000 e     ::
         :::::::::::::::::::::::::::::::::::::::::::::::::::::

           -------------------------------------------------
          |                Property Printout                |
           -------------------------------------------------

    * Orbital Energies and Occupations

         #    Occupation            Energy/Eh            Energy/eV
      -------------------------------------------------------------
         1        2.0000           -0.6442924             -17.5321
       ...           ...                  ...                  ...
        22        2.0000           -0.4744085             -12.9093
        23        2.0000           -0.4739504             -12.8968
        24        2.0000           -0.4623122             -12.5802
        25        2.0000           -0.4539545             -12.3527
        26        2.0000           -0.4329443             -11.7810
        27        2.0000           -0.4258782             -11.5887
        28        2.0000           -0.4224208             -11.4947
        29        2.0000           -0.4178619             -11.3706
        30        2.0000           -0.4148639             -11.2890
        31        2.0000           -0.4089432             -11.1279
        32        2.0000           -0.4033040             -10.9745
        33        2.0000           -0.4031648             -10.9707
        34        2.0000           -0.3578578              -9.7378 (HOMO)
        35                         -0.2796948              -7.6109 (LUMO)
        36                         -0.2204390              -5.9985
        37                         -0.2200804              -5.9887
        38                         -0.2088510              -5.6831
        39                         -0.1825344              -4.9670
        40                         -0.0866446              -2.3577
        41                         -0.0795656              -2.1651
        42                          0.0879797               2.3941
        43                          0.1144571               3.1145
        44                          0.1297276               3.5301
        45                          0.1332697               3.6265
       ...                                ...                  ...
        68                          0.6806471              18.5213
      -------------------------------------------------------------
                  HL-Gap            0.0781630 Eh            2.1269 eV
             Fermi-level           -0.3187763 Eh           -8.6743 eV

     #   Z          covCN         q      C6AA      α(0)
     1   6 C        2.969     0.019    27.571     8.613
     2   6 C        2.969     0.019    27.571     8.613
     3   6 C        2.897    -0.041    29.008     8.831
     4   6 C        2.897    -0.041    29.007     8.831
     5   6 C        2.924    -0.034    28.858     8.810
     6   6 C        2.924    -0.034    28.858     8.810
     7   6 C        2.925    -0.036    28.895     8.815
     8   6 C        2.925    -0.036    28.895     8.815
     9   6 C        2.917    -0.030    28.738     8.791
    10   6 C        2.917    -0.030    28.738     8.791
    11   6 C        2.917    -0.029    28.730     8.790
    12   6 C        2.917    -0.029    28.730     8.790
    13   6 C        2.920    -0.031    28.780     8.797
    14   6 C        2.920    -0.031    28.780     8.797
    15   1 H        0.924     0.028     2.617     2.530
    16   1 H        0.924     0.028     2.618     2.530
    17   1 H        0.926     0.037     2.486     2.465
    18   1 H        0.926     0.037     2.486     2.465
    19   1 H        0.926     0.029     2.596     2.520
    20   1 H        0.926     0.029     2.597     2.520
    21   1 H        0.926     0.029     2.595     2.519
    22   1 H        0.926     0.029     2.594     2.519
    23   1 H        0.926     0.029     2.602     2.523
    24   1 H        0.926     0.029     2.602     2.522
    25   1 H        0.926     0.029     2.602     2.523
    26   1 H        0.926     0.029     2.602     2.522

 Mol. C6AA /au·bohr⁶  :       8874.410679
 Mol. C8AA /au·bohr⁸  :     220890.428310
 Mol. α(0) /au        :        153.050532


Wiberg/Mayer (AO) data.
largest (>0.10) Wiberg bond orders for each atom

 ---------------------------------------------------------------------------
     #   Z sym  total        # sym  WBO       # sym  WBO       # sym  WBO
 ---------------------------------------------------------------------------
     1   6 C    3.989 --     7 C    1.356     5 C    1.349     3 C    1.131
     2   6 C    3.989 --     8 C    1.356     6 C    1.349     4 C    1.131
     3   6 C    3.967 --     4 C    1.700     1 C    1.131    15 H    0.957
     4   6 C    3.967 --     3 C    1.700     2 C    1.131    16 H    0.957
     5   6 C    3.986 --     9 C    1.469     1 C    1.349    17 H    0.969
                            11 C    0.102
     6   6 C    3.986 --    10 C    1.470     2 C    1.349    18 H    0.969
                            12 C    0.102
     7   6 C    3.981 --    11 C    1.464     1 C    1.356    19 H    0.969
                             9 C    0.101
     8   6 C    3.981 --    12 C    1.464     2 C    1.356    20 H    0.969
                            10 C    0.101
     9   6 C    3.993 --     5 C    1.469    13 C    1.422    21 H    0.971
                             7 C    0.101
    10   6 C    3.993 --     6 C    1.470    14 C    1.422    22 H    0.971
                             8 C    0.101
    11   6 C    3.992 --     7 C    1.464    13 C    1.426    23 H    0.971
                             5 C    0.102
    12   6 C    3.992 --     8 C    1.464    14 C    1.426    24 H    0.971
                             6 C    0.102
    13   6 C    3.978 --    11 C    1.426     9 C    1.422    25 H    0.972
    14   6 C    3.978 --    12 C    1.426    10 C    1.422    26 H    0.972
    15   1 H    0.998 --     3 C    0.957
    16   1 H    0.998 --     4 C    0.957
    17   1 H    0.999 --     5 C    0.969
    18   1 H    0.999 --     6 C    0.969
    19   1 H    0.999 --     7 C    0.969
    20   1 H    0.999 --     8 C    0.969
    21   1 H    0.999 --     9 C    0.971
    22   1 H    0.999 --    10 C    0.971
    23   1 H    0.999 --    11 C    0.971
    24   1 H    0.999 --    12 C    0.971
    25   1 H    0.999 --    13 C    0.972
    26   1 H    0.999 --    14 C    0.972
 ---------------------------------------------------------------------------

Topologies differ in total number of bonds
Writing topology from bond orders to xtbtopo.mol

molecular dipole:
                 x           y           z       tot (Debye)
 q only:       -0.006      -0.006      -0.009
   full:        0.040       0.038       0.057       0.202
molecular quadrupole (traceless):
                xx          xy          yy          xz          yz          zz
 q only:        0.867      -0.596      -0.512       0.122       1.085      -0.355
  q+dip:        3.892      -3.204      -1.914      -0.010       4.079      -1.978
   full:        1.921      -1.425      -1.054      -0.026       2.062      -0.868

           -------------------------------------------------
          |                Geometry Summary                 |
           -------------------------------------------------

      molecular mass/u    :      180.2455916
   center of mass at/Å    :       -0.7337394      -0.7190216      -1.0288985
  moments of inertia/u·Å² :        0.2463061E+03   0.1571265E+04   0.1687231E+04
rotational constants/cm⁻¹ :        0.6844180E-01   0.1072870E-01   0.9991301E-02

 * 25 selected distances

     #   Z          #   Z                                           value/Å
     3   6 C        4   6 C                                       1.3575182
     1   6 C        5   6 C                                       1.4003601
     2   6 C        6   6 C                                       1.4004409 (max)
     1   6 C        7   6 C                                       1.3976635
     2   6 C        8   6 C                                       1.3977045
     5   6 C        9   6 C                                       1.3795402
     6   6 C       10   6 C                                       1.3795471
     7   6 C       11   6 C                                       1.3803934
     8   6 C       12   6 C                                       1.3804064
     9   6 C       13   6 C                                       1.3866602
    11   6 C       13   6 C                                       1.3859058
    10   6 C       14   6 C                                       1.3866984
    12   6 C       14   6 C                                       1.3859408
     3   6 C       15   1 H                                       1.0958870
     4   6 C       16   1 H                                       1.0960530
     5   6 C       17   1 H                                       1.0802792
     6   6 C       18   1 H                                       1.0803073
     7   6 C       19   1 H                                       1.0810973
     8   6 C       20   1 H                                       1.0811297
     9   6 C       21   1 H                                       1.0805636
    10   6 C       22   1 H                                       1.0805476
    11   6 C       23   1 H                                       1.0805611
    12   6 C       24   1 H                                       1.0805472
    13   6 C       25   1 H                                       1.0799761
    14   6 C       26   1 H                                       1.0799035 (min)

 * 2 distinct bonds (by element types)

   Z      Z             #   av. dist./Å        max./Å        min./Å
   1 H    6 C          12     1.0830710     1.0960530     1.0799035
   6 C    6 C          13     1.3860599     1.4004409     1.3575182


optimized geometry written to: xtbopt.xyz


           -------------------------------------------------
          | TOTAL ENERGY              -36.008115311677 Eh   |
          | GRADIENT NORM               0.000373996024 Eh/α |
          | HOMO-LUMO GAP               2.126924255523 eV   |
           -------------------------------------------------

------------------------------------------------------------------------
 * finished run on 2026/07/30 at 13:24:56.018     
------------------------------------------------------------------------
 total:
 * wall-time:     0 d,  0 h,  0 min, 53.574 sec
 *  cpu-time:     0 d,  0 h,  0 min, 37.542 sec
 * ratio c/w:     0.701 speedup
 SCF:
 * wall-time:     0 d,  0 h,  0 min,  6.489 sec
 *  cpu-time:     0 d,  0 h,  0 min,  4.240 sec
 * ratio c/w:     0.653 speedup
 ANC optimizer:
 * wall-time:     0 d,  0 h,  0 min, 46.422 sec
 *  cpu-time:     0 d,  0 h,  0 min, 33.094 sec
 * ratio c/w:     0.713 speedup

