59

C      8.837236    1.190018    0.991862
C      8.455510   -0.268632    0.674584
C      9.694136   -0.998617    0.132984
C      7.968379   -0.991353    1.945259
O      7.451922   -0.317384   -0.350906
C      6.160389    0.225125   -0.275680
O      5.772513    0.840097    0.754522
N      5.281146    0.076250   -1.396013
C      3.912394    0.588576   -1.401218
C      3.003998   -0.300989   -0.546262
C      1.557820    0.199093   -0.570409
N      0.721154   -0.669220    0.268311
C     -0.598467   -0.079066    0.544115
C     -1.520077   -0.092987   -0.688394
C     -2.925337    0.402766   -0.327667
C     -3.843412    0.397224   -1.554183
N     -5.168548    0.904393   -1.203624
C     -6.124213    0.133026   -0.467339
O     -5.845306   -1.043296   -0.108859
O     -7.367594    0.706618   -0.162162
C     -8.435212    0.083287    0.567742
C     -7.981078   -0.270646    1.996914
C     -8.936115   -1.173271   -0.169929
C     -9.583673    1.100584    0.650003
H      9.111424    1.726142    0.058047
H      9.703140    1.224686    1.687948
H      7.998312    1.733205    1.472508
H      9.442011   -2.051818   -0.117101
H     10.516027   -0.999942    0.881655
H     10.059512   -0.502969   -0.792326
H      8.788809   -1.065068    2.691654
H      7.624168   -2.017571    1.694218
H      7.127352   -0.448707    2.422814
H      5.652102   -0.372349   -2.263568
H      3.534425    0.597267   -2.447033
H      3.901311    1.634687   -1.024428
H      3.366987   -0.308590    0.504136
H      3.040829   -1.341539   -0.937059
H      1.537630    1.243908   -0.186884
H      1.188257    0.191955   -1.619662
H      0.595538   -1.591856   -0.211366
H     -1.074582   -0.672311    1.354672
H     -0.487124    0.959358    0.928059
H     -1.099168    0.565841   -1.477460
H     -1.588764   -1.128431   -1.088184
H     -3.354999   -0.252455    0.460591
H     -2.861340    1.438351    0.072943
H     -3.404590    1.048826   -2.341299
H     -3.932183   -0.630031   -1.970486
H     -5.452057    1.848469   -1.550141
H     -8.840399   -0.634110    2.601098
H     -7.551024    0.624537    2.495096
H     -7.212145   -1.069785    1.991464
H     -8.168122   -1.973222   -0.175588
H     -9.188976   -0.924112   -1.222743
H     -9.843500   -1.581385    0.325570
H     -9.244450    2.023746    1.167701
H    -10.449759    0.681025    1.206535
H     -9.922221    1.382655   -0.370340
