31
Initial TS guess for ethylene migratory insertion into Zr-CH3 bond
Zr      -1.51900000       0.14080000       0.14070000
C       -2.19729112       1.09866176      -2.23196048
C       -0.10488398      -1.98439677       1.22326159
C        0.45868400      -1.78517252      -0.11909603
C       -0.57089337      -2.14913354      -1.10245525
C       -1.77070466      -2.57327314      -0.36781600
C       -1.48270112      -2.47146238       1.06960569
H        0.40608400      -1.80376690       2.16205899
H        1.45843775      -1.43175430      -0.34442690
H       -0.46399338      -2.11134383      -2.18055412
H       -2.70439232      -2.90333665      -0.80876754
H       -2.16663518      -2.71323667       1.87518958
C       -0.10489729       0.26594184       2.52245944
C       -1.48271955       0.64254055       2.86742666
C       -1.77073135       1.93827205       2.23685418
C       -0.57092006       2.36241165       1.50221492
C        0.45866558       1.32883041       1.67872494
H        0.40607710      -0.63738351       2.83545223
H       -2.16665162       0.06578010       3.47961152
H       -2.70442420       2.48517232       2.30220397
H       -0.46402526       3.27716513       0.93041739
H        1.45842131       1.34726246       1.25999504
H       -1.22283860       1.04978164      -2.67134524
H       -2.93882481       1.03704201      -3.00094471
H       -2.30524691       2.02401228      -1.70567922
C       -4.01587222       0.13171974      -1.15560660
C       -3.79937738       0.73033993       0.09234026
H       -4.01587222       2.03689474      -0.23277460
H       -4.01587222       2.03689474      -2.07843860
H       -3.79937738      -1.17483507       1.01517226
H       -3.79937738      -1.17483507      -0.83049174
