17

C     -0.988960   -1.146143   -0.962685
C     -0.180221   -0.142249   -0.126915
C     -0.396037    1.271039   -0.701300
C     -0.659531   -0.212536    1.335685
O      1.200680   -0.522469   -0.225211
C      2.283683    0.124813    0.386310
O      2.123587    1.144096    1.107962
Cl     3.898588   -0.501688    0.138914
H     -2.074675   -0.909262   -0.930603
H     -0.653493   -1.124170   -2.022000
H     -0.840556   -2.177414   -0.575871
H     -1.479656    1.515286   -0.741188
H      0.099604    2.041826   -0.076693
H      0.019656    1.334329   -1.729734
H     -0.432504   -1.211519    1.765775
H     -1.756126   -0.041356    1.396117
H     -0.164038    0.557417    1.961437
