29

C     -2.738581   -0.348325   -0.588110
C     -1.526448   -0.664874    0.298840
C     -0.353578   -1.198470   -0.542557
N      0.830084   -1.498473    0.282149
C      1.666186   -0.312998    0.528072
C      2.748729   -0.201183   -0.553231
C      3.572252    1.093481   -0.437075
N      4.412471    1.118511    0.760078
C     -3.935047    0.146129    0.232761
N     -3.638431    1.428663    0.865174
H     -2.464427    0.421942   -1.342110
H     -3.043194   -1.268417   -1.133259
H     -1.814427   -1.430556    1.052243
H     -1.214067    0.254667    0.837085
H     -0.101696   -0.474403   -1.349176
H     -0.672315   -2.138983   -1.041174
H      0.527614   -1.905432    1.198572
H      2.161356   -0.422930    1.517550
H      1.060063    0.619219    0.562995
H      3.422090   -1.084303   -0.500200
H      2.266908   -0.210276   -1.554337
H      2.897791    1.977577   -0.438553
H      4.229000    1.176745   -1.329496
H      4.940851    0.218851    0.833268
H      3.805389    1.211138    1.605626
H     -4.188045   -0.604572    1.013509
H     -4.817514    0.254627   -0.436664
H     -3.574661    2.155986    0.116002
H     -4.458355    1.686659    1.460627
