31
Properties=species:S:1:pos:R:3 pbc="F F F"
Zr      -1.51900000       0.14080000       0.14070000
C       -2.18736769       1.63992361      -2.03654144
C       -0.10488398      -1.98439677       1.22326159
C        0.45868400      -1.78517252      -0.11909603
C       -0.57089337      -2.14913354      -1.10245525
C       -1.77070466      -2.57327314      -0.36781600
C       -1.48270112      -2.47146238       1.06960569
H        0.40608400      -1.80376690       2.16205899
H        1.45843775      -1.43175430      -0.34442690
H       -0.46399338      -2.11134383      -2.18055412
H       -2.70439232      -2.90333665      -0.80876754
H       -2.16663518      -2.71323667       1.87518958
C       -0.10489729       0.26594184       2.52245944
C       -1.48271955       0.64254055       2.86742666
C       -1.77073135       1.93827205       2.23685418
C       -0.57092006       2.36241165       1.50221492
C        0.45866558       1.32883041       1.67872494
H        0.40607710      -0.63738351       2.83545223
H       -2.16665162       0.06578010       3.47961152
H       -2.70442420       2.48517232       2.30220397
H       -0.46402526       3.27716513       0.93041739
H        1.45842131       1.34726246       1.25999504
H       -1.32436615       1.23147926      -2.51966410
H       -2.95978661       1.79809866      -2.75997466
H       -1.93169105       2.57231308      -1.57808824
C       -3.94792210      -0.05675701      -0.12861803
C       -4.01255398       1.17051241      -0.86134478
H       -4.40230725       0.65061501      -1.73000071
H       -3.91753015       2.24805425      -0.94281927
H       -3.94792210      -0.62697201       0.79421397
H       -3.94792210      -0.62697201      -1.05145003
