      -----------------------------------------------------------      
     |                   =====================                   |     
     |                           x T B                           |     
     |                   =====================                   |     
     |                         S. Grimme                         |     
     |          Mulliken Center for Theoretical Chemistry        |     
     |                    University of Bonn                     |     
      -----------------------------------------------------------      

   * xtb version 6.5.1 (b24c23e) compiled by 'conda@728c89f4b128' on 2022-07-12

   xtb is free software: you can redistribute it and/or modify it under
   the terms of the GNU Lesser General Public License as published by
   the Free Software Foundation, either version 3 of the License, or
   (at your option) any later version.
   
   xtb is distributed in the hope that it will be useful,
   but WITHOUT ANY WARRANTY; without even the implied warranty of
   MERCHANTABILITY or FITNESS FOR A PARTICULAR PURPOSE.  See the
   GNU Lesser General Public License for more details.
   
   Cite this work as:
   * C. Bannwarth, E. Caldeweyher, S. Ehlert, A. Hansen, P. Pracht,
     J. Seibert, S. Spicher, S. Grimme, WIREs Comput. Mol. Sci., 2020, 11,
     e01493. DOI: 10.1002/wcms.1493
   
   for GFN2-xTB:
   * C. Bannwarth, S. Ehlert and S. Grimme., J. Chem. Theory Comput., 2019,
     15, 1652-1671. DOI: 10.1021/acs.jctc.8b01176
   for GFN1-xTB:
   * S. Grimme, C. Bannwarth, P. Shushkov, J. Chem. Theory Comput., 2017,
     13, 1989-2009. DOI: 10.1021/acs.jctc.7b00118
   for GFN0-xTB:
   * P. Pracht, E. Caldeweyher, S. Ehlert, S. Grimme, ChemRxiv, 2019, preprint.
     DOI: 10.26434/chemrxiv.8326202.v1
   for GFN-FF:
   * S. Spicher and S. Grimme, Angew. Chem. Int. Ed., 2020, 59, 15665-15673.
     DOI: 10.1002/anie.202004239
   
   for ALPB and GBSA implicit solvation:
   * S. Ehlert, M. Stahn, S. Spicher, S. Grimme, J. Chem. Theory Comput.,
     2021, 17, 4250-4261. DOI: 10.1021/acs.jctc.1c00471
   
   for DFT-D4:
   * E. Caldeweyher, C. Bannwarth and S. Grimme, J. Chem. Phys., 2017,
     147, 034112. DOI: 10.1063/1.4993215
   * E. Caldeweyher, S. Ehlert, A. Hansen, H. Neugebauer, S. Spicher,
     C. Bannwarth and S. Grimme, J. Chem. Phys., 2019, 150, 154122.
     DOI: 10.1063/1.5090222
   * E. Caldeweyher, J.-M. Mewes, S. Ehlert and S. Grimme, Phys. Chem. Chem. Phys.
     2020, 22, 8499-8512. DOI: 10.1039/D0CP00502A
   
   for sTDA-xTB:
   * S. Grimme and C. Bannwarth, J. Chem. Phys., 2016, 145, 054103.
     DOI: 10.1063/1.4959605
   
   in the mass-spec context:
   * V. Asgeirsson, C. Bauer and S. Grimme, Chem. Sci., 2017, 8, 4879.
     DOI: 10.1039/c7sc00601b
   * J. Koopman and S. Grimme, ACS Omega 2019, 4, 12, 15120-15133.
     DOI: 10.1021/acsomega.9b02011
   
   for metadynamics refer to:
   * S. Grimme, J. Chem. Theory Comput., 2019, 155, 2847-2862
     DOI: 10.1021/acs.jctc.9b00143
   
   for SPH calculations refer to:
   * S. Spicher and S. Grimme, J. Chem. Theory Comput., 2021, 17, 1701-1714
     DOI: 10.1021/acs.jctc.0c01306
   
   with help from (in alphabetical order)
   P. Atkinson, C. Bannwarth, F. Bohle, G. Brandenburg, E. Caldeweyher
   M. Checinski, S. Dohm, S. Ehlert, S. Ehrlich, I. Gerasimov, C. Hölzer
   A. Katbashev, J. Koopman, C. Lavigne, S. Lehtola, F. März, M. Müller,
   F. Musil, H. Neugebauer, J. Pisarek, C. Plett, P. Pracht, F. Pultar,
   J. Seibert, P. Shushkov, S. Spicher, M. Stahn, M. Steiner, T. Strunk,
   J. Stückrath, T. Rose, and J. Unsleber
   
 * started run on 2026/07/30 at 13:23:41.042     

           -------------------------------------------------
          |                Calculation Setup                |
           -------------------------------------------------

          program call               : /h/332/chchoi/miniconda3/envs/el-agente/bin/xtb stilbene_twisted_init.xyz --opt --gfn 2 -P 4 --chrg 0 --uhf 0 --input detailed_input.inp
          coordinate file            : stilbene_twisted_init.xyz
          omp threads                :                     4

   ID    Z sym.   atoms
    1    6 C      1-14
    2    1 H      15-26
constraining angle 1 3 4 2 to   90.0000000°, actual value:   90.0000000°

           -------------------------------------------------
          |                 G F N 2 - x T B                 |
           -------------------------------------------------

        Reference                      10.1021/acs.jctc.8b01176
      * Hamiltonian:
        H0-scaling (s, p, d)           1.850000    2.230000    2.230000
        zeta-weighting                 0.500000
      * Dispersion:
        s8                             2.700000
        a1                             0.520000
        a2                             5.000000
        s9                             5.000000
      * Repulsion:
        kExp                           1.500000    1.000000
        rExp                           1.000000
      * Coulomb:
        alpha                          2.000000
        third order                    shell-resolved
        anisotropic                    true
        a3                             3.000000
        a5                             4.000000
        cn-shift                       1.200000
        cn-exp                         4.000000
        max-rad                        5.000000


          ...................................................
          :                      SETUP                      :
          :.................................................:
          :  # basis functions                  68          :
          :  # atomic orbitals                  68          :
          :  # shells                           40          :
          :  # electrons                        68          :
          :  max. iterations                   250          :
          :  Hamiltonian                  GFN2-xTB          :
          :  restarted?                      false          :
          :  GBSA solvation                  false          :
          :  PC potential                    false          :
          :  electronic temp.          300.0000000     K    :
          :  accuracy                    1.0000000          :
          :  -> integral cutoff          0.2500000E+02      :
          :  -> integral neglect         0.1000000E-07      :
          :  -> SCF convergence          0.1000000E-05 Eh   :
          :  -> wf. convergence          0.1000000E-03 e    :
          :  Broyden damping             0.4000000          :
          ...................................................

 iter      E             dE          RMSdq      gap      omega  full diag
   1    -36.6042673 -0.366043E+02  0.442E+00    0.05       0.0  T
   2    -36.5135077  0.907596E-01  0.343E+00    0.19       1.0  T
   3    -36.3490647  0.164443E+00  0.427E+00    1.86       1.0  T
   4    -36.4648398 -0.115775E+00  0.307E+00    0.87       1.0  T
   5    -36.5534531 -0.886133E-01  0.208E+00    0.12       1.0  T
   6    -36.5189194  0.345336E-01  0.235E+00    0.18       1.0  T
   7    -36.5464446 -0.275251E-01  0.209E+00    0.13       1.0  T
   8    -36.6270220 -0.805775E-01  0.369E-01    0.04       1.0  T
   9    -36.6287162 -0.169421E-02  0.217E-01    0.03       1.0  T
  10    -36.6295594 -0.843139E-03  0.270E-02    0.03       1.0  T
  11    -36.6295688 -0.945869E-05  0.273E-02    0.03       1.0  T
  12    -36.6295745 -0.564929E-05  0.200E-02    0.03       1.0  T
  13    -36.6295510  0.234218E-04  0.400E-02    0.03       1.0  T
  14    -36.6295706 -0.195518E-04  0.244E-02    0.03       1.0  T
  15    -36.6295802 -0.964655E-05  0.975E-03    0.03       2.0  T
  16    -36.6295820 -0.171958E-05  0.237E-03    0.03       8.3  T
  17    -36.6295821 -0.923086E-07  0.915E-04    0.03      21.4  T
  18    -36.6295821 -0.149502E-07  0.236E-04    0.03      83.0  T

   *** convergence criteria satisfied after 18 iterations ***

         #    Occupation            Energy/Eh            Energy/eV
      -------------------------------------------------------------
         1        2.0000           -0.6424130             -17.4809
       ...           ...                  ...                  ...
        28        2.0000           -0.4219487             -11.4818
        29        2.0000           -0.4194602             -11.4141
        30        2.0000           -0.4091495             -11.1335
        31        2.0000           -0.4076205             -11.0919
        32        2.0000           -0.4004224             -10.8960
        33        2.0000           -0.3993624             -10.8672
        34        1.2778           -0.3148940              -8.5687 (HOMO)
        35        0.7222           -0.3138100              -8.5392 (LUMO)
        36                         -0.2233141              -6.0767
        37                         -0.2219615              -6.0399
        38                         -0.2006262              -5.4593
        39                         -0.1982469              -5.3946
       ...                                ...                  ...
        68                          0.6686886              18.1959
      -------------------------------------------------------------
                  HL-Gap            0.0010841 Eh            0.0295 eV
             Fermi-level           -0.3143520 Eh           -8.5540 eV

 SCC (total)                   0 d,  0 h,  0 min,  2.497 sec
 SCC setup                      ...        0 min,  0.035 sec (  1.406%)
 Dispersion                     ...        0 min,  0.053 sec (  2.130%)
 classical contributions        ...        0 min,  0.044 sec (  1.751%)
 integral evaluation            ...        0 min,  0.002 sec (  0.087%)
 iterations                     ...        0 min,  2.322 sec ( 93.002%)
 molecular gradient             ...        0 min,  0.040 sec (  1.616%)
 printout                       ...        0 min,  0.000 sec (  0.007%)

         :::::::::::::::::::::::::::::::::::::::::::::::::::::
         ::                     SUMMARY                     ::
         :::::::::::::::::::::::::::::::::::::::::::::::::::::
         :: total energy             -35.946938485166 Eh    ::
         :: gradient norm              0.139709947851 Eh/a0 ::
         :: HOMO-LUMO gap              0.029498606404 eV    ::
         ::.................................................::
         :: SCC energy               -36.629582073879 Eh    ::
         :: -> isotropic ES            0.001947760269 Eh    ::
         :: -> anisotropic ES          0.004705887677 Eh    ::
         :: -> anisotropic XC          0.026643676223 Eh    ::
         :: -> dispersion             -0.025296749808 Eh    ::
         :: repulsion energy           0.682645323323 Eh    ::
         :: add. restraining           0.000000000000 Eh    ::
         :: total charge               0.000000000000 e     ::
         :::::::::::::::::::::::::::::::::::::::::::::::::::::

      ----------------------------------------------------------- 
     |                   =====================                   |
     |                        A N C O P T                        |
     |                   =====================                   |
     |               Approximate Normal Coordinate               |
     |                Rational Function Optimizer                |
      ----------------------------------------------------------- 

          ...................................................
          :                      SETUP                      :
          :.................................................:
          :   optimization level            normal          :
          :   max. optcycles                   200          :
          :   ANC micro-cycles                  20          :
          :   degrees of freedom                72          :
          :.................................................:
          :   RF solver                   davidson          :
          :   write xtbopt.log                true          :
          :   linear?                        false          :
          :   energy convergence         0.5000000E-05 Eh   :
          :   grad. convergence          0.1000000E-02 Eh/α :
          :   maximium RF displ.         1.0000000          :
          :   Hlow (freq-cutoff)         0.1000000E-01      :
          :   Hmax (freq-cutoff)         5.0000000          :
          :   S6 in model hess.         20.0000000          :
          ...................................................

generating ANC from model Hessian ...
Using Lindh-Hessian (1995)
 Shifting diagonal of input Hessian by    8.9000958608920471E-003
 Lowest  eigenvalues of input Hessian
    0.000000    0.000000    0.000000    0.000000    0.000000    0.000000
    0.010000    0.010041    0.010373    0.014659    0.015960    0.017424
    0.023125    0.023244    0.025447    0.028309    0.030021    0.031872
 Highest eigenvalues
    1.861038    1.917874    1.947743    1.972743    1.977398    2.197474


........................................................................
.............................. CYCLE    1 ..............................
........................................................................
   1    -36.6295821 -0.366296E+02  0.117E-04    0.03       0.0  T
   2    -36.6295819  0.144098E-06  0.270E-03    0.03       7.3  T
   3    -36.6295821 -0.144321E-06  0.461E-05    0.03     425.8  T
   4    -36.6295821 -0.280878E-10  0.250E-05    0.03     784.2  T
     SCC iter.                  ...        0 min,  0.457 sec
     gradient                   ...        0 min,  0.282 sec
 * total energy  :   -35.9469385 Eh     change       -0.1058012E-08 Eh
   gradient norm :     0.1397102 Eh/α   predicted     0.0000000E+00 (-100.00%)
   displ. norm   :     0.3591854 α      lambda       -0.1873197E-01
   maximum displ.:     0.2099054 α      in ANC's #14, #9, #12, ...

........................................................................
.............................. CYCLE    2 ..............................
........................................................................
   1    -36.6614787 -0.366615E+02  0.475E-01    0.41       0.0  T
   2    -36.6603704  0.110836E-02  0.373E-01    0.41       1.0  T
   3    -36.6274913  0.328791E-01  0.124E+00    0.45       1.0  T
   4    -36.6613926 -0.339013E-01  0.630E-02    0.40       1.0  T
   5    -36.6615521 -0.159537E-03  0.246E-02    0.40       1.0  T
   6    -36.6615629 -0.107551E-04  0.641E-03    0.40       3.1  T
   7    -36.6615630 -0.112012E-06  0.309E-03    0.40       6.3  T
   8    -36.6615630  0.117725E-07  0.227E-03    0.40       8.6  T
   9    -36.6615631 -0.990120E-07  0.497E-04    0.40      39.5  T
  10    -36.6615631 -0.240637E-08  0.136E-04    0.40     144.1  T
     SCC iter.                  ...        0 min,  1.327 sec
     gradient                   ...        0 min,  0.366 sec
 * total energy  :   -35.9688322 Eh     change       -0.2189374E-01 Eh
   gradient norm :     0.0648078 Eh/α   predicted    -0.1058962E-01 ( -51.63%)
   displ. norm   :     0.9633744 α      lambda       -0.4882917E-01
   maximum displ.:     0.5978870 α      in ANC's #14, #16, #9, ...

........................................................................
.............................. CYCLE    3 ..............................
........................................................................
   1    -36.6883059 -0.366883E+02  0.845E-01    0.92       0.0  T
   2    -36.6883770 -0.711297E-04  0.532E-01    0.93       1.0  T
   3    -36.6769353  0.114417E-01  0.612E-01    0.94       1.0  T
   4    -36.6868147 -0.987941E-02  0.260E-01    0.93       1.0  T
   5    -36.6887912 -0.197648E-02  0.286E-02    0.93       1.0  T
   6    -36.6887996 -0.840264E-05  0.140E-02    0.93       1.4  T
   7    -36.6888015 -0.185561E-05  0.530E-03    0.93       3.7  T
   8    -36.6888017 -0.206857E-06  0.242E-03    0.93       8.1  T
   9    -36.6888018 -0.968768E-07  0.805E-04    0.93      24.4  T
  10    -36.6888018 -0.456249E-08  0.218E-04    0.93      90.0  T
     SCC iter.                  ...        0 min,  1.284 sec
     gradient                   ...        0 min,  0.330 sec
 * total energy  :   -35.9614700 Eh     change        0.7362173E-02 Eh
   gradient norm :     0.2021729 Eh/α   predicted    -0.4707360E-01 (-739.40%)
   displ. norm   :     0.3936586 α      lambda       -0.3668186E-01
   maximum displ.:     0.2400199 α      in ANC's #16, #14, #12, ...

........................................................................
.............................. CYCLE    4 ..............................
........................................................................
   1    -36.6912907 -0.366913E+02  0.410E-01    0.84       0.0  T
   2    -36.6911542  0.136457E-03  0.261E-01    0.84       1.0  T
   3    -36.6826999  0.845427E-02  0.578E-01    0.86       1.0  T
   4    -36.6913408 -0.864085E-02  0.305E-02    0.84       1.0  T
   5    -36.6913571 -0.162911E-04  0.106E-02    0.84       1.9  T
   6    -36.6913580 -0.898556E-06  0.370E-03    0.84       5.3  T
   7    -36.6913581 -0.834725E-07  0.165E-03    0.84      11.9  T
   8    -36.6913581 -0.278639E-07  0.801E-04    0.84      24.5  T
   9    -36.6913581 -0.131113E-07  0.289E-04    0.84      67.9  T
     SCC iter.                  ...        0 min,  1.197 sec
     gradient                   ...        0 min,  0.330 sec
 * total energy  :   -35.9829508 Eh     change       -0.2148074E-01 Eh
   gradient norm :     0.0918068 Eh/α   predicted    -0.2118319E-01 (  -1.39%)
   displ. norm   :     0.1943937 α      lambda       -0.5246924E-02
   maximum displ.:     0.0878203 α      in ANC's #14, #30, #47, ...

........................................................................
.............................. CYCLE    5 ..............................
........................................................................
   1    -36.6948046 -0.366948E+02  0.161E-01    0.80       0.0  T
   2    -36.6948227 -0.181061E-04  0.107E-01    0.80       1.0  T
   3    -36.6947194  0.103370E-03  0.590E-02    0.80       1.0  T
   4    -36.6947484 -0.289926E-04  0.596E-02    0.80       1.0  T
   5    -36.6948353 -0.869279E-04  0.105E-02    0.80       1.9  T
   6    -36.6948371 -0.185266E-05  0.406E-03    0.80       4.8  T
   7    -36.6948374 -0.227612E-06  0.117E-03    0.80      16.8  T
   8    -36.6948374 -0.111803E-07  0.556E-04    0.80      35.3  T
   9    -36.6948374 -0.398325E-08  0.192E-04    0.80     102.3  T
     SCC iter.                  ...        0 min,  1.114 sec
     gradient                   ...        0 min,  0.163 sec
 * total energy  :   -35.9854300 Eh     change       -0.2479196E-02 Eh
   gradient norm :     0.0755195 Eh/α   predicted    -0.2722628E-02 (   9.82%)
   displ. norm   :     0.3736893 α      lambda       -0.4517708E-02
   maximum displ.:     0.2383396 α      in ANC's #9, #4, #1, ...

........................................................................
.............................. CYCLE    6 ..............................
........................................................................
   1    -36.6938683 -0.366939E+02  0.290E-01    0.87       0.0  T
   2    -36.6938773 -0.902434E-05  0.171E-01    0.87       1.0  T
   3    -36.6936830  0.194330E-03  0.847E-02    0.87       1.0  T
   4    -36.6938082 -0.125198E-03  0.593E-02    0.87       1.0  T
   5    -36.6938971 -0.889219E-04  0.303E-03    0.87       6.5  T
   6    -36.6938973 -0.167075E-06  0.149E-03    0.87      13.2  T
   7    -36.6938973 -0.557727E-08  0.546E-04    0.87      35.9  T
   8    -36.6938973 -0.456466E-08  0.167E-04    0.87     117.7  T
     SCC iter.                  ...        0 min,  0.868 sec
     gradient                   ...        0 min,  0.403 sec
 * total energy  :   -35.9885594 Eh     change       -0.3129398E-02 Eh
   gradient norm :     0.0685129 Eh/α   predicted    -0.2574330E-02 ( -17.74%)
   displ. norm   :     0.3725789 α      lambda       -0.5222045E-02
   maximum displ.:     0.2052826 α      in ANC's #9, #1, #4, ...

........................................................................
.............................. CYCLE    7 ..............................
........................................................................
   1    -36.6947364 -0.366947E+02  0.266E-01    1.03       0.0  T
   2    -36.6947397 -0.332706E-05  0.156E-01    1.04       1.0  T
   3    -36.6946514  0.882857E-04  0.580E-02    1.04       1.0  T
   4    -36.6947205 -0.690440E-04  0.311E-02    1.04       1.0  T
   5    -36.6947453 -0.248653E-04  0.241E-03    1.04       8.1  T
   6    -36.6947453 -0.311446E-07  0.145E-03    1.04      13.5  T
   7    -36.6947454 -0.163360E-07  0.353E-04    1.04      55.6  T
   8    -36.6947454 -0.191864E-08  0.149E-04    1.04     131.2  T
     SCC iter.                  ...        0 min,  1.019 sec
     gradient                   ...        0 min,  0.336 sec
 * total energy  :   -35.9931194 Eh     change       -0.4559992E-02 Eh
   gradient norm :     0.0695734 Eh/α   predicted    -0.2973473E-02 ( -34.79%)
   displ. norm   :     0.5334413 α      lambda       -0.1078992E-01
   maximum displ.:     0.2255504 α      in ANC's #9, #14, #4, ...

........................................................................
.............................. CYCLE    8 ..............................
........................................................................
   1    -36.7026414 -0.367026E+02  0.421E-01    1.45       0.0  T
   2    -36.7026486 -0.722400E-05  0.249E-01    1.45       1.0  T
   3    -36.7026344  0.141923E-04  0.259E-02    1.46       1.0  T
   4    -36.7026490 -0.145543E-04  0.123E-02    1.45       1.6  T
   5    -36.7026518 -0.286475E-05  0.418E-03    1.45       4.7  T
   6    -36.7026521 -0.245121E-06  0.178E-03    1.45      11.0  T
   7    -36.7026521 -0.369122E-07  0.686E-04    1.45      28.6  T
   8    -36.7026521 -0.441569E-08  0.135E-04    1.45     145.1  T
     SCC iter.                  ...        0 min,  1.090 sec
     gradient                   ...        0 min,  0.222 sec
 * total energy  :   -36.0010124 Eh     change       -0.7893022E-02 Eh
   gradient norm :     0.0609446 Eh/α   predicted    -0.6930155E-02 ( -12.20%)
   displ. norm   :     0.3646431 α      lambda       -0.6416908E-02
   maximum displ.:     0.1321706 α      in ANC's #14, #12, #3, ...

........................................................................
.............................. CYCLE    9 ..............................
........................................................................
   1    -36.7103977 -0.367104E+02  0.301E-01    1.83       0.0  T
   2    -36.7104074 -0.975782E-05  0.179E-01    1.83       1.0  T
   3    -36.7103816  0.258779E-04  0.306E-02    1.83       1.0  T
   4    -36.7104092 -0.276753E-04  0.118E-02    1.83       1.7  T
   5    -36.7104117 -0.246672E-05  0.360E-03    1.83       5.4  T
   6    -36.7104117 -0.411247E-07  0.264E-03    1.83       7.4  T
   7    -36.7104119 -0.105679E-06  0.536E-04    1.83      36.6  T
   8    -36.7104119 -0.180484E-08  0.191E-04    1.83     102.6  T
     SCC iter.                  ...        0 min,  1.678 sec
     gradient                   ...        0 min,  0.477 sec
 * total energy  :   -36.0047931 Eh     change       -0.3780678E-02 Eh
   gradient norm :     0.0411251 Eh/α   predicted    -0.3635068E-02 (  -3.85%)
   displ. norm   :     0.3442614 α      lambda       -0.5211768E-02
   maximum displ.:     0.1478282 α      in ANC's #6, #5, #12, ...

........................................................................
.............................. CYCLE   10 ..............................
........................................................................
   1    -36.7156880 -0.367157E+02  0.275E-01    2.12       0.0  T
   2    -36.7157072 -0.191842E-04  0.164E-01    2.12       1.0  T
   3    -36.7156716  0.355685E-04  0.428E-02    2.12       1.0  T
   4    -36.7157118 -0.401479E-04  0.171E-02    2.12       1.1  T
   5    -36.7157150 -0.324905E-05  0.617E-03    2.12       3.2  T
   6    -36.7157154 -0.345959E-06  0.329E-03    2.12       6.0  T
   7    -36.7157155 -0.160136E-06  0.902E-04    2.12      21.7  T
   8    -36.7157155 -0.544585E-08  0.407E-04    2.12      48.1  T
     SCC iter.                  ...        0 min,  1.484 sec
     gradient                   ...        0 min,  0.535 sec
 * total energy  :   -36.0043507 Eh     change        0.4424178E-03 Eh
   gradient norm :     0.0560766 Eh/α   predicted    -0.2914728E-02 (-758.82%)
   displ. norm   :     0.2138023 α      lambda       -0.6119402E-02
   maximum displ.:     0.1051707 α      in ANC's #6, #15, #5, ...

........................................................................
.............................. CYCLE   11 ..............................
........................................................................
   1    -36.7149438 -0.367149E+02  0.165E-01    2.05       0.0  T
   2    -36.7149540 -0.102380E-04  0.989E-02    2.05       1.0  T
   3    -36.7149095  0.445412E-04  0.467E-02    2.05       1.0  T
   4    -36.7149570 -0.475981E-04  0.157E-02    2.05       1.2  T
   5    -36.7149606 -0.355319E-05  0.547E-03    2.05       3.6  T
   6    -36.7149607 -0.106336E-06  0.251E-03    2.05       7.8  T
   7    -36.7149608 -0.945660E-07  0.722E-04    2.05      27.2  T
   8    -36.7149608 -0.384887E-08  0.292E-04    2.05      67.2  T
     SCC iter.                  ...        0 min,  1.753 sec
     gradient                   ...        0 min,  0.839 sec
 * total energy  :   -36.0076117 Eh     change       -0.3261092E-02 Eh
   gradient norm :     0.0154958 Eh/α   predicted    -0.3199567E-02 (  -1.89%)
   displ. norm   :     0.1045861 α      lambda       -0.4370048E-03
   maximum displ.:     0.0492617 α      in ANC's #1, #4, #3, ...

........................................................................
.............................. CYCLE   12 ..............................
........................................................................
   1    -36.7144145 -0.367144E+02  0.683E-02    2.05       0.0  T
   2    -36.7144152 -0.746115E-06  0.406E-02    2.05       1.0  T
   3    -36.7144100  0.523630E-05  0.149E-02    2.05       1.3  T
   4    -36.7144155 -0.551418E-05  0.314E-03    2.05       6.2  T
   5    -36.7144158 -0.239566E-06  0.902E-04    2.05      21.7  T
   6    -36.7144158 -0.570093E-08  0.482E-04    2.05      40.7  T
     SCC iter.                  ...        0 min,  1.812 sec
     gradient                   ...        0 min,  0.660 sec
 * total energy  :   -36.0079200 Eh     change       -0.3082540E-03 Eh
   gradient norm :     0.0068615 Eh/α   predicted    -0.2208919E-03 ( -28.34%)
   displ. norm   :     0.1247160 α      lambda       -0.2127592E-03
   maximum displ.:     0.0759466 α      in ANC's #4, #1, #3, ...

........................................................................
.............................. CYCLE   13 ..............................
........................................................................
   1    -36.7144108 -0.367144E+02  0.746E-02    2.06       0.0  T
   2    -36.7144114 -0.597566E-06  0.438E-02    2.06       1.0  T
   3    -36.7144104  0.101104E-05  0.619E-03    2.06       3.2  T
   4    -36.7144116 -0.121129E-05  0.114E-03    2.06      17.2  T
   5    -36.7144116 -0.220995E-07  0.506E-04    2.06      38.8  T
   6    -36.7144116  0.283952E-08  0.441E-04    2.06      44.5  T
     SCC iter.                  ...        0 min,  1.582 sec
     gradient                   ...        0 min,  0.564 sec
 * total energy  :   -36.0080446 Eh     change       -0.1245924E-03 Eh
   gradient norm :     0.0019938 Eh/α   predicted    -0.1080356E-03 ( -13.29%)
   displ. norm   :     0.1046603 α      lambda       -0.4135996E-04
   maximum displ.:     0.0666591 α      in ANC's #1, #4, #3, ...

........................................................................
.............................. CYCLE   14 ..............................
........................................................................
   1    -36.7143497 -0.367143E+02  0.581E-02    2.08       0.0  T
   2    -36.7143498 -0.124937E-06  0.341E-02    2.08       1.0  T
   3    -36.7143497  0.132713E-06  0.283E-03    2.08       6.9  T
   4    -36.7143498 -0.182322E-06  0.832E-04    2.08      23.6  T
   5    -36.7143498 -0.875647E-08  0.544E-04    2.08      36.1  T
     SCC iter.                  ...        0 min,  1.462 sec
     gradient                   ...        0 min,  0.801 sec
 * total energy  :   -36.0080812 Eh     change       -0.3660579E-04 Eh
   gradient norm :     0.0027387 Eh/α   predicted    -0.2078127E-04 ( -43.23%)
   displ. norm   :     0.0650883 α      lambda       -0.3289834E-04
   maximum displ.:     0.0448535 α      in ANC's #1, #4, #3, ...

........................................................................
.............................. CYCLE   15 ..............................
........................................................................
   1    -36.7147519 -0.367148E+02  0.339E-02    2.08       0.0  T
   2    -36.7147519 -0.481097E-07  0.199E-02    2.08       1.0  T
   3    -36.7147518  0.111615E-06  0.234E-03    2.08       8.4  T
   4    -36.7147519 -0.131720E-06  0.581E-04    2.08      33.7  T
   5    -36.7147520 -0.461990E-08  0.293E-04    2.08      66.8  T
     SCC iter.                  ...        0 min,  1.531 sec
     gradient                   ...        0 min,  0.769 sec
 * total energy  :   -36.0081052 Eh     change       -0.2395975E-04 Eh
   gradient norm :     0.0022738 Eh/α   predicted    -0.1652690E-04 ( -31.02%)
   displ. norm   :     0.0795032 α      lambda       -0.3029941E-04
   maximum displ.:     0.0638729 α      in ANC's #1, #3, #4, ...

........................................................................
.............................. CYCLE   16 ..............................
........................................................................
   1    -36.7149103 -0.367149E+02  0.371E-02    2.08       0.0  T
   2    -36.7149103 -0.389342E-07  0.218E-02    2.08       1.0  T
   3    -36.7149101  0.266084E-06  0.340E-03    2.08       5.8  T
   4    -36.7149104 -0.293517E-06  0.656E-04    2.08      29.9  T
   5    -36.7149104 -0.854122E-08  0.250E-04    2.08      78.6  T
     SCC iter.                  ...        0 min,  1.228 sec
     gradient                   ...        0 min,  0.667 sec
 * total energy  :   -36.0081274 Eh     change       -0.2228321E-04 Eh
   gradient norm :     0.0011949 Eh/α   predicted    -0.1525059E-04 ( -31.56%)
   displ. norm   :     0.0860073 α      lambda       -0.1628394E-04
   maximum displ.:     0.0740835 α      in ANC's #1, #3, #4, ...

........................................................................
.............................. CYCLE   17 ..............................
........................................................................
   1    -36.7147320 -0.367147E+02  0.351E-02    2.08       0.0  T
   2    -36.7147320 -0.384975E-07  0.206E-02    2.08       1.0  T
   3    -36.7147319  0.574867E-07  0.167E-03    2.08      11.7  T
   4    -36.7147320 -0.795430E-07  0.373E-04    2.08      52.5  T
   5    -36.7147320  0.354127E-09  0.315E-04    2.08      62.3  T
     SCC iter.                  ...        0 min,  1.344 sec
     gradient                   ...        0 min,  0.502 sec
 * total energy  :   -36.0081476 Eh     change       -0.2014333E-04 Eh
   gradient norm :     0.0012241 Eh/α   predicted    -0.8170499E-05 ( -59.44%)
   displ. norm   :     0.0666430 α      lambda       -0.1350576E-04
   maximum displ.:     0.0569687 α      in ANC's #1, #3, #4, ...

........................................................................
.............................. CYCLE   18 ..............................
........................................................................
   1    -36.7145652 -0.367146E+02  0.252E-02    2.08       0.0  T
   2    -36.7145653 -0.226159E-07  0.148E-02    2.08       1.3  T
   3    -36.7145652  0.758412E-07  0.162E-03    2.08      12.1  T
   4    -36.7145653 -0.918793E-07  0.313E-04    2.08      62.6  T
   5    -36.7145653 -0.133994E-09  0.231E-04    2.08      84.7  T
     SCC iter.                  ...        0 min,  1.327 sec
     gradient                   ...        0 min,  0.544 sec
 * total energy  :   -36.0081646 Eh     change       -0.1696716E-04 Eh
   gradient norm :     0.0009933 Eh/α   predicted    -0.6772666E-05 ( -60.08%)
   displ. norm   :     0.0659737 α      lambda       -0.1024959E-04
   maximum displ.:     0.0565413 α      in ANC's #1, #3, #4, ...

........................................................................
.............................. CYCLE   19 ..............................
........................................................................
   1    -36.7144530 -0.367145E+02  0.242E-02    2.08       0.0  T
   2    -36.7144530 -0.201056E-07  0.143E-02    2.08       1.4  T
   3    -36.7144529  0.462507E-07  0.135E-03    2.08      14.5  T
   4    -36.7144530 -0.594336E-07  0.304E-04    2.08      64.6  T
   5    -36.7144530  0.359968E-09  0.249E-04    2.08      78.7  T
     SCC iter.                  ...        0 min,  1.404 sec
     gradient                   ...        0 min,  0.562 sec
 * total energy  :   -36.0081773 Eh     change       -0.1271619E-04 Eh
   gradient norm :     0.0009197 Eh/α   predicted    -0.5138623E-05 ( -59.59%)
   displ. norm   :     0.0548799 α      lambda       -0.6949422E-05
   maximum displ.:     0.0481267 α      in ANC's #1, #3, #4, ...

........................................................................
.............................. CYCLE   20 ..............................
........................................................................
   1    -36.7144160 -0.367144E+02  0.202E-02    2.08       0.0  T
   2    -36.7144160 -0.167583E-07  0.119E-02    2.08       1.7  T
   3    -36.7144158  0.157491E-06  0.245E-03    2.08       8.0  T
   4    -36.7144160 -0.170848E-06  0.438E-04    2.08      44.8  T
   5    -36.7144160 -0.450354E-08  0.151E-04    2.08     129.8  T
     SCC iter.                  ...        0 min,  1.354 sec
     gradient                   ...        0 min,  0.713 sec
 * total energy  :   -36.0081861 Eh     change       -0.8795276E-05 Eh
   gradient norm :     0.0007029 Eh/α   predicted    -0.3482590E-05 ( -60.40%)
   displ. norm   :     0.0426881 α      lambda       -0.4992923E-05
   maximum displ.:     0.0394889 α      in ANC's #1, #3, #4, ...
 * RMSD in coord.:     0.4684124 α      energy gain  -0.6124758E-01 Eh

generating ANC from model Hessian ...
Using Lindh-Hessian (1995)
 Shifting diagonal of input Hessian by    8.8750598745402243E-003
 Lowest  eigenvalues of input Hessian
    0.000000    0.000000    0.000000    0.000000    0.000000    0.000000
    0.010000    0.010029    0.010272    0.014388    0.015988    0.017097
    0.024236    0.024418    0.027097    0.029190    0.029550    0.033579
 Highest eigenvalues
    1.889915    1.981163    1.993899    2.033212    2.038854    2.360139


........................................................................
.............................. CYCLE   21 ..............................
........................................................................
   1    -36.7145294 -0.367145E+02  0.169E-02    2.08       0.0  T
   2    -36.7145294 -0.111161E-07  0.995E-03    2.08       2.0  T
   3    -36.7145294  0.307623E-07  0.106E-03    2.08      18.5  T
   4    -36.7145294 -0.384260E-07  0.181E-04    2.08     108.3  T
   5    -36.7145294  0.239275E-09  0.131E-04    2.08     149.8  T
     SCC iter.                  ...        0 min,  1.199 sec
     gradient                   ...        0 min,  0.579 sec
 * total energy  :   -36.0081927 Eh     change       -0.6647597E-05 Eh
   gradient norm :     0.0004380 Eh/α   predicted     0.0000000E+00 (-100.00%)
   displ. norm   :     0.0261965 α      lambda       -0.1989486E-06
   maximum displ.:     0.0256537 α      in ANC's #1, #9, #14, ...

........................................................................
.............................. CYCLE   22 ..............................
........................................................................
   1    -36.7145398 -0.367145E+02  0.130E-02    2.08       0.0  T
   2    -36.7145398 -0.539023E-08  0.765E-03    2.08       2.6  T
   3    -36.7145397  0.899291E-07  0.195E-03    2.08      10.0  T
   4    -36.7145398 -0.963083E-07  0.267E-04    2.08      73.5  T
   5    -36.7145398 -0.156801E-08  0.103E-04    2.08     190.9  T
     SCC iter.                  ...        0 min,  1.366 sec
     gradient                   ...        0 min,  0.697 sec
 * total energy  :   -36.0081972 Eh     change       -0.4539777E-05 Eh
   gradient norm :     0.0002314 Eh/α   predicted    -0.1738315E-05 ( -61.71%)
   displ. norm   :     0.0247769 α      lambda       -0.2668075E-05
   maximum displ.:     0.0245356 α      in ANC's #1, #7, #10, ...

   *** GEOMETRY OPTIMIZATION CONVERGED AFTER 22 ITERATIONS ***

------------------------------------------------------------------------
 total energy gain   :        -0.0612588 Eh      -38.4405 kcal/mol
 total RMSD          :         0.4680359 a0        0.2477 Å
 total power (kW/mol):        -7.3106756 (step)   -3.2363 (real)
------------------------------------------------------------------------

 ANCopt (total)                0 d,  0 h,  0 min, 49.697 sec
 optimizer setup                ...        0 min,  0.000 sec (  0.001%)
 model hessian                  ...        0 min,  0.094 sec (  0.190%)
 ANC generation                 ...        0 min,  0.080 sec (  0.160%)
 coordinate transformation      ...        0 min,  0.000 sec (  0.001%)
 single point calculation       ...        0 min, 48.377 sec ( 97.343%)
 optimization log               ...        0 min,  0.002 sec (  0.004%)
 hessian update                 ...        0 min,  1.082 sec (  2.177%)
 rational function              ...        0 min,  0.058 sec (  0.117%)

================
 final structure:
================
26
 xtb: 6.5.1 (b24c23e)
C           -1.97995171624358        0.21609376024024       -0.05144232321184
C            1.04223579560885       -1.14128357151439       -1.25249755559757
C           -0.54546779731125        0.41364013988651       -0.03849503202216
C            0.43779181752852       -0.53601751725904       -0.08408781668038
C           -2.53992327599044       -1.01506275601098       -0.41519045540205
C            0.45729120699775       -1.01758969122383       -2.51906084498993
C           -2.83960949666029        1.24307891069362        0.34937328946362
C            2.25696420357313       -1.82515233101435       -1.14696962819394
C           -3.90092855204993       -1.22207957515052       -0.32770971240795
C            1.09280416771587       -1.51285054321126       -3.63875050014881
C           -4.20149682575162        1.03279852360862        0.42758299153474
C            2.88463119354685       -2.32558465164611       -2.26976273168650
C           -4.73878266147082       -0.20031248281732        0.09310330970551
C            2.30845060229344       -2.16963718919602       -3.52068390020465
H           -0.32244073288620        1.19371241253305        0.69728086131331
H            1.23706228601816       -0.32744602842415        0.63513277621999
H           -1.88764839995548       -1.81326093102698       -0.73828455058000
H           -0.48717980309483       -0.50168472545777       -2.61281411974176
H           -2.42668867762745        2.20774143215321        0.60950907344804
H            2.71022025412919       -1.95192760907177       -0.17371229354405
H           -4.31540233815377       -2.18423368974492       -0.59247006155261
H            0.63826827926460       -1.39133432577109       -4.61150983697032
H           -4.85068325840206        1.83481868151575        0.74835259495063
H            3.82774664994269       -2.84364967261773       -2.17120397630030
H           -5.80420247547493       -0.36392999361447        0.15886395656161
H            2.80313019445363       -2.55855807585821       -4.39832215396259

 Bond Distances (Angstroems)
 ---------------------------
C1-C3=1.4481         C1-C5=1.4006         C1-C7=1.3980         C2-C4=1.4481         C2-C6=1.4006         C2-C8=1.3980         
C3-C1=1.4481         C3-C4=1.3677         C3-H15=1.0953        C4-C2=1.4481         C4-C3=1.3677         C4-H16=1.0953        
C5-C1=1.4006         C5-C9=1.3794         C5-H17=1.0803        C6-C2=1.4006         C6-C10=1.3794        C6-H18=1.0803        
C7-C1=1.3980         C7-C11=1.3802        C7-H19=1.0811        C8-C2=1.3980         C8-C12=1.3802        C8-H20=1.0811        
C9-C5=1.3794         C9-C13=1.3868        C9-H21=1.0806        C10-C6=1.3794        C10-C14=1.3868       C10-H22=1.0806       
C11-C7=1.3802        C11-C13=1.3860       C11-H23=1.0805       C12-C8=1.3802        C12-C14=1.3860       C12-H24=1.0805       
C13-C9=1.3868        C13-C11=1.3860       C13-H25=1.0799       C14-C10=1.3868       C14-C12=1.3860       C14-H26=1.0799       
H15-C3=1.0953        H16-C4=1.0953        H17-C5=1.0803        H18-C6=1.0803        H19-C7=1.0811        H20-C8=1.0811        
H21-C9=1.0806        H22-C10=1.0806       H23-C11=1.0805       H24-C12=1.0805       H25-C13=1.0799       H26-C14=1.0799       
 C  H  Rav=1.0829 sigma=0.0055  Rmin=1.0799  Rmax=1.0953    12
 C  C  Rav=1.3951 sigma=0.0226  Rmin=1.3677  Rmax=1.4481    15

 selected bond angles (degree)
 --------------------
C5-C1-C3=121.22                C7-C1-C3=120.42                C7-C1-C5=118.32                C6-C2-C4=121.23                
C8-C2-C4=120.41                C8-C2-C6=118.32                C4-C3-C1=128.11                H15-C3-C1=107.75               
H15-C3-C4=111.75               C3-C4-C2=128.11                H16-C4-C2=107.75               H16-C4-C3=111.75               
C9-C5-C1=120.66                H17-C5-C1=119.06               H17-C5-C9=120.25               C10-C6-C2=120.66               
H18-C6-C2=119.07               H18-C6-C10=120.25              C11-C7-C1=120.74               H19-C7-C1=119.32               
H19-C7-C11=119.95              C12-C8-C2=120.74               H20-C8-C2=119.32               H20-C8-C12=119.94              
C13-C9-C5=120.32               H21-C9-C5=119.77               H21-C9-C13=119.91              C14-C10-C6=120.32              
H22-C10-C6=119.77              H22-C10-C14=119.91             

 selected dihedral angles (degree)
 ---------------------------------
C4-C3-C1-C5=345.48            C4-C3-C1-C7=163.09            H15-C3-C1-C5=207.28           H15-C3-C1-C7= 24.89           
C3-C4-C2-C6=345.50            C3-C4-C2-C8=163.13            H16-C4-C2-C6=207.29           H16-C4-C2-C8= 24.93           
C2-C4-C3-C1= 87.07            C2-C4-C3-H15=223.96           H16-C4-C3-C1=223.96           H16-C4-C3-H15=  0.85          
C9-C5-C1-C3=175.12            C9-C5-C1-C7=357.45            H17-C5-C1-C3=356.93           H17-C5-C1-C7=179.27           
C10-C6-C2-C4=175.15           C10-C6-C2-C8=357.47           H18-C6-C2-C4=356.96           H18-C6-C2-C8=179.28           
C11-C7-C1-C3=184.49           C11-C7-C1-C5=  2.17           H19-C7-C1-C3=  3.86           H19-C7-C1-C5=181.54           
C12-C8-C2-C4=184.45           C12-C8-C2-C6=  2.15           H20-C8-C2-C4=  3.84           H20-C8-C2-C6=181.54           
C13-C9-C5-C1=  1.52           C13-C9-C5-H17=179.69          H21-C9-C5-C1=181.27           H21-C9-C5-H17=359.44          
C14-C10-C6-C2=  1.52          C14-C10-C6-H18=179.69         H22-C10-C6-C2=181.27          H22-C10-C6-H18=359.44         
           -------------------------------------------------
          |                Final Singlepoint                |
           -------------------------------------------------

          ...................................................
          :                      SETUP                      :
          :.................................................:
          :  # basis functions                  68          :
          :  # atomic orbitals                  68          :
          :  # shells                           40          :
          :  # electrons                        68          :
          :  max. iterations                   250          :
          :  Hamiltonian                  GFN2-xTB          :
          :  restarted?                      false          :
          :  GBSA solvation                  false          :
          :  PC potential                    false          :
          :  electronic temp.          300.0000000     K    :
          :  accuracy                    1.0000000          :
          :  -> integral cutoff          0.2500000E+02      :
          :  -> integral neglect         0.1000000E-07      :
          :  -> SCF convergence          0.1000000E-05 Eh   :
          :  -> wf. convergence          0.1000000E-03 e    :
          :  Broyden damping             0.4000000          :
          ...................................................

 iter      E             dE          RMSdq      gap      omega  full diag
   1    -36.7145398 -0.367145E+02  0.438E-05    2.08       0.0  T
   2    -36.7145398 -0.111910E-10  0.274E-05    2.08     716.7  T
   3    -36.7145398 -0.633804E-11  0.181E-05    2.08    1081.6  T

   *** convergence criteria satisfied after 3 iterations ***

         #    Occupation            Energy/Eh            Energy/eV
      -------------------------------------------------------------
         1        2.0000           -0.6442186             -17.5301
       ...           ...                  ...                  ...
        28        2.0000           -0.4227746             -11.5043
        29        2.0000           -0.4177331             -11.3671
        30        2.0000           -0.4152342             -11.2991
        31        2.0000           -0.4087251             -11.1220
        32        2.0000           -0.4032976             -10.9743
        33        2.0000           -0.4031503             -10.9703
        34        2.0000           -0.3572981              -9.7226 (HOMO)
        35                         -0.2807040              -7.6383 (LUMO)
        36                         -0.2203820              -5.9969
        37                         -0.2199962              -5.9864
        38                         -0.2087208              -5.6796
        39                         -0.1833416              -4.9890
       ...                                ...                  ...
        68                          0.6772676              18.4294
      -------------------------------------------------------------
                  HL-Gap            0.0765940 Eh            2.0842 eV
             Fermi-level           -0.3190011 Eh           -8.6805 eV

 SCC (total)                   0 d,  0 h,  0 min,  2.005 sec
 SCC setup                      ...        0 min,  0.077 sec (  3.849%)
 Dispersion                     ...        0 min,  0.138 sec (  6.903%)
 classical contributions        ...        0 min,  0.059 sec (  2.925%)
 integral evaluation            ...        0 min,  0.217 sec ( 10.824%)
 iterations                     ...        0 min,  0.820 sec ( 40.899%)
 molecular gradient             ...        0 min,  0.693 sec ( 34.589%)
 printout                       ...        0 min,  0.000 sec (  0.010%)

         :::::::::::::::::::::::::::::::::::::::::::::::::::::
         ::                     SUMMARY                     ::
         :::::::::::::::::::::::::::::::::::::::::::::::::::::
         :: total energy             -36.008197249325 Eh    ::
         :: gradient norm              0.000231469118 Eh/a0 ::
         :: HOMO-LUMO gap              2.084229636368 eV    ::
         ::.................................................::
         :: SCC energy               -36.714539767988 Eh    ::
         :: -> isotropic ES            0.001596798268 Eh    ::
         :: -> anisotropic ES          0.004544906323 Eh    ::
         :: -> anisotropic XC          0.025111521015 Eh    ::
         :: -> dispersion             -0.024952999848 Eh    ::
         :: repulsion energy           0.705068923966 Eh    ::
         :: add. restraining           0.001305110051 Eh    ::
         :: total charge              -0.000000000000 e     ::
         :::::::::::::::::::::::::::::::::::::::::::::::::::::

           -------------------------------------------------
          |                Property Printout                |
           -------------------------------------------------

    * Orbital Energies and Occupations

         #    Occupation            Energy/Eh            Energy/eV
      -------------------------------------------------------------
         1        2.0000           -0.6442186             -17.5301
       ...           ...                  ...                  ...
        22        2.0000           -0.4745340             -12.9127
        23        2.0000           -0.4738375             -12.8938
        24        2.0000           -0.4618513             -12.5676
        25        2.0000           -0.4541106             -12.3570
        26        2.0000           -0.4324998             -11.7689
        27        2.0000           -0.4258779             -11.5887
        28        2.0000           -0.4227746             -11.5043
        29        2.0000           -0.4177331             -11.3671
        30        2.0000           -0.4152342             -11.2991
        31        2.0000           -0.4087251             -11.1220
        32        2.0000           -0.4032976             -10.9743
        33        2.0000           -0.4031503             -10.9703
        34        2.0000           -0.3572981              -9.7226 (HOMO)
        35                         -0.2807040              -7.6383 (LUMO)
        36                         -0.2203820              -5.9969
        37                         -0.2199962              -5.9864
        38                         -0.2087208              -5.6796
        39                         -0.1833416              -4.9890
        40                         -0.0866479              -2.3578
        41                         -0.0798440              -2.1727
        42                          0.0907232               2.4687
        43                          0.1140722               3.1041
        44                          0.1294394               3.5222
        45                          0.1341453               3.6503
       ...                                ...                  ...
        68                          0.6772676              18.4294
      -------------------------------------------------------------
                  HL-Gap            0.0765940 Eh            2.0842 eV
             Fermi-level           -0.3190011 Eh           -8.6805 eV

     #   Z          covCN         q      C6AA      α(0)
     1   6 C        2.969     0.020    27.561     8.611
     2   6 C        2.969     0.020    27.561     8.611
     3   6 C        2.897    -0.041    29.026     8.834
     4   6 C        2.897    -0.041    29.026     8.834
     5   6 C        2.924    -0.034    28.853     8.809
     6   6 C        2.924    -0.034    28.853     8.809
     7   6 C        2.925    -0.036    28.898     8.816
     8   6 C        2.925    -0.036    28.898     8.816
     9   6 C        2.917    -0.029    28.736     8.790
    10   6 C        2.917    -0.029    28.736     8.790
    11   6 C        2.917    -0.029    28.730     8.790
    12   6 C        2.917    -0.029    28.730     8.790
    13   6 C        2.920    -0.031    28.780     8.797
    14   6 C        2.920    -0.031    28.780     8.797
    15   1 H        0.924     0.028     2.612     2.527
    16   1 H        0.924     0.028     2.612     2.527
    17   1 H        0.926     0.037     2.490     2.467
    18   1 H        0.926     0.037     2.490     2.467
    19   1 H        0.926     0.029     2.595     2.519
    20   1 H        0.926     0.029     2.595     2.519
    21   1 H        0.926     0.029     2.594     2.519
    22   1 H        0.926     0.029     2.594     2.519
    23   1 H        0.926     0.029     2.602     2.523
    24   1 H        0.926     0.029     2.602     2.523
    25   1 H        0.926     0.029     2.602     2.522
    26   1 H        0.926     0.029     2.602     2.522

 Mol. C6AA /au·bohr⁶  :       8874.239633
 Mol. C8AA /au·bohr⁸  :     220889.298691
 Mol. α(0) /au        :        153.049159


Wiberg/Mayer (AO) data.
largest (>0.10) Wiberg bond orders for each atom

 ---------------------------------------------------------------------------
     #   Z sym  total        # sym  WBO       # sym  WBO       # sym  WBO
 ---------------------------------------------------------------------------
     1   6 C    3.989 --     7 C    1.355     5 C    1.347     3 C    1.135
     2   6 C    3.989 --     8 C    1.355     6 C    1.347     4 C    1.135
     3   6 C    3.966 --     4 C    1.693     1 C    1.135    15 H    0.957
     4   6 C    3.966 --     3 C    1.693     2 C    1.135    16 H    0.957
     5   6 C    3.986 --     9 C    1.470     1 C    1.347    17 H    0.969
                            11 C    0.102
     6   6 C    3.986 --    10 C    1.470     2 C    1.347    18 H    0.969
                            12 C    0.102
     7   6 C    3.981 --    11 C    1.465     1 C    1.355    19 H    0.969
                             9 C    0.101
     8   6 C    3.981 --    12 C    1.465     2 C    1.355    20 H    0.969
                            10 C    0.101
     9   6 C    3.993 --     5 C    1.470    13 C    1.422    21 H    0.971
                             7 C    0.101
    10   6 C    3.993 --     6 C    1.470    14 C    1.422    22 H    0.971
                             8 C    0.101
    11   6 C    3.992 --     7 C    1.465    13 C    1.426    23 H    0.971
                             5 C    0.102
    12   6 C    3.992 --     8 C    1.465    14 C    1.426    24 H    0.971
                             6 C    0.102
    13   6 C    3.977 --    11 C    1.426     9 C    1.422    25 H    0.972
    14   6 C    3.977 --    12 C    1.426    10 C    1.422    26 H    0.972
    15   1 H    0.998 --     3 C    0.957
    16   1 H    0.998 --     4 C    0.957
    17   1 H    0.999 --     5 C    0.969
    18   1 H    0.999 --     6 C    0.969
    19   1 H    0.999 --     7 C    0.969
    20   1 H    0.999 --     8 C    0.969
    21   1 H    0.999 --     9 C    0.971
    22   1 H    0.999 --    10 C    0.971
    23   1 H    0.999 --    11 C    0.971
    24   1 H    0.999 --    12 C    0.971
    25   1 H    0.999 --    13 C    0.972
    26   1 H    0.999 --    14 C    0.972
 ---------------------------------------------------------------------------

Topologies differ in total number of bonds
Writing topology from bond orders to xtbtopo.mol

molecular dipole:
                 x           y           z       tot (Debye)
 q only:       -0.005      -0.005      -0.007
   full:        0.041       0.040       0.059       0.209
molecular quadrupole (traceless):
                xx          xy          yy          xz          yz          zz
 q only:        0.836      -0.626      -0.457       0.100       1.005      -0.379
  q+dip:        3.749      -3.337      -1.671      -0.063       3.777      -2.078
   full:        1.847      -1.490      -0.930      -0.050       1.907      -0.917

           -------------------------------------------------
          |                Geometry Summary                 |
           -------------------------------------------------

      molecular mass/u    :      180.2455916
   center of mass at/Å    :       -0.7337236      -0.7189988      -1.0288056
  moments of inertia/u·Å² :        0.2475733E+03   0.1574042E+04   0.1681710E+04
rotational constants/cm⁻¹ :        0.6809148E-01   0.1070977E-01   0.1002410E-01

 * 25 selected distances

     #   Z          #   Z                                           value/Å
     3   6 C        4   6 C                                       1.3677457
     1   6 C        5   6 C                                       1.4005812
     2   6 C        6   6 C                                       1.4005868 (max)
     1   6 C        7   6 C                                       1.3979855
     2   6 C        8   6 C                                       1.3979907
     5   6 C        9   6 C                                       1.3794363
     6   6 C       10   6 C                                       1.3794438
     7   6 C       11   6 C                                       1.3802435
     8   6 C       12   6 C                                       1.3802402
     9   6 C       13   6 C                                       1.3867557
    11   6 C       13   6 C                                       1.3860432
    10   6 C       14   6 C                                       1.3867606
    12   6 C       14   6 C                                       1.3860403
     3   6 C       15   1 H                                       1.0952718
     4   6 C       16   1 H                                       1.0952688
     5   6 C       17   1 H                                       1.0802652
     6   6 C       18   1 H                                       1.0802654
     7   6 C       19   1 H                                       1.0810866
     8   6 C       20   1 H                                       1.0810842
     9   6 C       21   1 H                                       1.0805681
    10   6 C       22   1 H                                       1.0805693
    11   6 C       23   1 H                                       1.0805428
    12   6 C       24   1 H                                       1.0805425
    13   6 C       25   1 H                                       1.0799142 (min)
    14   6 C       26   1 H                                       1.0799150

 * 2 distinct bonds (by element types)

   Z      Z             #   av. dist./Å        max./Å        min./Å
   1 H    6 C          12     1.0829412     1.0952718     1.0799142
   6 C    6 C          13     1.3869118     1.4005868     1.3677457


optimized geometry written to: xtbopt.xyz


           -------------------------------------------------
          | TOTAL ENERGY              -36.008197249325 Eh   |
          | GRADIENT NORM               0.000231469118 Eh/α |
          | HOMO-LUMO GAP               2.084229636368 eV   |
           -------------------------------------------------

------------------------------------------------------------------------
 * finished run on 2026/07/30 at 13:24:35.645     
------------------------------------------------------------------------
 total:
 * wall-time:     0 d,  0 h,  0 min, 54.603 sec
 *  cpu-time:     0 d,  0 h,  0 min, 46.520 sec
 * ratio c/w:     0.852 speedup
 SCF:
 * wall-time:     0 d,  0 h,  0 min,  2.498 sec
 *  cpu-time:     0 d,  0 h,  0 min,  3.539 sec
 * ratio c/w:     1.417 speedup
 ANC optimizer:
 * wall-time:     0 d,  0 h,  0 min, 51.734 sec
 *  cpu-time:     0 d,  0 h,  0 min, 42.719 sec
 * ratio c/w:     0.826 speedup

