      -----------------------------------------------------------      
     |                   =====================                   |     
     |                           x T B                           |     
     |                   =====================                   |     
     |                         S. Grimme                         |     
     |          Mulliken Center for Theoretical Chemistry        |     
     |                    University of Bonn                     |     
      -----------------------------------------------------------      

   * xtb version 6.5.1 (b24c23e) compiled by 'conda@728c89f4b128' on 2022-07-12

   xtb is free software: you can redistribute it and/or modify it under
   the terms of the GNU Lesser General Public License as published by
   the Free Software Foundation, either version 3 of the License, or
   (at your option) any later version.
   
   xtb is distributed in the hope that it will be useful,
   but WITHOUT ANY WARRANTY; without even the implied warranty of
   MERCHANTABILITY or FITNESS FOR A PARTICULAR PURPOSE.  See the
   GNU Lesser General Public License for more details.
   
   Cite this work as:
   * C. Bannwarth, E. Caldeweyher, S. Ehlert, A. Hansen, P. Pracht,
     J. Seibert, S. Spicher, S. Grimme, WIREs Comput. Mol. Sci., 2020, 11,
     e01493. DOI: 10.1002/wcms.1493
   
   for GFN2-xTB:
   * C. Bannwarth, S. Ehlert and S. Grimme., J. Chem. Theory Comput., 2019,
     15, 1652-1671. DOI: 10.1021/acs.jctc.8b01176
   for GFN1-xTB:
   * S. Grimme, C. Bannwarth, P. Shushkov, J. Chem. Theory Comput., 2017,
     13, 1989-2009. DOI: 10.1021/acs.jctc.7b00118
   for GFN0-xTB:
   * P. Pracht, E. Caldeweyher, S. Ehlert, S. Grimme, ChemRxiv, 2019, preprint.
     DOI: 10.26434/chemrxiv.8326202.v1
   for GFN-FF:
   * S. Spicher and S. Grimme, Angew. Chem. Int. Ed., 2020, 59, 15665-15673.
     DOI: 10.1002/anie.202004239
   
   for ALPB and GBSA implicit solvation:
   * S. Ehlert, M. Stahn, S. Spicher, S. Grimme, J. Chem. Theory Comput.,
     2021, 17, 4250-4261. DOI: 10.1021/acs.jctc.1c00471
   
   for DFT-D4:
   * E. Caldeweyher, C. Bannwarth and S. Grimme, J. Chem. Phys., 2017,
     147, 034112. DOI: 10.1063/1.4993215
   * E. Caldeweyher, S. Ehlert, A. Hansen, H. Neugebauer, S. Spicher,
     C. Bannwarth and S. Grimme, J. Chem. Phys., 2019, 150, 154122.
     DOI: 10.1063/1.5090222
   * E. Caldeweyher, J.-M. Mewes, S. Ehlert and S. Grimme, Phys. Chem. Chem. Phys.
     2020, 22, 8499-8512. DOI: 10.1039/D0CP00502A
   
   for sTDA-xTB:
   * S. Grimme and C. Bannwarth, J. Chem. Phys., 2016, 145, 054103.
     DOI: 10.1063/1.4959605
   
   in the mass-spec context:
   * V. Asgeirsson, C. Bauer and S. Grimme, Chem. Sci., 2017, 8, 4879.
     DOI: 10.1039/c7sc00601b
   * J. Koopman and S. Grimme, ACS Omega 2019, 4, 12, 15120-15133.
     DOI: 10.1021/acsomega.9b02011
   
   for metadynamics refer to:
   * S. Grimme, J. Chem. Theory Comput., 2019, 155, 2847-2862
     DOI: 10.1021/acs.jctc.9b00143
   
   for SPH calculations refer to:
   * S. Spicher and S. Grimme, J. Chem. Theory Comput., 2021, 17, 1701-1714
     DOI: 10.1021/acs.jctc.0c01306
   
   with help from (in alphabetical order)
   P. Atkinson, C. Bannwarth, F. Bohle, G. Brandenburg, E. Caldeweyher
   M. Checinski, S. Dohm, S. Ehlert, S. Ehrlich, I. Gerasimov, C. Hölzer
   A. Katbashev, J. Koopman, C. Lavigne, S. Lehtola, F. März, M. Müller,
   F. Musil, H. Neugebauer, J. Pisarek, C. Plett, P. Pracht, F. Pultar,
   J. Seibert, P. Shushkov, S. Spicher, M. Stahn, M. Steiner, T. Strunk,
   J. Stückrath, T. Rose, and J. Unsleber
   
 * started run on 2026/07/30 at 13:23:41.037     

           -------------------------------------------------
          |                Calculation Setup                |
           -------------------------------------------------

          program call               : /h/332/chchoi/miniconda3/envs/el-agente/bin/xtb stilbene_cis_init.xyz --opt --gfn 2 -P 4 --chrg 0 --uhf 0
          coordinate file            : stilbene_cis_init.xyz
          omp threads                :                     4

   ID    Z sym.   atoms
    1    6 C      1-14
    2    1 H      15-26

           -------------------------------------------------
          |                 G F N 2 - x T B                 |
           -------------------------------------------------

        Reference                      10.1021/acs.jctc.8b01176
      * Hamiltonian:
        H0-scaling (s, p, d)           1.850000    2.230000    2.230000
        zeta-weighting                 0.500000
      * Dispersion:
        s8                             2.700000
        a1                             0.520000
        a2                             5.000000
        s9                             5.000000
      * Repulsion:
        kExp                           1.500000    1.000000
        rExp                           1.000000
      * Coulomb:
        alpha                          2.000000
        third order                    shell-resolved
        anisotropic                    true
        a3                             3.000000
        a5                             4.000000
        cn-shift                       1.200000
        cn-exp                         4.000000
        max-rad                        5.000000


          ...................................................
          :                      SETUP                      :
          :.................................................:
          :  # basis functions                  68          :
          :  # atomic orbitals                  68          :
          :  # shells                           40          :
          :  # electrons                        68          :
          :  max. iterations                   250          :
          :  Hamiltonian                  GFN2-xTB          :
          :  restarted?                      false          :
          :  GBSA solvation                  false          :
          :  PC potential                    false          :
          :  electronic temp.          300.0000000     K    :
          :  accuracy                    1.0000000          :
          :  -> integral cutoff          0.2500000E+02      :
          :  -> integral neglect         0.1000000E-07      :
          :  -> SCF convergence          0.1000000E-05 Eh   :
          :  -> wf. convergence          0.1000000E-03 e    :
          :  Broyden damping             0.4000000          :
          ...................................................

 iter      E             dE          RMSdq      gap      omega  full diag
   1    -36.6082187 -0.366082E+02  0.451E+00    1.90       0.0  T
   2    -36.6291233 -0.209045E-01  0.273E+00    1.90       1.0  T
   3    -36.6101414  0.189818E-01  0.836E-01    1.77       1.0  T
   4    -36.6297764 -0.196349E-01  0.347E-01    1.86       1.0  T
   5    -36.6329200 -0.314361E-02  0.541E-02    1.85       1.0  T
   6    -36.6329728 -0.528547E-04  0.316E-02    1.84       1.0  T
   7    -36.6329780 -0.514095E-05  0.948E-03    1.84       2.1  T
   8    -36.6329798 -0.182237E-05  0.179E-03    1.84      10.9  T
   9    -36.6329798 -0.329990E-07  0.946E-04    1.84      20.7  T
  10    -36.6329798 -0.619359E-08  0.527E-04    1.84      37.2  T

   *** convergence criteria satisfied after 10 iterations ***

         #    Occupation            Energy/Eh            Energy/eV
      -------------------------------------------------------------
         1        2.0000           -0.6595048             -17.9460
       ...           ...                  ...                  ...
        28        2.0000           -0.4279162             -11.6442
        29        2.0000           -0.4268502             -11.6152
        30        2.0000           -0.4156392             -11.3101
        31        2.0000           -0.4059993             -11.0478
        32        2.0000           -0.3940986             -10.7240
        33        2.0000           -0.3831853             -10.4270
        34        2.0000           -0.3385265              -9.2118 (HOMO)
        35                         -0.2707773              -7.3682 (LUMO)
        36                         -0.2270960              -6.1796
        37                         -0.2138246              -5.8185
        38                         -0.1991110              -5.4181
        39                         -0.1649033              -4.4872
       ...                                ...                  ...
        68                          0.6744198              18.3519
      -------------------------------------------------------------
                  HL-Gap            0.0677492 Eh            1.8435 eV
             Fermi-level           -0.3046519 Eh           -8.2900 eV

 SCC (total)                   0 d,  0 h,  0 min,  2.083 sec
 SCC setup                      ...        0 min,  0.012 sec (  0.567%)
 Dispersion                     ...        0 min,  0.019 sec (  0.907%)
 classical contributions        ...        0 min,  0.065 sec (  3.106%)
 integral evaluation            ...        0 min,  0.092 sec (  4.398%)
 iterations                     ...        0 min,  1.609 sec ( 77.231%)
 molecular gradient             ...        0 min,  0.287 sec ( 13.780%)
 printout                       ...        0 min,  0.000 sec (  0.008%)

         :::::::::::::::::::::::::::::::::::::::::::::::::::::
         ::                     SUMMARY                     ::
         :::::::::::::::::::::::::::::::::::::::::::::::::::::
         :: total energy             -35.948054526081 Eh    ::
         :: gradient norm              0.147521015647 Eh/a0 ::
         :: HOMO-LUMO gap              1.843549939969 eV    ::
         ::.................................................::
         :: SCC energy               -36.632979827507 Eh    ::
         :: -> isotropic ES            0.004286958398 Eh    ::
         :: -> anisotropic ES          0.004621311045 Eh    ::
         :: -> anisotropic XC          0.026655184868 Eh    ::
         :: -> dispersion             -0.026840398648 Eh    ::
         :: repulsion energy           0.684864434871 Eh    ::
         :: add. restraining           0.000000000000 Eh    ::
         :: total charge              -0.000000000000 e     ::
         :::::::::::::::::::::::::::::::::::::::::::::::::::::

      ----------------------------------------------------------- 
     |                   =====================                   |
     |                        A N C O P T                        |
     |                   =====================                   |
     |               Approximate Normal Coordinate               |
     |                Rational Function Optimizer                |
      ----------------------------------------------------------- 

          ...................................................
          :                      SETUP                      :
          :.................................................:
          :   optimization level            normal          :
          :   max. optcycles                   200          :
          :   ANC micro-cycles                  20          :
          :   degrees of freedom                72          :
          :.................................................:
          :   RF solver                   davidson          :
          :   write xtbopt.log                true          :
          :   linear?                        false          :
          :   energy convergence         0.5000000E-05 Eh   :
          :   grad. convergence          0.1000000E-02 Eh/α :
          :   maximium RF displ.         1.0000000          :
          :   Hlow (freq-cutoff)         0.1000000E-01      :
          :   Hmax (freq-cutoff)         5.0000000          :
          :   S6 in model hess.         20.0000000          :
          ...................................................

generating ANC from model Hessian ...
Using Lindh-Hessian (1995)
 Shifting diagonal of input Hessian by    7.7231151367003707E-003
 Lowest  eigenvalues of input Hessian
    0.000000    0.000000    0.000000    0.000000    0.000000    0.000000
    0.010000    0.010525    0.011753    0.015513    0.018444    0.023065
    0.023214    0.026608    0.028949    0.029719    0.031199    0.041097
 Highest eigenvalues
    1.853495    1.877275    1.949407    1.968091    2.001223    2.063256


........................................................................
.............................. CYCLE    1 ..............................
........................................................................
   1    -36.6329798 -0.366330E+02  0.155E-04    1.84       0.0  T
   2    -36.6329798 -0.792753E-10  0.103E-04    1.84     190.7  T
   3    -36.6329798 -0.192543E-09  0.558E-05    1.84     351.6  T
     SCC iter.                  ...        0 min,  0.490 sec
     gradient                   ...        0 min,  0.294 sec
 * total energy  :   -35.9480545 Eh     change       -0.4178702E-08 Eh
   gradient norm :     0.1475249 Eh/α   predicted     0.0000000E+00 (-100.00%)
   displ. norm   :     0.4745956 α      lambda       -0.5916994E-01
   maximum displ.:     0.2110645 α      in ANC's #45, #34, #26, ...

........................................................................
.............................. CYCLE    2 ..............................
........................................................................
   1    -36.6953323 -0.366953E+02  0.438E-01    2.36       0.0  T
   2    -36.6959847 -0.652360E-03  0.321E-01    2.33       1.0  T
   3    -36.6966091 -0.624413E-03  0.167E-01    2.34       1.0  T
   4    -36.6968432 -0.234135E-03  0.461E-02    2.32       1.0  T
   5    -36.6968529 -0.966486E-05  0.208E-02    2.32       1.0  T
   6    -36.6968597 -0.681857E-05  0.516E-03    2.32       3.8  T
   7    -36.6968600 -0.309383E-06  0.210E-03    2.32       9.3  T
   8    -36.6968600 -0.554726E-07  0.964E-04    2.32      20.4  T
   9    -36.6968601 -0.117698E-07  0.431E-04    2.32      45.5  T
     SCC iter.                  ...        0 min,  1.162 sec
     gradient                   ...        0 min,  0.381 sec
 * total energy  :   -35.9935249 Eh     change       -0.4547035E-01 Eh
   gradient norm :     0.0802245 Eh/α   predicted    -0.3625104E-01 ( -20.28%)
   displ. norm   :     0.5024357 α      lambda       -0.3449048E-01
   maximum displ.:     0.2499103 α      in ANC's #45, #26, #12, ...

........................................................................
.............................. CYCLE    3 ..............................
........................................................................
   1    -36.7377369 -0.367377E+02  0.338E-01    2.65       0.0  T
   2    -36.7380330 -0.296147E-03  0.215E-01    2.64       1.0  T
   3    -36.7381751 -0.142054E-03  0.126E-01    2.64       1.0  T
   4    -36.7383489 -0.173841E-03  0.240E-02    2.64       1.0  T
   5    -36.7383512 -0.229453E-05  0.126E-02    2.64       1.6  T
   6    -36.7383536 -0.241951E-05  0.316E-03    2.64       6.2  T
   7    -36.7383537 -0.108354E-06  0.147E-03    2.64      13.3  T
   8    -36.7383538 -0.304968E-07  0.560E-04    2.64      35.0  T
   9    -36.7383538 -0.324491E-08  0.271E-04    2.64      72.4  T
     SCC iter.                  ...        0 min,  1.061 sec
     gradient                   ...        0 min,  0.287 sec
 * total energy  :   -36.0184521 Eh     change       -0.2492726E-01 Eh
   gradient norm :     0.0364317 Eh/α   predicted    -0.2159866E-01 ( -13.35%)
   displ. norm   :     0.4941264 α      lambda       -0.1480499E-01
   maximum displ.:     0.2349068 α      in ANC's #5, #45, #34, ...

........................................................................
.............................. CYCLE    4 ..............................
........................................................................
   1    -36.7462169 -0.367462E+02  0.230E-01    2.77       0.0  T
   2    -36.7462752 -0.583705E-04  0.135E-01    2.76       1.0  T
   3    -36.7462199  0.553150E-04  0.785E-02    2.76       1.0  T
   4    -36.7463254 -0.105480E-03  0.103E-02    2.76       1.9  T
   5    -36.7463257 -0.255146E-06  0.568E-03    2.76       3.5  T
   6    -36.7463262 -0.495761E-06  0.157E-03    2.76      12.5  T
   7    -36.7463262 -0.343111E-07  0.674E-04    2.76      29.1  T
   8    -36.7463262 -0.479363E-08  0.317E-04    2.76      61.8  T
     SCC iter.                  ...        0 min,  1.156 sec
     gradient                   ...        0 min,  0.318 sec
 * total energy  :   -36.0295452 Eh     change       -0.1109309E-01 Eh
   gradient norm :     0.0210700 Eh/α   predicted    -0.9209903E-02 ( -16.98%)
   displ. norm   :     0.5286671 α      lambda       -0.8037923E-02
   maximum displ.:     0.3078572 α      in ANC's #5, #3, #34, ...

........................................................................
.............................. CYCLE    5 ..............................
........................................................................
   1    -36.7477660 -0.367478E+02  0.219E-01    2.84       0.0  T
   2    -36.7477854 -0.194669E-04  0.128E-01    2.84       1.0  T
   3    -36.7477384  0.469946E-04  0.528E-02    2.84       1.0  T
   4    -36.7477985 -0.600667E-04  0.647E-03    2.84       3.0  T
   5    -36.7477986 -0.116643E-06  0.293E-03    2.84       6.7  T
   6    -36.7477987 -0.116820E-06  0.874E-04    2.84      22.4  T
   7    -36.7477988 -0.137783E-07  0.371E-04    2.84      52.8  T
     SCC iter.                  ...        0 min,  1.038 sec
     gradient                   ...        0 min,  0.268 sec
 * total energy  :   -36.0356801 Eh     change       -0.6134877E-02 Eh
   gradient norm :     0.0136750 Eh/α   predicted    -0.5142219E-02 ( -16.18%)
   displ. norm   :     0.5629950 α      lambda       -0.4680749E-02
   maximum displ.:     0.3388231 α      in ANC's #5, #3, #2, ...

........................................................................
.............................. CYCLE    6 ..............................
........................................................................
   1    -36.7488810 -0.367489E+02  0.241E-01    2.90       0.0  T
   2    -36.7488904 -0.939341E-05  0.141E-01    2.90       1.0  T
   3    -36.7488608  0.296357E-04  0.391E-02    2.90       1.0  T
   4    -36.7488964 -0.356418E-04  0.461E-03    2.90       4.3  T
   5    -36.7488964 -0.372871E-07  0.242E-03    2.90       8.1  T
   6    -36.7488965 -0.690355E-07  0.900E-04    2.90      21.8  T
   7    -36.7488965 -0.122071E-07  0.359E-04    2.90      54.7  T
     SCC iter.                  ...        0 min,  0.884 sec
     gradient                   ...        0 min,  0.209 sec
 * total energy  :   -36.0392623 Eh     change       -0.3582142E-02 Eh
   gradient norm :     0.0102719 Eh/α   predicted    -0.3082189E-02 ( -13.96%)
   displ. norm   :     0.5607103 α      lambda       -0.2688446E-02
   maximum displ.:     0.3163299 α      in ANC's #5, #2, #3, ...

........................................................................
.............................. CYCLE    7 ..............................
........................................................................
   1    -36.7504722 -0.367505E+02  0.252E-01    2.96       0.0  T
   2    -36.7504776 -0.542591E-05  0.148E-01    2.96       1.0  T
   3    -36.7504580  0.195644E-04  0.300E-02    2.96       1.0  T
   4    -36.7504812 -0.231900E-04  0.340E-03    2.96       5.8  T
   5    -36.7504813 -0.245996E-07  0.199E-03    2.96       9.8  T
   6    -36.7504813 -0.394253E-07  0.721E-04    2.96      27.2  T
   7    -36.7504813 -0.770705E-08  0.275E-04    2.96      71.4  T
     SCC iter.                  ...        0 min,  0.898 sec
     gradient                   ...        0 min,  0.122 sec
 * total energy  :   -36.0412969 Eh     change       -0.2034677E-02 Eh
   gradient norm :     0.0089375 Eh/α   predicted    -0.1766844E-02 ( -13.16%)
   displ. norm   :     0.5146562 α      lambda       -0.1505273E-02
   maximum displ.:     0.3270405 α      in ANC's #2, #5, #3, ...

........................................................................
.............................. CYCLE    8 ..............................
........................................................................
   1    -36.7527158 -0.367527E+02  0.245E-01    3.03       0.0  T
   2    -36.7527190 -0.317223E-05  0.144E-01    3.03       1.0  T
   3    -36.7527079  0.110972E-04  0.216E-02    3.03       1.0  T
   4    -36.7527212 -0.132774E-04  0.252E-03    3.03       7.8  T
   5    -36.7527212 -0.803811E-08  0.139E-03    3.03      14.1  T
   6    -36.7527212 -0.159482E-07  0.469E-04    3.03      41.8  T
   7    -36.7527212 -0.341018E-08  0.191E-04    3.03     102.9  T
     SCC iter.                  ...        0 min,  0.875 sec
     gradient                   ...        0 min,  0.103 sec
 * total energy  :   -36.0424320 Eh     change       -0.1135046E-02 Eh
   gradient norm :     0.0083241 Eh/α   predicted    -0.9520009E-03 ( -16.13%)
   displ. norm   :     0.4213688 α      lambda       -0.8372680E-03
   maximum displ.:     0.3074893 α      in ANC's #2, #3, #5, ...

........................................................................
.............................. CYCLE    9 ..............................
........................................................................
   1    -36.7557630 -0.367558E+02  0.210E-01    3.09       0.0  T
   2    -36.7557646 -0.164743E-05  0.123E-01    3.09       1.0  T
   3    -36.7557597  0.492886E-05  0.139E-02    3.09       1.4  T
   4    -36.7557657 -0.605274E-05  0.185E-03    3.09      10.6  T
   5    -36.7557657 -0.215582E-08  0.946E-04    3.09      20.7  T
   6    -36.7557658 -0.841921E-08  0.206E-04    3.09      95.2  T
     SCC iter.                  ...        0 min,  0.803 sec
     gradient                   ...        0 min,  0.273 sec
 * total energy  :   -36.0430820 Eh     change       -0.6499941E-03 Eh
   gradient norm :     0.0073633 Eh/α   predicted    -0.4930090E-03 ( -24.15%)
   displ. norm   :     0.3543965 α      lambda       -0.5444661E-03
   maximum displ.:     0.2912033 α      in ANC's #2, #3, #5, ...

........................................................................
.............................. CYCLE   10 ..............................
........................................................................
   1    -36.7580969 -0.367581E+02  0.183E-01    3.13       0.0  T
   2    -36.7580979 -0.948361E-06  0.107E-01    3.13       1.0  T
   3    -36.7580960  0.182607E-05  0.854E-03    3.13       2.3  T
   4    -36.7580985 -0.243706E-05  0.150E-03    3.13      13.1  T
   5    -36.7580985  0.339624E-08  0.776E-04    3.13      25.3  T
   6    -36.7580985 -0.695995E-08  0.237E-04    3.13      82.6  T
     SCC iter.                  ...        0 min,  0.801 sec
     gradient                   ...        0 min,  0.462 sec
 * total energy  :   -36.0435256 Eh     change       -0.4436613E-03 Eh
   gradient norm :     0.0062353 Eh/α   predicted    -0.3064250E-03 ( -30.93%)
   displ. norm   :     0.3124036 α      lambda       -0.4239469E-03
   maximum displ.:     0.2772180 α      in ANC's #2, #3, #5, ...

........................................................................
.............................. CYCLE   11 ..............................
........................................................................
   1    -36.7597428 -0.367597E+02  0.165E-01    3.16       0.0  T
   2    -36.7597435 -0.687955E-06  0.967E-02    3.16       1.0  T
   3    -36.7597426  0.901529E-06  0.624E-03    3.16       3.1  T
   4    -36.7597439 -0.132509E-05  0.126E-03    3.16      15.6  T
   5    -36.7597439  0.366022E-08  0.709E-04    3.16      27.7  T
   6    -36.7597439 -0.662293E-08  0.183E-04    3.16     107.2  T
     SCC iter.                  ...        0 min,  1.310 sec
     gradient                   ...        0 min,  0.581 sec
 * total energy  :   -36.0438790 Eh     change       -0.3533199E-03 Eh
   gradient norm :     0.0051022 Eh/α   predicted    -0.2326642E-03 ( -34.15%)
   displ. norm   :     0.2951165 α      lambda       -0.3498257E-03
   maximum displ.:     0.2703858 α      in ANC's #2, #3, #11, ...

........................................................................
.............................. CYCLE   12 ..............................
........................................................................
   1    -36.7599729 -0.367600E+02  0.154E-01    3.16       0.0  T
   2    -36.7599736 -0.640111E-06  0.905E-02    3.16       1.0  T
   3    -36.7599734  0.207588E-06  0.445E-03    3.16       4.4  T
   4    -36.7599739 -0.548285E-06  0.127E-03    3.16      15.4  T
   5    -36.7599739  0.260166E-08  0.757E-04    3.16      25.9  T
   6    -36.7599739 -0.745143E-08  0.187E-04    3.16     105.1  T
     SCC iter.                  ...        0 min,  1.112 sec
     gradient                   ...        0 min,  0.134 sec
 * total energy  :   -36.0441592 Eh     change       -0.2802737E-03 Eh
   gradient norm :     0.0035273 Eh/α   predicted    -0.1901472E-03 ( -32.16%)
   displ. norm   :     0.2644209 α      lambda       -0.2448148E-03
   maximum displ.:     0.2435472 α      in ANC's #2, #3, #12, ...

........................................................................
.............................. CYCLE   13 ..............................
........................................................................
   1    -36.7596256 -0.367596E+02  0.140E-01    3.15       0.0  T
   2    -36.7596262 -0.555081E-06  0.820E-02    3.15       1.0  T
   3    -36.7596259  0.289616E-06  0.429E-03    3.15       4.6  T
   4    -36.7596265 -0.585602E-06  0.113E-03    3.15      17.4  T
   5    -36.7596265 -0.162215E-08  0.422E-04    3.15      46.4  T
   6    -36.7596265 -0.112166E-08  0.145E-04    3.15     135.2  T
     SCC iter.                  ...        0 min,  0.979 sec
     gradient                   ...        0 min,  0.777 sec
 * total energy  :   -36.0443368 Eh     change       -0.1775437E-03 Eh
   gradient norm :     0.0028527 Eh/α   predicted    -0.1309668E-03 ( -26.23%)
   displ. norm   :     0.1972185 α      lambda       -0.1191012E-03
   maximum displ.:     0.1794766 α      in ANC's #2, #3, #11, ...

........................................................................
.............................. CYCLE   14 ..............................
........................................................................
   1    -36.7595020 -0.367595E+02  0.103E-01    3.14       0.0  T
   2    -36.7595024 -0.352555E-06  0.607E-02    3.14       1.0  T
   3    -36.7595019  0.492657E-06  0.473E-03    3.14       4.1  T
   4    -36.7595026 -0.700613E-06  0.869E-04    3.14      22.6  T
   5    -36.7595026  0.146245E-08  0.396E-04    3.14      49.5  T
     SCC iter.                  ...        0 min,  1.507 sec
     gradient                   ...        0 min,  0.782 sec
 * total energy  :   -36.0444148 Eh     change       -0.7798898E-04 Eh
   gradient norm :     0.0027382 Eh/α   predicted    -0.6187402E-04 ( -20.66%)
   displ. norm   :     0.1248292 α      lambda       -0.4925881E-04
   maximum displ.:     0.1153530 α      in ANC's #2, #12, #3, ...

........................................................................
.............................. CYCLE   15 ..............................
........................................................................
   1    -36.7596978 -0.367597E+02  0.658E-02    3.13       0.0  T
   2    -36.7596979 -0.145413E-06  0.386E-02    3.13       1.0  T
   3    -36.7596979 -0.234738E-08  0.169E-03    3.13      11.6  T
   4    -36.7596980 -0.622706E-07  0.638E-04    3.13      30.8  T
   5    -36.7596980 -0.201936E-09  0.312E-04    3.13      62.9  T
     SCC iter.                  ...        0 min,  1.464 sec
     gradient                   ...        0 min,  0.760 sec
 * total energy  :   -36.0444433 Eh     change       -0.2855536E-04 Eh
   gradient norm :     0.0021566 Eh/α   predicted    -0.2501557E-04 ( -12.40%)
   displ. norm   :     0.0753048 α      lambda       -0.2053253E-04
   maximum displ.:     0.0688553 α      in ANC's #2, #32, #3, ...

........................................................................
.............................. CYCLE   16 ..............................
........................................................................
   1    -36.7599742 -0.367600E+02  0.412E-02    3.13       0.0  T
   2    -36.7599743 -0.478422E-07  0.242E-02    3.13       1.0  T
   3    -36.7599742  0.676447E-07  0.193E-03    3.13      10.2  T
   4    -36.7599743 -0.950427E-07  0.307E-04    3.13      63.9  T
   5    -36.7599743  0.416378E-11  0.129E-04    3.13     152.4  T
     SCC iter.                  ...        0 min,  1.253 sec
     gradient                   ...        0 min,  0.906 sec
 * total energy  :   -36.0444574 Eh     change       -0.1406862E-04 Eh
   gradient norm :     0.0011717 Eh/α   predicted    -0.1032853E-04 ( -26.58%)
   displ. norm   :     0.1257868 α      lambda       -0.1666109E-04
   maximum displ.:     0.1124779 α      in ANC's #2, #32, #45, ...

........................................................................
.............................. CYCLE   17 ..............................
........................................................................
   1    -36.7605160 -0.367605E+02  0.689E-02    3.13       0.0  T
   2    -36.7605162 -0.154789E-06  0.404E-02    3.13       1.0  T
   3    -36.7605160  0.170278E-06  0.315E-03    3.13       6.2  T
   4    -36.7605162 -0.248671E-06  0.688E-04    3.13      28.5  T
   5    -36.7605162  0.255525E-09  0.407E-04    3.13      48.2  T
     SCC iter.                  ...        0 min,  1.453 sec
     gradient                   ...        0 min,  0.743 sec
 * total energy  :   -36.0444679 Eh     change       -0.1056408E-04 Eh
   gradient norm :     0.0021812 Eh/α   predicted    -0.8391754E-05 ( -20.56%)
   displ. norm   :     0.0497096 α      lambda       -0.1390115E-04
   maximum displ.:     0.0392942 α      in ANC's #2, #3, #34, ...

........................................................................
.............................. CYCLE   18 ..............................
........................................................................
   1    -36.7607451 -0.367607E+02  0.271E-02    3.14       0.0  T
   2    -36.7607451 -0.323815E-07  0.160E-02    3.14       1.2  T
   3    -36.7607450  0.999904E-07  0.184E-03    3.14      10.6  T
   4    -36.7607452 -0.117889E-06  0.279E-04    3.14      70.3  T
   5    -36.7607452 -0.401336E-09  0.178E-04    3.14     110.2  T
     SCC iter.                  ...        0 min,  1.530 sec
     gradient                   ...        0 min,  0.582 sec
 * total energy  :   -36.0444769 Eh     change       -0.9003978E-05 Eh
   gradient norm :     0.0014480 Eh/α   predicted    -0.6971724E-05 ( -22.57%)
   displ. norm   :     0.0646828 α      lambda       -0.1139953E-04
   maximum displ.:     0.0389495 α      in ANC's #3, #2, #5, ...

........................................................................
.............................. CYCLE   19 ..............................
........................................................................
   1    -36.7607201 -0.367607E+02  0.311E-02    3.15       0.0  T
   2    -36.7607201 -0.360185E-07  0.183E-02    3.15       1.1  T
   3    -36.7607200  0.139927E-06  0.220E-03    3.15       8.9  T
   4    -36.7607201 -0.166051E-06  0.292E-04    3.15      67.3  T
   5    -36.7607201 -0.297277E-09  0.190E-04    3.15     103.4  T
     SCC iter.                  ...        0 min,  1.323 sec
     gradient                   ...        0 min,  0.628 sec
 * total energy  :   -36.0444891 Eh     change       -0.1219285E-04 Eh
   gradient norm :     0.0017442 Eh/α   predicted    -0.5714251E-05 ( -53.13%)
   displ. norm   :     0.0762083 α      lambda       -0.1155943E-04
   maximum displ.:     0.0504881 α      in ANC's #3, #2, #5, ...

........................................................................
.............................. CYCLE   20 ..............................
........................................................................
   1    -36.7604574 -0.367605E+02  0.350E-02    3.16       0.0  T
   2    -36.7604575 -0.437548E-07  0.206E-02    3.16       1.0  T
   3    -36.7604574  0.346189E-07  0.152E-03    3.16      12.9  T
   4    -36.7604575 -0.552694E-07  0.349E-04    3.16      56.1  T
   5    -36.7604575 -0.138364E-09  0.172E-04    3.16     114.1  T
     SCC iter.                  ...        0 min,  1.366 sec
     gradient                   ...        0 min,  0.808 sec
 * total energy  :   -36.0445004 Eh     change       -0.1125742E-04 Eh
   gradient norm :     0.0016148 Eh/α   predicted    -0.5796838E-05 ( -48.51%)
   displ. norm   :     0.1176280 α      lambda       -0.1558800E-04
   maximum displ.:     0.0779208 α      in ANC's #3, #2, #5, ...
 * RMSD in coord.:     0.9814219 α      energy gain  -0.9644587E-01 Eh

generating ANC from model Hessian ...
Using Lindh-Hessian (1995)
 Shifting diagonal of input Hessian by    9.1164683143234188E-003
 Lowest  eigenvalues of input Hessian
    0.000000    0.000000    0.000000    0.000000    0.000000    0.000000
    0.010000    0.010219    0.010342    0.014508    0.015471    0.021212
    0.021928    0.024774    0.024946    0.029552    0.031358    0.032496
 Highest eigenvalues
    1.897656    1.927384    2.000831    2.004535    2.045409    2.098280


........................................................................
.............................. CYCLE   21 ..............................
........................................................................
   1    -36.7603148 -0.367603E+02  0.516E-02    3.18       0.0  T
   2    -36.7603149 -0.825159E-07  0.303E-02    3.18       1.0  T
   3    -36.7603148  0.841125E-07  0.244E-03    3.18       8.0  T
   4    -36.7603149 -0.127452E-06  0.508E-04    3.18      38.6  T
   5    -36.7603149  0.178638E-09  0.235E-04    3.18      83.3  T
     SCC iter.                  ...        0 min,  1.905 sec
     gradient                   ...        0 min,  0.647 sec
 * total energy  :   -36.0445132 Eh     change       -0.1276597E-04 Eh
   gradient norm :     0.0017739 Eh/α   predicted     0.0000000E+00 (-100.00%)
   displ. norm   :     0.0367277 α      lambda       -0.3265865E-05
   maximum displ.:     0.0265952 α      in ANC's #1, #2, #5, ...

........................................................................
.............................. CYCLE   22 ..............................
........................................................................
   1    -36.7607553 -0.367608E+02  0.161E-02    3.17       0.0  T
   2    -36.7607554 -0.218427E-07  0.963E-03    3.17       2.0  T
   3    -36.7607553  0.801072E-07  0.171E-03    3.17      11.5  T
   4    -36.7607554 -0.953788E-07  0.277E-04    3.17      70.8  T
   5    -36.7607554  0.140965E-09  0.128E-04    3.17     152.8  T
     SCC iter.                  ...        0 min,  1.675 sec
     gradient                   ...        0 min,  0.467 sec
 * total energy  :   -36.0445253 Eh     change       -0.1213005E-04 Eh
   gradient norm :     0.0005805 Eh/α   predicted    -0.6665415E-05 ( -45.05%)
   displ. norm   :     0.0421941 α      lambda       -0.6406322E-05
   maximum displ.:     0.0319966 α      in ANC's #1, #2, #5, ...

........................................................................
.............................. CYCLE   23 ..............................
........................................................................
   1    -36.7608176 -0.367608E+02  0.965E-03    3.17       0.0  T
   2    -36.7608176 -0.102910E-07  0.570E-03    3.17       3.4  T
   3    -36.7608176  0.621625E-07  0.149E-03    3.17      13.1  T
   4    -36.7608176 -0.714144E-07  0.191E-04    3.17     102.4  T
   5    -36.7608176 -0.219124E-09  0.115E-04    3.17     170.1  T
     SCC iter.                  ...        0 min,  1.455 sec
     gradient                   ...        0 min,  0.566 sec
 * total energy  :   -36.0445330 Eh     change       -0.7729248E-05 Eh
   gradient norm :     0.0007860 Eh/α   predicted    -0.3205856E-05 ( -58.52%)
   displ. norm   :     0.0509328 α      lambda       -0.6066088E-05
   maximum displ.:     0.0383913 α      in ANC's #1, #2, #5, ...

........................................................................
.............................. CYCLE   24 ..............................
........................................................................
   1    -36.7606860 -0.367607E+02  0.112E-02    3.16       0.0  T
   2    -36.7606860 -0.124813E-07  0.661E-03    3.16       3.0  T
   3    -36.7606859  0.599921E-07  0.140E-03    3.16      14.0  T
   4    -36.7606860 -0.701282E-07  0.156E-04    3.16     125.6  T
   5    -36.7606860  0.309157E-10  0.912E-05    3.16     215.0  T
     SCC iter.                  ...        0 min,  1.440 sec
     gradient                   ...        0 min,  0.514 sec
 * total energy  :   -36.0445407 Eh     change       -0.7633450E-05 Eh
   gradient norm :     0.0006135 Eh/α   predicted    -0.3044047E-05 ( -60.12%)
   displ. norm   :     0.0553033 α      lambda       -0.5318928E-05
   maximum displ.:     0.0428286 α      in ANC's #1, #2, #7, ...

........................................................................
.............................. CYCLE   25 ..............................
........................................................................
   1    -36.7606397 -0.367606E+02  0.136E-02    3.16       0.0  T
   2    -36.7606397 -0.121090E-07  0.797E-03    3.16       2.5  T
   3    -36.7606397  0.482379E-07  0.126E-03    3.16      15.6  T
   4    -36.7606397 -0.571394E-07  0.143E-04    3.16     137.5  T
   5    -36.7606397  0.296296E-11  0.867E-05    3.16     226.2  T
     SCC iter.                  ...        0 min,  1.879 sec
     gradient                   ...        0 min,  0.606 sec
 * total energy  :   -36.0445475 Eh     change       -0.6828811E-05 Eh
   gradient norm :     0.0003975 Eh/α   predicted    -0.2664667E-05 ( -60.98%)
   displ. norm   :     0.0568160 α      lambda       -0.4677019E-05
   maximum displ.:     0.0441972 α      in ANC's #1, #2, #5, ...

........................................................................
.............................. CYCLE   26 ..............................
........................................................................
   1    -36.7606460 -0.367606E+02  0.151E-02    3.17       0.0  T
   2    -36.7606460 -0.139105E-07  0.888E-03    3.17       2.2  T
   3    -36.7606459  0.513693E-07  0.127E-03    3.17      15.4  T
   4    -36.7606460 -0.614940E-07  0.164E-04    3.17     119.2  T
   5    -36.7606460  0.440536E-11  0.950E-05    3.17     206.5  T
     SCC iter.                  ...        0 min,  1.187 sec
     gradient                   ...        0 min,  0.580 sec
 * total energy  :   -36.0445536 Eh     change       -0.6107401E-05 Eh
   gradient norm :     0.0003486 Eh/α   predicted    -0.2342758E-05 ( -61.64%)
   displ. norm   :     0.0536729 α      lambda       -0.4036230E-05
   maximum displ.:     0.0426947 α      in ANC's #1, #2, #5, ...

........................................................................
.............................. CYCLE   27 ..............................
........................................................................
   1    -36.7606860 -0.367607E+02  0.163E-02    3.17       0.0  T
   2    -36.7606860 -0.118279E-07  0.958E-03    3.17       2.0  T
   3    -36.7606860  0.355758E-07  0.109E-03    3.17      18.0  T
   4    -36.7606861 -0.438254E-07  0.144E-04    3.17     135.9  T
   5    -36.7606861  0.147509E-10  0.888E-05    3.17     220.9  T
     SCC iter.                  ...        0 min,  1.160 sec
     gradient                   ...        0 min,  0.535 sec
 * total energy  :   -36.0445589 Eh     change       -0.5286713E-05 Eh
   gradient norm :     0.0003155 Eh/α   predicted    -0.2021711E-05 ( -61.76%)
   displ. norm   :     0.0453092 α      lambda       -0.3121096E-05
   maximum displ.:     0.0375354 α      in ANC's #1, #2, #5, ...

........................................................................
.............................. CYCLE   28 ..............................
........................................................................
   1    -36.7607643 -0.367608E+02  0.150E-02    3.17       0.0  T
   2    -36.7607643 -0.990689E-08  0.881E-03    3.17       2.2  T
   3    -36.7607643  0.291808E-07  0.101E-03    3.17      19.4  T
   4    -36.7607643 -0.361484E-07  0.139E-04    3.17     141.3  T
   5    -36.7607643  0.827072E-11  0.690E-05    3.17     284.4  T
     SCC iter.                  ...        0 min,  1.196 sec
     gradient                   ...        0 min,  0.528 sec
 * total energy  :   -36.0445630 Eh     change       -0.4078933E-05 Eh
   gradient norm :     0.0002384 Eh/α   predicted    -0.1562393E-05 ( -61.70%)
   displ. norm   :     0.0329960 α      lambda       -0.2094777E-05
   maximum displ.:     0.0293286 α      in ANC's #1, #5, #2, ...

   *** GEOMETRY OPTIMIZATION CONVERGED AFTER 28 ITERATIONS ***

------------------------------------------------------------------------
 total energy gain   :        -0.0965084 Eh      -60.5600 kcal/mol
 total RMSD          :         0.9553717 a0        0.5056 Å
 total power (kW/mol):        -9.0493878 (step)   -4.3214 (real)
------------------------------------------------------------------------

 ANCopt (total)                0 d,  0 h,  0 min, 58.635 sec
 optimizer setup                ...        0 min,  0.000 sec (  0.001%)
 model hessian                  ...        0 min,  0.100 sec (  0.170%)
 ANC generation                 ...        0 min,  0.119 sec (  0.203%)
 coordinate transformation      ...        0 min,  0.000 sec (  0.001%)
 single point calculation       ...        0 min, 57.107 sec ( 97.394%)
 optimization log               ...        0 min,  0.002 sec (  0.004%)
 hessian update                 ...        0 min,  1.239 sec (  2.113%)
 rational function              ...        0 min,  0.066 sec (  0.112%)

================
 final structure:
================
26
 xtb: 6.5.1 (b24c23e)
C           -1.99448854097210        0.22111242746347       -0.09383537647935
C            0.17390383526089       -2.01695164660454        0.10983773144454
C           -0.54556685857018        0.38618259266870        0.00223758077799
C            0.38405196611827       -0.57245453790704        0.03691724864941
C           -2.57421845405874       -0.76476934142787       -0.89206118438298
C           -0.83965619091273       -2.57749797917651        0.88679118285948
C           -2.83107025691385        1.10770122049032        0.58357838857837
C            1.04369330147357       -2.87049521039199       -0.56812630047148
C           -3.94804167432374       -0.87607347731417       -0.98319338801422
C           -0.99368291620692       -3.94845044205711        0.95666045066759
C           -4.20538433019991        0.98833818881684        0.49813510249598
C            0.88160849567421       -4.24160308675228       -0.50418031270102
C           -4.76898287432203       -0.00610481543623       -0.28342499078423
C           -0.13975448343145       -4.78556906414643        0.25629366527875
H           -0.21528319155621        1.41823680080217        0.03562092851369
H            1.42598275671762       -0.27331485116153        0.02272165565397
H           -1.93936993947726       -1.43669094386769       -1.45017202189222
H           -1.49949563283419       -1.93037962406185        1.44521338067205
H           -2.39421617103242        1.88650475134206        1.19317366169608
H            1.84338463620063       -2.44900501421214       -1.16143238937334
H           -4.38257424685651       -1.64390118051432       -1.60687834154241
H           -1.78284096781336       -4.36810088239868        1.56352320399630
H           -4.83943339285387        1.67698612032305        1.03791613416131
H            1.55788160028741       -4.88865162596433       -1.04425241640306
H           -5.84288807950118       -0.09772712296439       -0.35383357722674
H           -0.26480685989603       -5.85706643554724        0.30982802382578

 Bond Distances (Angstroems)
 ---------------------------
C1-C3=1.4615         C1-C5=1.3947         C1-C7=1.3946         C2-C4=1.4615         C2-C6=1.3947         C2-C8=1.3945         
C3-C1=1.4615         C3-C4=1.3358         C3-H15=1.0841        C4-C2=1.4615         C4-C3=1.3358         C4-H16=1.0841        
C5-C1=1.3947         C5-C9=1.3813         C5-H17=1.0798        C6-C2=1.3947         C6-C10=1.3813        C6-H18=1.0798        
C7-C1=1.3946         C7-C11=1.3821        C7-H19=1.0812        C8-C2=1.3945         C8-C12=1.3821        C8-H20=1.0813        
C9-C5=1.3813         C9-C13=1.3858        C9-H21=1.0804        C10-C6=1.3813        C10-C14=1.3858       C10-H22=1.0804       
C11-C7=1.3821        C11-C13=1.3847       C11-H23=1.0806       C12-C8=1.3821        C12-C14=1.3847       C12-H24=1.0806       
C13-C9=1.3858        C13-C11=1.3847       C13-H25=1.0801       C14-C10=1.3858       C14-C12=1.3847       C14-H26=1.0801       
H15-C3=1.0841        H16-C4=1.0841        H17-C5=1.0798        H18-C6=1.0798        H19-C7=1.0812        H20-C8=1.0813        
H21-C9=1.0804        H22-C10=1.0804       H23-C11=1.0806       H24-C12=1.0806       H25-C13=1.0801       H26-C14=1.0801       
 C  H  Rav=1.0810 sigma=0.0014  Rmin=1.0798  Rmax=1.0841    12
 C  C  Rav=1.3937 sigma=0.0299  Rmin=1.3358  Rmax=1.4615    15

 selected bond angles (degree)
 --------------------
C5-C1-C3=121.98                C7-C1-C3=119.41                C7-C1-C5=118.56                C6-C2-C4=121.97                
C8-C2-C4=119.41                C8-C2-C6=118.56                C4-C3-C1=127.63                H15-C3-C1=114.30               
H15-C3-C4=118.06               C3-C4-C2=127.63                H16-C4-C2=114.30               H16-C4-C3=118.07               
C9-C5-C1=120.54                H17-C5-C1=119.43               H17-C5-C9=120.03               C10-C6-C2=120.54               
H18-C6-C2=119.43               H18-C6-C10=120.03              C11-C7-C1=120.77               H19-C7-C1=119.30               
H19-C7-C11=119.92              C12-C8-C2=120.77               H20-C8-C2=119.30               H20-C8-C12=119.92              
C13-C9-C5=120.35               H21-C9-C5=119.69               H21-C9-C13=119.96              C14-C10-C6=120.35              
H22-C10-C6=119.69              H22-C10-C14=119.96             

 selected dihedral angles (degree)
 ---------------------------------
C4-C3-C1-C5=321.61            C4-C3-C1-C7=144.45            H15-C3-C1-C5=140.81           H15-C3-C1-C7=323.66           
C3-C4-C2-C6=321.55            C3-C4-C2-C8=144.39            H16-C4-C2-C6=140.75           H16-C4-C2-C8=323.59           
C2-C4-C3-C1=353.92            C2-C4-C3-H15=174.74           H16-C4-C3-C1=174.74           H16-C4-C3-H15=355.56          
C9-C5-C1-C3=181.39            C9-C5-C1-C7=358.57            H17-C5-C1-C3=  0.68           H17-C5-C1-C7=177.86           
C10-C6-C2-C4=181.39           C10-C6-C2-C8=358.57           H18-C6-C2-C4=  0.69           H18-C6-C2-C8=177.87           
C11-C7-C1-C3=179.15           C11-C7-C1-C5=  1.89           H19-C7-C1-C3=358.22           H19-C7-C1-C5=180.97           
C12-C8-C2-C4=179.15           C12-C8-C2-C6=  1.89           H20-C8-C2-C4=358.21           H20-C8-C2-C6=180.96           
C13-C9-C5-C1=  0.13           C13-C9-C5-H17=180.84          H21-C9-C5-C1=179.90           H21-C9-C5-H17=  0.61          
C14-C10-C6-C2=  0.12          C14-C10-C6-H18=180.83         H22-C10-C6-C2=179.94          H22-C10-C6-H18=  0.64         
           -------------------------------------------------
          |                Final Singlepoint                |
           -------------------------------------------------

          ...................................................
          :                      SETUP                      :
          :.................................................:
          :  # basis functions                  68          :
          :  # atomic orbitals                  68          :
          :  # shells                           40          :
          :  # electrons                        68          :
          :  max. iterations                   250          :
          :  Hamiltonian                  GFN2-xTB          :
          :  restarted?                      false          :
          :  GBSA solvation                  false          :
          :  PC potential                    false          :
          :  electronic temp.          300.0000000     K    :
          :  accuracy                    1.0000000          :
          :  -> integral cutoff          0.2500000E+02      :
          :  -> integral neglect         0.1000000E-07      :
          :  -> SCF convergence          0.1000000E-05 Eh   :
          :  -> wf. convergence          0.1000000E-03 e    :
          :  Broyden damping             0.4000000          :
          ...................................................

 iter      E             dE          RMSdq      gap      omega  full diag
   1    -36.7607643 -0.367608E+02  0.259E-05    3.17       0.0  T
   2    -36.7607643 -0.135714E-11  0.220E-05    3.17     890.5  T
   3    -36.7607643 -0.979838E-11  0.730E-06    3.17    2685.9  T

   *** convergence criteria satisfied after 3 iterations ***

         #    Occupation            Energy/Eh            Energy/eV
      -------------------------------------------------------------
         1        2.0000           -0.6436890             -17.5157
       ...           ...                  ...                  ...
        28        2.0000           -0.4214249             -11.4676
        29        2.0000           -0.4207026             -11.4479
        30        2.0000           -0.4129871             -11.2380
        31        2.0000           -0.4039823             -10.9929
        32        2.0000           -0.4001042             -10.8874
        33        2.0000           -0.3995908             -10.8734
        34        2.0000           -0.3727437             -10.1429 (HOMO)
        35                         -0.2560746              -6.9681 (LUMO)
        36                         -0.2222073              -6.0466
        37                         -0.2167112              -5.8970
        38                         -0.2133500              -5.8055
        39                         -0.1691350              -4.6024
       ...                                ...                  ...
        68                          0.6940623              18.8864
      -------------------------------------------------------------
                  HL-Gap            0.1166691 Eh            3.1747 eV
             Fermi-level           -0.3144092 Eh           -8.5555 eV

 SCC (total)                   0 d,  0 h,  0 min,  1.472 sec
 SCC setup                      ...        0 min,  0.028 sec (  1.895%)
 Dispersion                     ...        0 min,  0.035 sec (  2.380%)
 classical contributions        ...        0 min,  0.035 sec (  2.394%)
 integral evaluation            ...        0 min,  0.001 sec (  0.087%)
 iterations                     ...        0 min,  0.682 sec ( 46.333%)
 molecular gradient             ...        0 min,  0.690 sec ( 46.856%)
 printout                       ...        0 min,  0.001 sec (  0.053%)

         :::::::::::::::::::::::::::::::::::::::::::::::::::::
         ::                     SUMMARY                     ::
         :::::::::::::::::::::::::::::::::::::::::::::::::::::
         :: total energy             -36.044562959602 Eh    ::
         :: gradient norm              0.000238442726 Eh/a0 ::
         :: HOMO-LUMO gap              3.174726632576 eV    ::
         ::.................................................::
         :: SCC energy               -36.760764321534 Eh    ::
         :: -> isotropic ES            0.001618479909 Eh    ::
         :: -> anisotropic ES          0.004640152846 Eh    ::
         :: -> anisotropic XC          0.026021764752 Eh    ::
         :: -> dispersion             -0.026411423318 Eh    ::
         :: repulsion energy           0.716020244276 Eh    ::
         :: add. restraining           0.000000000000 Eh    ::
         :: total charge               0.000000000000 e     ::
         :::::::::::::::::::::::::::::::::::::::::::::::::::::

           -------------------------------------------------
          |                Property Printout                |
           -------------------------------------------------

    * Orbital Energies and Occupations

         #    Occupation            Energy/Eh            Energy/eV
      -------------------------------------------------------------
         1        2.0000           -0.6436890             -17.5157
       ...           ...                  ...                  ...
        22        2.0000           -0.4738532             -12.8942
        23        2.0000           -0.4714316             -12.8283
        24        2.0000           -0.4642772             -12.6336
        25        2.0000           -0.4523644             -12.3095
        26        2.0000           -0.4330116             -11.7828
        27        2.0000           -0.4253771             -11.5751
        28        2.0000           -0.4214249             -11.4676
        29        2.0000           -0.4207026             -11.4479
        30        2.0000           -0.4129871             -11.2380
        31        2.0000           -0.4039823             -10.9929
        32        2.0000           -0.4001042             -10.8874
        33        2.0000           -0.3995908             -10.8734
        34        2.0000           -0.3727437             -10.1429 (HOMO)
        35                         -0.2560746              -6.9681 (LUMO)
        36                         -0.2222073              -6.0466
        37                         -0.2167112              -5.8970
        38                         -0.2133500              -5.8055
        39                         -0.1691350              -4.6024
        40                         -0.0865490              -2.3551
        41                         -0.0779882              -2.1222
        42                          0.1052676               2.8645
        43                          0.1060574               2.8860
        44                          0.1292309               3.5166
        45                          0.1326568               3.6098
       ...                                ...                  ...
        68                          0.6940623              18.8864
      -------------------------------------------------------------
                  HL-Gap            0.1166691 Eh            3.1747 eV
             Fermi-level           -0.3144092 Eh           -8.5555 eV

     #   Z          covCN         q      C6AA      α(0)
     1   6 C        2.971     0.018    27.602     8.618
     2   6 C        2.971     0.018    27.602     8.618
     3   6 C        2.899    -0.038    28.955     8.823
     4   6 C        2.899    -0.038    28.956     8.823
     5   6 C        2.924    -0.031    28.774     8.797
     6   6 C        2.924    -0.031    28.774     8.797
     7   6 C        2.927    -0.036    28.892     8.815
     8   6 C        2.927    -0.036    28.891     8.815
     9   6 C        2.918    -0.030    28.741     8.791
    10   6 C        2.918    -0.030    28.741     8.791
    11   6 C        2.918    -0.030    28.753     8.793
    12   6 C        2.918    -0.030    28.753     8.793
    13   6 C        2.920    -0.031    28.785     8.798
    14   6 C        2.920    -0.031    28.785     8.798
    15   1 H        0.925     0.034     2.535     2.490
    16   1 H        0.925     0.034     2.535     2.490
    17   1 H        0.926     0.031     2.565     2.505
    18   1 H        0.926     0.031     2.565     2.505
    19   1 H        0.926     0.028     2.613     2.528
    20   1 H        0.925     0.028     2.613     2.528
    21   1 H        0.926     0.029     2.607     2.525
    22   1 H        0.926     0.029     2.607     2.525
    23   1 H        0.926     0.028     2.610     2.526
    24   1 H        0.926     0.028     2.610     2.526
    25   1 H        0.926     0.028     2.610     2.526
    26   1 H        0.926     0.028     2.610     2.526

 Mol. C6AA /au·bohr⁶  :       8876.679206
 Mol. C8AA /au·bohr⁸  :     220904.427228
 Mol. α(0) /au        :        153.068876


Wiberg/Mayer (AO) data.
largest (>0.10) Wiberg bond orders for each atom

 ---------------------------------------------------------------------------
     #   Z sym  total        # sym  WBO       # sym  WBO       # sym  WBO
 ---------------------------------------------------------------------------
     1   6 C    3.990 --     7 C    1.382     5 C    1.377     3 C    1.075
                            13 C    0.104
     2   6 C    3.990 --     8 C    1.382     6 C    1.377     4 C    1.075
                            14 C    0.104
     3   6 C    3.991 --     4 C    1.821     1 C    1.075    15 H    0.960
     4   6 C    3.991 --     3 C    1.821     2 C    1.075    16 H    0.960
     5   6 C    3.992 --     9 C    1.458     1 C    1.377    17 H    0.969
                            11 C    0.107
     6   6 C    3.992 --    10 C    1.458     2 C    1.377    18 H    0.969
                            12 C    0.107
     7   6 C    3.987 --    11 C    1.453     1 C    1.382    19 H    0.970
                             9 C    0.106
     8   6 C    3.987 --    12 C    1.452     2 C    1.382    20 H    0.970
                            10 C    0.106
     9   6 C    3.992 --     5 C    1.458    13 C    1.429    21 H    0.971
                             7 C    0.106
    10   6 C    3.992 --     6 C    1.458    14 C    1.429    22 H    0.971
                             8 C    0.106
    11   6 C    3.992 --     7 C    1.453    13 C    1.435    23 H    0.971
                             5 C    0.107
    12   6 C    3.992 --     8 C    1.452    14 C    1.435    24 H    0.971
                             6 C    0.107
    13   6 C    3.989 --    11 C    1.435     9 C    1.429    25 H    0.972
                             1 C    0.104
    14   6 C    3.989 --    12 C    1.435    10 C    1.429    26 H    0.972
                             2 C    0.104
    15   1 H    0.998 --     3 C    0.960
    16   1 H    0.998 --     4 C    0.960
    17   1 H    0.999 --     5 C    0.969
    18   1 H    0.999 --     6 C    0.969
    19   1 H    0.999 --     7 C    0.970
    20   1 H    0.999 --     8 C    0.970
    21   1 H    0.999 --     9 C    0.971
    22   1 H    0.999 --    10 C    0.971
    23   1 H    0.999 --    11 C    0.971
    24   1 H    0.999 --    12 C    0.971
    25   1 H    0.999 --    13 C    0.972
    26   1 H    0.999 --    14 C    0.972
 ---------------------------------------------------------------------------

Topologies differ in total number of bonds
Writing topology from bond orders to xtbtopo.mol

molecular dipole:
                 x           y           z       tot (Debye)
 q only:        0.036       0.035       0.001
   full:        0.044       0.042       0.001       0.154
molecular quadrupole (traceless):
                xx          xy          yy          xz          yz          zz
 q only:        0.587       0.185       0.552      -0.785       0.840      -1.139
  q+dip:        2.854       0.130       2.742      -3.643       3.882      -5.596
   full:        1.316       0.219       1.250      -1.762       1.880      -2.566

           -------------------------------------------------
          |                Geometry Summary                 |
           -------------------------------------------------

      molecular mass/u    :      180.2455916
   center of mass at/Å    :       -1.4590587      -1.4302688       0.0003272
  moments of inertia/u·Å² :        0.3310739E+03   0.1162211E+04   0.1349390E+04
rotational constants/cm⁻¹ :        0.5091803E-01   0.1450479E-01   0.1249278E-01

 * 25 selected distances

     #   Z          #   Z                                           value/Å
     3   6 C        4   6 C                                       1.3358066
     1   6 C        5   6 C                                       1.3947094 (max)
     2   6 C        6   6 C                                       1.3946946
     1   6 C        7   6 C                                       1.3945603
     2   6 C        8   6 C                                       1.3945271
     5   6 C        9   6 C                                       1.3813342
     6   6 C       10   6 C                                       1.3813461
     7   6 C       11   6 C                                       1.3821315
     8   6 C       12   6 C                                       1.3821352
     9   6 C       13   6 C                                       1.3858088
    11   6 C       13   6 C                                       1.3847010
    10   6 C       14   6 C                                       1.3858122
    12   6 C       14   6 C                                       1.3847030
     3   6 C       15   1 H                                       1.0841300
     4   6 C       16   1 H                                       1.0841153
     5   6 C       17   1 H                                       1.0798144
     6   6 C       18   1 H                                       1.0798082 (min)
     7   6 C       19   1 H                                       1.0811952
     8   6 C       20   1 H                                       1.0812828
     9   6 C       21   1 H                                       1.0804449
    10   6 C       22   1 H                                       1.0803516
    11   6 C       23   1 H                                       1.0805637
    12   6 C       24   1 H                                       1.0805995
    13   6 C       25   1 H                                       1.0801040
    14   6 C       26   1 H                                       1.0800976

 * 2 distinct bonds (by element types)

   Z      Z             #   av. dist./Å        max./Å        min./Å
   1 H    6 C          12     1.0810423     1.0841300     1.0798082
   6 C    6 C          13     1.3832515     1.3947094     1.3358066


optimized geometry written to: xtbopt.xyz


           -------------------------------------------------
          | TOTAL ENERGY              -36.044562959602 Eh   |
          | GRADIENT NORM               0.000238442726 Eh/α |
          | HOMO-LUMO GAP               3.174726632576 eV   |
           -------------------------------------------------

------------------------------------------------------------------------
 * finished run on 2026/07/30 at 13:24:43.584     
------------------------------------------------------------------------
 total:
 * wall-time:     0 d,  0 h,  1 min,  2.547 sec
 *  cpu-time:     0 d,  0 h,  0 min, 52.481 sec
 * ratio c/w:     0.839 speedup
 SCF:
 * wall-time:     0 d,  0 h,  0 min,  2.083 sec
 *  cpu-time:     0 d,  0 h,  0 min,  2.677 sec
 * ratio c/w:     1.285 speedup
 ANC optimizer:
 * wall-time:     0 d,  0 h,  1 min,  0.120 sec
 *  cpu-time:     0 d,  0 h,  0 min, 49.544 sec
 * ratio c/w:     0.824 speedup

