26
 energy: -36.044562959602 gnorm: 0.000238442726 xtb: 6.5.1 (b24c23e)
C           -1.99448854097210        0.22111242746347       -0.09383537647935
C            0.17390383526089       -2.01695164660454        0.10983773144454
C           -0.54556685857018        0.38618259266870        0.00223758077799
C            0.38405196611827       -0.57245453790704        0.03691724864941
C           -2.57421845405874       -0.76476934142787       -0.89206118438298
C           -0.83965619091273       -2.57749797917651        0.88679118285948
C           -2.83107025691385        1.10770122049032        0.58357838857837
C            1.04369330147357       -2.87049521039199       -0.56812630047148
C           -3.94804167432374       -0.87607347731417       -0.98319338801422
C           -0.99368291620692       -3.94845044205711        0.95666045066759
C           -4.20538433019991        0.98833818881684        0.49813510249598
C            0.88160849567421       -4.24160308675228       -0.50418031270102
C           -4.76898287432203       -0.00610481543623       -0.28342499078423
C           -0.13975448343145       -4.78556906414643        0.25629366527875
H           -0.21528319155621        1.41823680080217        0.03562092851369
H            1.42598275671762       -0.27331485116153        0.02272165565397
H           -1.93936993947726       -1.43669094386769       -1.45017202189222
H           -1.49949563283419       -1.93037962406185        1.44521338067205
H           -2.39421617103242        1.88650475134206        1.19317366169608
H            1.84338463620063       -2.44900501421214       -1.16143238937334
H           -4.38257424685651       -1.64390118051432       -1.60687834154241
H           -1.78284096781336       -4.36810088239868        1.56352320399630
H           -4.83943339285387        1.67698612032305        1.03791613416131
H            1.55788160028741       -4.88865162596433       -1.04425241640306
H           -5.84288807950118       -0.09772712296439       -0.35383357722674
H           -0.26480685989603       -5.85706643554724        0.30982802382578
