31
Idealized product: [Cp2Zr(CH2CH2CH3)]+ after 1,2-insertion of ethylene into the Zr-CH3 bond
Zr     0.000000     0.000000     0.000000
C     -1.764206    -1.117854     1.489658
H     -2.049368    -2.132376     1.253381
C     -2.365737     0.042641     0.991246
H     -3.196826     0.081341     0.302630
C     -1.701751     1.144207     1.541407
H     -1.930230     2.182648     1.352095
C     -0.689853     0.664518     2.379836
H      0.000028     1.267609     2.951452
C     -0.728453    -0.733513     2.347853
H     -0.073603    -1.399222     2.890443
C     -1.676703    -1.153006    -1.562161
H     -1.882449    -2.199431    -1.391685
C     -0.675670    -0.636300    -2.391588
H      0.027084    -1.213782    -2.973870
C     -0.744735     0.759751    -2.334363
H     -0.104662     1.449273    -2.864708
C     -1.788453     1.105852    -1.469568
H     -2.095620     2.109482    -1.215058
C     -2.364440    -0.076297    -0.992321
H     -3.194353    -0.145542    -0.304679
C      2.200000     0.400000     0.600000
C      3.050000     1.350000    -0.250000
C      3.300000     2.450000    -1.300000
H      2.722988    -0.549142     0.717103
H      2.241093     0.711198     1.643823
H      4.032836     0.883423    -0.183370
H      3.989251     1.357626     0.303036
H      4.270433     2.289988    -1.769847
H      2.518345     2.412418    -2.058751
H      3.288044     3.425608    -0.814052
