31
Idealized reactant: [Cp2Zr(CH3)(eta2-C2H4)]+ ; Cp = unsubstituted cyclopentadienyl
Zr     0.000000     0.000000     0.000000
C     -1.764206    -1.117854     1.489658
H     -2.049368    -2.132376     1.253381
C     -2.365737     0.042641     0.991246
H     -3.196826     0.081341     0.302630
C     -1.701751     1.144207     1.541407
H     -1.930230     2.182648     1.352095
C     -0.689853     0.664518     2.379836
H      0.000028     1.267609     2.951452
C     -0.728453    -0.733513     2.347853
H     -0.073603    -1.399222     2.890443
C     -1.676703    -1.153006    -1.562161
H     -1.882449    -2.199431    -1.391685
C     -0.675670    -0.636300    -2.391588
H      0.027084    -1.213782    -2.973870
C     -0.744735     0.759751    -2.334363
H     -0.104662     1.449273    -2.864708
C     -1.788453     1.105852    -1.469568
H     -2.095620     2.109482    -1.215058
C     -2.364440    -0.076297    -0.992321
H     -3.194353    -0.145542    -0.304679
C      1.300000    -1.750000    -0.450000
C      2.300000     0.700000     0.670000
C      2.300000     0.700000    -0.670000
H      0.678995    -2.628750    -0.623927
H      1.893360    -1.542398    -1.340464
H      1.964218    -1.935776     0.394039
H      1.396931     0.425153     1.215000
H      3.203069     0.974847     1.215000
H      3.203069     0.974847    -1.215000
H      1.396931     0.425153    -1.215000
