31
Idealized TS-like geometry for ethylene insertion into Zr-CH3; partial bonds implied by distances, not a computed TS
Zr     0.000000     0.000000     0.000000
C     -1.764206    -1.117854     1.489658
H     -2.049368    -2.132376     1.253381
C     -2.365737     0.042641     0.991246
H     -3.196826     0.081341     0.302630
C     -1.701751     1.144207     1.541407
H     -1.930230     2.182648     1.352095
C     -0.689853     0.664518     2.379836
H      0.000028     1.267609     2.951452
C     -0.728453    -0.733513     2.347853
H     -0.073603    -1.399222     2.890443
C     -1.676703    -1.153006    -1.562161
H     -1.882449    -2.199431    -1.391685
C     -0.675670    -0.636300    -2.391588
H      0.027084    -1.213782    -2.973870
C     -0.744735     0.759751    -2.334363
H     -0.104662     1.449273    -2.864708
C     -1.788453     1.105852    -1.469568
H     -2.095620     2.109482    -1.215058
C     -2.364440    -0.076297    -0.992321
H     -3.194353    -0.145542    -0.304679
C      2.150000     0.450000     0.550000
C      3.080000     1.220000    -0.040000
C      2.380000    -0.520000    -0.580000
H      2.620600    -0.451017     0.943452
H      2.236669     0.540851     1.632744
H      4.036503     1.085954     0.465206
H      2.589746     2.003919    -0.617254
H      1.616181    -1.225927    -0.906108
H      3.000942    -0.238044    -1.430313
H      3.001411    -0.984928     0.185370
