31
 energy: -37.687421435234 gnorm: 0.000602449386 xtb: 6.5.1 (b24c23e)
Zr          -0.52929599452190       -0.65511778959920        0.16991974888198
C           -1.70264932803204       -2.43580559189749       -0.26644097856710
C            1.76308145325013        0.06232439525734        0.75235949833431
C            1.79655411627210       -0.48436695113133       -0.55308882794494
C            1.46517392160725       -1.86294303476237       -0.45922026815920
C            1.22291087247748       -2.15972972618068        0.91019856980485
C            1.38314454560473       -0.96257354362017        1.65535376183848
H            2.10655462204010        1.05209589991925        1.03016774141459
H            2.18136757311352        0.01325310242542       -1.43778195214440
H            1.56548454697018       -2.59443780774145       -1.25436168377512
H            1.09115572825935       -3.15266388212453        1.32549172418284
H            1.41354034241498       -0.89313268306056        2.73906590369342
C           -0.72202943750481        1.72072829127685       -0.41465535882036
C           -0.99988293573143        1.61868433304958        0.97143425621003
C           -2.18309863430813        0.85247670527749        1.12877244970323
C           -2.64080201972186        0.48655664654292       -0.16465993827325
C           -1.72066450454761        1.00287640730537       -1.12061570954205
H            0.03805030223709        2.35195380535818       -0.86257573358475
H           -0.50164706757375        2.17501283659356        1.75864591210001
H           -2.74056243944386        0.73374572758814        2.05310103653866
H           -3.60211084807786        0.04311575266146       -0.39517023623826
H           -1.87577648207874        1.01969060330431       -2.19551278245211
H           -1.11058942028711       -3.33423029445320       -0.51330785900040
H           -2.54967289404270       -2.41063176085541       -0.96992889453809
C           -2.25162151036807       -2.60063559458696        1.17888780572785
H           -1.52153211743520       -2.20183026036804        1.94001820703875
H           -3.19407308354398       -2.04449519355217        1.28972172231136
C           -2.52614820966368       -4.06972376160115        1.52601895430877
H           -1.61010759423052       -4.65529095334861        1.47114391591899
H           -2.93462864671185       -4.16463132787693        2.52894520867826
H           -3.24393178641105       -4.48655816979786        0.82361467634706
