      -----------------------------------------------------------      
     |                   =====================                   |     
     |                           x T B                           |     
     |                   =====================                   |     
     |                         S. Grimme                         |     
     |          Mulliken Center for Theoretical Chemistry        |     
     |                    University of Bonn                     |     
      -----------------------------------------------------------      

   * xtb version 6.5.1 (b24c23e) compiled by 'conda@728c89f4b128' on 2022-07-12

   xtb is free software: you can redistribute it and/or modify it under
   the terms of the GNU Lesser General Public License as published by
   the Free Software Foundation, either version 3 of the License, or
   (at your option) any later version.
   
   xtb is distributed in the hope that it will be useful,
   but WITHOUT ANY WARRANTY; without even the implied warranty of
   MERCHANTABILITY or FITNESS FOR A PARTICULAR PURPOSE.  See the
   GNU Lesser General Public License for more details.
   
   Cite this work as:
   * C. Bannwarth, E. Caldeweyher, S. Ehlert, A. Hansen, P. Pracht,
     J. Seibert, S. Spicher, S. Grimme, WIREs Comput. Mol. Sci., 2020, 11,
     e01493. DOI: 10.1002/wcms.1493
   
   for GFN2-xTB:
   * C. Bannwarth, S. Ehlert and S. Grimme., J. Chem. Theory Comput., 2019,
     15, 1652-1671. DOI: 10.1021/acs.jctc.8b01176
   for GFN1-xTB:
   * S. Grimme, C. Bannwarth, P. Shushkov, J. Chem. Theory Comput., 2017,
     13, 1989-2009. DOI: 10.1021/acs.jctc.7b00118
   for GFN0-xTB:
   * P. Pracht, E. Caldeweyher, S. Ehlert, S. Grimme, ChemRxiv, 2019, preprint.
     DOI: 10.26434/chemrxiv.8326202.v1
   for GFN-FF:
   * S. Spicher and S. Grimme, Angew. Chem. Int. Ed., 2020, 59, 15665-15673.
     DOI: 10.1002/anie.202004239
   
   for ALPB and GBSA implicit solvation:
   * S. Ehlert, M. Stahn, S. Spicher, S. Grimme, J. Chem. Theory Comput.,
     2021, 17, 4250-4261. DOI: 10.1021/acs.jctc.1c00471
   
   for DFT-D4:
   * E. Caldeweyher, C. Bannwarth and S. Grimme, J. Chem. Phys., 2017,
     147, 034112. DOI: 10.1063/1.4993215
   * E. Caldeweyher, S. Ehlert, A. Hansen, H. Neugebauer, S. Spicher,
     C. Bannwarth and S. Grimme, J. Chem. Phys., 2019, 150, 154122.
     DOI: 10.1063/1.5090222
   * E. Caldeweyher, J.-M. Mewes, S. Ehlert and S. Grimme, Phys. Chem. Chem. Phys.
     2020, 22, 8499-8512. DOI: 10.1039/D0CP00502A
   
   for sTDA-xTB:
   * S. Grimme and C. Bannwarth, J. Chem. Phys., 2016, 145, 054103.
     DOI: 10.1063/1.4959605
   
   in the mass-spec context:
   * V. Asgeirsson, C. Bauer and S. Grimme, Chem. Sci., 2017, 8, 4879.
     DOI: 10.1039/c7sc00601b
   * J. Koopman and S. Grimme, ACS Omega 2019, 4, 12, 15120-15133.
     DOI: 10.1021/acsomega.9b02011
   
   for metadynamics refer to:
   * S. Grimme, J. Chem. Theory Comput., 2019, 155, 2847-2862
     DOI: 10.1021/acs.jctc.9b00143
   
   for SPH calculations refer to:
   * S. Spicher and S. Grimme, J. Chem. Theory Comput., 2021, 17, 1701-1714
     DOI: 10.1021/acs.jctc.0c01306
   
   with help from (in alphabetical order)
   P. Atkinson, C. Bannwarth, F. Bohle, G. Brandenburg, E. Caldeweyher
   M. Checinski, S. Dohm, S. Ehlert, S. Ehrlich, I. Gerasimov, C. Hölzer
   A. Katbashev, J. Koopman, C. Lavigne, S. Lehtola, F. März, M. Müller,
   F. Musil, H. Neugebauer, J. Pisarek, C. Plett, P. Pracht, F. Pultar,
   J. Seibert, P. Shushkov, S. Spicher, M. Stahn, M. Steiner, T. Strunk,
   J. Stückrath, T. Rose, and J. Unsleber
   
 * started run on 2026/08/18 at 18:30:01.200     

           -------------------------------------------------
          |                Calculation Setup                |
           -------------------------------------------------

          program call               : /h/332/chchoi/miniconda3/envs/el-agente/bin/xtb reactant.xyz --opt --gfn 2 -P 4 --chrg 1 --uhf 0 --input detailed_input.inp
          coordinate file            : reactant.xyz
          omp threads                :                     4

   ID    Z sym.   atoms
    1   40 Zr     1
    2    6 C      2-7, 13-17, 26, 27
    3    1 H      8-12, 18-25, 28-31
constraining bond 1 26 to    2.6000000 Å, actual value:    2.5634266 Å
constraining bond 1 27 to    2.6000000 Å, actual value:    2.5634266 Å
constraining bond 1 2 to    2.3000000 Å, actual value:    2.4750002 Å

molecular fragmentation (1/2 indicates fragments):
1111111111111111111111111222222
# atoms in fragment 1/2:    25     6
 fragment masses (1/2) :      236.44       28.05
CMA distance (Bohr)    :   5.713
constraining FC (au)   :  0.5000

           -------------------------------------------------
          |                 G F N 2 - x T B                 |
           -------------------------------------------------

        Reference                      10.1021/acs.jctc.8b01176
      * Hamiltonian:
        H0-scaling (s, p, d)           1.850000    2.230000    2.230000
        zeta-weighting                 0.500000
      * Dispersion:
        s8                             2.700000
        a1                             0.520000
        a2                             5.000000
        s9                             5.000000
      * Repulsion:
        kExp                           1.500000    1.000000
        rExp                           1.000000
      * Coulomb:
        alpha                          2.000000
        third order                    shell-resolved
        anisotropic                    true
        a3                             3.000000
        a5                             4.000000
        cn-shift                       1.200000
        cn-exp                         4.000000
        max-rad                        5.000000


          ...................................................
          :                      SETUP                      :
          :.................................................:
          :  # basis functions                  79          :
          :  # atomic orbitals                  78          :
          :  # shells                           46          :
          :  # electrons                        72          :
          :  max. iterations                   250          :
          :  Hamiltonian                  GFN2-xTB          :
          :  restarted?                      false          :
          :  GBSA solvation                  false          :
          :  PC potential                    false          :
          :  electronic temp.          300.0000000     K    :
          :  accuracy                    1.0000000          :
          :  -> integral cutoff          0.2500000E+02      :
          :  -> integral neglect         0.1000000E-07      :
          :  -> SCF convergence          0.1000000E-05 Eh   :
          :  -> wf. convergence          0.1000000E-03 e    :
          :  Broyden damping             0.4000000          :
          ...................................................

 iter      E             dE          RMSdq      gap      omega  full diag
   1    -37.9601354 -0.379601E+02  0.424E+00    0.57       0.0  T
   2    -38.0666125 -0.106477E+00  0.367E+00    1.52       1.0  T
   3    -38.1191899 -0.525774E-01  0.295E+00    0.94       1.0  T
   4    -38.1164784  0.271147E-02  0.140E+00    0.99       1.0  T
   5    -38.1137949  0.268351E-02  0.793E-01    0.73       1.0  T
   6    -38.1202114 -0.641645E-02  0.383E-01    0.95       1.0  T
   7    -38.1212743 -0.106294E-02  0.247E-01    0.88       1.0  T
   8    -38.1213143 -0.400100E-04  0.137E-01    0.87       1.0  T
   9    -38.1213019  0.124517E-04  0.649E-02    0.91       1.0  T
  10    -38.1213409 -0.390356E-04  0.371E-02    0.90       1.0  T
  11    -38.1213579 -0.169922E-04  0.152E-02    0.89       1.2  T
  12    -38.1213590 -0.111221E-05  0.447E-03    0.89       4.0  T
  13    -38.1213590 -0.387947E-07  0.188E-03    0.89       9.6  T
  14    -38.1213591 -0.224945E-07  0.122E-03    0.89      14.7  T
  15    -38.1213591 -0.155102E-07  0.446E-04    0.89      40.3  T
  16    -38.1213591 -0.213731E-10  0.258E-04    0.89      69.5  T

   *** convergence criteria satisfied after 16 iterations ***

         #    Occupation            Energy/Eh            Energy/eV
      -------------------------------------------------------------
         1        2.0000           -0.8637396             -23.5035
       ...           ...                  ...                  ...
        30        2.0000           -0.5741030             -15.6221
        31        2.0000           -0.5713656             -15.5476
        32        2.0000           -0.5095815             -13.8664
        33        2.0000           -0.5047474             -13.7349
        34        2.0000           -0.4945029             -13.4561
        35        2.0000           -0.4921678             -13.3926
        36        2.0000           -0.4861161             -13.2279 (HOMO)
        37                         -0.4533385             -12.3360 (LUMO)
        38                         -0.4377844             -11.9127
        39                         -0.4352875             -11.8448
        40                         -0.4313603             -11.7379
        41                         -0.4233749             -11.5206
       ...                                ...                  ...
        78                          1.3827423              37.6263
      -------------------------------------------------------------
                  HL-Gap            0.0327776 Eh            0.8919 eV
             Fermi-level           -0.4697264 Eh          -12.7819 eV

 SCC (total)                   0 d,  0 h,  0 min,  2.315 sec
 SCC setup                      ...        0 min,  0.022 sec (  0.958%)
 Dispersion                     ...        0 min,  0.060 sec (  2.605%)
 classical contributions        ...        0 min,  0.029 sec (  1.261%)
 integral evaluation            ...        0 min,  0.127 sec (  5.466%)
 iterations                     ...        0 min,  1.872 sec ( 80.863%)
 molecular gradient             ...        0 min,  0.195 sec (  8.443%)
 printout                       ...        0 min,  0.009 sec (  0.402%)

         :::::::::::::::::::::::::::::::::::::::::::::::::::::
         ::                     SUMMARY                     ::
         :::::::::::::::::::::::::::::::::::::::::::::::::::::
         :: total energy             -37.501391758746 Eh    ::
         :: gradient norm              0.615617740966 Eh/a0 ::
         :: HOMO-LUMO gap              0.891924041258 eV    ::
         ::.................................................::
         :: SCC energy               -38.121359078810 Eh    ::
         :: -> isotropic ES            0.097382457233 Eh    ::
         :: -> anisotropic ES         -0.002946632308 Eh    ::
         :: -> anisotropic XC          0.021570818862 Eh    ::
         :: -> dispersion             -0.027694242490 Eh    ::
         :: repulsion energy           0.559701657130 Eh    ::
         :: add. restraining           0.059458776640 Eh    ::
         :: total charge               1.000000000120 e     ::
         :::::::::::::::::::::::::::::::::::::::::::::::::::::

      ----------------------------------------------------------- 
     |                   =====================                   |
     |                        A N C O P T                        |
     |                   =====================                   |
     |               Approximate Normal Coordinate               |
     |                Rational Function Optimizer                |
      ----------------------------------------------------------- 

          ...................................................
          :                      SETUP                      :
          :.................................................:
          :   optimization level            normal          :
          :   max. optcycles                   200          :
          :   ANC micro-cycles                  20          :
          :   degrees of freedom                87          :
          :.................................................:
          :   RF solver                   davidson          :
          :   write xtbopt.log                true          :
          :   linear?                        false          :
          :   energy convergence         0.5000000E-05 Eh   :
          :   grad. convergence          0.1000000E-02 Eh/α :
          :   maximium RF displ.         1.0000000          :
          :   Hlow (freq-cutoff)         0.1000000E-01      :
          :   Hmax (freq-cutoff)         5.0000000          :
          :   S6 in model hess.         20.0000000          :
          ...................................................

generating ANC from model Hessian ...
Using Lindh-Hessian (1995)
 Shifting diagonal of input Hessian by    2.0524365216745808E-002
 Lowest  eigenvalues of input Hessian
    0.010000    0.012833    0.019856    0.020173    0.000000    0.000000
    0.000000    0.000000    0.000000    0.000000    0.020666    0.020950
    0.021110    0.021204    0.021211    0.021585    0.021643    0.021689
 Highest eigenvalues
    1.501652    1.501901    1.501989    1.746928    2.122359    3.275106


........................................................................
.............................. CYCLE    1 ..............................
........................................................................
   1    -38.1213591 -0.381214E+02  0.101E-04    0.89       0.0  T
   2    -38.1213591  0.886047E-11  0.118E-04    0.89     152.1  T
   3    -38.1213591 -0.117268E-09  0.649E-05    0.89     276.6  T
     SCC iter.                  ...        0 min,  0.334 sec
     gradient                   ...        0 min,  0.253 sec
 * total energy  :   -37.5013918 Eh     change       -0.4172804E-09 Eh
   gradient norm :     0.6156183 Eh/α   predicted     0.0000000E+00 (-100.00%)
   displ. norm   :     0.4079838 α      lambda       -0.1690907E+00
   maximum displ.:     0.1915416 α      in ANC's #56, #86, #24, ...

........................................................................
.............................. CYCLE    2 ..............................
........................................................................
   1    -38.1940960 -0.381941E+02  0.485E-01    1.11       0.0  T
   2    -38.1944101 -0.314150E-03  0.227E-01    1.02       1.0  T
   3    -38.1945142 -0.104094E-03  0.279E-01    1.13       1.0  T
   4    -38.1950166 -0.502396E-03  0.122E-01    1.09       1.0  T
   5    -38.1950214 -0.473953E-05  0.830E-02    1.09       1.0  T
   6    -38.1950503 -0.289479E-04  0.329E-02    1.07       1.0  T
   7    -38.1950581 -0.780362E-05  0.760E-03    1.07       2.4  T
   8    -38.1950583 -0.191921E-06  0.539E-03    1.07       3.3  T
   9    -38.1950584 -0.671609E-07  0.248E-03    1.07       7.2  T
  10    -38.1950584 -0.362269E-07  0.109E-03    1.07      16.5  T
  11    -38.1950584 -0.215187E-08  0.545E-04    1.07      33.0  T
  12    -38.1950584 -0.298203E-08  0.188E-04    1.07      95.7  T
     SCC iter.                  ...        0 min,  1.474 sec
     gradient                   ...        0 min,  0.272 sec
 * total energy  :   -37.6043120 Eh     change       -0.1029202E+00 Eh
   gradient norm :     0.0984914 Eh/α   predicted    -0.9864659E-01 (  -4.15%)
   displ. norm   :     0.7045049 α      lambda       -0.5135684E-01
   maximum displ.:     0.3293167 α      in ANC's #26, #24, #2, ...

........................................................................
.............................. CYCLE    3 ..............................
........................................................................
   1    -38.2546898 -0.382547E+02  0.699E-01    1.35       0.0  T
   2    -38.2554809 -0.791141E-03  0.556E-01    1.42       1.0  T
   3    -38.2556639 -0.182985E-03  0.353E-01    1.44       1.0  T
   4    -38.2556301  0.337602E-04  0.119E-01    1.42       1.0  T
   5    -38.2557374 -0.107306E-03  0.984E-02    1.44       1.0  T
   6    -38.2557933 -0.558286E-04  0.463E-02    1.43       1.0  T
   7    -38.2558046 -0.113553E-04  0.196E-02    1.42       1.0  T
   8    -38.2558062 -0.156859E-05  0.766E-03    1.42       2.3  T
   9    -38.2558064 -0.194340E-06  0.319E-03    1.42       5.6  T
  10    -38.2558065 -0.901182E-07  0.153E-03    1.42      11.8  T
  11    -38.2558065 -0.554714E-08  0.503E-04    1.42      35.7  T
  12    -38.2558065 -0.588528E-09  0.182E-04    1.42      98.6  T
     SCC iter.                  ...        0 min,  1.509 sec
     gradient                   ...        0 min,  0.312 sec
 * total energy  :   -37.6347148 Eh     change       -0.3040283E-01 Eh
   gradient norm :     0.0537242 Eh/α   predicted    -0.3843798E-01 (  26.43%)
   displ. norm   :     0.5361001 α      lambda       -0.1205853E-01
   maximum displ.:     0.3210540 α      in ANC's #2, #8, #13, ...

........................................................................
.............................. CYCLE    4 ..............................
........................................................................
   1    -38.2815620 -0.382816E+02  0.267E-01    1.47       0.0  T
   2    -38.2816608 -0.988544E-04  0.200E-01    1.48       1.0  T
   3    -38.2816653 -0.450806E-05  0.108E-01    1.48       1.0  T
   4    -38.2816577  0.766465E-05  0.595E-02    1.49       1.0  T
   5    -38.2816950 -0.372931E-04  0.377E-02    1.49       1.0  T
   6    -38.2816961 -0.115733E-05  0.131E-02    1.49       1.4  T
   7    -38.2816970 -0.860699E-06  0.694E-03    1.49       2.6  T
   8    -38.2816972 -0.224974E-06  0.363E-03    1.49       4.9  T
   9    -38.2816972 -0.164743E-07  0.188E-03    1.49       9.6  T
  10    -38.2816973 -0.451461E-07  0.760E-04    1.49      23.6  T
  11    -38.2816973 -0.607358E-09  0.208E-04    1.49      86.2  T
     SCC iter.                  ...        0 min,  1.226 sec
     gradient                   ...        0 min,  0.277 sec
 * total energy  :   -37.6431471 Eh     change       -0.8432254E-02 Eh
   gradient norm :     0.0381844 Eh/α   predicted    -0.7762091E-02 (  -7.95%)
   displ. norm   :     0.5440407 α      lambda       -0.7321439E-02
   maximum displ.:     0.2381518 α      in ANC's #12, #2, #1, ...

........................................................................
.............................. CYCLE    5 ..............................
........................................................................
   1    -38.3005888 -0.383006E+02  0.323E-01    1.40       0.0  T
   2    -38.3007012 -0.112381E-03  0.254E-01    1.45       1.0  T
   3    -38.3006826  0.186188E-04  0.137E-01    1.43       1.0  T
   4    -38.3007220 -0.393671E-04  0.569E-02    1.45       1.0  T
   5    -38.3007463 -0.243737E-04  0.383E-02    1.45       1.0  T
   6    -38.3007517 -0.533522E-05  0.175E-02    1.45       1.0  T
   7    -38.3007534 -0.175227E-05  0.656E-03    1.45       2.7  T
   8    -38.3007536 -0.133305E-06  0.396E-03    1.45       4.5  T
   9    -38.3007536 -0.627825E-07  0.249E-03    1.45       7.2  T
  10    -38.3007536 -0.173460E-07  0.894E-04    1.45      20.1  T
  11    -38.3007536 -0.149601E-08  0.316E-04    1.45      56.8  T
     SCC iter.                  ...        0 min,  1.366 sec
     gradient                   ...        0 min,  0.189 sec
 * total energy  :   -37.6465715 Eh     change       -0.3424449E-02 Eh
   gradient norm :     0.0265015 Eh/α   predicted    -0.4744217E-02 (  38.54%)
   displ. norm   :     0.6091477 α      lambda       -0.7375412E-02
   maximum displ.:     0.3724443 α      in ANC's #2, #1, #12, ...

........................................................................
.............................. CYCLE    6 ..............................
........................................................................
   1    -38.3036445 -0.383036E+02  0.469E-01    1.39       0.0  T
   2    -38.3039966 -0.352126E-03  0.439E-01    1.41       1.0  T
   3    -38.3040502 -0.535456E-04  0.272E-01    1.40       1.0  T
   4    -38.3040204  0.297633E-04  0.786E-02    1.42       1.0  T
   5    -38.3040982 -0.777394E-04  0.691E-02    1.41       1.0  T
   6    -38.3041076 -0.941107E-05  0.239E-02    1.41       1.0  T
   7    -38.3041085 -0.944555E-06  0.101E-02    1.41       1.8  T
   8    -38.3041089 -0.420664E-06  0.269E-03    1.41       6.7  T
   9    -38.3041090 -0.325409E-07  0.178E-03    1.41      10.1  T
  10    -38.3041090 -0.173946E-07  0.667E-04    1.41      26.9  T
  11    -38.3041090 -0.228080E-08  0.243E-04    1.41      74.0  T
     SCC iter.                  ...        0 min,  1.197 sec
     gradient                   ...        0 min,  0.250 sec
 * total energy  :   -37.6460846 Eh     change        0.4869193E-03 Eh
   gradient norm :     0.0547786 Eh/α   predicted    -0.5056079E-02 (*******%)
   displ. norm   :     0.2552091 α      lambda       -0.7521500E-02
   maximum displ.:     0.1769915 α      in ANC's #1, #41, #2, ...

........................................................................
.............................. CYCLE    7 ..............................
........................................................................
   1    -38.2971346 -0.382971E+02  0.288E-01    1.49       0.0  T
   2    -38.2973081 -0.173555E-03  0.239E-01    1.44       1.0  T
   3    -38.2973386 -0.304863E-04  0.170E-01    1.46       1.0  T
   4    -38.2973275  0.110872E-04  0.518E-02    1.45       1.0  T
   5    -38.2973451 -0.175853E-04  0.324E-02    1.45       1.0  T
   6    -38.2973565 -0.114093E-04  0.194E-02    1.46       1.0  T
   7    -38.2973580 -0.149594E-05  0.751E-03    1.46       2.4  T
   8    -38.2973580 -0.365606E-07  0.396E-03    1.46       4.5  T
   9    -38.2973581 -0.590693E-07  0.205E-03    1.46       8.8  T
  10    -38.2973581 -0.116292E-07  0.133E-03    1.46      13.5  T
  11    -38.2973581 -0.328904E-08  0.240E-04    1.46      74.7  T
  12    -38.2973581 -0.101274E-09  0.101E-04    1.46     178.3  T
     SCC iter.                  ...        0 min,  1.448 sec
     gradient                   ...        0 min,  0.064 sec
 * total energy  :   -37.6501413 Eh     change       -0.4056732E-02 Eh
   gradient norm :     0.0353857 Eh/α   predicted    -0.4005712E-02 (  -1.26%)
   displ. norm   :     0.2048451 α      lambda       -0.1753623E-02
   maximum displ.:     0.0839856 α      in ANC's #11, #9, #7, ...

........................................................................
.............................. CYCLE    8 ..............................
........................................................................
   1    -38.2973206 -0.382973E+02  0.152E-01    1.44       0.0  T
   2    -38.2973423 -0.216162E-04  0.106E-01    1.45       1.0  T
   3    -38.2973278  0.144199E-04  0.593E-02    1.45       1.0  T
   4    -38.2973472 -0.194060E-04  0.222E-02    1.44       1.0  T
   5    -38.2973543 -0.702783E-05  0.115E-02    1.45       1.6  T
   6    -38.2973545 -0.209683E-06  0.580E-03    1.44       3.1  T
   7    -38.2973546 -0.848306E-07  0.218E-03    1.45       8.2  T
   8    -38.2973546  0.418727E-08  0.140E-03    1.45      12.8  T
   9    -38.2973546 -0.159804E-07  0.106E-03    1.45      17.0  T
  10    -38.2973546 -0.253156E-08  0.532E-04    1.45      33.7  T
  11    -38.2973546 -0.292601E-09  0.140E-04    1.45     128.4  T
     SCC iter.                  ...        0 min,  1.372 sec
     gradient                   ...        0 min,  0.214 sec
 * total energy  :   -37.6508725 Eh     change       -0.7311692E-03 Eh
   gradient norm :     0.0210030 Eh/α   predicted    -0.9136104E-03 (  24.95%)
   displ. norm   :     0.3283113 α      lambda       -0.1292511E-02
   maximum displ.:     0.2007525 α      in ANC's #2, #11, #9, ...

........................................................................
.............................. CYCLE    9 ..............................
........................................................................
   1    -38.2989908 -0.382990E+02  0.235E-01    1.46       0.0  T
   2    -38.2990050 -0.142786E-04  0.150E-01    1.44       1.0  T
   3    -38.2989764  0.286744E-04  0.675E-02    1.46       1.0  T
   4    -38.2990135 -0.371127E-04  0.182E-02    1.45       1.0  T
   5    -38.2990148 -0.131248E-05  0.136E-02    1.45       1.3  T
   6    -38.2990154 -0.577782E-06  0.616E-03    1.45       2.9  T
   7    -38.2990156 -0.272836E-06  0.282E-03    1.45       6.4  T
   8    -38.2990156 -0.390318E-08  0.161E-03    1.45      11.2  T
   9    -38.2990157 -0.227604E-07  0.817E-04    1.45      22.0  T
  10    -38.2990157 -0.212044E-08  0.235E-04    1.45      76.3  T
     SCC iter.                  ...        0 min,  1.016 sec
     gradient                   ...        0 min,  0.230 sec
 * total energy  :   -37.6517203 Eh     change       -0.8477397E-03 Eh
   gradient norm :     0.0104111 Eh/α   predicted    -0.7159308E-03 ( -15.55%)
   displ. norm   :     0.3015652 α      lambda       -0.7792792E-03
   maximum displ.:     0.1476722 α      in ANC's #11, #2, #9, ...

........................................................................
.............................. CYCLE   10 ..............................
........................................................................
   1    -38.2971681 -0.382972E+02  0.210E-01    1.46       0.0  T
   2    -38.2971791 -0.109815E-04  0.141E-01    1.45       1.0  T
   3    -38.2971415  0.375769E-04  0.593E-02    1.47       1.0  T
   4    -38.2971862 -0.447276E-04  0.152E-02    1.45       1.2  T
   5    -38.2971871 -0.838602E-06  0.108E-02    1.46       1.7  T
   6    -38.2971877 -0.605282E-06  0.454E-03    1.45       4.0  T
   7    -38.2971877 -0.537470E-07  0.224E-03    1.45       8.0  T
   8    -38.2971877 -0.583356E-09  0.134E-03    1.45      13.4  T
   9    -38.2971877 -0.136021E-07  0.660E-04    1.45      27.2  T
  10    -38.2971877 -0.107659E-08  0.240E-04    1.45      74.9  T
     SCC iter.                  ...        0 min,  1.038 sec
     gradient                   ...        0 min,  0.004 sec
 * total energy  :   -37.6522252 Eh     change       -0.5049780E-03 Eh
   gradient norm :     0.0124690 Eh/α   predicted    -0.4250759E-03 ( -15.82%)
   displ. norm   :     0.2902882 α      lambda       -0.6025909E-03
   maximum displ.:     0.1685400 α      in ANC's #11, #9, #10, ...

........................................................................
.............................. CYCLE   11 ..............................
........................................................................
   1    -38.2983716 -0.382984E+02  0.186E-01    1.46       0.0  T
   2    -38.2983806 -0.908087E-05  0.117E-01    1.46       1.0  T
   3    -38.2983262  0.544804E-04  0.554E-02    1.47       1.0  T
   4    -38.2983893 -0.631666E-04  0.123E-02    1.46       1.5  T
   5    -38.2983895 -0.215118E-06  0.771E-03    1.46       2.3  T
   6    -38.2983896 -0.214972E-07  0.285E-03    1.46       6.3  T
   7    -38.2983896 -0.476773E-07  0.205E-03    1.46       8.8  T
   8    -38.2983896 -0.163132E-07  0.118E-03    1.46      15.2  T
   9    -38.2983896 -0.798913E-08  0.330E-04    1.46      54.5  T
  10    -38.2983896 -0.479879E-09  0.160E-04    1.46     112.2  T
     SCC iter.                  ...        0 min,  0.933 sec
     gradient                   ...        0 min,  0.096 sec
 * total energy  :   -37.6526701 Eh     change       -0.4448488E-03 Eh
   gradient norm :     0.0108267 Eh/α   predicted    -0.3266887E-03 ( -26.56%)
   displ. norm   :     0.3621530 α      lambda       -0.7199592E-03
   maximum displ.:     0.2118603 α      in ANC's #11, #10, #12, ...

........................................................................
.............................. CYCLE   12 ..............................
........................................................................
   1    -38.2990172 -0.382990E+02  0.222E-01    1.46       0.0  T
   2    -38.2990315 -0.142767E-04  0.135E-01    1.46       1.0  T
   3    -38.2989654  0.661131E-04  0.671E-02    1.47       1.0  T
   4    -38.2990430 -0.775673E-04  0.169E-02    1.46       1.1  T
   5    -38.2990434 -0.483072E-06  0.990E-03    1.46       1.8  T
   6    -38.2990433  0.929297E-07  0.273E-03    1.46       6.6  T
   7    -38.2990435 -0.112251E-06  0.211E-03    1.46       8.5  T
   8    -38.2990435 -0.115856E-07  0.141E-03    1.46      12.8  T
   9    -38.2990435 -0.767232E-08  0.356E-04    1.46      50.5  T
  10    -38.2990435 -0.938670E-09  0.195E-04    1.46      92.1  T
     SCC iter.                  ...        0 min,  1.427 sec
     gradient                   ...        0 min,  0.249 sec
 * total energy  :   -37.6531239 Eh     change       -0.4538529E-03 Eh
   gradient norm :     0.0151899 Eh/α   predicted    -0.4071987E-03 ( -10.28%)
   displ. norm   :     0.2162406 α      lambda       -0.6065692E-03
   maximum displ.:     0.1145750 α      in ANC's #12, #11, #10, ...

........................................................................
.............................. CYCLE   13 ..............................
........................................................................
   1    -38.3017878 -0.383018E+02  0.104E-01    1.47       0.0  T
   2    -38.3017926 -0.476649E-05  0.613E-02    1.46       1.0  T
   3    -38.3017828  0.975819E-05  0.384E-02    1.47       1.0  T
   4    -38.3017957 -0.129255E-04  0.670E-03    1.46       2.7  T
   5    -38.3017957  0.226658E-07  0.521E-03    1.46       3.4  T
   6    -38.3017959 -0.178578E-06  0.132E-03    1.46      13.6  T
   7    -38.3017959 -0.124571E-07  0.501E-04    1.46      35.8  T
   8    -38.3017959 -0.178175E-08  0.394E-04    1.46      45.6  T
     SCC iter.                  ...        0 min,  0.994 sec
     gradient                   ...        0 min,  0.207 sec
 * total energy  :   -37.6535603 Eh     change       -0.4363701E-03 Eh
   gradient norm :     0.0151469 Eh/α   predicted    -0.3174669E-03 ( -27.25%)
   displ. norm   :     0.3104406 α      lambda       -0.8014368E-03
   maximum displ.:     0.1682440 α      in ANC's #12, #11, #10, ...

........................................................................
.............................. CYCLE   14 ..............................
........................................................................
   1    -38.3019510 -0.383020E+02  0.106E-01    1.46       0.0  T
   2    -38.3019528 -0.171670E-05  0.650E-02    1.46       1.0  T
   3    -38.3019378  0.149182E-04  0.334E-02    1.46       1.0  T
   4    -38.3019549 -0.170231E-04  0.801E-03    1.46       2.2  T
   5    -38.3019548  0.369126E-07  0.485E-03    1.46       3.7  T
   6    -38.3019550 -0.161833E-06  0.201E-03    1.46       8.9  T
   7    -38.3019550 -0.313913E-07  0.977E-04    1.46      18.4  T
   8    -38.3019550  0.740407E-09  0.627E-04    1.46      28.6  T
     SCC iter.                  ...        0 min,  0.988 sec
     gradient                   ...        0 min,  0.174 sec
 * total energy  :   -37.6541813 Eh     change       -0.6209621E-03 Eh
   gradient norm :     0.0128922 Eh/α   predicted    -0.4393404E-03 ( -29.25%)
   displ. norm   :     0.3491396 α      lambda       -0.9559673E-03
   maximum displ.:     0.2022592 α      in ANC's #12, #11, #60, ...

........................................................................
.............................. CYCLE   15 ..............................
........................................................................
   1    -38.3016333 -0.383016E+02  0.948E-02    1.46       0.0  T
   2    -38.3016367 -0.337423E-05  0.582E-02    1.46       1.0  T
   3    -38.3016170  0.196732E-04  0.328E-02    1.45       1.0  T
   4    -38.3016405 -0.235190E-04  0.611E-03    1.46       2.9  T
   5    -38.3016408 -0.311144E-06  0.364E-03    1.46       4.9  T
   6    -38.3016409 -0.356286E-07  0.132E-03    1.46      13.6  T
   7    -38.3016409 -0.134671E-07  0.726E-04    1.46      24.7  T
   8    -38.3016409 -0.195470E-09  0.440E-04    1.46      40.8  T
     SCC iter.                  ...        0 min,  0.893 sec
     gradient                   ...        0 min,  0.201 sec
 * total energy  :   -37.6548916 Eh     change       -0.7103395E-03 Eh
   gradient norm :     0.0099786 Eh/α   predicted    -0.5362525E-03 ( -24.51%)
   displ. norm   :     0.4125413 α      lambda       -0.8504213E-03
   maximum displ.:     0.2497765 α      in ANC's #11, #12, #60, ...

........................................................................
.............................. CYCLE   16 ..............................
........................................................................
   1    -38.2971178 -0.382971E+02  0.153E-01    1.44       0.0  T
   2    -38.2971287 -0.108895E-04  0.863E-02    1.47       1.0  T
   3    -38.2971116  0.171301E-04  0.665E-02    1.44       1.0  T
   4    -38.2971386 -0.270335E-04  0.147E-02    1.46       1.2  T
   5    -38.2971397 -0.109703E-05  0.106E-02    1.46       1.7  T
   6    -38.2971398 -0.114675E-06  0.405E-03    1.46       4.4  T
   7    -38.2971400 -0.166037E-06  0.166E-03    1.46      10.8  T
   8    -38.2971400 -0.132269E-07  0.117E-03    1.46      15.3  T
   9    -38.2971400 -0.302430E-08  0.493E-04    1.46      36.4  T
  10    -38.2971400 -0.484455E-09  0.226E-04    1.46      79.5  T
     SCC iter.                  ...        0 min,  1.167 sec
     gradient                   ...        0 min,  0.072 sec
 * total energy  :   -37.6553768 Eh     change       -0.4851701E-03 Eh
   gradient norm :     0.0165288 Eh/α   predicted    -0.4975823E-03 (   2.56%)
   displ. norm   :     0.4571793 α      lambda       -0.2078992E-02
   maximum displ.:     0.2264245 α      in ANC's #60, #7, #12, ...

........................................................................
.............................. CYCLE   17 ..............................
........................................................................
   1    -38.3036584 -0.383037E+02  0.274E-01    1.46       0.0  T
   2    -38.3037572 -0.987673E-04  0.126E-01    1.44       1.0  T
   3    -38.3037518  0.534887E-05  0.103E-01    1.46       1.0  T
   4    -38.3037925 -0.407081E-04  0.369E-02    1.46       1.0  T
   5    -38.3037935 -0.949393E-06  0.254E-02    1.46       1.0  T
   6    -38.3037934  0.785278E-07  0.102E-02    1.45       1.8  T
   7    -38.3037943 -0.868380E-06  0.203E-03    1.45       8.9  T
   8    -38.3037943 -0.108381E-07  0.141E-03    1.45      12.7  T
   9    -38.3037943 -0.120197E-07  0.696E-04    1.45      25.8  T
  10    -38.3037943 -0.227207E-08  0.322E-04    1.45      55.8  T
     SCC iter.                  ...        0 min,  1.131 sec
     gradient                   ...        0 min,  0.195 sec
 * total energy  :   -37.6548854 Eh     change        0.4913842E-03 Eh
   gradient norm :     0.0345598 Eh/α   predicted    -0.1256776E-02 (-355.76%)
   displ. norm   :     0.2220636 α      lambda       -0.2544239E-02
   maximum displ.:     0.1513129 α      in ANC's #11, #10, #12, ...

........................................................................
.............................. CYCLE   18 ..............................
........................................................................
   1    -38.2989266 -0.382989E+02  0.195E-01    1.44       0.0  T
   2    -38.2989728 -0.461095E-04  0.723E-02    1.47       1.0  T
   3    -38.2989743 -0.157923E-05  0.831E-02    1.45       1.0  T
   4    -38.2989853 -0.109216E-04  0.319E-02    1.45       1.0  T
   5    -38.2989851  0.136148E-06  0.268E-02    1.45       1.0  T
   6    -38.2989861 -0.102610E-05  0.103E-02    1.46       1.7  T
   7    -38.2989866 -0.486676E-06  0.228E-03    1.46       7.9  T
   8    -38.2989866 -0.126725E-07  0.106E-03    1.46      16.9  T
   9    -38.2989866 -0.553051E-09  0.545E-04    1.46      33.0  T
  10    -38.2989866 -0.243027E-08  0.228E-04    1.46      78.9  T
     SCC iter.                  ...        0 min,  1.092 sec
     gradient                   ...        0 min,  0.223 sec
 * total energy  :   -37.6560772 Eh     change       -0.1191811E-02 Eh
   gradient norm :     0.0164193 Eh/α   predicted    -0.1334851E-02 (  12.00%)
   displ. norm   :     0.2952661 α      lambda       -0.7184846E-03
   maximum displ.:     0.1709077 α      in ANC's #12, #7, #60, ...

........................................................................
.............................. CYCLE   19 ..............................
........................................................................
   1    -38.3037285 -0.383037E+02  0.124E-01    1.48       0.0  T
   2    -38.3037482 -0.196382E-04  0.728E-02    1.46       1.0  T
   3    -38.3037432  0.495937E-05  0.524E-02    1.47       1.0  T
   4    -38.3037644 -0.211578E-04  0.110E-02    1.46       1.6  T
   5    -38.3037657 -0.134071E-05  0.827E-03    1.47       2.2  T
   6    -38.3037658 -0.973138E-07  0.381E-03    1.47       4.7  T
   7    -38.3037659 -0.131823E-06  0.140E-03    1.46      12.8  T
   8    -38.3037660 -0.263968E-07  0.847E-04    1.46      21.2  T
   9    -38.3037660 -0.184451E-08  0.389E-04    1.46      46.1  T
     SCC iter.                  ...        0 min,  0.886 sec
     gradient                   ...        0 min,  0.254 sec
 * total energy  :   -37.6562826 Eh     change       -0.2054427E-03 Eh
   gradient norm :     0.0072387 Eh/α   predicted    -0.3905677E-03 (  90.11%)
   displ. norm   :     0.1617685 α      lambda       -0.2901209E-03
   maximum displ.:     0.0972397 α      in ANC's #11, #60, #12, ...

........................................................................
.............................. CYCLE   20 ..............................
........................................................................
   1    -38.3030496 -0.383030E+02  0.473E-02    1.46       0.0  T
   2    -38.3030522 -0.252496E-05  0.280E-02    1.47       1.0  T
   3    -38.3030519  0.221374E-06  0.177E-02    1.46       1.0  T
   4    -38.3030536 -0.164255E-05  0.331E-03    1.47       5.4  T
   5    -38.3030537 -0.119439E-06  0.255E-03    1.46       7.0  T
   6    -38.3030537 -0.161828E-07  0.120E-03    1.46      15.0  T
   7    -38.3030537 -0.965208E-08  0.466E-04    1.46      38.6  T
   8    -38.3030537 -0.188598E-08  0.311E-04    1.46      57.8  T
     SCC iter.                  ...        0 min,  0.724 sec
     gradient                   ...        0 min,  0.046 sec
 * total energy  :   -37.6564944 Eh     change       -0.2117948E-03 Eh
   gradient norm :     0.0048515 Eh/α   predicted    -0.1488574E-03 ( -29.72%)
   displ. norm   :     0.2475177 α      lambda       -0.3025897E-03
   maximum displ.:     0.1483893 α      in ANC's #11, #60, #41, ...
 * RMSD in coord.:     0.7315777 α      energy gain  -0.1551027E+00 Eh

generating ANC from model Hessian ...
Using Lindh-Hessian (1995)
 Shifting diagonal of input Hessian by    1.0116078724159165E-002
 Lowest  eigenvalues of input Hessian
    0.010000    0.000000    0.000000    0.000000    0.000000    0.000000
    0.000000    0.010313    0.010586    0.010619    0.010967    0.011740
    0.011892    0.012114    0.012208    0.014084    0.017405    0.017631
 Highest eigenvalues
    1.735648    1.736838    1.741214    1.745520    2.347465    3.106551


........................................................................
.............................. CYCLE   21 ..............................
........................................................................
   1    -38.3023414 -0.383023E+02  0.856E-02    1.46       0.0  T
   2    -38.3023449 -0.351302E-05  0.515E-02    1.47       1.0  T
   3    -38.3023402  0.469708E-05  0.344E-02    1.46       1.0  T
   4    -38.3023476 -0.740826E-05  0.691E-03    1.46       2.6  T
   5    -38.3023478 -0.114931E-06  0.592E-03    1.46       3.0  T
   6    -38.3023478 -0.717867E-07  0.239E-03    1.46       7.5  T
   7    -38.3023479 -0.578060E-07  0.699E-04    1.46      25.7  T
   8    -38.3023479 -0.279264E-08  0.437E-04    1.46      41.1  T
     SCC iter.                  ...        0 min,  0.853 sec
     gradient                   ...        0 min,  0.049 sec
 * total energy  :   -37.6566675 Eh     change       -0.1730545E-03 Eh
   gradient norm :     0.0076980 Eh/α   predicted     0.0000000E+00 (-100.00%)
   displ. norm   :     0.0982959 α      lambda       -0.2172659E-03
   maximum displ.:     0.0531163 α      in ANC's #1, #6, #3, ...

........................................................................
.............................. CYCLE   22 ..............................
........................................................................
   1    -38.3043043 -0.383043E+02  0.939E-02    1.47       0.0  T
   2    -38.3043064 -0.203092E-05  0.578E-02    1.46       1.0  T
   3    -38.3043028  0.356439E-05  0.278E-02    1.47       1.0  T
   4    -38.3043072 -0.438946E-05  0.660E-03    1.46       2.7  T
   5    -38.3043073 -0.158108E-06  0.498E-03    1.46       3.6  T
   6    -38.3043075 -0.109157E-06  0.208E-03    1.46       8.6  T
   7    -38.3043075 -0.337974E-07  0.130E-03    1.46      13.8  T
   8    -38.3043075  0.858371E-09  0.952E-04    1.46      18.9  T
   9    -38.3043075 -0.280632E-08  0.187E-04    1.46      96.0  T
     SCC iter.                  ...        0 min,  1.010 sec
     gradient                   ...        0 min,  0.212 sec
 * total energy  :   -37.6568119 Eh     change       -0.1443742E-03 Eh
   gradient norm :     0.0022824 Eh/α   predicted    -0.1096833E-03 ( -24.03%)
   displ. norm   :     0.1237751 α      lambda       -0.1155354E-03
   maximum displ.:     0.0722224 α      in ANC's #6, #1, #3, ...

........................................................................
.............................. CYCLE   23 ..............................
........................................................................
   1    -38.3053651 -0.383054E+02  0.628E-02    1.46       0.0  T
   2    -38.3053658 -0.666469E-06  0.402E-02    1.46       1.0  T
   3    -38.3053636  0.215903E-05  0.109E-02    1.46       1.7  T
   4    -38.3053661 -0.246687E-05  0.314E-03    1.46       5.7  T
   5    -38.3053661 -0.120559E-07  0.220E-03    1.46       8.2  T
   6    -38.3053662 -0.471819E-07  0.815E-04    1.46      22.0  T
   7    -38.3053662 -0.129342E-08  0.478E-04    1.46      37.6  T
     SCC iter.                  ...        0 min,  0.730 sec
     gradient                   ...        0 min,  0.198 sec
 * total energy  :   -37.6568890 Eh     change       -0.7710545E-04 Eh
   gradient norm :     0.0021026 Eh/α   predicted    -0.5865331E-04 ( -23.93%)
   displ. norm   :     0.1163036 α      lambda       -0.5860022E-04
   maximum displ.:     0.0715447 α      in ANC's #6, #1, #3, ...

........................................................................
.............................. CYCLE   24 ..............................
........................................................................
   1    -38.3050762 -0.383051E+02  0.649E-02    1.45       0.0  T
   2    -38.3050770 -0.844803E-06  0.419E-02    1.46       1.0  T
   3    -38.3050747  0.226152E-05  0.178E-02    1.45       1.0  T
   4    -38.3050775 -0.277035E-05  0.329E-03    1.45       5.5  T
   5    -38.3050775  0.124956E-07  0.268E-03    1.45       6.7  T
   6    -38.3050775 -0.418755E-07  0.113E-03    1.45      15.9  T
   7    -38.3050775 -0.595453E-08  0.606E-04    1.45      29.7  T
   8    -38.3050775  0.740542E-09  0.389E-04    1.45      46.2  T
     SCC iter.                  ...        0 min,  0.703 sec
     gradient                   ...        0 min,  0.263 sec
 * total energy  :   -37.6569298 Eh     change       -0.4080107E-04 Eh
   gradient norm :     0.0019511 Eh/α   predicted    -0.2970045E-04 ( -27.21%)
   displ. norm   :     0.1455652 α      lambda       -0.3294419E-04
   maximum displ.:     0.0851277 α      in ANC's #6, #3, #1, ...

........................................................................
.............................. CYCLE   25 ..............................
........................................................................
   1    -38.3045501 -0.383046E+02  0.619E-02    1.45       0.0  T
   2    -38.3045507 -0.603965E-06  0.388E-02    1.45       1.0  T
   3    -38.3045487  0.198621E-05  0.149E-02    1.45       1.2  T
   4    -38.3045511 -0.235888E-05  0.295E-03    1.45       6.1  T
   5    -38.3045510  0.365365E-07  0.217E-03    1.45       8.3  T
   6    -38.3045511 -0.554932E-07  0.746E-04    1.45      24.1  T
   7    -38.3045511 -0.360481E-08  0.429E-04    1.45      41.9  T
     SCC iter.                  ...        0 min,  0.812 sec
     gradient                   ...        0 min,  0.231 sec
 * total energy  :   -37.6569569 Eh     change       -0.2711373E-04 Eh
   gradient norm :     0.0017336 Eh/α   predicted    -0.1662893E-04 ( -38.67%)
   displ. norm   :     0.0772654 α      lambda       -0.1730559E-04
   maximum displ.:     0.0460794 α      in ANC's #3, #5, #6, ...

........................................................................
.............................. CYCLE   26 ..............................
........................................................................
   1    -38.3046553 -0.383047E+02  0.212E-02    1.45       0.0  T
   2    -38.3046555 -0.190781E-06  0.124E-02    1.45       1.4  T
   3    -38.3046548  0.740888E-06  0.673E-03    1.45       2.7  T
   4    -38.3046557 -0.908858E-06  0.162E-03    1.45      11.1  T
   5    -38.3046557 -0.123169E-07  0.910E-04    1.45      19.7  T
   6    -38.3046557  0.161996E-08  0.434E-04    1.45      41.4  T
     SCC iter.                  ...        0 min,  0.601 sec
     gradient                   ...        0 min,  0.202 sec
 * total energy  :   -37.6569788 Eh     change       -0.2187947E-04 Eh
   gradient norm :     0.0012319 Eh/α   predicted    -0.8707712E-05 ( -60.20%)
   displ. norm   :     0.1996296 α      lambda       -0.4190610E-04
   maximum displ.:     0.1165792 α      in ANC's #3, #5, #4, ...

........................................................................
.............................. CYCLE   27 ..............................
........................................................................
   1    -38.3046950 -0.383047E+02  0.494E-02    1.44       0.0  T
   2    -38.3046965 -0.150550E-05  0.303E-02    1.45       1.0  T
   3    -38.3046916  0.493920E-05  0.185E-02    1.44       1.0  T
   4    -38.3046984 -0.679529E-05  0.520E-03    1.45       3.5  T
   5    -38.3046985 -0.149625E-06  0.321E-03    1.45       5.6  T
   6    -38.3046985  0.202068E-08  0.126E-03    1.44      14.3  T
   7    -38.3046986 -0.231590E-07  0.469E-04    1.44      38.3  T
   8    -38.3046986 -0.148157E-08  0.205E-04    1.44      87.7  T
     SCC iter.                  ...        0 min,  0.977 sec
     gradient                   ...        0 min,  0.006 sec
 * total energy  :   -37.6570338 Eh     change       -0.5498449E-04 Eh
   gradient norm :     0.0025584 Eh/α   predicted    -0.2132451E-04 ( -61.22%)
   displ. norm   :     0.3464258 α      lambda       -0.9953384E-04
   maximum displ.:     0.2087524 α      in ANC's #3, #5, #4, ...

........................................................................
.............................. CYCLE   28 ..............................
........................................................................
   1    -38.3028318 -0.383028E+02  0.888E-02    1.43       0.0  T
   2    -38.3028351 -0.328042E-05  0.557E-02    1.44       1.0  T
   3    -38.3028184  0.167372E-04  0.351E-02    1.43       1.0  T
   4    -38.3028408 -0.224406E-04  0.954E-03    1.43       1.9  T
   5    -38.3028412 -0.354141E-06  0.647E-03    1.43       2.8  T
   6    -38.3028412 -0.424845E-07  0.191E-03    1.43       9.4  T
   7    -38.3028413 -0.613160E-07  0.849E-04    1.43      21.2  T
   8    -38.3028413 -0.280335E-08  0.457E-04    1.43      39.3  T
     SCC iter.                  ...        0 min,  0.965 sec
     gradient                   ...        0 min,  0.285 sec
 * total energy  :   -37.6571136 Eh     change       -0.7986048E-04 Eh
   gradient norm :     0.0070210 Eh/α   predicted    -0.5574398E-04 ( -30.20%)
   displ. norm   :     0.2843182 α      lambda       -0.1011159E-03
   maximum displ.:     0.1721801 α      in ANC's #3, #5, #4, ...

........................................................................
.............................. CYCLE   29 ..............................
........................................................................
   1    -38.3016024 -0.383016E+02  0.688E-02    1.42       0.0  T
   2    -38.3016045 -0.207795E-05  0.436E-02    1.43       1.0  T
   3    -38.3015931  0.113953E-04  0.285E-02    1.42       1.0  T
   4    -38.3016086 -0.155164E-04  0.847E-03    1.43       2.1  T
   5    -38.3016089 -0.240794E-06  0.572E-03    1.43       3.1  T
   6    -38.3016089 -0.403626E-07  0.163E-03    1.42      11.0  T
   7    -38.3016090 -0.456564E-07  0.789E-04    1.42      22.8  T
   8    -38.3016090 -0.176451E-08  0.413E-04    1.42      43.4  T
     SCC iter.                  ...        0 min,  0.959 sec
     gradient                   ...        0 min,  0.316 sec
 * total energy  :   -37.6571894 Eh     change       -0.7579994E-04 Eh
   gradient norm :     0.0103308 Eh/α   predicted    -0.5464525E-04 ( -27.91%)
   displ. norm   :     0.3504775 α      lambda       -0.2475665E-03
   maximum displ.:     0.2168123 α      in ANC's #3, #5, #4, ...

........................................................................
.............................. CYCLE   30 ..............................
........................................................................
   1    -38.3020233 -0.383020E+02  0.790E-02    1.42       0.0  T
   2    -38.3020267 -0.332342E-05  0.493E-02    1.42       1.0  T
   3    -38.3020111  0.155620E-04  0.342E-02    1.42       1.0  T
   4    -38.3020327 -0.216415E-04  0.903E-03    1.42       2.0  T
   5    -38.3020332 -0.443746E-06  0.554E-03    1.42       3.2  T
   6    -38.3020332  0.234817E-08  0.189E-03    1.42       9.5  T
   7    -38.3020332 -0.456032E-07  0.115E-03    1.42      15.6  T
   8    -38.3020332 -0.376477E-08  0.606E-04    1.42      29.6  T
   9    -38.3020332 -0.110012E-08  0.260E-04    1.42      69.0  T
     SCC iter.                  ...        0 min,  0.980 sec
     gradient                   ...        0 min,  0.096 sec
 * total energy  :   -37.6573944 Eh     change       -0.2049481E-03 Eh
   gradient norm :     0.0116639 Eh/α   predicted    -0.1389887E-03 ( -32.18%)
   displ. norm   :     0.4202597 α      lambda       -0.6256187E-03
   maximum displ.:     0.2642408 α      in ANC's #3, #4, #5, ...

........................................................................
.............................. CYCLE   31 ..............................
........................................................................
   1    -38.3071602 -0.383072E+02  0.104E-01    1.43       0.0  T
   2    -38.3071656 -0.547280E-05  0.642E-02    1.43       1.0  T
   3    -38.3071404  0.252038E-04  0.429E-02    1.43       1.0  T
   4    -38.3071717 -0.312360E-04  0.850E-03    1.43       2.1  T
   5    -38.3071724 -0.696712E-06  0.620E-03    1.43       2.9  T
   6    -38.3071725 -0.115662E-06  0.149E-03    1.43      12.1  T
   7    -38.3071725 -0.101181E-07  0.116E-03    1.43      15.5  T
   8    -38.3071725 -0.112301E-08  0.818E-04    1.43      22.0  T
   9    -38.3071725 -0.187932E-08  0.360E-04    1.43      49.9  T
     SCC iter.                  ...        0 min,  0.965 sec
     gradient                   ...        0 min,  0.085 sec
 * total energy  :   -37.6578580 Eh     change       -0.4636830E-03 Eh
   gradient norm :     0.0087582 Eh/α   predicted    -0.3680600E-03 ( -20.62%)
   displ. norm   :     0.8331022 α      lambda       -0.8883277E-03
   maximum displ.:     0.5418743 α      in ANC's #3, #5, #4, ...

........................................................................
.............................. CYCLE   32 ..............................
........................................................................
   1    -38.2956849 -0.382957E+02  0.204E-01    1.38       0.0  T
   2    -38.2956973 -0.124269E-04  0.131E-01    1.41       1.0  T
   3    -38.2956261  0.711808E-04  0.928E-02    1.38       1.0  T
   4    -38.2957281 -0.102027E-03  0.309E-02    1.40       1.0  T
   5    -38.2957328 -0.469814E-05  0.184E-02    1.40       1.0  T
   6    -38.2957331 -0.303732E-06  0.552E-03    1.40       3.3  T
   7    -38.2957336 -0.428878E-06  0.300E-03    1.40       6.0  T
   8    -38.2957336 -0.205754E-07  0.169E-03    1.40      10.6  T
   9    -38.2957336 -0.185118E-07  0.692E-04    1.40      26.0  T
  10    -38.2957336 -0.521119E-09  0.281E-04    1.40      63.9  T
     SCC iter.                  ...        0 min,  1.393 sec
     gradient                   ...        0 min,  0.312 sec
 * total energy  :   -37.6582146 Eh     change       -0.3565165E-03 Eh
   gradient norm :     0.0239331 Eh/α   predicted    -0.7524470E-03 ( 111.06%)
   displ. norm   :     0.1883457 α      lambda       -0.1246428E-02
   maximum displ.:     0.0979102 α      in ANC's #5, #13, #11, ...

........................................................................
.............................. CYCLE   33 ..............................
........................................................................
   1    -38.3048615 -0.383049E+02  0.140E-01    1.42       0.0  T
   2    -38.3048715 -0.100329E-04  0.949E-02    1.42       1.0  T
   3    -38.3048441  0.274404E-04  0.479E-02    1.42       1.0  T
   4    -38.3048755 -0.314807E-04  0.261E-02    1.41       1.0  T
   5    -38.3048790 -0.340602E-05  0.128E-02    1.41       1.4  T
   6    -38.3048790 -0.654725E-08  0.439E-03    1.42       4.1  T
   7    -38.3048793 -0.308349E-06  0.169E-03    1.42      10.7  T
   8    -38.3048793 -0.100539E-07  0.890E-04    1.42      20.2  T
   9    -38.3048793 -0.540067E-08  0.348E-04    1.42      51.6  T
     SCC iter.                  ...        0 min,  1.085 sec
     gradient                   ...        0 min,  0.258 sec
 * total energy  :   -37.6588415 Eh     change       -0.6268926E-03 Eh
   gradient norm :     0.0088360 Eh/α   predicted    -0.6453204E-03 (   2.94%)
   displ. norm   :     0.4568665 α      lambda       -0.7451756E-03
   maximum displ.:     0.2738783 α      in ANC's #3, #2, #4, ...

........................................................................
.............................. CYCLE   34 ..............................
........................................................................
   1    -38.3058045 -0.383058E+02  0.824E-02    1.41       0.0  T
   2    -38.3058110 -0.643922E-05  0.541E-02    1.40       1.0  T
   3    -38.3058103  0.703346E-06  0.318E-02    1.41       1.0  T
   4    -38.3058145 -0.419877E-05  0.110E-02    1.41       1.6  T
   5    -38.3058142  0.239685E-06  0.879E-03    1.41       2.0  T
   6    -38.3058146 -0.352735E-06  0.283E-03    1.41       6.3  T
   7    -38.3058146 -0.469167E-07  0.109E-03    1.41      16.5  T
   8    -38.3058146 -0.155153E-08  0.553E-04    1.41      32.5  T
   9    -38.3058146 -0.844494E-09  0.327E-04    1.41      55.0  T
     SCC iter.                  ...        0 min,  1.214 sec
     gradient                   ...        0 min,  0.245 sec
 * total energy  :   -37.6594002 Eh     change       -0.5587018E-03 Eh
   gradient norm :     0.0076086 Eh/α   predicted    -0.4503551E-03 ( -19.39%)
   displ. norm   :     0.6588059 α      lambda       -0.7370268E-03
   maximum displ.:     0.4237307 α      in ANC's #3, #2, #4, ...

........................................................................
.............................. CYCLE   35 ..............................
........................................................................
   1    -38.2983146 -0.382983E+02  0.130E-01    1.37       0.0  T
   2    -38.2983198 -0.524541E-05  0.798E-02    1.38       1.0  T
   3    -38.2983063  0.135576E-04  0.436E-02    1.37       1.0  T
   4    -38.2983227 -0.163996E-04  0.180E-02    1.38       1.0  T
   5    -38.2983235 -0.848938E-06  0.109E-02    1.38       1.6  T
   6    -38.2983243 -0.753181E-06  0.248E-03    1.38       7.2  T
   7    -38.2983243 -0.126642E-07  0.157E-03    1.38      11.4  T
   8    -38.2983243 -0.696173E-08  0.871E-04    1.38      20.6  T
   9    -38.2983243 -0.488633E-08  0.495E-04    1.38      36.3  T
     SCC iter.                  ...        0 min,  1.085 sec
     gradient                   ...        0 min,  0.276 sec
 * total energy  :   -37.6597699 Eh     change       -0.3697084E-03 Eh
   gradient norm :     0.0199853 Eh/α   predicted    -0.5284567E-03 (  42.94%)
   displ. norm   :     0.2549505 α      lambda       -0.7749535E-03
   maximum displ.:     0.1136152 α      in ANC's #6, #2, #1, ...

........................................................................
.............................. CYCLE   36 ..............................
........................................................................
   1    -38.3052415 -0.383052E+02  0.969E-02    1.39       0.0  T
   2    -38.3052448 -0.330106E-05  0.612E-02    1.39       1.0  T
   3    -38.3052362  0.860378E-05  0.281E-02    1.39       1.0  T
   4    -38.3052461 -0.996226E-05  0.107E-02    1.39       1.7  T
   5    -38.3052463 -0.236781E-06  0.573E-03    1.39       3.1  T
   6    -38.3052466 -0.238445E-06  0.125E-03    1.39      14.4  T
   7    -38.3052466 -0.891610E-08  0.519E-04    1.39      34.6  T
   8    -38.3052466 -0.456936E-09  0.441E-04    1.39      40.7  T
     SCC iter.                  ...        0 min,  1.136 sec
     gradient                   ...        0 min,  0.277 sec
 * total energy  :   -37.6602280 Eh     change       -0.4581109E-03 Eh
   gradient norm :     0.0113162 Eh/α   predicted    -0.4126637E-03 (  -9.92%)
   displ. norm   :     0.4299686 α      lambda       -0.6072926E-03
   maximum displ.:     0.2279036 α      in ANC's #3, #2, #8, ...

........................................................................
.............................. CYCLE   37 ..............................
........................................................................
   1    -38.3047430 -0.383047E+02  0.127E-01    1.38       0.0  T
   2    -38.3047483 -0.526936E-05  0.779E-02    1.38       1.0  T
   3    -38.3047109  0.373971E-04  0.476E-02    1.37       1.0  T
   4    -38.3047550 -0.441119E-04  0.115E-02    1.38       1.6  T
   5    -38.3047556 -0.627237E-06  0.654E-03    1.38       2.7  T
   6    -38.3047557 -0.562534E-07  0.333E-03    1.38       5.4  T
   7    -38.3047558 -0.763072E-07  0.155E-03    1.38      11.6  T
   8    -38.3047558  0.991207E-11  0.124E-03    1.38      14.5  T
   9    -38.3047558 -0.386806E-08  0.490E-04    1.38      36.6  T
  10    -38.3047558 -0.119151E-09  0.145E-04    1.38     124.0  T
     SCC iter.                  ...        0 min,  1.251 sec
     gradient                   ...        0 min,  0.345 sec
 * total energy  :   -37.6606090 Eh     change       -0.3810338E-03 Eh
   gradient norm :     0.0101559 Eh/α   predicted    -0.3597867E-03 (  -5.58%)
   displ. norm   :     0.4818129 α      lambda       -0.4226527E-03
   maximum displ.:     0.2784899 α      in ANC's #3, #2, #4, ...

........................................................................
.............................. CYCLE   38 ..............................
........................................................................
   1    -38.3025221 -0.383025E+02  0.850E-02    1.36       0.0  T
   2    -38.3025262 -0.409473E-05  0.537E-02    1.37       1.0  T
   3    -38.3025157  0.105408E-04  0.313E-02    1.36       1.0  T
   4    -38.3025301 -0.144231E-04  0.942E-03    1.36       1.9  T
   5    -38.3025305 -0.376929E-06  0.610E-03    1.36       2.9  T
   6    -38.3025305 -0.187867E-07  0.207E-03    1.36       8.7  T
   7    -38.3025306 -0.649191E-07  0.825E-04    1.36      21.8  T
   8    -38.3025306 -0.348579E-08  0.531E-04    1.36      33.8  T
     SCC iter.                  ...        0 min,  0.856 sec
     gradient                   ...        0 min,  0.233 sec
 * total energy  :   -37.6608451 Eh     change       -0.2361085E-03 Eh
   gradient norm :     0.0115991 Eh/α   predicted    -0.2603892E-03 (  10.28%)
   displ. norm   :     0.1774095 α      lambda       -0.3023147E-03
   maximum displ.:     0.0956809 α      in ANC's #2, #5, #3, ...

........................................................................
.............................. CYCLE   39 ..............................
........................................................................
   1    -38.3099208 -0.383099E+02  0.712E-02    1.38       0.0  T
   2    -38.3099258 -0.504691E-05  0.422E-02    1.38       1.0  T
   3    -38.3099199  0.591636E-05  0.322E-02    1.38       1.0  T
   4    -38.3099299 -0.997245E-05  0.636E-03    1.38       2.8  T
   5    -38.3099300 -0.116927E-06  0.599E-03    1.38       3.0  T
   6    -38.3099301 -0.114121E-06  0.133E-03    1.38      13.6  T
   7    -38.3099301 -0.310518E-08  0.662E-04    1.38      27.2  T
   8    -38.3099301 -0.193572E-08  0.412E-04    1.38      43.6  T
     SCC iter.                  ...        0 min,  0.710 sec
     gradient                   ...        0 min,  0.136 sec
 * total energy  :   -37.6609902 Eh     change       -0.1451005E-03 Eh
   gradient norm :     0.0067682 Eh/α   predicted    -0.1559166E-03 (   7.45%)
   displ. norm   :     0.2927054 α      lambda       -0.1908132E-03
   maximum displ.:     0.1681401 α      in ANC's #2, #3, #1, ...

........................................................................
.............................. CYCLE   40 ..............................
........................................................................
   1    -38.3071983 -0.383072E+02  0.768E-02    1.38       0.0  T
   2    -38.3072020 -0.366611E-05  0.509E-02    1.38       1.0  T
   3    -38.3071881  0.138972E-04  0.286E-02    1.37       1.0  T
   4    -38.3072053 -0.172796E-04  0.109E-02    1.38       1.6  T
   5    -38.3072060 -0.679882E-06  0.582E-03    1.38       3.1  T
   6    -38.3072060  0.203798E-07  0.284E-03    1.38       6.3  T
   7    -38.3072061 -0.971923E-07  0.105E-03    1.38      17.1  T
   8    -38.3072061 -0.610655E-09  0.721E-04    1.38      24.9  T
   9    -38.3072061 -0.131666E-08  0.292E-04    1.38      61.4  T
     SCC iter.                  ...        0 min,  0.568 sec
     gradient                   ...        0 min,  0.081 sec
 * total energy  :   -37.6611235 Eh     change       -0.1333028E-03 Eh
   gradient norm :     0.0047542 Eh/α   predicted    -0.1035807E-03 ( -22.30%)
   displ. norm   :     0.2609391 α      lambda       -0.1518916E-03
   maximum displ.:     0.1623191 α      in ANC's #2, #3, #1, ...

........................................................................
.............................. CYCLE   41 ..............................
........................................................................
   1    -38.3068623 -0.383069E+02  0.666E-02    1.37       0.0  T
   2    -38.3068654 -0.306641E-05  0.437E-02    1.37       1.0  T
   3    -38.3068559  0.946629E-05  0.273E-02    1.36       1.0  T
   4    -38.3068686 -0.127124E-04  0.731E-03    1.37       2.5  T
   5    -38.3068691 -0.460524E-06  0.399E-03    1.37       4.5  T
   6    -38.3068692 -0.733683E-07  0.195E-03    1.37       9.2  T
   7    -38.3068692 -0.180260E-07  0.938E-04    1.37      19.2  T
   8    -38.3068692 -0.607450E-09  0.669E-04    1.37      26.8  T
     SCC iter.                  ...        0 min,  0.504 sec
     gradient                   ...        0 min,  0.158 sec
 * total energy  :   -37.6612228 Eh     change       -0.9929729E-04 Eh
   gradient norm :     0.0043510 Eh/α   predicted    -0.8112159E-04 ( -18.30%)
   displ. norm   :     0.1950558 α      lambda       -0.1032029E-03
   maximum displ.:     0.1236929 α      in ANC's #2, #1, #6, ...

........................................................................
.............................. CYCLE   42 ..............................
........................................................................
   1    -38.3074398 -0.383074E+02  0.530E-02    1.36       0.0  T
   2    -38.3074411 -0.130696E-05  0.331E-02    1.37       1.0  T
   3    -38.3074373  0.376900E-05  0.155E-02    1.36       1.2  T
   4    -38.3074419 -0.459895E-05  0.346E-03    1.37       5.2  T
   5    -38.3074420 -0.775073E-07  0.218E-03    1.37       8.2  T
   6    -38.3074420 -0.168933E-07  0.767E-04    1.37      23.4  T
   7    -38.3074420 -0.414200E-08  0.501E-04    1.37      35.8  T
     SCC iter.                  ...        0 min,  0.664 sec
     gradient                   ...        0 min,  0.178 sec
 * total energy  :   -37.6612887 Eh     change       -0.6586763E-04 Eh
   gradient norm :     0.0042542 Eh/α   predicted    -0.5356865E-04 ( -18.67%)
   displ. norm   :     0.1843356 α      lambda       -0.9475362E-04
   maximum displ.:     0.1034441 α      in ANC's #2, #6, #1, ...
 * RMSD in coord.:     0.9602931 α      energy gain  -0.4794245E-02 Eh

generating ANC from model Hessian ...
Using Lindh-Hessian (1995)
 Shifting diagonal of input Hessian by    1.0021791019186590E-002
 Lowest  eigenvalues of input Hessian
    0.010000    0.000000    0.000000    0.000000    0.000000    0.000000
    0.000000    0.010333    0.010549    0.010618    0.010948    0.011671
    0.011789    0.012056    0.012124    0.013758    0.017600    0.017789
 Highest eigenvalues
    1.735789    1.737469    1.739592    1.742528    2.431431    3.097892


........................................................................
.............................. CYCLE   43 ..............................
........................................................................
   1    -38.3094470 -0.383094E+02  0.639E-02    1.37       0.0  T
   2    -38.3094480 -0.986340E-06  0.392E-02    1.37       1.0  T
   3    -38.3094413  0.674257E-05  0.214E-02    1.37       1.0  T
   4    -38.3094490 -0.768880E-05  0.359E-03    1.37       5.0  T
   5    -38.3094491 -0.118885E-06  0.247E-03    1.37       7.3  T
   6    -38.3094491 -0.250509E-07  0.804E-04    1.37      22.3  T
   7    -38.3094491 -0.209439E-08  0.427E-04    1.37      42.0  T
     SCC iter.                  ...        0 min,  0.512 sec
     gradient                   ...        0 min,  0.161 sec
 * total energy  :   -37.6613454 Eh     change       -0.5669040E-04 Eh
   gradient norm :     0.0045795 Eh/α   predicted     0.0000000E+00 (-100.00%)
   displ. norm   :     0.0441183 α      lambda       -0.1416936E-04
   maximum displ.:     0.0294929 α      in ANC's #1, #5, #11, ...

........................................................................
.............................. CYCLE   44 ..............................
........................................................................
   1    -38.3095679 -0.383096E+02  0.230E-02    1.37       0.0  T
   2    -38.3095684 -0.540291E-06  0.117E-02    1.37       1.5  T
   3    -38.3095681  0.333638E-06  0.118E-02    1.37       1.5  T
   4    -38.3095688 -0.718561E-06  0.412E-03    1.37       4.4  T
   5    -38.3095688  0.217001E-07  0.350E-03    1.37       5.1  T
   6    -38.3095688 -0.650355E-07  0.936E-04    1.37      19.2  T
   7    -38.3095689 -0.106931E-07  0.224E-04    1.37      80.0  T
     SCC iter.                  ...        0 min,  0.546 sec
     gradient                   ...        0 min,  0.033 sec
 * total energy  :   -37.6613814 Eh     change       -0.3601291E-04 Eh
   gradient norm :     0.0014194 Eh/α   predicted    -0.2561750E-04 ( -28.87%)
   displ. norm   :     0.1159187 α      lambda       -0.4164420E-04
   maximum displ.:     0.0786224 α      in ANC's #1, #5, #11, ...

........................................................................
.............................. CYCLE   45 ..............................
........................................................................
   1    -38.3097005 -0.383097E+02  0.557E-02    1.37       0.0  T
   2    -38.3097027 -0.210645E-05  0.329E-02    1.37       1.0  T
   3    -38.3096986  0.409525E-05  0.229E-02    1.38       1.0  T
   4    -38.3097039 -0.538927E-05  0.436E-03    1.37       4.1  T
   5    -38.3097040 -0.269286E-07  0.458E-03    1.37       3.9  T
   6    -38.3097041 -0.137163E-06  0.136E-03    1.37      13.2  T
   7    -38.3097041 -0.119776E-07  0.525E-04    1.37      34.2  T
   8    -38.3097041 -0.111681E-08  0.295E-04    1.37      60.8  T
     SCC iter.                  ...        0 min,  0.641 sec
     gradient                   ...        0 min,  0.219 sec
 * total energy  :   -37.6614129 Eh     change       -0.3154135E-04 Eh
   gradient norm :     0.0034987 Eh/α   predicted    -0.2099442E-04 ( -33.44%)
   displ. norm   :     0.0461285 α      lambda       -0.1955009E-04
   maximum displ.:     0.0318694 α      in ANC's #1, #5, #3, ...

........................................................................
.............................. CYCLE   46 ..............................
........................................................................
   1    -38.3095921 -0.383096E+02  0.135E-02    1.37       0.0  T
   2    -38.3095922 -0.149389E-06  0.777E-03    1.37       2.3  T
   3    -38.3095921  0.122447E-06  0.523E-03    1.37       3.4  T
   4    -38.3095923 -0.212523E-06  0.121E-03    1.37      14.9  T
   5    -38.3095923 -0.629902E-08  0.757E-04    1.37      23.7  T
   6    -38.3095923 -0.124915E-08  0.536E-04    1.37      33.5  T
     SCC iter.                  ...        0 min,  0.518 sec
     gradient                   ...        0 min,  0.211 sec
 * total energy  :   -37.6614288 Eh     change       -0.1583121E-04 Eh
   gradient norm :     0.0020790 Eh/α   predicted    -0.9803653E-05 ( -38.07%)
   displ. norm   :     0.0823080 α      lambda       -0.2907856E-04
   maximum displ.:     0.0572818 α      in ANC's #1, #5, #3, ...

........................................................................
.............................. CYCLE   47 ..............................
........................................................................
   1    -38.3095249 -0.383095E+02  0.246E-02    1.37       0.0  T
   2    -38.3095250 -0.151705E-06  0.153E-02    1.38       1.2  T
   3    -38.3095247  0.349756E-06  0.694E-03    1.37       2.6  T
   4    -38.3095251 -0.428718E-06  0.134E-03    1.38      13.4  T
   5    -38.3095251  0.411352E-08  0.109E-03    1.38      16.4  T
   6    -38.3095251 -0.844727E-08  0.360E-04    1.38      49.9  T
   7    -38.3095251 -0.227637E-08  0.125E-04    1.38     143.8  T
     SCC iter.                  ...        0 min,  0.659 sec
     gradient                   ...        0 min,  0.191 sec
 * total energy  :   -37.6614508 Eh     change       -0.2203649E-04 Eh
   gradient norm :     0.0012419 Eh/α   predicted    -0.1464221E-04 ( -33.55%)
   displ. norm   :     0.1312814 α      lambda       -0.1979724E-04
   maximum displ.:     0.0923297 α      in ANC's #1, #5, #3, ...

........................................................................
.............................. CYCLE   48 ..............................
........................................................................
   1    -38.3093572 -0.383094E+02  0.361E-02    1.38       0.0  T
   2    -38.3093574 -0.252344E-06  0.230E-02    1.38       1.0  T
   3    -38.3093567  0.686763E-06  0.713E-03    1.38       2.5  T
   4    -38.3093575 -0.801987E-06  0.210E-03    1.38       8.6  T
   5    -38.3093575  0.745125E-09  0.117E-03    1.38      15.3  T
   6    -38.3093576 -0.140355E-07  0.513E-04    1.38      35.0  T
   7    -38.3093576 -0.219772E-08  0.249E-04    1.38      72.2  T
     SCC iter.                  ...        0 min,  0.638 sec
     gradient                   ...        0 min,  0.158 sec
 * total energy  :   -37.6614725 Eh     change       -0.2166992E-04 Eh
   gradient norm :     0.0021049 Eh/α   predicted    -0.9975470E-05 ( -53.97%)
   displ. norm   :     0.0623539 α      lambda       -0.1329842E-04
   maximum displ.:     0.0446795 α      in ANC's #1, #5, #4, ...

........................................................................
.............................. CYCLE   49 ..............................
........................................................................
   1    -38.3094600 -0.383095E+02  0.182E-02    1.38       0.0  T
   2    -38.3094601 -0.108078E-06  0.113E-02    1.38       1.6  T
   3    -38.3094598  0.323853E-06  0.501E-03    1.38       3.6  T
   4    -38.3094602 -0.391205E-06  0.159E-03    1.38      11.3  T
   5    -38.3094602 -0.253838E-08  0.909E-04    1.38      19.8  T
   6    -38.3094602 -0.134042E-08  0.383E-04    1.38      46.9  T
     SCC iter.                  ...        0 min,  0.533 sec
     gradient                   ...        0 min,  0.225 sec
 * total energy  :   -37.6614844 Eh     change       -0.1196072E-04 Eh
   gradient norm :     0.0014866 Eh/α   predicted    -0.6675764E-05 ( -44.19%)
   displ. norm   :     0.1211285 α      lambda       -0.1744296E-04
   maximum displ.:     0.0863224 α      in ANC's #1, #4, #5, ...

........................................................................
.............................. CYCLE   50 ..............................
........................................................................
   1    -38.3097031 -0.383097E+02  0.346E-02    1.38       0.0  T
   2    -38.3097038 -0.696845E-06  0.206E-02    1.38       1.0  T
   3    -38.3097024  0.142246E-05  0.115E-02    1.38       1.6  T
   4    -38.3097043 -0.193972E-05  0.328E-03    1.38       5.5  T
   5    -38.3097043 -0.212299E-07  0.194E-03    1.38       9.2  T
   6    -38.3097043  0.484706E-08  0.780E-04    1.38      23.0  T
   7    -38.3097043 -0.859259E-08  0.416E-04    1.38      43.2  T
     SCC iter.                  ...        0 min,  0.638 sec
     gradient                   ...        0 min,  0.078 sec
 * total energy  :   -37.6615041 Eh     change       -0.1962036E-04 Eh
   gradient norm :     0.0007763 Eh/α   predicted    -0.8778585E-05 ( -55.26%)
   displ. norm   :     0.0875380 α      lambda       -0.8822221E-05
   maximum displ.:     0.0650255 α      in ANC's #1, #4, #5, ...

........................................................................
.............................. CYCLE   51 ..............................
........................................................................
   1    -38.3097138 -0.383097E+02  0.264E-02    1.39       0.0  T
   2    -38.3097141 -0.337991E-06  0.162E-02    1.39       1.1  T
   3    -38.3097133  0.865252E-06  0.847E-03    1.39       2.1  T
   4    -38.3097144 -0.111991E-05  0.235E-03    1.39       7.7  T
   5    -38.3097144 -0.124044E-07  0.125E-03    1.39      14.4  T
   6    -38.3097144 -0.185400E-08  0.505E-04    1.39      35.6  T
   7    -38.3097144 -0.140113E-08  0.283E-04    1.39      63.6  T
     SCC iter.                  ...        0 min,  0.590 sec
     gradient                   ...        0 min,  0.032 sec
 * total energy  :   -37.6615149 Eh     change       -0.1085887E-04 Eh
   gradient norm :     0.0008316 Eh/α   predicted    -0.4427637E-05 ( -59.23%)
   displ. norm   :     0.0689860 α      lambda       -0.7087997E-05
   maximum displ.:     0.0516138 α      in ANC's #1, #4, #2, ...

........................................................................
.............................. CYCLE   52 ..............................
........................................................................
   1    -38.3098186 -0.383098E+02  0.175E-02    1.39       0.0  T
   2    -38.3098188 -0.151501E-06  0.117E-02    1.39       1.5  T
   3    -38.3098183  0.455854E-06  0.488E-03    1.39       3.7  T
   4    -38.3098189 -0.559671E-06  0.148E-03    1.39      12.2  T
   5    -38.3098189 -0.896190E-08  0.856E-04    1.39      21.0  T
   6    -38.3098189 -0.164360E-08  0.303E-04    1.39      59.3  T
     SCC iter.                  ...        0 min,  0.546 sec
     gradient                   ...        0 min,  0.107 sec
 * total energy  :   -37.6615239 Eh     change       -0.8961540E-05 Eh
   gradient norm :     0.0005508 Eh/α   predicted    -0.3551859E-05 ( -60.37%)
   displ. norm   :     0.0811515 α      lambda       -0.7920669E-05
   maximum displ.:     0.0578155 α      in ANC's #1, #4, #2, ...

........................................................................
.............................. CYCLE   53 ..............................
........................................................................
   1    -38.3097589 -0.383098E+02  0.174E-02    1.39       0.0  T
   2    -38.3097590 -0.114659E-06  0.115E-02    1.39       1.6  T
   3    -38.3097586  0.428978E-06  0.545E-03    1.39       3.3  T
   4    -38.3097591 -0.503006E-06  0.157E-03    1.39      11.5  T
   5    -38.3097591 -0.229269E-07  0.875E-04    1.39      20.5  T
   6    -38.3097591 -0.109191E-08  0.292E-04    1.39      61.5  T
     SCC iter.                  ...        0 min,  0.667 sec
     gradient                   ...        0 min,  0.073 sec
 * total energy  :   -37.6615340 Eh     change       -0.1016599E-04 Eh
   gradient norm :     0.0004560 Eh/α   predicted    -0.3973092E-05 ( -60.92%)
   displ. norm   :     0.1061629 α      lambda       -0.8758689E-05
   maximum displ.:     0.0745840 α      in ANC's #1, #4, #5, ...

........................................................................
.............................. CYCLE   54 ..............................
........................................................................
   1    -38.3095543 -0.383096E+02  0.262E-02    1.39       0.0  T
   2    -38.3095544 -0.119593E-06  0.169E-02    1.39       1.1  T
   3    -38.3095536  0.805956E-06  0.633E-03    1.39       2.8  T
   4    -38.3095545 -0.876322E-06  0.205E-03    1.39       8.7  T
   5    -38.3095545 -0.280427E-07  0.112E-03    1.39      16.0  T
   6    -38.3095545 -0.259113E-08  0.330E-04    1.39      54.5  T
   7    -38.3095545 -0.493188E-09  0.189E-04    1.39      95.1  T
     SCC iter.                  ...        0 min,  0.652 sec
     gradient                   ...        0 min,  0.061 sec
 * total energy  :   -37.6615450 Eh     change       -0.1099816E-04 Eh
   gradient norm :     0.0005450 Eh/α   predicted    -0.4402413E-05 ( -59.97%)
   displ. norm   :     0.1114041 α      lambda       -0.7255701E-05
   maximum displ.:     0.0786343 α      in ANC's #1, #4, #5, ...

........................................................................
.............................. CYCLE   55 ..............................
........................................................................
   1    -38.3095958 -0.383096E+02  0.290E-02    1.38       0.0  T
   2    -38.3095959 -0.131512E-06  0.187E-02    1.39       1.0  T
   3    -38.3095946  0.135183E-05  0.845E-03    1.38       2.1  T
   4    -38.3095961 -0.147937E-05  0.195E-03    1.39       9.2  T
   5    -38.3095961 -0.292384E-07  0.110E-03    1.39      16.3  T
   6    -38.3095961 -0.259377E-08  0.302E-04    1.39      59.5  T
   7    -38.3095961 -0.292872E-09  0.203E-04    1.39      88.3  T
     SCC iter.                  ...        0 min,  0.566 sec
     gradient                   ...        0 min,  0.167 sec
 * total energy  :   -37.6615536 Eh     change       -0.8587453E-05 Eh
   gradient norm :     0.0003932 Eh/α   predicted    -0.3648031E-05 ( -57.52%)
   displ. norm   :     0.0890054 α      lambda       -0.4148811E-05
   maximum displ.:     0.0640544 α      in ANC's #1, #4, #5, ...

........................................................................
.............................. CYCLE   56 ..............................
........................................................................
   1    -38.3096179 -0.383096E+02  0.265E-02    1.38       0.0  T
   2    -38.3096180 -0.103119E-06  0.171E-02    1.39       1.1  T
   3    -38.3096169  0.103010E-05  0.712E-03    1.38       2.5  T
   4    -38.3096181 -0.111749E-05  0.209E-03    1.39       8.6  T
   5    -38.3096181 -0.262693E-07  0.107E-03    1.39      16.8  T
   6    -38.3096181 -0.125876E-08  0.328E-04    1.39      54.7  T
   7    -38.3096181 -0.506034E-09  0.205E-04    1.39      87.6  T
     SCC iter.                  ...        0 min,  0.615 sec
     gradient                   ...        0 min,  0.165 sec
 * total energy  :   -37.6615582 Eh     change       -0.4612659E-05 Eh
   gradient norm :     0.0004079 Eh/α   predicted    -0.2082302E-05 ( -54.86%)
   displ. norm   :     0.0890054 α      lambda        0.0000000E+00
   maximum displ.:     0.0640544 α      in ANC's #1, #4, #5, ...

   *** GEOMETRY OPTIMIZATION CONVERGED AFTER 56 ITERATIONS ***

------------------------------------------------------------------------
 total energy gain   :        -0.1601665 Eh     -100.5060 kcal/mol
 total RMSD          :         1.2842652 a0        0.6796 Å
 total power (kW/mol):        -7.5092327 (step)   -6.0195 (real)
------------------------------------------------------------------------

 ANCopt (total)                0 d,  0 h,  1 min,  9.859 sec
 optimizer setup                ...        0 min,  0.000 sec (  0.001%)
 model hessian                  ...        0 min,  0.163 sec (  0.234%)
 ANC generation                 ...        0 min,  0.068 sec (  0.097%)
 coordinate transformation      ...        0 min,  0.002 sec (  0.003%)
 single point calculation       ...        1 min,  8.305 sec ( 97.775%)
 optimization log               ...        0 min,  0.006 sec (  0.008%)
 hessian update                 ...        0 min,  1.026 sec (  1.469%)
 rational function              ...        0 min,  0.286 sec (  0.409%)

================
 final structure:
================
31
 xtb: 6.5.1 (b24c23e)
Zr          -1.27817222213172       -0.01648466246211        0.41065710398237
C           -1.18311888349946        1.20753755733557       -1.52595509093082
C           -0.24484895718264       -2.19506789491793        1.07445474804021
C            0.49048270744377       -1.68666612847700       -0.02158364222797
C           -0.36351628925307       -1.67915141342341       -1.15313066714088
C           -1.63325421577850       -2.15439694641285       -0.74726271598281
C           -1.56000500756696       -2.46761013851880        0.63702687128821
H            0.16434852799868       -2.47007759442987        2.03918692273948
H            1.55845522300532       -1.49653338453930       -0.03985931765997
H           -0.05290605509112       -1.49946824409578       -2.17489954744480
H           -2.44892422982053       -2.40010730502217       -1.41785504429921
H           -2.30024183678256       -3.01899094815394        1.20630828026045
C            0.31712555184883        0.56752407026112        2.20990418217287
C           -0.94224738357366        0.38653624063329        2.83234869991262
C           -1.80273660284257        1.41595333067084        2.37915517117254
C           -1.08755819480354        2.21173281962904        1.45491801237576
C            0.22488241983252        1.67938823134489        1.34190436317558
H            1.23118341659918        0.04279116907225        2.46261098883018
H           -1.14968400157143       -0.29552753673690        3.65025171355247
H           -2.76729893578852        1.66558897794491        2.80651787701008
H           -1.41613622634483        3.15808465574496        1.04316776125378
H            1.05216650892788        2.14806713757847        0.81997392364815
H           -0.11636818632507        1.33444350696513       -1.77899040031692
H           -1.65533855925359        0.71132971434383       -2.38624100409645
H           -1.61076130650730        2.21770605404583       -1.46619836510978
C           -3.82458604112995       -0.45082376922915        0.73667219382369
C           -3.75428808247335        0.60369652556364       -0.08888082941986
H           -3.71434628467439        1.62710866962841        0.28419127363706
H           -3.95557182133921        0.48617339028326       -1.15195164588547
H           -3.84567727225912       -0.33771378006248        1.82190628523626
H           -4.11613810968339       -1.42550733455545        0.35473620842146

 Bond Distances (Angstroems)
 ---------------------------
Zr1-C2=2.2930        Zr1-C3=2.5009        Zr1-C4=2.4707        Zr1-C5=2.4590        Zr1-C6=2.4571        Zr1-C7=2.4776        
Zr1-C13=2.4745       Zr1-C14=2.4779       Zr1-C15=2.4904       Zr1-C16=2.4682       Zr1-C17=2.4500       Zr1-C26=2.6037       
Zr1-C27=2.6010       C2-Zr1=2.2930        C2-H23=1.1037        C2-H24=1.0997        C2-H25=1.0986        C3-Zr1=2.5009        
C3-C4=1.4144         C3-C7=1.4125         C3-H8=1.0834         C4-Zr1=2.4707        C4-C3=1.4144         C4-C5=1.4177         
C4-H9=1.0849         C5-Zr1=2.4590        C5-C4=1.4177         C5-C6=1.4152         C5-H10=1.0829        C6-Zr1=2.4571        
C6-C5=1.4152         C6-C7=1.4212         C6-H11=1.0842        C7-Zr1=2.4776        C7-C3=1.4125         C7-C6=1.4212         
C7-H12=1.0845        H8-C3=1.0834         H9-C4=1.0849         H10-C5=1.0829        H11-C6=1.0842        H12-C7=1.0845        
C13-Zr1=2.4745       C13-C14=1.4164       C13-C17=1.4136       C13-H18=1.0838       C14-Zr1=2.4779       C14-C13=1.4164       
C14-C15=1.4162       C14-H19=1.0850       C15-Zr1=2.4904       C15-C14=1.4162       C15-C16=1.4138       C15-H20=1.0841       
C16-Zr1=2.4682       C16-C15=1.4138       C16-C17=1.4208       C16-H21=1.0831       C17-Zr1=2.4500       C17-C13=1.4136       
C17-C16=1.4208       C17-H22=1.0847       H18-C13=1.0838       H19-C14=1.0850       H20-C15=1.0841       H21-C16=1.0831       
H22-C17=1.0847       H23-C2=1.1037        H24-C2=1.0997        H25-C2=1.0986        C26-Zr1=2.6037       C26-C27=1.3411       
C26-H30=1.0913       C26-H31=1.0867       C27-Zr1=2.6010       C27-C26=1.3411       C27-H28=1.0900       C27-H29=1.0883       
H28-C27=1.0900       H29-C27=1.0883       H30-C26=1.0913       H31-C26=1.0867       
 C  H  Rav=1.0882 sigma=0.0063  Rmin=1.0829  Rmax=1.1037    17
 C  C  Rav=1.4093 sigma=0.0218  Rmin=1.3411  Rmax=1.4212    11
 Zr C  Rav=2.4788 sigma=0.0721  Rmin=2.2930  Rmax=2.6037    13

 selected bond angles (degree)
 --------------------
C3-Zr1-C2=132.23               C4-Zr1-C2=100.57               C4-Zr1-C3= 33.05               C5-Zr1-C2= 78.95               
C5-Zr1-C3= 54.98               C5-Zr1-C4= 33.42               C6-Zr1-C2= 94.15               C6-Zr1-C3= 55.03               
C6-Zr1-C4= 55.45               C6-Zr1-C5= 33.46               C7-Zr1-C2=127.59               C7-Zr1-C3= 32.96               
C7-Zr1-C4= 55.16               C7-Zr1-C5= 55.35               C7-Zr1-C6= 33.47               C13-Zr1-C2=117.48              
C13-Zr1-C3= 75.30              C13-Zr1-C4= 79.94              C13-Zr1-C5=112.47              C13-Zr1-C6=129.88              
C13-Zr1-C7=103.91              C14-Zr1-C2=137.14              C14-Zr1-C3= 80.00              C14-Zr1-C4=100.60              
C14-Zr1-C5=132.93              C14-Zr1-C6=128.44              C14-Zr1-C7= 94.99              C14-Zr1-C13= 33.24             
C15-Zr1-C2=111.67              C15-Zr1-C3=112.23              C15-Zr1-C4=132.68              C15-Zr1-C5=165.92              
C15-Zr1-C6=147.41              C15-Zr1-C7=118.22              C15-Zr1-C13= 54.92             C15-Zr1-C14= 33.12             
C16-Zr1-C2= 82.66              C16-Zr1-C3=129.96              C16-Zr1-C4=128.98              C16-Zr1-C5=148.30              
C16-Zr1-C6=174.90              C16-Zr1-C7=149.68              C16-Zr1-C13= 55.22             C16-Zr1-C14= 55.19             
C16-Zr1-C15= 33.13             C17-Zr1-C2= 85.76              C17-Zr1-C3=104.40              C17-Zr1-C4= 95.47              
C17-Zr1-C5=118.79              C17-Zr1-C6=150.46              C17-Zr1-C7=136.04              C17-Zr1-C13= 33.36             
C17-Zr1-C14= 55.44             C17-Zr1-C15= 55.29             C17-Zr1-C16= 33.58             C26-Zr1-C2=103.61              
C26-Zr1-C3=103.03              C26-Zr1-C4=127.53              C26-Zr1-C5=109.31              C26-Zr1-C6= 76.85              
C26-Zr1-C7= 73.28              C26-Zr1-C13=125.37             C26-Zr1-C14= 92.14             C26-Zr1-C15= 77.93             
C26-Zr1-C16= 99.97             C26-Zr1-C17=131.90             C27-Zr1-C2= 75.52              C27-Zr1-C3=130.69              
C27-Zr1-C4=144.00              C27-Zr1-C5=113.15              C27-Zr1-C6= 88.82              C27-Zr1-C7= 98.35              
C27-Zr1-C13=134.19             C27-Zr1-C14=106.14             C27-Zr1-C15= 79.29             C27-Zr1-C16= 86.53             
C27-Zr1-C17=119.47             C27-Zr1-C26= 29.86             H23-C2-Zr1=107.16              H24-C2-Zr1=113.71              
H24-C2-H23=106.71              H25-C2-Zr1=115.39              H25-C2-H23=106.44              H25-C2-H24=106.88              
C4-C3-Zr1= 72.30               C7-C3-Zr1= 72.61               C7-C3-C4=108.27                H8-C3-Zr1=127.84               
H8-C3-C4=125.80                H8-C3-C7=125.34                C3-C4-Zr1= 74.65               C5-C4-Zr1= 72.83               
C5-C4-C3=107.89                H9-C4-Zr1=126.10               H9-C4-C3=126.00                H9-C4-C5=125.35                
C4-C5-Zr1= 73.74               C6-C5-Zr1= 73.20               C6-C5-C4=108.05                H10-C5-Zr1=126.48              
H10-C5-C4=125.53               H10-C5-C6=125.71               C5-C6-Zr1= 73.34               C7-C6-Zr1= 74.06               
C7-C6-C5=107.89                H11-C6-Zr1=126.68              H11-C6-C5=125.01               H11-C6-C7=126.25               
C3-C7-Zr1= 74.43               C6-C7-Zr1= 72.47               C6-C7-C3=107.88                H12-C7-Zr1=128.95              
H12-C7-C3=124.82               H12-C7-C6=126.03               

 selected dihedral angles (degree)
 ---------------------------------
H23-C2-Zr1-C3=308.11          H23-C2-Zr1-C4=318.96          H23-C2-Zr1-C5=293.31          H23-C2-Zr1-C6=263.35          
H23-C2-Zr1-C7=265.10          H23-C2-Zr1-C13= 43.03         H23-C2-Zr1-C14= 77.38         H23-C2-Zr1-C15=103.66         
H23-C2-Zr1-C16= 87.35         H23-C2-Zr1-C17= 53.74         H23-C2-Zr1-C26=185.89         H23-C2-Zr1-C27=175.65         
H24-C2-Zr1-C3= 65.77          H24-C2-Zr1-C4= 76.62          H24-C2-Zr1-C5= 50.97          H24-C2-Zr1-C6= 21.02          
H24-C2-Zr1-C7= 22.77          H24-C2-Zr1-C13=160.69         H24-C2-Zr1-C14=195.05         H24-C2-Zr1-C15=221.33         
H24-C2-Zr1-C16=205.02         H24-C2-Zr1-C17=171.40         H24-C2-Zr1-C26=303.56         H24-C2-Zr1-C27=293.32         
H25-C2-Zr1-C3=189.79          H25-C2-Zr1-C4=200.64          H25-C2-Zr1-C5=174.99          H25-C2-Zr1-C6=145.03          
H25-C2-Zr1-C7=146.78          H25-C2-Zr1-C13=284.70         H25-C2-Zr1-C14=319.06         H25-C2-Zr1-C15=345.34         
H25-C2-Zr1-C16=329.03         H25-C2-Zr1-C17=295.42         H25-C2-Zr1-C26= 67.57         H25-C2-Zr1-C27= 57.33         
C4-C3-Zr1-C2= 19.83           C4-C3-Zr1-C5= 37.66           C4-C3-Zr1-C6= 78.81           C4-C3-Zr1-C7=116.40           
C4-C3-Zr1-C13=265.87          C4-C3-Zr1-C14=232.16          C4-C3-Zr1-C15=224.38          C4-C3-Zr1-C16=257.47          
C4-C3-Zr1-C17=282.37          C4-C3-Zr1-C26=142.27          C4-C3-Zr1-C27=129.41          C7-C3-Zr1-C2=263.43           
C7-C3-Zr1-C4=243.60           C7-C3-Zr1-C5=281.26           C7-C3-Zr1-C6=322.41           C7-C3-Zr1-C13=149.47          
C7-C3-Zr1-C14=115.75          C7-C3-Zr1-C15=107.98          C7-C3-Zr1-C16=141.07          C7-C3-Zr1-C17=165.97          
C7-C3-Zr1-C26= 25.86          C7-C3-Zr1-C27= 13.01          H8-C3-Zr1-C2=141.81           H8-C3-Zr1-C4=121.98           
H8-C3-Zr1-C5=159.64           H8-C3-Zr1-C6=200.78           H8-C3-Zr1-C7=238.38           H8-C3-Zr1-C13= 27.85          
H8-C3-Zr1-C14=354.13          H8-C3-Zr1-C15=346.36          H8-C3-Zr1-C16= 19.45          H8-C3-Zr1-C17= 44.34          
H8-C3-Zr1-C26=264.24          H8-C3-Zr1-C27=251.39          C3-C4-Zr1-C2=194.81           C3-C4-Zr1-C5=245.27           
C3-C4-Zr1-C6=282.57           C3-C4-Zr1-C7=323.57           C3-C4-Zr1-C13= 78.47          C3-C4-Zr1-C14= 52.29          
C3-C4-Zr1-C15= 61.73          C3-C4-Zr1-C16=105.74          C3-C4-Zr1-C17=108.11          C3-C4-Zr1-C26=311.25          
C3-C4-Zr1-C27=274.68          C5-C4-Zr1-C2=309.53           C5-C4-Zr1-C3=114.73           C5-C4-Zr1-C6= 37.30           
C5-C4-Zr1-C7= 78.30           C5-C4-Zr1-C13=193.20          C5-C4-Zr1-C14=167.02          C5-C4-Zr1-C15=176.45          
C5-C4-Zr1-C16=220.46          C5-C4-Zr1-C17=222.84          C5-C4-Zr1-C26= 65.97          C5-C4-Zr1-C27= 29.40          
H9-C4-Zr1-C2= 71.15           H9-C4-Zr1-C3=236.34           H9-C4-Zr1-C5=121.62           H9-C4-Zr1-C6=158.91           
H9-C4-Zr1-C7=199.92           H9-C4-Zr1-C13=314.82          H9-C4-Zr1-C14=288.64          H9-C4-Zr1-C15=298.07          
H9-C4-Zr1-C16=342.08          H9-C4-Zr1-C17=344.46          H9-C4-Zr1-C26=187.59          H9-C4-Zr1-C27=151.02          
Zr1-C4-C3-C7= 64.18           Zr1-C4-C3-H8=235.68           C5-C4-C3-Zr1=294.22           C5-C4-C3-C7=358.40            
C5-C4-C3-H8=169.90            H9-C4-C3-Zr1=123.76           H9-C4-C3-C7=187.93            H9-C4-C3-H8=359.44            
C4-C5-Zr1-C2=129.42           C4-C5-Zr1-C3=322.78           C4-C5-Zr1-C6=244.84           C4-C5-Zr1-C7=282.34           
C4-C5-Zr1-C13= 14.08          C4-C5-Zr1-C14=342.45          C4-C5-Zr1-C15=349.22          C4-C5-Zr1-C16= 73.74          
C4-C5-Zr1-C17= 50.56          C4-C5-Zr1-C26=230.12          C4-C5-Zr1-C27=198.29          C6-C5-Zr1-C2=244.58           
C6-C5-Zr1-C3= 77.94           C6-C5-Zr1-C4=115.16           C6-C5-Zr1-C7= 37.50           C6-C5-Zr1-C13=129.24          
C6-C5-Zr1-C14= 97.61          C6-C5-Zr1-C15=104.38          C6-C5-Zr1-C16=188.90          C6-C5-Zr1-C17=165.72          
C6-C5-Zr1-C26=345.28          C6-C5-Zr1-C27=313.45          H10-C5-Zr1-C2=  6.92          H10-C5-Zr1-C3=200.28          
H10-C5-Zr1-C4=237.50          H10-C5-Zr1-C6=122.34          H10-C5-Zr1-C7=159.84          H10-C5-Zr1-C13=251.58         
H10-C5-Zr1-C14=219.95         H10-C5-Zr1-C15=226.72         H10-C5-Zr1-C16=311.24         H10-C5-Zr1-C17=288.06         
H10-C5-Zr1-C26=107.62         H10-C5-Zr1-C27= 75.79         Zr1-C5-C4-C3= 66.99           Zr1-C5-C4-H9=237.53           
C6-C5-C4-Zr1=294.31           C6-C5-C4-C3=  1.30            C6-C5-C4-H9=171.84            H10-C5-C4-Zr1=123.56          
H10-C5-C4-C3=190.54           H10-C5-C4-H9=  1.09           C5-C6-Zr1-C2= 62.72           C5-C6-Zr1-C3=282.24           
C5-C6-Zr1-C4=322.74           C5-C6-Zr1-C7=245.24           C5-C6-Zr1-C13=291.16          C5-C6-Zr1-C14=247.90          
C5-C6-Zr1-C15=205.94          C5-C6-Zr1-C16=113.86          C5-C6-Zr1-C17=333.99          C5-C6-Zr1-C26=165.75          
C5-C6-Zr1-C27=138.11          C7-C6-Zr1-C2=177.49           C7-C6-Zr1-C3= 37.00           C7-C6-Zr1-C4= 77.51           
C7-C6-Zr1-C5=114.76           C7-C6-Zr1-C13= 45.92          C7-C6-Zr1-C14=  2.67          C7-C6-Zr1-C15=320.71          
C7-C6-Zr1-C16=228.62          C7-C6-Zr1-C17= 88.76          C7-C6-Zr1-C26=280.51          C7-C6-Zr1-C27=252.88          
H11-C6-Zr1-C2=301.13          H11-C6-Zr1-C3=160.64          H11-C6-Zr1-C4=201.15          H11-C6-Zr1-C5=238.41          
H11-C6-Zr1-C7=123.64          H11-C6-Zr1-C13=169.56         H11-C6-Zr1-C14=126.31         H11-C6-Zr1-C15= 84.35         
H11-C6-Zr1-C16=352.26         H11-C6-Zr1-C17=212.40         H11-C6-Zr1-C26= 44.16         H11-C6-Zr1-C27= 16.52         
Zr1-C6-C5-C4= 66.05           Zr1-C6-C5-H10=236.78          C7-C6-C5-Zr1=293.45           C7-C6-C5-C4=359.50            
C7-C6-C5-H10=170.23           H11-C6-C5-Zr1=123.49          H11-C6-C5-C4=189.54           H11-C6-C5-H10=  0.27          
C3-C7-Zr1-C2=111.82           C3-C7-Zr1-C4= 36.53           C3-C7-Zr1-C5= 77.50           C3-C7-Zr1-C6=114.98           
C3-C7-Zr1-C13=329.59          C3-C7-Zr1-C14=297.08          C3-C7-Zr1-C15=272.21          C3-C7-Zr1-C16=287.39          
C3-C7-Zr1-C17=340.22          C3-C7-Zr1-C26=206.34          C3-C7-Zr1-C27=189.93          C6-C7-Zr1-C2=356.84           
C6-C7-Zr1-C3=245.02           C6-C7-Zr1-C4=281.54           C6-C7-Zr1-C5=322.51           C6-C7-Zr1-C13=214.61          
C6-C7-Zr1-C14=182.10          C6-C7-Zr1-C15=157.22          C6-C7-Zr1-C16=172.41          C6-C7-Zr1-C17=225.24          
C6-C7-Zr1-C26= 91.36          C6-C7-Zr1-C27= 74.95          H12-C7-Zr1-C2=234.30          H12-C7-Zr1-C3=122.48          
H12-C7-Zr1-C4=159.00          H12-C7-Zr1-C5=199.98          H12-C7-Zr1-C6=237.46          H12-C7-Zr1-C13= 92.07         
H12-C7-Zr1-C14= 59.56         H12-C7-Zr1-C15= 34.69         H12-C7-Zr1-C16= 49.87         H12-C7-Zr1-C17=102.70         
H12-C7-Zr1-C26=328.82         H12-C7-Zr1-C27=312.41         Zr1-C7-C3-C4=296.03           Zr1-C7-C3-H8=124.48           
C6-C7-C3-Zr1= 65.26           C6-C7-C3-C4=  1.29            C6-C7-C3-H8=189.74            H12-C7-C3-Zr1=233.06          
H12-C7-C3-C4=169.08           H12-C7-C3-H8=357.53           Zr1-C7-C6-C5= 66.08           Zr1-C7-C6-H11=235.88          
C3-C7-C6-Zr1=293.44           C3-C7-C6-C5=359.52            C3-C7-C6-H11=169.32           H12-C7-C6-Zr1=125.83          
H12-C7-C6-C5=191.91           H12-C7-C6-H11=  1.71          

 CMA Distance (Angstroems)
 ---------------------------
R(CMA):  2.8999
           -------------------------------------------------
          |                Final Singlepoint                |
           -------------------------------------------------

          ...................................................
          :                      SETUP                      :
          :.................................................:
          :  # basis functions                  79          :
          :  # atomic orbitals                  78          :
          :  # shells                           46          :
          :  # electrons                        72          :
          :  max. iterations                   250          :
          :  Hamiltonian                  GFN2-xTB          :
          :  restarted?                      false          :
          :  GBSA solvation                  false          :
          :  PC potential                    false          :
          :  electronic temp.          300.0000000     K    :
          :  accuracy                    1.0000000          :
          :  -> integral cutoff          0.2500000E+02      :
          :  -> integral neglect         0.1000000E-07      :
          :  -> SCF convergence          0.1000000E-05 Eh   :
          :  -> wf. convergence          0.1000000E-03 e    :
          :  Broyden damping             0.4000000          :
          ...................................................

 iter      E             dE          RMSdq      gap      omega  full diag
   1    -38.3096181 -0.383096E+02  0.151E-04    1.39       0.0  T
   2    -38.3096181 -0.615330E-10  0.990E-05    1.39     181.4  T
   3    -38.3096181 -0.369411E-10  0.795E-05    1.39     225.8  T

   *** convergence criteria satisfied after 3 iterations ***

         #    Occupation            Energy/Eh            Energy/eV
      -------------------------------------------------------------
         1        2.0000           -0.8697360             -23.6667
       ...           ...                  ...                  ...
        30        2.0000           -0.5727458             -15.5852
        31        2.0000           -0.5712314             -15.5440
        32        2.0000           -0.5218544             -14.2004
        33        2.0000           -0.5174018             -14.0792
        34        2.0000           -0.5072598             -13.8032
        35        2.0000           -0.5019303             -13.6582
        36        2.0000           -0.4889703             -13.3056 (HOMO)
        37                         -0.4380538             -11.9201 (LUMO)
        38                         -0.4092045             -11.1350
        39                         -0.4077713             -11.0960
        40                         -0.4035766             -10.9819
        41                         -0.3964106             -10.7869
       ...                                ...                  ...
        78                          2.4691783              67.1898
      -------------------------------------------------------------
                  HL-Gap            0.0509166 Eh            1.3855 eV
             Fermi-level           -0.4635121 Eh          -12.6128 eV

 SCC (total)                   0 d,  0 h,  0 min,  0.649 sec
 SCC setup                      ...        0 min,  0.011 sec (  1.742%)
 Dispersion                     ...        0 min,  0.000 sec (  0.017%)
 classical contributions        ...        0 min,  0.007 sec (  1.019%)
 integral evaluation            ...        0 min,  0.048 sec (  7.414%)
 iterations                     ...        0 min,  0.323 sec ( 49.743%)
 molecular gradient             ...        0 min,  0.260 sec ( 40.031%)
 printout                       ...        0 min,  0.000 sec (  0.029%)

         :::::::::::::::::::::::::::::::::::::::::::::::::::::
         ::                     SUMMARY                     ::
         :::::::::::::::::::::::::::::::::::::::::::::::::::::
         :: total energy             -37.661558236471 Eh    ::
         :: gradient norm              0.000408143925 Eh/a0 ::
         :: HOMO-LUMO gap              1.385510006025 eV    ::
         ::.................................................::
         :: SCC energy               -38.309618085385 Eh    ::
         :: -> isotropic ES            0.093258106428 Eh    ::
         :: -> anisotropic ES         -0.013465789059 Eh    ::
         :: -> anisotropic XC          0.022278072793 Eh    ::
         :: -> dispersion             -0.028068583671 Eh    ::
         :: repulsion energy           0.647230383681 Eh    ::
         :: add. restraining           0.000114195762 Eh    ::
         :: total charge               1.000000000000 e     ::
         :::::::::::::::::::::::::::::::::::::::::::::::::::::

           -------------------------------------------------
          |                Property Printout                |
           -------------------------------------------------

    * Orbital Energies and Occupations

         #    Occupation            Energy/Eh            Energy/eV
      -------------------------------------------------------------
         1        2.0000           -0.8697360             -23.6667
       ...           ...                  ...                  ...
        24        2.0000           -0.5920782             -16.1113
        25        2.0000           -0.5910669             -16.0837
        26        2.0000           -0.5877396             -15.9932
        27        2.0000           -0.5870926             -15.9756
        28        2.0000           -0.5858737             -15.9424
        29        2.0000           -0.5854969             -15.9322
        30        2.0000           -0.5727458             -15.5852
        31        2.0000           -0.5712314             -15.5440
        32        2.0000           -0.5218544             -14.2004
        33        2.0000           -0.5174018             -14.0792
        34        2.0000           -0.5072598             -13.8032
        35        2.0000           -0.5019303             -13.6582
        36        2.0000           -0.4889703             -13.3056 (HOMO)
        37                         -0.4380538             -11.9201 (LUMO)
        38                         -0.4092045             -11.1350
        39                         -0.4077713             -11.0960
        40                         -0.4035766             -10.9819
        41                         -0.3964106             -10.7869
        42                         -0.3830980             -10.4246
        43                         -0.3047388              -8.2924
        44                         -0.3037857              -8.2664
        45                         -0.3007954              -8.1851
        46                         -0.3005360              -8.1780
        47                         -0.0678625              -1.8466
       ...                                ...                  ...
        78                          2.4691783              67.1898
      -------------------------------------------------------------
                  HL-Gap            0.0509166 Eh            1.3855 eV
             Fermi-level           -0.4635121 Eh          -12.6128 eV

     #   Z          covCN         q      C6AA      α(0)
     1  40 Zr       9.626     0.930   139.367    17.739
     2   6 C        3.566    -0.328    28.494     7.773
     3   6 C        3.741    -0.081    22.131     6.712
     4   6 C        3.754    -0.087    22.210     6.720
     5   6 C        3.759    -0.079    22.057     6.695
     6   6 C        3.759    -0.097    22.395     6.747
     7   6 C        3.750    -0.097    22.408     6.751
     8   1 H        0.925     0.082     1.962     2.190
     9   1 H        0.925     0.081     1.970     2.195
    10   1 H        0.925     0.091     1.870     2.138
    11   1 H        0.925     0.072     2.058     2.244
    12   1 H        0.925     0.071     2.078     2.254
    13   6 C        3.754    -0.083    22.147     6.710
    14   6 C        3.750    -0.092    22.321     6.738
    15   6 C        3.745    -0.098    22.449     6.759
    16   6 C        3.756    -0.088    22.240     6.724
    17   6 C        3.761    -0.084    22.149     6.709
    18   1 H        0.925     0.082     1.963     2.191
    19   1 H        0.925     0.075     2.028     2.227
    20   1 H        0.925     0.065     2.136     2.286
    21   1 H        0.925     0.083     1.953     2.185
    22   1 H        0.925     0.087     1.906     2.159
    23   1 H        0.928     0.058     2.220     2.330
    24   1 H        0.925     0.051     2.314     2.379
    25   1 H        0.924     0.054     2.273     2.358
    26   6 C        3.498    -0.096    24.110     7.290
    27   6 C        3.501    -0.084    23.829     7.242
    28   1 H        0.925     0.133     1.509     1.921
    29   1 H        0.925     0.137     1.485     1.906
    30   1 H        0.925     0.119     1.620     1.990
    31   1 H        0.925     0.123     1.592     1.973

 Mol. C6AA /au·bohr⁶  :       9527.780216
 Mol. C8AA /au·bohr⁸  :     323411.611652
 Mol. α(0) /au        :        144.235503


Wiberg/Mayer (AO) data.
largest (>0.10) Wiberg bond orders for each atom

 ---------------------------------------------------------------------------
     #   Z sym  total        # sym  WBO       # sym  WBO       # sym  WBO
 ---------------------------------------------------------------------------
     1  40 Zr   4.289 --     2 C    0.852    17 C    0.262     5 C    0.250
                             4 C    0.249    16 C    0.244     6 C    0.240
                            14 C    0.229     7 C    0.228    13 C    0.226
                            15 C    0.221     3 C    0.215    27 C    0.195
                            26 C    0.194
     2   6 C    3.823 --    25 H    0.931    24 H    0.930    23 H    0.911
                             1 Zr   0.852
     3   6 C    3.982 --     7 C    1.317     4 C    1.313     8 H    0.927
                             1 Zr   0.215
     4   6 C    3.980 --     3 C    1.313     5 C    1.289     9 H    0.922
                             1 Zr   0.249
     5   6 C    3.983 --     6 C    1.306     4 C    1.289    10 H    0.924
                             1 Zr   0.250
     6   6 C    3.977 --     5 C    1.306     7 C    1.284    11 H    0.927
                             1 Zr   0.240
     7   6 C    3.978 --     3 C    1.317     6 C    1.284    12 H    0.927
                             1 Zr   0.228
     8   1 H    0.991 --     3 C    0.927
     9   1 H    0.991 --     4 C    0.922
    10   1 H    0.989 --     5 C    0.924
    11   1 H    0.992 --     6 C    0.927
    12   1 H    0.993 --     7 C    0.927
    13   6 C    3.981 --    17 C    1.311    14 C    1.307    18 H    0.925
                             1 Zr   0.226
    14   6 C    3.978 --    13 C    1.307    15 C    1.304    19 H    0.925
                             1 Zr   0.229
    15   6 C    3.976 --    16 C    1.312    14 C    1.304    20 H    0.930
                             1 Zr   0.221
    16   6 C    3.980 --    15 C    1.312    17 C    1.280    21 H    0.927
                             1 Zr   0.244
    17   6 C    3.981 --    13 C    1.311    16 C    1.280    22 H    0.920
                             1 Zr   0.262
    18   1 H    0.991 --    13 C    0.925
    19   1 H    0.992 --    14 C    0.925
    20   1 H    0.993 --    15 C    0.930
    21   1 H    0.990 --    16 C    0.927
    22   1 H    0.990 --    17 C    0.920
    23   1 H    0.996 --     2 C    0.911
    24   1 H    0.996 --     2 C    0.930
    25   1 H    0.996 --     2 C    0.931
    26   6 C    3.987 --    27 C    1.837    31 H    0.928    30 H    0.907
                             1 Zr   0.194
    27   6 C    3.979 --    26 C    1.837    29 H    0.921    28 H    0.907
                             1 Zr   0.195
    28   1 H    0.981 --    27 C    0.907
    29   1 H    0.980 --    27 C    0.921
    30   1 H    0.985 --    26 C    0.907
    31   1 H    0.984 --    26 C    0.928
 ---------------------------------------------------------------------------

Topologies differ in total number of bonds
Writing topology from bond orders to xtbtopo.mol

molecular dipole:
                 x           y           z       tot (Debye)
 q only:       -3.904      -0.152       0.981
   full:       -3.908      -0.238       1.070      10.316
molecular quadrupole (traceless):
                xx          xy          yy          xz          yz          zz
 q only:       22.508       0.179     -12.086      -4.697      -1.898     -10.422
  q+dip:       21.448       1.444     -13.953      -5.999      -6.549      -7.495
   full:       23.071       1.407     -13.874      -6.260      -4.144      -9.197

           -------------------------------------------------
          |                Geometry Summary                 |
           -------------------------------------------------

      molecular mass/u    :      264.4982010
   center of mass at/Å    :       -1.2343049      -0.1202902       0.5793446
  moments of inertia/u·Å² :        0.5920434E+03   0.7601012E+03   0.8844413E+03
rotational constants/cm⁻¹ :        0.2847364E-01   0.2217814E-01   0.1906021E-01

 * 39 selected distances

     #   Z          #   Z                                           value/Å
     1  40 Zr       2   6 C                                       2.2929748
     1  40 Zr       3   6 C                                       2.5009219 (max)
     1  40 Zr       4   6 C                                       2.4707245
     3   6 C        4   6 C                                       1.4143852
     1  40 Zr       5   6 C                                       2.4589611
     4   6 C        5   6 C                                       1.4176635
     1  40 Zr       6   6 C                                       2.4571389
     5   6 C        6   6 C                                       1.4152109
     1  40 Zr       7   6 C                                       2.4776380
     3   6 C        7   6 C                                       1.4125361
     6   6 C        7   6 C                                       1.4211706
     3   6 C        8   1 H                                       1.0834119
     4   6 C        9   1 H                                       1.0849193
     5   6 C       10   1 H                                       1.0829481 (min)
     6   6 C       11   1 H                                       1.0841519
     7   6 C       12   1 H                                       1.0844597
     1  40 Zr      13   6 C                                       2.4745368
     1  40 Zr      14   6 C                                       2.4778746
    13   6 C       14   6 C                                       1.4164090
     1  40 Zr      15   6 C                                       2.4903880
    14   6 C       15   6 C                                       1.4161659
     1  40 Zr      16   6 C                                       2.4681509
    15   6 C       16   6 C                                       1.4138458
     1  40 Zr      17   6 C                                       2.4499757
    13   6 C       17   6 C                                       1.4135681
    16   6 C       17   6 C                                       1.4207968
    13   6 C       18   1 H                                       1.0838392
    14   6 C       19   1 H                                       1.0849915
    15   6 C       20   1 H                                       1.0841299
    16   6 C       21   1 H                                       1.0830899
    17   6 C       22   1 H                                       1.0846522
     2   6 C       23   1 H                                       1.1036708
     2   6 C       24   1 H                                       1.0996844
     2   6 C       25   1 H                                       1.0985852
    26   6 C       27   6 C                                       1.3410790
    27   6 C       28   1 H                                       1.0900233
    27   6 C       29   1 H                                       1.0883228
    26   6 C       30   1 H                                       1.0913166
    26   6 C       31   1 H                                       1.0866858

 * 3 distinct bonds (by element types)

   Z      Z             #   av. dist./Å        max./Å        min./Å
   1 H    6 C          17     1.0881696     1.1036708     1.0829481
   6 C    6 C          11     1.4093483     1.4211706     1.3410790
   6 C   40 Zr         11     2.4562986     2.5009219     2.2929748


optimized geometry written to: xtbopt.xyz


           -------------------------------------------------
          | TOTAL ENERGY              -37.661558236471 Eh   |
          | GRADIENT NORM               0.000408143925 Eh/α |
          | HOMO-LUMO GAP               1.385510006025 eV   |
           -------------------------------------------------

------------------------------------------------------------------------
 * finished run on 2026/08/18 at 18:31:14.269     
------------------------------------------------------------------------
 total:
 * wall-time:     0 d,  0 h,  1 min, 13.069 sec
 *  cpu-time:     0 d,  0 h,  2 min, 10.743 sec
 * ratio c/w:     1.789 speedup
 SCF:
 * wall-time:     0 d,  0 h,  0 min,  2.315 sec
 *  cpu-time:     0 d,  0 h,  0 min,  3.565 sec
 * ratio c/w:     1.540 speedup
 ANC optimizer:
 * wall-time:     0 d,  0 h,  1 min, 10.523 sec
 *  cpu-time:     0 d,  0 h,  2 min,  6.931 sec
 * ratio c/w:     1.800 speedup

