31
 energy: -37.661558236471 gnorm: 0.000408143925 xtb: 6.5.1 (b24c23e)
Zr          -1.27817222213172       -0.01648466246211        0.41065710398237
C           -1.18311888349946        1.20753755733557       -1.52595509093082
C           -0.24484895718264       -2.19506789491793        1.07445474804021
C            0.49048270744377       -1.68666612847700       -0.02158364222797
C           -0.36351628925307       -1.67915141342341       -1.15313066714088
C           -1.63325421577850       -2.15439694641285       -0.74726271598281
C           -1.56000500756696       -2.46761013851880        0.63702687128821
H            0.16434852799868       -2.47007759442987        2.03918692273948
H            1.55845522300532       -1.49653338453930       -0.03985931765997
H           -0.05290605509112       -1.49946824409578       -2.17489954744480
H           -2.44892422982053       -2.40010730502217       -1.41785504429921
H           -2.30024183678256       -3.01899094815394        1.20630828026045
C            0.31712555184883        0.56752407026112        2.20990418217287
C           -0.94224738357366        0.38653624063329        2.83234869991262
C           -1.80273660284257        1.41595333067084        2.37915517117254
C           -1.08755819480354        2.21173281962904        1.45491801237576
C            0.22488241983252        1.67938823134489        1.34190436317558
H            1.23118341659918        0.04279116907225        2.46261098883018
H           -1.14968400157143       -0.29552753673690        3.65025171355247
H           -2.76729893578852        1.66558897794491        2.80651787701008
H           -1.41613622634483        3.15808465574496        1.04316776125378
H            1.05216650892788        2.14806713757847        0.81997392364815
H           -0.11636818632507        1.33444350696513       -1.77899040031692
H           -1.65533855925359        0.71132971434383       -2.38624100409645
H           -1.61076130650730        2.21770605404583       -1.46619836510978
C           -3.82458604112995       -0.45082376922915        0.73667219382369
C           -3.75428808247335        0.60369652556364       -0.08888082941986
H           -3.71434628467439        1.62710866962841        0.28419127363706
H           -3.95557182133921        0.48617339028326       -1.15195164588547
H           -3.84567727225912       -0.33771378006248        1.82190628523626
H           -4.11613810968339       -1.42550733455545        0.35473620842146
