      -----------------------------------------------------------      
     |                   =====================                   |     
     |                           x T B                           |     
     |                   =====================                   |     
     |                         S. Grimme                         |     
     |          Mulliken Center for Theoretical Chemistry        |     
     |                    University of Bonn                     |     
      -----------------------------------------------------------      

   * xtb version 6.5.1 (b24c23e) compiled by 'conda@728c89f4b128' on 2022-07-12

   xtb is free software: you can redistribute it and/or modify it under
   the terms of the GNU Lesser General Public License as published by
   the Free Software Foundation, either version 3 of the License, or
   (at your option) any later version.
   
   xtb is distributed in the hope that it will be useful,
   but WITHOUT ANY WARRANTY; without even the implied warranty of
   MERCHANTABILITY or FITNESS FOR A PARTICULAR PURPOSE.  See the
   GNU Lesser General Public License for more details.
   
   Cite this work as:
   * C. Bannwarth, E. Caldeweyher, S. Ehlert, A. Hansen, P. Pracht,
     J. Seibert, S. Spicher, S. Grimme, WIREs Comput. Mol. Sci., 2020, 11,
     e01493. DOI: 10.1002/wcms.1493
   
   for GFN2-xTB:
   * C. Bannwarth, S. Ehlert and S. Grimme., J. Chem. Theory Comput., 2019,
     15, 1652-1671. DOI: 10.1021/acs.jctc.8b01176
   for GFN1-xTB:
   * S. Grimme, C. Bannwarth, P. Shushkov, J. Chem. Theory Comput., 2017,
     13, 1989-2009. DOI: 10.1021/acs.jctc.7b00118
   for GFN0-xTB:
   * P. Pracht, E. Caldeweyher, S. Ehlert, S. Grimme, ChemRxiv, 2019, preprint.
     DOI: 10.26434/chemrxiv.8326202.v1
   for GFN-FF:
   * S. Spicher and S. Grimme, Angew. Chem. Int. Ed., 2020, 59, 15665-15673.
     DOI: 10.1002/anie.202004239
   
   for ALPB and GBSA implicit solvation:
   * S. Ehlert, M. Stahn, S. Spicher, S. Grimme, J. Chem. Theory Comput.,
     2021, 17, 4250-4261. DOI: 10.1021/acs.jctc.1c00471
   
   for DFT-D4:
   * E. Caldeweyher, C. Bannwarth and S. Grimme, J. Chem. Phys., 2017,
     147, 034112. DOI: 10.1063/1.4993215
   * E. Caldeweyher, S. Ehlert, A. Hansen, H. Neugebauer, S. Spicher,
     C. Bannwarth and S. Grimme, J. Chem. Phys., 2019, 150, 154122.
     DOI: 10.1063/1.5090222
   * E. Caldeweyher, J.-M. Mewes, S. Ehlert and S. Grimme, Phys. Chem. Chem. Phys.
     2020, 22, 8499-8512. DOI: 10.1039/D0CP00502A
   
   for sTDA-xTB:
   * S. Grimme and C. Bannwarth, J. Chem. Phys., 2016, 145, 054103.
     DOI: 10.1063/1.4959605
   
   in the mass-spec context:
   * V. Asgeirsson, C. Bauer and S. Grimme, Chem. Sci., 2017, 8, 4879.
     DOI: 10.1039/c7sc00601b
   * J. Koopman and S. Grimme, ACS Omega 2019, 4, 12, 15120-15133.
     DOI: 10.1021/acsomega.9b02011
   
   for metadynamics refer to:
   * S. Grimme, J. Chem. Theory Comput., 2019, 155, 2847-2862
     DOI: 10.1021/acs.jctc.9b00143
   
   for SPH calculations refer to:
   * S. Spicher and S. Grimme, J. Chem. Theory Comput., 2021, 17, 1701-1714
     DOI: 10.1021/acs.jctc.0c01306
   
   with help from (in alphabetical order)
   P. Atkinson, C. Bannwarth, F. Bohle, G. Brandenburg, E. Caldeweyher
   M. Checinski, S. Dohm, S. Ehlert, S. Ehrlich, I. Gerasimov, C. Hölzer
   A. Katbashev, J. Koopman, C. Lavigne, S. Lehtola, F. März, M. Müller,
   F. Musil, H. Neugebauer, J. Pisarek, C. Plett, P. Pracht, F. Pultar,
   J. Seibert, P. Shushkov, S. Spicher, M. Stahn, M. Steiner, T. Strunk,
   J. Stückrath, T. Rose, and J. Unsleber
   
 * started run on 2026/08/18 at 18:28:27.956     

           -------------------------------------------------
          |                Calculation Setup                |
           -------------------------------------------------

          program call               : /h/332/chchoi/miniconda3/envs/el-agente/bin/xtb reactant.xyz --opt --gfn 2 -P 4 --chrg 1 --uhf 0 --input detailed_input.inp
          coordinate file            : reactant.xyz
          omp threads                :                     4

   ID    Z sym.   atoms
    1   40 Zr     1
    2    6 C      2-7, 13-17, 26, 27
    3    1 H      8-12, 18-25, 28-31
constraining bond 2 27 to    2.1000000 Å, actual value:    3.9015773 Å
constraining bond 1 26 to    2.4000000 Å, actual value:    2.5634266 Å
constraining bond 1 2 to    2.7000000 Å, actual value:    2.4750002 Å

molecular fragmentation (1/2 indicates fragments):
1111111111111111111111111222222
# atoms in fragment 1/2:    25     6
 fragment masses (1/2) :      236.44       28.05
CMA distance (Bohr)    :   5.713
constraining FC (au)   :  0.5000

           -------------------------------------------------
          |                 G F N 2 - x T B                 |
           -------------------------------------------------

        Reference                      10.1021/acs.jctc.8b01176
      * Hamiltonian:
        H0-scaling (s, p, d)           1.850000    2.230000    2.230000
        zeta-weighting                 0.500000
      * Dispersion:
        s8                             2.700000
        a1                             0.520000
        a2                             5.000000
        s9                             5.000000
      * Repulsion:
        kExp                           1.500000    1.000000
        rExp                           1.000000
      * Coulomb:
        alpha                          2.000000
        third order                    shell-resolved
        anisotropic                    true
        a3                             3.000000
        a5                             4.000000
        cn-shift                       1.200000
        cn-exp                         4.000000
        max-rad                        5.000000


          ...................................................
          :                      SETUP                      :
          :.................................................:
          :  # basis functions                  79          :
          :  # atomic orbitals                  78          :
          :  # shells                           46          :
          :  # electrons                        72          :
          :  max. iterations                   250          :
          :  Hamiltonian                  GFN2-xTB          :
          :  restarted?                      false          :
          :  GBSA solvation                  false          :
          :  PC potential                    false          :
          :  electronic temp.          300.0000000     K    :
          :  accuracy                    1.0000000          :
          :  -> integral cutoff          0.2500000E+02      :
          :  -> integral neglect         0.1000000E-07      :
          :  -> SCF convergence          0.1000000E-05 Eh   :
          :  -> wf. convergence          0.1000000E-03 e    :
          :  Broyden damping             0.4000000          :
          ...................................................

 iter      E             dE          RMSdq      gap      omega  full diag
   1    -37.9601354 -0.379601E+02  0.424E+00    0.57       0.0  T
   2    -38.0666125 -0.106477E+00  0.367E+00    1.52       1.0  T
   3    -38.1191899 -0.525774E-01  0.295E+00    0.94       1.0  T
   4    -38.1164784  0.271147E-02  0.140E+00    0.99       1.0  T
   5    -38.1137949  0.268351E-02  0.793E-01    0.73       1.0  T
   6    -38.1202114 -0.641645E-02  0.383E-01    0.95       1.0  T
   7    -38.1212743 -0.106294E-02  0.247E-01    0.88       1.0  T
   8    -38.1213143 -0.400100E-04  0.137E-01    0.87       1.0  T
   9    -38.1213019  0.124517E-04  0.649E-02    0.91       1.0  T
  10    -38.1213409 -0.390356E-04  0.371E-02    0.90       1.0  T
  11    -38.1213579 -0.169922E-04  0.152E-02    0.89       1.2  T
  12    -38.1213590 -0.111221E-05  0.447E-03    0.89       4.0  T
  13    -38.1213590 -0.387946E-07  0.188E-03    0.89       9.6  T
  14    -38.1213591 -0.224945E-07  0.122E-03    0.89      14.7  T
  15    -38.1213591 -0.155101E-07  0.446E-04    0.89      40.3  T
  16    -38.1213591 -0.214229E-10  0.258E-04    0.89      69.5  T

   *** convergence criteria satisfied after 16 iterations ***

         #    Occupation            Energy/Eh            Energy/eV
      -------------------------------------------------------------
         1        2.0000           -0.8637396             -23.5035
       ...           ...                  ...                  ...
        30        2.0000           -0.5741030             -15.6221
        31        2.0000           -0.5713656             -15.5476
        32        2.0000           -0.5095815             -13.8664
        33        2.0000           -0.5047474             -13.7349
        34        2.0000           -0.4945029             -13.4561
        35        2.0000           -0.4921678             -13.3926
        36        2.0000           -0.4861161             -13.2279 (HOMO)
        37                         -0.4533385             -12.3360 (LUMO)
        38                         -0.4377844             -11.9127
        39                         -0.4352875             -11.8448
        40                         -0.4313603             -11.7379
        41                         -0.4233749             -11.5206
       ...                                ...                  ...
        78                          1.3827423              37.6263
      -------------------------------------------------------------
                  HL-Gap            0.0327776 Eh            0.8919 eV
             Fermi-level           -0.4697264 Eh          -12.7819 eV

 SCC (total)                   0 d,  0 h,  0 min,  0.630 sec
 SCC setup                      ...        0 min,  0.002 sec (  0.298%)
 Dispersion                     ...        0 min,  0.006 sec (  0.964%)
 classical contributions        ...        0 min,  0.000 sec (  0.058%)
 integral evaluation            ...        0 min,  0.003 sec (  0.423%)
 iterations                     ...        0 min,  0.597 sec ( 94.736%)
 molecular gradient             ...        0 min,  0.022 sec (  3.469%)
 printout                       ...        0 min,  0.000 sec (  0.045%)

         :::::::::::::::::::::::::::::::::::::::::::::::::::::
         ::                     SUMMARY                     ::
         :::::::::::::::::::::::::::::::::::::::::::::::::::::
         :: total energy             -31.627502648461 Eh    ::
         :: gradient norm              4.675711434063 Eh/a0 ::
         :: HOMO-LUMO gap              0.891924041258 eV    ::
         ::.................................................::
         :: SCC energy               -38.121359078810 Eh    ::
         :: -> isotropic ES            0.097382457233 Eh    ::
         :: -> anisotropic ES         -0.002946632308 Eh    ::
         :: -> anisotropic XC          0.021570818862 Eh    ::
         :: -> dispersion             -0.027694242490 Eh    ::
         :: repulsion energy           0.559701657130 Eh    ::
         :: add. restraining           5.933347886925 Eh    ::
         :: total charge               1.000000000120 e     ::
         :::::::::::::::::::::::::::::::::::::::::::::::::::::

      ----------------------------------------------------------- 
     |                   =====================                   |
     |                        A N C O P T                        |
     |                   =====================                   |
     |               Approximate Normal Coordinate               |
     |                Rational Function Optimizer                |
      ----------------------------------------------------------- 

          ...................................................
          :                      SETUP                      :
          :.................................................:
          :   optimization level            normal          :
          :   max. optcycles                   200          :
          :   ANC micro-cycles                  20          :
          :   degrees of freedom                87          :
          :.................................................:
          :   RF solver                   davidson          :
          :   write xtbopt.log                true          :
          :   linear?                        false          :
          :   energy convergence         0.5000000E-05 Eh   :
          :   grad. convergence          0.1000000E-02 Eh/α :
          :   maximium RF displ.         1.0000000          :
          :   Hlow (freq-cutoff)         0.1000000E-01      :
          :   Hmax (freq-cutoff)         5.0000000          :
          :   S6 in model hess.         20.0000000          :
          ...................................................

generating ANC from model Hessian ...
Using Lindh-Hessian (1995)
 Shifting diagonal of input Hessian by    5.8129657711306612E-002
 Lowest  eigenvalues of input Hessian
    0.010000    0.023307    0.057720    0.000000    0.000000    0.000000
    0.000000    0.000000    0.000000    0.058231    0.058544    0.058699
    0.058804    0.058819    0.059136    0.059240    0.059284    0.059476
 Highest eigenvalues
    1.539595    1.727876    1.836418    2.115455    2.441778    3.337134


........................................................................
.............................. CYCLE    1 ..............................
........................................................................
   1    -38.1213591 -0.381214E+02  0.101E-04    0.89       0.0  T
   2    -38.1213591  0.883915E-11  0.118E-04    0.89     152.1  T
   3    -38.1213591 -0.117268E-09  0.649E-05    0.89     276.6  T
     SCC iter.                  ...        0 min,  0.109 sec
     gradient                   ...        0 min,  0.008 sec
 * total energy  :   -31.6275026 Eh     change       -0.4172946E-09 Eh
   gradient norm :     4.6757114 Eh/α   predicted     0.0000000E+00 (-100.00%)
   displ. norm   :     0.7854554 α      lambda       -0.3626377E+01
   maximum displ.:     0.4435132 α      in ANC's #87, #86, #85, ...

........................................................................
.............................. CYCLE    2 ..............................
........................................................................
   1    -38.0543786 -0.380544E+02  0.153E+00    0.32       0.0  T
   2    -38.0485424  0.583618E-02  0.129E+00    1.22       1.0  T
   3    -38.0787752 -0.302328E-01  0.504E-01    0.57       1.0  T
   4    -38.0764222  0.235298E-02  0.541E-01    0.40       1.0  T
   5    -38.0788364 -0.241414E-02  0.210E-01    0.49       1.0  T
   6    -38.0795667 -0.730306E-03  0.903E-02    0.53       1.0  T
   7    -38.0796311 -0.644344E-04  0.383E-02    0.52       1.0  T
   8    -38.0796524 -0.212807E-04  0.176E-02    0.51       1.0  T
   9    -38.0796530 -0.553021E-06  0.137E-02    0.51       1.3  T
  10    -38.0796509  0.200533E-05  0.102E-02    0.50       1.8  T
  11    -38.0796539 -0.299859E-05  0.281E-03    0.51       6.4  T
  12    -38.0796539  0.203069E-07  0.188E-03    0.51       9.6  T
  13    -38.0796540 -0.448695E-07  0.839E-04    0.51      21.4  T
  14    -38.0796540  0.200157E-07  0.969E-04    0.51      18.5  T
     SCC iter.                  ...        0 min,  0.278 sec
     gradient                   ...        0 min,  0.007 sec
 * total energy  :   -34.6207378 Eh     change       -0.2993235E+01 Eh
   gradient norm :     3.0081242 Eh/α   predicted    -0.2931819E+01 (  -2.05%)
   displ. norm   :     0.7427890 α      lambda       -0.2188613E+01
   maximum displ.:     0.3570999 α      in ANC's #65, #87, #86, ...

........................................................................
.............................. CYCLE    3 ..............................
........................................................................
   1    -37.6847260 -0.376847E+02  0.328E+00    0.16       0.0  T
   2    -37.6163355  0.683905E-01  0.471E+00    1.50       1.0  T
   3    -37.8684473 -0.252112E+00  0.229E+00    1.36       1.0  T
   4    -37.9590232 -0.905758E-01  0.872E-01    0.63       1.0  T
   5    -37.9756533 -0.166301E-01  0.525E-01    0.44       1.0  T
   6    -37.9778685 -0.221514E-02  0.461E-01    0.35       1.0  T
   7    -37.9753562  0.251223E-02  0.423E-01    0.38       1.0  T
   8    -37.9777609 -0.240465E-02  0.153E-01    0.36       1.0  T
   9    -37.9783403 -0.579392E-03  0.442E-02    0.30       1.0  T
  10    -37.9783022  0.380868E-04  0.487E-02    0.30       1.0  T
  11    -37.9783613 -0.591432E-04  0.164E-02    0.31       1.1  T
  12    -37.9783637 -0.234948E-05  0.106E-02    0.31       1.7  T
  13    -37.9783651 -0.137628E-05  0.774E-03    0.31       2.3  T
  14    -37.9783651 -0.182020E-07  0.439E-03    0.31       4.1  T
  15    -37.9783646  0.499421E-06  0.551E-03    0.31       3.3  T
  16    -37.9783654 -0.850556E-06  0.792E-04    0.31      22.7  T
  17    -37.9783654 -0.766605E-09  0.509E-04    0.31      35.3  T
     SCC iter.                  ...        0 min,  0.090 sec
     gradient                   ...        0 min,  0.007 sec
 * total energy  :   -36.3316202 Eh     change       -0.1710882E+01 Eh
   gradient norm :     1.6730774 Eh/α   predicted    -0.1698077E+01 (  -0.75%)
   displ. norm   :     0.6714175 α      lambda       -0.1066284E+01
   maximum displ.:     0.3272611 α      in ANC's #65, #83, #85, ...

........................................................................
.............................. CYCLE    4 ..............................
........................................................................
   1    -37.7665621 -0.377666E+02  0.221E+00    0.45       0.0  T
   2    -37.4880488  0.278513E+00  0.383E+00    1.23       1.0  T
   3    -37.8417035 -0.353655E+00  0.154E+00    0.59       1.0  T
   4    -37.8831868 -0.414833E-01  0.511E-01    0.37       1.0  T
   5    -37.8804296  0.275721E-02  0.583E-01    0.45       1.0  T
   6    -37.8887711 -0.834154E-02  0.185E-01    0.40       1.0  T
   7    -37.8893805 -0.609359E-03  0.986E-02    0.45       1.0  T
   8    -37.8895597 -0.179178E-03  0.437E-02    0.42       1.0  T
   9    -37.8895398  0.198803E-04  0.413E-02    0.43       1.0  T
  10    -37.8895514 -0.115878E-04  0.307E-02    0.42       1.0  T
  11    -37.8895726 -0.211986E-04  0.143E-02    0.42       1.3  T
  12    -37.8895766 -0.398471E-05  0.539E-03    0.42       3.3  T
  13    -37.8895769 -0.316057E-06  0.264E-03    0.42       6.8  T
  14    -37.8895769 -0.579416E-07  0.105E-03    0.42      17.0  T
  15    -37.8895770 -0.362179E-08  0.842E-04    0.42      21.3  T
  16    -37.8895770 -0.118071E-07  0.473E-04    0.42      38.0  T
     SCC iter.                  ...        0 min,  0.078 sec
     gradient                   ...        0 min,  0.005 sec
 * total energy  :   -37.1022414 Eh     change       -0.7706212E+00 Eh
   gradient norm :     0.7151377 Eh/α   predicted    -0.7734833E+00 (   0.37%)
   displ. norm   :     0.6152747 α      lambda       -0.3521380E+00
   maximum displ.:     0.3615394 α      in ANC's #2, #21, #65, ...

........................................................................
.............................. CYCLE    5 ..............................
........................................................................
   1    -37.8420726 -0.378421E+02  0.149E+00    1.09       0.0  T
   2    -37.6101729  0.231900E+00  0.281E+00    1.49       1.0  T
   3    -37.8895547 -0.279382E+00  0.606E-01    1.10       1.0  T
   4    -37.8874202  0.213445E-02  0.424E-01    1.02       1.0  T
   5    -37.8908249 -0.340469E-02  0.186E-01    1.08       1.0  T
   6    -37.8910167 -0.191823E-03  0.684E-02    1.06       1.0  T
   7    -37.8910133  0.342124E-05  0.572E-02    1.07       1.0  T
   8    -37.8910553 -0.419636E-04  0.237E-02    1.07       1.0  T
   9    -37.8910582 -0.291372E-05  0.133E-02    1.07       1.3  T
  10    -37.8910599 -0.173277E-05  0.499E-03    1.07       3.6  T
  11    -37.8910600 -0.735266E-07  0.219E-03    1.07       8.2  T
  12    -37.8910599  0.439184E-07  0.167E-03    1.07      10.7  T
  13    -37.8910600 -0.628269E-07  0.637E-04    1.07      28.2  T
  14    -37.8910600 -0.344031E-08  0.328E-04    1.07      54.8  T
     SCC iter.                  ...        0 min,  0.042 sec
     gradient                   ...        0 min,  0.005 sec
 * total energy  :   -37.3232538 Eh     change       -0.2210124E+00 Eh
   gradient norm :     0.2438162 Eh/α   predicted    -0.2427227E+00 (   9.82%)
   displ. norm   :     0.6168140 α      lambda       -0.1025310E+00
   maximum displ.:     0.2636825 α      in ANC's #26, #21, #1, ...

........................................................................
.............................. CYCLE    6 ..............................
........................................................................
   1    -37.9396263 -0.379396E+02  0.884E-01    1.07       0.0  T
   2    -37.8428436  0.967827E-01  0.181E+00    1.08       1.0  T
   3    -37.9550400 -0.112196E+00  0.373E-01    1.03       1.0  T
   4    -37.9561485 -0.110850E-02  0.206E-01    0.99       1.0  T
   5    -37.9564967 -0.348173E-03  0.945E-02    1.02       1.0  T
   6    -37.9565132 -0.165149E-04  0.577E-02    1.00       1.0  T
   7    -37.9565148 -0.163240E-05  0.332E-02    1.01       1.0  T
   8    -37.9565297 -0.149025E-04  0.122E-02    1.01       1.5  T
   9    -37.9565309 -0.120181E-05  0.559E-03    1.01       3.2  T
  10    -37.9565312 -0.248526E-06  0.324E-03    1.01       5.5  T
  11    -37.9565312 -0.346229E-07  0.190E-03    1.01       9.4  T
  12    -37.9565312 -0.192380E-07  0.500E-04    1.01      35.9  T
  13    -37.9565312 -0.215996E-08  0.266E-04    1.01      67.4  T
     SCC iter.                  ...        0 min,  0.041 sec
     gradient                   ...        0 min,  0.006 sec
 * total energy  :   -37.3923932 Eh     change       -0.6913941E-01 Eh
   gradient norm :     0.2099447 Eh/α   predicted    -0.7076994E-01 (   2.36%)
   displ. norm   :     0.8709311 α      lambda       -0.1105648E+00
   maximum displ.:     0.4723237 α      in ANC's #2, #21, #26, ...

........................................................................
.............................. CYCLE    7 ..............................
........................................................................
   1    -38.0754941 -0.380755E+02  0.111E+00    1.29       0.0  T
   2    -38.0726427  0.285138E-02  0.859E-01    1.22       1.0  T
   3    -38.0675793  0.506338E-02  0.723E-01    1.32       1.0  T
   4    -38.0770906 -0.951127E-02  0.226E-01    1.27       1.0  T
   5    -38.0782344 -0.114384E-02  0.826E-02    1.25       1.0  T
   6    -38.0782370 -0.261089E-05  0.473E-02    1.27       1.0  T
   7    -38.0782521 -0.150916E-04  0.214E-02    1.26       1.0  T
   8    -38.0782553 -0.323056E-05  0.102E-02    1.27       1.8  T
   9    -38.0782557 -0.312227E-06  0.665E-03    1.26       2.7  T
  10    -38.0782560 -0.314810E-06  0.283E-03    1.27       6.4  T
  11    -38.0782560 -0.346662E-07  0.137E-03    1.27      13.1  T
  12    -38.0782560 -0.152764E-07  0.427E-04    1.27      42.0  T
  13    -38.0782560  0.113786E-09  0.296E-04    1.27      60.6  T
     SCC iter.                  ...        0 min,  0.042 sec
     gradient                   ...        0 min,  0.005 sec
 * total energy  :   -37.4770208 Eh     change       -0.8462761E-01 Eh
   gradient norm :     0.2108834 Eh/α   predicted    -0.9721541E-01 (  14.87%)
   displ. norm   :     0.7574949 α      lambda       -0.9563916E-01
   maximum displ.:     0.3468933 α      in ANC's #26, #21, #24, ...

........................................................................
.............................. CYCLE    8 ..............................
........................................................................
   1    -38.1819408 -0.381819E+02  0.785E-01    1.25       0.0  T
   2    -38.1810225  0.918324E-03  0.483E-01    1.18       1.0  T
   3    -38.1788129  0.220961E-02  0.481E-01    1.24       1.0  T
   4    -38.1834996 -0.468666E-02  0.121E-01    1.23       1.0  T
   5    -38.1835744 -0.748839E-04  0.560E-02    1.21       1.0  T
   6    -38.1835726  0.182581E-05  0.394E-02    1.22       1.0  T
   7    -38.1835892 -0.165653E-04  0.145E-02    1.21       1.2  T
   8    -38.1835914 -0.218814E-05  0.553E-03    1.21       3.2  T
   9    -38.1835915 -0.121079E-06  0.388E-03    1.21       4.6  T
  10    -38.1835916 -0.634558E-07  0.197E-03    1.21       9.1  T
  11    -38.1835916 -0.886564E-08  0.109E-03    1.21      16.4  T
  12    -38.1835916 -0.196152E-08  0.308E-04    1.21      58.3  T
  13    -38.1835916 -0.819981E-09  0.193E-04    1.21      93.0  T
     SCC iter.                  ...        0 min,  0.033 sec
     gradient                   ...        0 min,  0.005 sec
 * total energy  :   -37.5498211 Eh     change       -0.7280023E-01 Eh
   gradient norm :     0.1252304 Eh/α   predicted    -0.7525843E-01 (   3.38%)
   displ. norm   :     0.7617914 α      lambda       -0.5742363E-01
   maximum displ.:     0.3611682 α      in ANC's #26, #21, #24, ...

........................................................................
.............................. CYCLE    9 ..............................
........................................................................
   1    -38.2345557 -0.382346E+02  0.811E-01    1.20       0.0  T
   2    -38.2348408 -0.285086E-03  0.652E-01    1.19       1.0  T
   3    -38.2339530  0.887749E-03  0.416E-01    1.22       1.0  T
   4    -38.2359759 -0.202289E-02  0.140E-01    1.21       1.0  T
   5    -38.2360262 -0.503073E-04  0.914E-02    1.21       1.0  T
   6    -38.2361750 -0.148811E-03  0.401E-02    1.21       1.0  T
   7    -38.2361784 -0.337410E-05  0.166E-02    1.20       1.1  T
   8    -38.2361786 -0.229176E-06  0.102E-02    1.21       1.8  T
   9    -38.2361796 -0.916370E-06  0.400E-03    1.21       4.5  T
  10    -38.2361796 -0.244653E-07  0.292E-03    1.21       6.1  T
  11    -38.2361796 -0.230524E-07  0.139E-03    1.21      12.9  T
  12    -38.2361796 -0.647096E-08  0.444E-04    1.21      40.4  T
  13    -38.2361796 -0.118359E-08  0.130E-04    1.21     137.8  T
     SCC iter.                  ...        0 min,  0.039 sec
     gradient                   ...        0 min,  0.006 sec
 * total energy  :   -37.5827343 Eh     change       -0.3291326E-01 Eh
   gradient norm :     0.1179039 Eh/α   predicted    -0.4537409E-01 (  37.86%)
   displ. norm   :     0.7650248 α      lambda       -0.4706843E-01
   maximum displ.:     0.3495917 α      in ANC's #2, #1, #26, ...

........................................................................
.............................. CYCLE   10 ..............................
........................................................................
   1    -38.2415425 -0.382415E+02  0.994E-01    1.11       0.0  T
   2    -38.2424081 -0.865590E-03  0.765E-01    1.04       1.0  T
   3    -38.2406217  0.178642E-02  0.560E-01    1.16       1.0  T
   4    -38.2428900 -0.226833E-02  0.178E-01    1.06       1.0  T
   5    -38.2433689 -0.478914E-03  0.101E-01    1.08       1.0  T
   6    -38.2434021 -0.331268E-04  0.667E-02    1.09       1.0  T
   7    -38.2434087 -0.662220E-05  0.255E-02    1.08       1.0  T
   8    -38.2434103 -0.157209E-05  0.101E-02    1.09       1.8  T
   9    -38.2434113 -0.102702E-05  0.513E-03    1.09       3.5  T
  10    -38.2434115 -0.183215E-06  0.261E-03    1.09       6.9  T
  11    -38.2434115 -0.474902E-08  0.151E-03    1.09      11.9  T
  12    -38.2434115 -0.187075E-07  0.562E-04    1.09      32.0  T
  13    -38.2434115 -0.940759E-09  0.247E-04    1.09      72.7  T
     SCC iter.                  ...        0 min,  0.114 sec
     gradient                   ...        0 min,  0.010 sec
 * total energy  :   -37.5987932 Eh     change       -0.1605884E-01 Eh
   gradient norm :     0.0938824 Eh/α   predicted    -0.3730797E-01 ( 132.32%)
   displ. norm   :     0.3943769 α      lambda       -0.2287598E-01
   maximum displ.:     0.2329343 α      in ANC's #1, #8, #13, ...

........................................................................
.............................. CYCLE   11 ..............................
........................................................................
   1    -38.2267715 -0.382268E+02  0.606E-01    1.11       0.0  T
   2    -38.2271430 -0.371463E-03  0.541E-01    1.13       1.0  T
   3    -38.2275952 -0.452227E-03  0.327E-01    1.12       1.0  T
   4    -38.2277028 -0.107582E-03  0.139E-01    1.12       1.0  T
   5    -38.2278706 -0.167812E-03  0.554E-02    1.13       1.0  T
   6    -38.2278964 -0.257709E-04  0.307E-02    1.12       1.0  T
   7    -38.2279007 -0.431452E-05  0.128E-02    1.12       1.4  T
   8    -38.2279013 -0.576444E-06  0.733E-03    1.12       2.5  T
   9    -38.2279014 -0.174489E-06  0.582E-03    1.12       3.1  T
  10    -38.2279016 -0.190368E-06  0.293E-03    1.12       6.1  T
  11    -38.2279016 -0.143939E-07  0.104E-03    1.12      17.3  T
  12    -38.2279017 -0.316626E-08  0.262E-04    1.12      68.6  T
  13    -38.2279017 -0.477051E-09  0.139E-04    1.12     129.5  T
     SCC iter.                  ...        0 min,  0.079 sec
     gradient                   ...        0 min,  0.009 sec
 * total energy  :   -37.6112512 Eh     change       -0.1245799E-01 Eh
   gradient norm :     0.0488577 Eh/α   predicted    -0.1321700E-01 (   6.09%)
   displ. norm   :     0.2795881 α      lambda       -0.6158125E-02
   maximum displ.:     0.1279155 α      in ANC's #8, #16, #24, ...

........................................................................
.............................. CYCLE   12 ..............................
........................................................................
   1    -38.2365710 -0.382366E+02  0.241E-01    1.15       0.0  T
   2    -38.2366012 -0.302522E-04  0.179E-01    1.15       1.0  T
   3    -38.2364874  0.113840E-03  0.861E-02    1.16       1.0  T
   4    -38.2366183 -0.130950E-03  0.569E-02    1.15       1.0  T
   5    -38.2366371 -0.187420E-04  0.220E-02    1.15       1.0  T
   6    -38.2366408 -0.374020E-05  0.118E-02    1.15       1.5  T
   7    -38.2366415 -0.733181E-06  0.303E-03    1.15       5.9  T
   8    -38.2366415 -0.484627E-08  0.261E-03    1.15       6.9  T
   9    -38.2366416 -0.363868E-07  0.167E-03    1.15      10.8  T
  10    -38.2366416 -0.681837E-08  0.110E-03    1.15      16.4  T
  11    -38.2366416 -0.347424E-08  0.217E-04    1.15      82.6  T
  12    -38.2366416 -0.133241E-09  0.872E-05    1.15     206.0  T
     SCC iter.                  ...        0 min,  0.135 sec
     gradient                   ...        0 min,  0.008 sec
 * total energy  :   -37.6148604 Eh     change       -0.3609249E-02 Eh
   gradient norm :     0.0297920 Eh/α   predicted    -0.3319746E-02 (  -8.02%)
   displ. norm   :     0.3721623 α      lambda       -0.5014945E-02
   maximum displ.:     0.1887579 α      in ANC's #8, #16, #3, ...

........................................................................
.............................. CYCLE   13 ..............................
........................................................................
   1    -38.2395437 -0.382395E+02  0.393E-01    1.20       0.0  T
   2    -38.2396049 -0.612615E-04  0.336E-01    1.18       1.0  T
   3    -38.2394299  0.175029E-03  0.118E-01    1.21       1.0  T
   4    -38.2396537 -0.223757E-03  0.681E-02    1.18       1.0  T
   5    -38.2396932 -0.395216E-04  0.257E-02    1.19       1.0  T
   6    -38.2396947 -0.153982E-05  0.776E-03    1.19       2.3  T
   7    -38.2396954 -0.704316E-06  0.398E-03    1.19       4.5  T
   8    -38.2396955 -0.488586E-07  0.217E-03    1.19       8.3  T
   9    -38.2396955 -0.293136E-07  0.120E-03    1.19      15.0  T
  10    -38.2396955 -0.130179E-07  0.598E-04    1.19      30.0  T
  11    -38.2396955 -0.401315E-09  0.228E-04    1.19      78.9  T
     SCC iter.                  ...        0 min,  0.404 sec
     gradient                   ...        0 min,  0.075 sec
 * total energy  :   -37.6186262 Eh     change       -0.3765801E-02 Eh
   gradient norm :     0.0404282 Eh/α   predicted    -0.2854775E-02 ( -24.19%)
   displ. norm   :     0.5179878 α      lambda       -0.5845641E-02
   maximum displ.:     0.2776759 α      in ANC's #8, #16, #3, ...

........................................................................
.............................. CYCLE   14 ..............................
........................................................................
   1    -38.2400311 -0.382400E+02  0.436E-01    1.26       0.0  T
   2    -38.2401411 -0.109946E-03  0.446E-01    1.21       1.0  T
   3    -38.2405269 -0.385843E-03  0.302E-01    1.24       1.0  T
   4    -38.2404816  0.453345E-04  0.636E-02    1.23       1.0  T
   5    -38.2405399 -0.583300E-04  0.241E-02    1.24       1.0  T
   6    -38.2405409 -0.957259E-06  0.121E-02    1.24       1.5  T
   7    -38.2405422 -0.129741E-05  0.554E-03    1.24       3.2  T
   8    -38.2405422 -0.810558E-07  0.204E-03    1.24       8.8  T
   9    -38.2405423 -0.200804E-07  0.129E-03    1.24      13.9  T
  10    -38.2405423 -0.162998E-07  0.550E-04    1.24      32.7  T
  11    -38.2405423 -0.435179E-09  0.234E-04    1.24      76.6  T
     SCC iter.                  ...        0 min,  0.345 sec
     gradient                   ...        0 min,  0.077 sec
 * total energy  :   -37.6231461 Eh     change       -0.4519855E-02 Eh
   gradient norm :     0.0348641 Eh/α   predicted    -0.3707051E-02 ( -17.98%)
   displ. norm   :     0.5331461 α      lambda       -0.4783241E-02
   maximum displ.:     0.2925104 α      in ANC's #8, #16, #3, ...

........................................................................
.............................. CYCLE   15 ..............................
........................................................................
   1    -38.2425358 -0.382425E+02  0.476E-01    1.33       0.0  T
   2    -38.2426686 -0.132765E-03  0.483E-01    1.27       1.0  T
   3    -38.2429571 -0.288475E-03  0.333E-01    1.30       1.0  T
   4    -38.2429045  0.526193E-04  0.681E-02    1.29       1.0  T
   5    -38.2429679 -0.634653E-04  0.226E-02    1.30       1.0  T
   6    -38.2429687 -0.795946E-06  0.111E-02    1.31       1.6  T
   7    -38.2429699 -0.118278E-05  0.520E-03    1.31       3.5  T
   8    -38.2429700 -0.724319E-07  0.206E-03    1.31       8.7  T
   9    -38.2429700 -0.276033E-07  0.127E-03    1.31      14.1  T
  10    -38.2429700 -0.101488E-07  0.662E-04    1.31      27.1  T
  11    -38.2429700 -0.973181E-09  0.254E-04    1.31      70.7  T
     SCC iter.                  ...        0 min,  0.334 sec
     gradient                   ...        0 min,  0.068 sec
 * total energy  :   -37.6268619 Eh     change       -0.3715853E-02 Eh
   gradient norm :     0.0272083 Eh/α   predicted    -0.3071443E-02 ( -17.34%)
   displ. norm   :     0.5165335 α      lambda       -0.3889980E-02
   maximum displ.:     0.2817732 α      in ANC's #8, #16, #4, ...

........................................................................
.............................. CYCLE   16 ..............................
........................................................................
   1    -38.2464016 -0.382464E+02  0.438E-01    1.40       0.0  T
   2    -38.2465211 -0.119528E-03  0.428E-01    1.35       1.0  T
   3    -38.2467211 -0.200049E-03  0.260E-01    1.38       1.0  T
   4    -38.2466799  0.412127E-04  0.647E-02    1.36       1.0  T
   5    -38.2467304 -0.504246E-04  0.205E-02    1.37       1.0  T
   6    -38.2467305 -0.165259E-06  0.973E-03    1.38       1.8  T
   7    -38.2467316 -0.106799E-05  0.363E-03    1.38       4.9  T
   8    -38.2467316 -0.508877E-07  0.203E-03    1.38       8.8  T
   9    -38.2467317 -0.315756E-07  0.122E-03    1.38      14.7  T
  10    -38.2467317 -0.242547E-08  0.781E-04    1.38      23.0  T
  11    -38.2467317 -0.431903E-09  0.250E-04    1.38      71.8  T
     SCC iter.                  ...        0 min,  0.314 sec
     gradient                   ...        0 min,  0.031 sec
 * total energy  :   -37.6298351 Eh     change       -0.2973183E-02 Eh
   gradient norm :     0.0227357 Eh/α   predicted    -0.2463932E-02 ( -17.13%)
   displ. norm   :     0.4668157 α      lambda       -0.2968332E-02
   maximum displ.:     0.2408534 α      in ANC's #8, #16, #4, ...

........................................................................
.............................. CYCLE   17 ..............................
........................................................................
   1    -38.2518051 -0.382518E+02  0.383E-01    1.45       0.0  T
   2    -38.2518652 -0.601187E-04  0.318E-01    1.41       1.0  T
   3    -38.2517271  0.138175E-03  0.121E-01    1.47       1.0  T
   4    -38.2519230 -0.195957E-03  0.363E-02    1.42       1.0  T
   5    -38.2519326 -0.962701E-05  0.148E-02    1.43       1.2  T
   6    -38.2519325  0.111402E-06  0.101E-02    1.43       1.8  T
   7    -38.2519337 -0.113742E-05  0.298E-03    1.43       6.0  T
   8    -38.2519337 -0.229981E-07  0.184E-03    1.43       9.8  T
   9    -38.2519337 -0.244004E-07  0.113E-03    1.43      15.8  T
  10    -38.2519337 -0.973657E-09  0.605E-04    1.43      29.7  T
  11    -38.2519337 -0.800938E-09  0.137E-04    1.43     130.7  T
     SCC iter.                  ...        0 min,  0.245 sec
     gradient                   ...        0 min,  0.011 sec
 * total energy  :   -37.6319806 Eh     change       -0.2145542E-02 Eh
   gradient norm :     0.0252940 Eh/α   predicted    -0.1807592E-02 ( -15.75%)
   displ. norm   :     0.4189469 α      lambda       -0.2130604E-02
   maximum displ.:     0.1856092 α      in ANC's #8, #16, #4, ...

........................................................................
.............................. CYCLE   18 ..............................
........................................................................
   1    -38.2525456 -0.382525E+02  0.343E-01    1.49       0.0  T
   2    -38.2525956 -0.500394E-04  0.266E-01    1.47       1.0  T
   3    -38.2523930  0.202649E-03  0.111E-01    1.51       1.0  T
   4    -38.2526255 -0.232592E-03  0.403E-02    1.47       1.0  T
   5    -38.2526375 -0.119420E-04  0.150E-02    1.48       1.2  T
   6    -38.2526376 -0.767159E-07  0.852E-03    1.48       2.1  T
   7    -38.2526384 -0.805875E-06  0.342E-03    1.48       5.3  T
   8    -38.2526384 -0.504324E-07  0.233E-03    1.48       7.7  T
   9    -38.2526384 -0.860867E-08  0.132E-03    1.48      13.6  T
  10    -38.2526384 -0.457703E-08  0.637E-04    1.48      28.2  T
  11    -38.2526384 -0.221734E-08  0.185E-04    1.48      96.9  T
     SCC iter.                  ...        0 min,  0.286 sec
     gradient                   ...        0 min,  0.067 sec
 * total energy  :   -37.6333894 Eh     change       -0.1408780E-02 Eh
   gradient norm :     0.0227773 Eh/α   predicted    -0.1252284E-02 ( -11.11%)
   displ. norm   :     0.2994999 α      lambda       -0.1575134E-02
   maximum displ.:     0.1205478 α      in ANC's #16, #4, #5, ...

........................................................................
.............................. CYCLE   19 ..............................
........................................................................
   1    -38.2562591 -0.382563E+02  0.192E-01    1.50       0.0  T
   2    -38.2562792 -0.200825E-04  0.116E-01    1.49       1.0  T
   3    -38.2562029  0.762794E-04  0.875E-02    1.51       1.0  T
   4    -38.2563092 -0.106335E-03  0.137E-02    1.49       1.3  T
   5    -38.2563105 -0.130939E-05  0.921E-03    1.49       2.0  T
   6    -38.2563109 -0.331481E-06  0.485E-03    1.49       3.7  T
   7    -38.2563110 -0.155716E-06  0.160E-03    1.49      11.2  T
   8    -38.2563110 -0.677186E-08  0.110E-03    1.49      16.4  T
   9    -38.2563110 -0.116076E-08  0.701E-04    1.49      25.6  T
  10    -38.2563110 -0.605894E-09  0.318E-04    1.49      56.5  T
     SCC iter.                  ...        0 min,  0.232 sec
     gradient                   ...        0 min,  0.006 sec
 * total energy  :   -37.6343592 Eh     change       -0.9697921E-03 Eh
   gradient norm :     0.0228867 Eh/α   predicted    -0.8582239E-03 ( -11.50%)
   displ. norm   :     0.2328677 α      lambda       -0.1027478E-02
   maximum displ.:     0.1056958 α      in ANC's #16, #5, #4, ...

........................................................................
.............................. CYCLE   20 ..............................
........................................................................
   1    -38.2549929 -0.382550E+02  0.182E-01    1.50       0.0  T
   2    -38.2550002 -0.727683E-05  0.116E-01    1.49       1.0  T
   3    -38.2549621  0.380512E-04  0.448E-02    1.50       1.0  T
   4    -38.2550059 -0.437293E-04  0.145E-02    1.49       1.2  T
   5    -38.2550056  0.240958E-06  0.110E-02    1.50       1.6  T
   6    -38.2550064 -0.731877E-06  0.320E-03    1.50       5.6  T
   7    -38.2550064 -0.169357E-07  0.223E-03    1.50       8.0  T
   8    -38.2550064 -0.227285E-07  0.153E-03    1.50      11.7  T
   9    -38.2550064 -0.522601E-08  0.661E-04    1.50      27.2  T
  10    -38.2550064 -0.148796E-08  0.316E-04    1.50      56.9  T
     SCC iter.                  ...        0 min,  0.287 sec
     gradient                   ...        0 min,  0.004 sec
 * total energy  :   -37.6350631 Eh     change       -0.7038716E-03 Eh
   gradient norm :     0.0138997 Eh/α   predicted    -0.5416008E-03 ( -23.05%)
   displ. norm   :     0.2236454 α      lambda       -0.1014357E-02
   maximum displ.:     0.0834567 α      in ANC's #6, #3, #16, ...
 * RMSD in coord.:     1.1663411 α      energy gain  -0.6007560E+01 Eh

generating ANC from model Hessian ...
Using Lindh-Hessian (1995)
 Shifting diagonal of input Hessian by    1.3539505564355327E-002
 Lowest  eigenvalues of input Hessian
    0.010000    0.010457    0.000000    0.000000    0.000000    0.000000
    0.000000    0.000000    0.013768    0.014009    0.014158    0.014527
    0.015354    0.015550    0.017228    0.020016    0.021295    0.021360
 Highest eigenvalues
    1.736397    1.737303    1.741220    1.999868    2.331919    2.781697


........................................................................
.............................. CYCLE   21 ..............................
........................................................................
   1    -38.2548783 -0.382549E+02  0.106E-01    1.50       0.0  T
   2    -38.2548872 -0.893397E-05  0.600E-02    1.49       1.0  T
   3    -38.2548643  0.229162E-04  0.513E-02    1.50       1.0  T
   4    -38.2549042 -0.398652E-04  0.120E-02    1.49       1.5  T
   5    -38.2549052 -0.109027E-05  0.750E-03    1.49       2.4  T
   6    -38.2549054 -0.152704E-06  0.246E-03    1.49       7.3  T
   7    -38.2549055 -0.514937E-07  0.139E-03    1.49      13.0  T
   8    -38.2549055 -0.783169E-08  0.637E-04    1.49      28.2  T
   9    -38.2549055 -0.278477E-08  0.389E-04    1.49      46.2  T
     SCC iter.                  ...        0 min,  0.215 sec
     gradient                   ...        0 min,  0.012 sec
 * total energy  :   -37.6357190 Eh     change       -0.6558828E-03 Eh
   gradient norm :     0.0114730 Eh/α   predicted     0.0000000E+00 (-100.00%)
   displ. norm   :     0.2415815 α      lambda       -0.1185916E-02
   maximum displ.:     0.1394206 α      in ANC's #6, #1, #8, ...

........................................................................
.............................. CYCLE   22 ..............................
........................................................................
   1    -38.2559844 -0.382560E+02  0.172E-01    1.51       0.0  T
   2    -38.2559941 -0.965600E-05  0.111E-01    1.50       1.0  T
   3    -38.2559525  0.415524E-04  0.849E-02    1.51       1.0  T
   4    -38.2560242 -0.717303E-04  0.166E-02    1.50       1.1  T
   5    -38.2560264 -0.214317E-05  0.101E-02    1.50       1.8  T
   6    -38.2560265 -0.967765E-07  0.448E-03    1.50       4.0  T
   7    -38.2560267 -0.244059E-06  0.207E-03    1.50       8.7  T
   8    -38.2560267 -0.236981E-07  0.121E-03    1.50      14.8  T
   9    -38.2560267 -0.128571E-08  0.618E-04    1.50      29.1  T
  10    -38.2560267 -0.224720E-08  0.220E-04    1.50      81.6  T
     SCC iter.                  ...        0 min,  0.255 sec
     gradient                   ...        0 min,  0.009 sec
 * total energy  :   -37.6364010 Eh     change       -0.6820441E-03 Eh
   gradient norm :     0.0074216 Eh/α   predicted    -0.6275694E-03 (  -7.99%)
   displ. norm   :     0.3408214 α      lambda       -0.1121482E-02
   maximum displ.:     0.2327851 α      in ANC's #6, #9, #3, ...

........................................................................
.............................. CYCLE   23 ..............................
........................................................................
   1    -38.2560518 -0.382561E+02  0.137E-01    1.51       0.0  T
   2    -38.2560620 -0.102046E-04  0.878E-02    1.50       1.0  T
   3    -38.2560412  0.207609E-04  0.544E-02    1.51       1.0  T
   4    -38.2560703 -0.290651E-04  0.126E-02    1.50       1.4  T
   5    -38.2560714 -0.115427E-05  0.911E-03    1.50       2.0  T
   6    -38.2560717 -0.228381E-06  0.328E-03    1.50       5.5  T
   7    -38.2560719 -0.251995E-06  0.189E-03    1.50       9.5  T
   8    -38.2560719 -0.437087E-08  0.103E-03    1.50      17.5  T
   9    -38.2560719 -0.294428E-08  0.435E-04    1.50      41.3  T
  10    -38.2560719 -0.598185E-09  0.242E-04    1.50      74.4  T
     SCC iter.                  ...        0 min,  0.273 sec
     gradient                   ...        0 min,  0.019 sec
 * total energy  :   -37.6372093 Eh     change       -0.8083327E-03 Eh
   gradient norm :     0.0081692 Eh/α   predicted    -0.6258763E-03 ( -22.57%)
   displ. norm   :     0.4501941 α      lambda       -0.9979707E-03
   maximum displ.:     0.3182761 α      in ANC's #6, #9, #3, ...

........................................................................
.............................. CYCLE   24 ..............................
........................................................................
   1    -38.2529928 -0.382530E+02  0.159E-01    1.51       0.0  T
   2    -38.2530017 -0.886163E-05  0.973E-02    1.51       1.0  T
   3    -38.2529537  0.479924E-04  0.559E-02    1.50       1.0  T
   4    -38.2530109 -0.572425E-04  0.145E-02    1.51       1.2  T
   5    -38.2530116 -0.659421E-06  0.852E-03    1.51       2.1  T
   6    -38.2530116  0.118777E-08  0.379E-03    1.51       4.7  T
   7    -38.2530117 -0.167142E-06  0.234E-03    1.51       7.7  T
   8    -38.2530117  0.249571E-08  0.173E-03    1.51      10.4  T
   9    -38.2530118 -0.169302E-07  0.598E-04    1.51      30.0  T
  10    -38.2530118 -0.438696E-09  0.241E-04    1.51      74.6  T
     SCC iter.                  ...        0 min,  0.254 sec
     gradient                   ...        0 min,  0.014 sec
 * total energy  :   -37.6379529 Eh     change       -0.7435819E-03 Eh
   gradient norm :     0.0120270 Eh/α   predicted    -0.6001272E-03 ( -19.29%)
   displ. norm   :     0.3807910 α      lambda       -0.7813557E-03
   maximum displ.:     0.2721504 α      in ANC's #6, #3, #9, ...

........................................................................
.............................. CYCLE   25 ..............................
........................................................................
   1    -38.2521715 -0.382522E+02  0.137E-01    1.51       0.0  T
   2    -38.2521763 -0.479801E-05  0.912E-02    1.52       1.0  T
   3    -38.2521367  0.395660E-04  0.611E-02    1.51       1.0  T
   4    -38.2521919 -0.552019E-04  0.131E-02    1.51       1.4  T
   5    -38.2521927 -0.723066E-06  0.748E-03    1.51       2.4  T
   6    -38.2521928 -0.918164E-07  0.280E-03    1.51       6.4  T
   7    -38.2521928 -0.636299E-07  0.188E-03    1.51       9.5  T
   8    -38.2521928 -0.828907E-08  0.120E-03    1.51      15.0  T
   9    -38.2521928 -0.942256E-08  0.552E-04    1.51      32.5  T
  10    -38.2521928 -0.290548E-09  0.211E-04    1.51      85.3  T
     SCC iter.                  ...        0 min,  0.250 sec
     gradient                   ...        0 min,  0.011 sec
 * total energy  :   -37.6385478 Eh     change       -0.5948567E-03 Eh
   gradient norm :     0.0129716 Eh/α   predicted    -0.4473288E-03 ( -24.80%)
   displ. norm   :     0.3708287 α      lambda       -0.8754770E-03
   maximum displ.:     0.2750614 α      in ANC's #6, #3, #9, ...

........................................................................
.............................. CYCLE   26 ..............................
........................................................................
   1    -38.2552124 -0.382552E+02  0.137E-01    1.51       0.0  T
   2    -38.2552207 -0.820685E-05  0.974E-02    1.52       1.0  T
   3    -38.2552125  0.817900E-05  0.621E-02    1.51       1.0  T
   4    -38.2552529 -0.403827E-04  0.130E-02    1.51       1.4  T
   5    -38.2552540 -0.115468E-05  0.732E-03    1.51       2.5  T
   6    -38.2552540  0.122615E-07  0.361E-03    1.51       5.0  T
   7    -38.2552541 -0.122174E-06  0.170E-03    1.51      10.6  T
   8    -38.2552541 -0.119959E-07  0.117E-03    1.51      15.3  T
   9    -38.2552541 -0.219099E-08  0.448E-04    1.51      40.1  T
  10    -38.2552541 -0.682590E-09  0.236E-04    1.51      76.2  T
     SCC iter.                  ...        0 min,  0.254 sec
     gradient                   ...        0 min,  0.022 sec
 * total energy  :   -37.6391974 Eh     change       -0.6495789E-03 Eh
   gradient norm :     0.0101854 Eh/α   predicted    -0.4979384E-03 ( -23.34%)
   displ. norm   :     0.4615210 α      lambda       -0.7667678E-03
   maximum displ.:     0.3296949 α      in ANC's #6, #3, #9, ...

........................................................................
.............................. CYCLE   27 ..............................
........................................................................
   1    -38.2551433 -0.382551E+02  0.171E-01    1.51       0.0  T
   2    -38.2551509 -0.751183E-05  0.114E-01    1.51       1.0  T
   3    -38.2551289  0.219470E-04  0.476E-02    1.50       1.0  T
   4    -38.2551536 -0.247118E-04  0.182E-02    1.51       1.0  T
   5    -38.2551553 -0.172184E-05  0.980E-03    1.51       1.8  T
   6    -38.2551557 -0.399463E-06  0.409E-03    1.51       4.4  T
   7    -38.2551559 -0.112213E-06  0.224E-03    1.51       8.0  T
   8    -38.2551559 -0.932157E-08  0.102E-03    1.51      17.6  T
   9    -38.2551559 -0.452575E-08  0.497E-04    1.51      36.2  T
  10    -38.2551559 -0.151655E-08  0.256E-04    1.51      70.1  T
     SCC iter.                  ...        0 min,  0.255 sec
     gradient                   ...        0 min,  0.007 sec
 * total energy  :   -37.6397440 Eh     change       -0.5466042E-03 Eh
   gradient norm :     0.0107153 Eh/α   predicted    -0.4650455E-03 ( -14.92%)
   displ. norm   :     0.4002494 α      lambda       -0.9886500E-03
   maximum displ.:     0.2721713 α      in ANC's #6, #3, #5, ...

........................................................................
.............................. CYCLE   28 ..............................
........................................................................
   1    -38.2638402 -0.382638E+02  0.155E-01    1.51       0.0  T
   2    -38.2638714 -0.311854E-04  0.106E-01    1.50       1.0  T
   3    -38.2638438  0.275618E-04  0.666E-02    1.51       1.0  T
   4    -38.2638937 -0.499156E-04  0.176E-02    1.50       1.0  T
   5    -38.2638985 -0.483363E-05  0.876E-03    1.50       2.1  T
   6    -38.2638986 -0.713842E-07  0.433E-03    1.50       4.1  T
   7    -38.2638989 -0.293802E-06  0.216E-03    1.50       8.3  T
   8    -38.2638989 -0.116551E-07  0.100E-03    1.50      17.9  T
   9    -38.2638989 -0.112465E-08  0.560E-04    1.50      32.1  T
  10    -38.2638989 -0.730061E-09  0.253E-04    1.50      71.1  T
     SCC iter.                  ...        0 min,  0.221 sec
     gradient                   ...        0 min,  0.082 sec
 * total energy  :   -37.6401993 Eh     change       -0.4553675E-03 Eh
   gradient norm :     0.0089884 Eh/α   predicted    -0.5735212E-03 (  25.95%)
   displ. norm   :     0.5574862 α      lambda       -0.7244651E-03
   maximum displ.:     0.3886886 α      in ANC's #6, #3, #9, ...

........................................................................
.............................. CYCLE   29 ..............................
........................................................................
   1    -38.2548415 -0.382548E+02  0.255E-01    1.51       0.0  T
   2    -38.2548512 -0.967559E-05  0.158E-01    1.52       1.0  T
   3    -38.2547954  0.558318E-04  0.751E-02    1.50       1.0  T
   4    -38.2548587 -0.633570E-04  0.211E-02    1.51       1.0  T
   5    -38.2548590 -0.231403E-06  0.152E-02    1.51       1.2  T
   6    -38.2548595 -0.481386E-06  0.536E-03    1.51       3.4  T
   7    -38.2548598 -0.327707E-06  0.253E-03    1.51       7.1  T
   8    -38.2548598 -0.231292E-07  0.132E-03    1.51      13.6  T
   9    -38.2548598 -0.768077E-08  0.624E-04    1.51      28.8  T
  10    -38.2548598 -0.144177E-08  0.344E-04    1.51      52.3  T
     SCC iter.                  ...        0 min,  0.249 sec
     gradient                   ...        0 min,  0.080 sec
 * total energy  :   -37.6404931 Eh     change       -0.2937640E-03 Eh
   gradient norm :     0.0133102 Eh/α   predicted    -0.4748130E-03 (  61.63%)
   displ. norm   :     0.0977750 α      lambda       -0.4545943E-03
   maximum displ.:     0.0550756 α      in ANC's #7, #4, #10, ...

........................................................................
.............................. CYCLE   30 ..............................
........................................................................
   1    -38.2595541 -0.382596E+02  0.913E-02    1.52       0.0  T
   2    -38.2595568 -0.271240E-05  0.565E-02    1.51       1.0  T
   3    -38.2595418  0.150431E-04  0.372E-02    1.52       1.0  T
   4    -38.2595608 -0.190828E-04  0.123E-02    1.52       1.5  T
   5    -38.2595613 -0.480968E-06  0.820E-03    1.52       2.2  T
   6    -38.2595613  0.622888E-07  0.350E-03    1.52       5.1  T
   7    -38.2595614 -0.995794E-07  0.711E-04    1.52      25.3  T
   8    -38.2595614 -0.198617E-08  0.454E-04    1.52      39.6  T
     SCC iter.                  ...        0 min,  0.140 sec
     gradient                   ...        0 min,  0.005 sec
 * total energy  :   -37.6407157 Eh     change       -0.2226423E-03 Eh
   gradient norm :     0.0074755 Eh/α   predicted    -0.2294731E-03 (   3.07%)
   displ. norm   :     0.1848982 α      lambda       -0.3649608E-03
   maximum displ.:     0.0918571 α      in ANC's #6, #7, #5, ...

........................................................................
.............................. CYCLE   31 ..............................
........................................................................
   1    -38.2627152 -0.382627E+02  0.914E-02    1.52       0.0  T
   2    -38.2627168 -0.161744E-05  0.622E-02    1.52       1.0  T
   3    -38.2627072  0.965314E-05  0.304E-02    1.52       1.0  T
   4    -38.2627182 -0.110420E-04  0.945E-03    1.52       1.9  T
   5    -38.2627185 -0.281028E-06  0.573E-03    1.52       3.1  T
   6    -38.2627186 -0.115992E-06  0.196E-03    1.52       9.1  T
   7    -38.2627187 -0.457383E-07  0.136E-03    1.52      13.2  T
   8    -38.2627187 -0.614870E-08  0.698E-04    1.52      25.7  T
   9    -38.2627187 -0.232391E-08  0.269E-04    1.52      66.7  T
     SCC iter.                  ...        0 min,  0.161 sec
     gradient                   ...        0 min,  0.007 sec
 * total energy  :   -37.6409480 Eh     change       -0.2322479E-03 Eh
   gradient norm :     0.0048423 Eh/α   predicted    -0.1887228E-03 ( -18.74%)
   displ. norm   :     0.5546091 α      lambda       -0.4629786E-03
   maximum displ.:     0.3349116 α      in ANC's #6, #3, #5, ...

........................................................................
.............................. CYCLE   32 ..............................
........................................................................
   1    -38.2579547 -0.382580E+02  0.226E-01    1.52       0.0  T
   2    -38.2579580 -0.321790E-05  0.146E-01    1.53       1.0  T
   3    -38.2579484  0.959050E-05  0.320E-02    1.52       1.0  T
   4    -38.2579593 -0.109744E-04  0.138E-02    1.52       1.3  T
   5    -38.2579588  0.511614E-06  0.949E-03    1.52       1.9  T
   6    -38.2579596 -0.800854E-06  0.259E-03    1.53       6.9  T
   7    -38.2579597 -0.387174E-07  0.108E-03    1.53      16.6  T
   8    -38.2579597 -0.179404E-08  0.761E-04    1.53      23.6  T
   9    -38.2579597 -0.222896E-08  0.419E-04    1.53      42.8  T
     SCC iter.                  ...        0 min,  0.177 sec
     gradient                   ...        0 min,  0.060 sec
 * total energy  :   -37.6412178 Eh     change       -0.2698440E-03 Eh
   gradient norm :     0.0087581 Eh/α   predicted    -0.3027059E-03 (  12.18%)
   displ. norm   :     0.2901566 α      lambda       -0.2815604E-03
   maximum displ.:     0.1418808 α      in ANC's #6, #3, #7, ...

........................................................................
.............................. CYCLE   33 ..............................
........................................................................
   1    -38.2572098 -0.382572E+02  0.130E-01    1.52       0.0  T
   2    -38.2572120 -0.221273E-05  0.824E-02    1.53       1.0  T
   3    -38.2571936  0.184920E-04  0.371E-02    1.52       1.0  T
   4    -38.2572138 -0.202873E-04  0.832E-03    1.52       2.2  T
   5    -38.2572145 -0.667428E-06  0.633E-03    1.53       2.8  T
   6    -38.2572147 -0.144263E-06  0.222E-03    1.52       8.1  T
   7    -38.2572147 -0.341645E-07  0.114E-03    1.52      15.7  T
   8    -38.2572147  0.166300E-08  0.791E-04    1.52      22.7  T
   9    -38.2572147 -0.391192E-08  0.383E-04    1.52      46.9  T
     SCC iter.                  ...        0 min,  0.181 sec
     gradient                   ...        0 min,  0.071 sec
 * total energy  :   -37.6413590 Eh     change       -0.1411254E-03 Eh
   gradient norm :     0.0096189 Eh/α   predicted    -0.1526351E-03 (   8.16%)
   displ. norm   :     0.2279450 α      lambda       -0.4730376E-03
   maximum displ.:     0.1182453 α      in ANC's #4, #7, #3, ...

........................................................................
.............................. CYCLE   34 ..............................
........................................................................
   1    -38.2649755 -0.382650E+02  0.927E-02    1.52       0.0  T
   2    -38.2649835 -0.799867E-05  0.532E-02    1.51       1.0  T
   3    -38.2649745  0.893138E-05  0.512E-02    1.52       1.0  T
   4    -38.2650007 -0.261129E-04  0.160E-02    1.52       1.1  T
   5    -38.2650010 -0.296160E-06  0.120E-02    1.51       1.5  T
   6    -38.2650010 -0.352904E-07  0.474E-03    1.52       3.8  T
   7    -38.2650014 -0.411728E-06  0.171E-03    1.51      10.5  T
   8    -38.2650014 -0.836091E-08  0.947E-04    1.51      19.0  T
   9    -38.2650014 -0.285818E-08  0.362E-04    1.51      49.6  T
     SCC iter.                  ...        0 min,  0.210 sec
     gradient                   ...        0 min,  0.044 sec
 * total energy  :   -37.6414775 Eh     change       -0.1185752E-03 Eh
   gradient norm :     0.0095833 Eh/α   predicted    -0.2488100E-03 ( 109.83%)
   displ. norm   :     0.3705891 α      lambda       -0.3456558E-03
   maximum displ.:     0.1989695 α      in ANC's #6, #3, #5, ...

........................................................................
.............................. CYCLE   35 ..............................
........................................................................
   1    -38.2591120 -0.382591E+02  0.147E-01    1.51       0.0  T
   2    -38.2591159 -0.386714E-05  0.911E-02    1.52       1.0  T
   3    -38.2591114  0.445050E-05  0.282E-02    1.51       1.0  T
   4    -38.2591170 -0.555379E-05  0.104E-02    1.52       1.7  T
   5    -38.2591169  0.117064E-06  0.704E-03    1.52       2.5  T
   6    -38.2591171 -0.188558E-06  0.199E-03    1.52       9.0  T
   7    -38.2591171 -0.539147E-07  0.100E-03    1.52      17.9  T
   8    -38.2591171 -0.545895E-08  0.642E-04    1.52      28.0  T
   9    -38.2591171 -0.709136E-09  0.351E-04    1.52      51.2  T
     SCC iter.                  ...        0 min,  0.193 sec
     gradient                   ...        0 min,  0.005 sec
 * total energy  :   -37.6416517 Eh     change       -0.1742047E-03 Eh
   gradient norm :     0.0076288 Eh/α   predicted    -0.1965642E-03 (  12.84%)
   displ. norm   :     0.1021070 α      lambda       -0.1070999E-03
   maximum displ.:     0.0493208 α      in ANC's #3, #6, #4, ...

........................................................................
.............................. CYCLE   36 ..............................
........................................................................
   1    -38.2601193 -0.382601E+02  0.526E-02    1.52       0.0  T
   2    -38.2601196 -0.370907E-06  0.314E-02    1.52       1.0  T
   3    -38.2601123  0.735468E-05  0.239E-02    1.52       1.0  T
   4    -38.2601211 -0.882425E-05  0.381E-03    1.52       4.7  T
   5    -38.2601212 -0.982405E-07  0.183E-03    1.52       9.8  T
   6    -38.2601212 -0.190902E-09  0.737E-04    1.52      24.4  T
   7    -38.2601212 -0.578494E-08  0.236E-04    1.52      76.1  T
     SCC iter.                  ...        0 min,  0.129 sec
     gradient                   ...        0 min,  0.005 sec
 * total energy  :   -37.6417203 Eh     change       -0.6853706E-04 Eh
   gradient norm :     0.0040982 Eh/α   predicted    -0.5411219E-04 ( -21.05%)
   displ. norm   :     0.2045893 α      lambda       -0.1105699E-03
   maximum displ.:     0.1059735 α      in ANC's #3, #4, #6, ...

........................................................................
.............................. CYCLE   37 ..............................
........................................................................
   1    -38.2622892 -0.382623E+02  0.663E-02    1.52       0.0  T
   2    -38.2622900 -0.729755E-06  0.424E-02    1.52       1.0  T
   3    -38.2622849  0.503872E-05  0.164E-02    1.52       1.1  T
   4    -38.2622904 -0.548947E-05  0.379E-03    1.52       4.7  T
   5    -38.2622905 -0.677083E-07  0.278E-03    1.52       6.5  T
   6    -38.2622905 -0.312397E-07  0.754E-04    1.52      23.8  T
   7    -38.2622905 -0.687206E-08  0.292E-04    1.52      61.5  T
     SCC iter.                  ...        0 min,  0.152 sec
     gradient                   ...        0 min,  0.004 sec
 * total energy  :   -37.6417883 Eh     change       -0.6800501E-04 Eh
   gradient norm :     0.0045102 Eh/α   predicted    -0.5760226E-04 ( -15.30%)
   displ. norm   :     0.3551306 α      lambda       -0.1067472E-03
   maximum displ.:     0.1885781 α      in ANC's #3, #6, #4, ...

........................................................................
.............................. CYCLE   38 ..............................
........................................................................
   1    -38.2605919 -0.382606E+02  0.119E-01    1.52       0.0  T
   2    -38.2605933 -0.131768E-05  0.747E-02    1.52       1.0  T
   3    -38.2605903  0.299587E-05  0.195E-02    1.51       1.0  T
   4    -38.2605939 -0.365874E-05  0.738E-03    1.52       2.4  T
   5    -38.2605939  0.468132E-07  0.291E-03    1.52       6.2  T
   6    -38.2605939 -0.775132E-07  0.118E-03    1.52      15.2  T
   7    -38.2605940 -0.808227E-08  0.712E-04    1.52      25.2  T
   8    -38.2605940  0.341515E-09  0.514E-04    1.52      34.9  T
     SCC iter.                  ...        0 min,  0.206 sec
     gradient                   ...        0 min,  0.010 sec
 * total energy  :   -37.6418376 Eh     change       -0.4932550E-04 Eh
   gradient norm :     0.0045372 Eh/α   predicted    -0.6010875E-04 (  21.86%)
   displ. norm   :     0.0651158 α      lambda       -0.7764266E-04
   maximum displ.:     0.0420417 α      in ANC's #4, #3, #57, ...

........................................................................
.............................. CYCLE   39 ..............................
........................................................................
   1    -38.2647099 -0.382647E+02  0.365E-02    1.52       0.0  T
   2    -38.2647114 -0.143740E-05  0.200E-02    1.51       1.0  T
   3    -38.2647107  0.720128E-06  0.174E-02    1.52       1.0  T
   4    -38.2647137 -0.302324E-05  0.590E-03    1.52       3.0  T
   5    -38.2647138 -0.126838E-06  0.295E-03    1.52       6.1  T
   6    -38.2647138  0.649067E-08  0.183E-03    1.52       9.8  T
   7    -38.2647138 -0.193568E-07  0.266E-04    1.52      67.6  T
   8    -38.2647138 -0.870017E-09  0.116E-04    1.52     154.5  T
     SCC iter.                  ...        0 min,  0.195 sec
     gradient                   ...        0 min,  0.017 sec
 * total energy  :   -37.6418564 Eh     change       -0.1884088E-04 Eh
   gradient norm :     0.0051987 Eh/α   predicted    -0.3899066E-04 ( 106.95%)
   displ. norm   :     0.1746866 α      lambda       -0.6821536E-04
   maximum displ.:     0.0912989 α      in ANC's #6, #3, #4, ...

........................................................................
.............................. CYCLE   40 ..............................
........................................................................
   1    -38.2626957 -0.382627E+02  0.602E-02    1.51       0.0  T
   2    -38.2626962 -0.564822E-06  0.382E-02    1.52       1.0  T
   3    -38.2626900  0.628447E-05  0.199E-02    1.51       1.0  T
   4    -38.2626969 -0.697016E-05  0.465E-03    1.52       3.9  T
   5    -38.2626970 -0.372568E-07  0.332E-03    1.52       5.4  T
   6    -38.2626970 -0.297524E-07  0.105E-03    1.52      17.1  T
   7    -38.2626970 -0.144719E-07  0.382E-04    1.52      47.0  T
   8    -38.2626970 -0.514106E-09  0.254E-04    1.52      70.8  T
     SCC iter.                  ...        0 min,  0.184 sec
     gradient                   ...        0 min,  0.005 sec
 * total energy  :   -37.6418918 Eh     change       -0.3530631E-04 Eh
   gradient norm :     0.0027474 Eh/α   predicted    -0.3515255E-04 (  -0.44%)
   displ. norm   :     0.0907876 α      lambda       -0.2631402E-04
   maximum displ.:     0.0518405 α      in ANC's #6, #3, #4, ...

........................................................................
.............................. CYCLE   41 ..............................
........................................................................
   1    -38.2626127 -0.382626E+02  0.364E-02    1.51       0.0  T
   2    -38.2626129 -0.174720E-06  0.238E-02    1.51       1.0  T
   3    -38.2626123  0.591174E-06  0.639E-03    1.52       2.8  T
   4    -38.2626129 -0.635739E-06  0.258E-03    1.51       7.0  T
   5    -38.2626130 -0.331282E-07  0.143E-03    1.51      12.5  T
   6    -38.2626130 -0.935892E-08  0.454E-04    1.51      39.6  T
   7    -38.2626130 -0.199879E-08  0.182E-04    1.51      98.5  T
     SCC iter.                  ...        0 min,  0.161 sec
     gradient                   ...        0 min,  0.007 sec
 * total energy  :   -37.6419048 Eh     change       -0.1302591E-04 Eh
   gradient norm :     0.0020309 Eh/α   predicted    -0.1326648E-04 (   1.85%)
   displ. norm   :     0.0743510 α      lambda       -0.2027143E-04
   maximum displ.:     0.0464244 α      in ANC's #6, #3, #4, ...

........................................................................
.............................. CYCLE   42 ..............................
........................................................................
   1    -38.2632696 -0.382633E+02  0.325E-02    1.51       0.0  T
   2    -38.2632698 -0.218785E-06  0.215E-02    1.52       1.0  T
   3    -38.2632685  0.132909E-05  0.881E-03    1.51       2.0  T
   4    -38.2632699 -0.145909E-05  0.271E-03    1.52       6.6  T
   5    -38.2632700 -0.310076E-07  0.138E-03    1.52      13.0  T
   6    -38.2632700 -0.275924E-08  0.640E-04    1.52      28.1  T
   7    -38.2632700 -0.371490E-08  0.255E-04    1.52      70.5  T
     SCC iter.                  ...        0 min,  0.182 sec
     gradient                   ...        0 min,  0.017 sec
 * total energy  :   -37.6419141 Eh     change       -0.9313820E-05 Eh
   gradient norm :     0.0024545 Eh/α   predicted    -0.1019391E-04 (   9.45%)
   displ. norm   :     0.0690875 α      lambda       -0.1757808E-04
   maximum displ.:     0.0350585 α      in ANC's #6, #3, #4, ...
 * RMSD in coord.:     0.9541863 α      energy gain  -0.6851007E-02 Eh

generating ANC from model Hessian ...
Using Lindh-Hessian (1995)
 Shifting diagonal of input Hessian by    1.2755782306118343E-002
 Lowest  eigenvalues of input Hessian
    0.010000    0.010297    0.000000    0.000000    0.000000    0.000000
    0.000000    0.000000    0.013159    0.013198    0.013315    0.013623
    0.014118    0.014700    0.016394    0.018985    0.020604    0.020830
 Highest eigenvalues
    1.731442    1.735993    1.736538    2.036431    2.356892    2.740176


........................................................................
.............................. CYCLE   43 ..............................
........................................................................
   1    -38.2637229 -0.382637E+02  0.227E-02    1.52       0.0  T
   2    -38.2637230 -0.100315E-06  0.147E-02    1.52       1.2  T
   3    -38.2637214  0.160990E-05  0.973E-03    1.52       1.8  T
   4    -38.2637233 -0.191078E-05  0.165E-03    1.52      10.9  T
   5    -38.2637233 -0.132113E-07  0.112E-03    1.52      16.1  T
   6    -38.2637233 -0.218077E-08  0.405E-04    1.52      44.4  T
   7    -38.2637233 -0.758661E-09  0.241E-04    1.52      74.5  T
     SCC iter.                  ...        0 min,  0.192 sec
     gradient                   ...        0 min,  0.014 sec
 * total energy  :   -37.6419235 Eh     change       -0.9421093E-05 Eh
   gradient norm :     0.0018441 Eh/α   predicted     0.0000000E+00 (-100.00%)
   displ. norm   :     0.0514396 α      lambda       -0.2134125E-04
   maximum displ.:     0.0426376 α      in ANC's #9, #5, #1, ...

........................................................................
.............................. CYCLE   44 ..............................
........................................................................
   1    -38.2633078 -0.382633E+02  0.167E-02    1.51       0.0  T
   2    -38.2633079 -0.998004E-07  0.102E-02    1.51       1.8  T
   3    -38.2633077  0.188994E-06  0.376E-03    1.51       4.8  T
   4    -38.2633080 -0.239913E-06  0.167E-03    1.51      10.8  T
   5    -38.2633080 -0.192384E-08  0.861E-04    1.51      20.8  T
   6    -38.2633080 -0.141198E-08  0.294E-04    1.51      61.1  T
     SCC iter.                  ...        0 min,  0.159 sec
     gradient                   ...        0 min,  0.012 sec
 * total energy  :   -37.6419509 Eh     change       -0.2743295E-04 Eh
   gradient norm :     0.0008382 Eh/α   predicted    -0.1112097E-04 ( -59.46%)
   displ. norm   :     0.1649171 α      lambda       -0.5468611E-04
   maximum displ.:     0.1274074 α      in ANC's #9, #5, #1, ...

........................................................................
.............................. CYCLE   45 ..............................
........................................................................
   1    -38.2623146 -0.382623E+02  0.569E-02    1.51       0.0  T
   2    -38.2623152 -0.549121E-06  0.340E-02    1.51       1.0  T
   3    -38.2623091  0.608535E-05  0.204E-02    1.51       1.0  T
   4    -38.2623162 -0.708464E-05  0.467E-03    1.51       3.8  T
   5    -38.2623163 -0.137198E-06  0.254E-03    1.51       7.1  T
   6    -38.2623163 -0.165772E-08  0.103E-03    1.51      17.5  T
   7    -38.2623163 -0.720895E-08  0.556E-04    1.51      32.3  T
   8    -38.2623163 -0.139970E-09  0.378E-04    1.51      47.6  T
     SCC iter.                  ...        0 min,  0.251 sec
     gradient                   ...        0 min,  0.064 sec
 * total energy  :   -37.6420069 Eh     change       -0.5592965E-04 Eh
   gradient norm :     0.0042450 Eh/α   predicted    -0.2767931E-04 ( -50.51%)
   displ. norm   :     0.1409318 α      lambda       -0.6596975E-04
   maximum displ.:     0.0970592 α      in ANC's #9, #1, #5, ...

........................................................................
.............................. CYCLE   46 ..............................
........................................................................
   1    -38.2618734 -0.382619E+02  0.407E-02    1.51       0.0  T
   2    -38.2618738 -0.398366E-06  0.262E-02    1.51       1.0  T
   3    -38.2618726  0.115825E-05  0.877E-03    1.51       2.0  T
   4    -38.2618739 -0.129547E-05  0.287E-03    1.51       6.3  T
   5    -38.2618739 -0.463951E-07  0.178E-03    1.51      10.1  T
   6    -38.2618739  0.871012E-09  0.714E-04    1.51      25.2  T
   7    -38.2618740 -0.115890E-07  0.287E-04    1.51      62.5  T
     SCC iter.                  ...        0 min,  0.222 sec
     gradient                   ...        0 min,  0.064 sec
 * total energy  :   -37.6420599 Eh     change       -0.5303933E-04 Eh
   gradient norm :     0.0050718 Eh/α   predicted    -0.3364416E-04 ( -36.57%)
   displ. norm   :     0.3413096 α      lambda       -0.1473443E-03
   maximum displ.:     0.2318032 α      in ANC's #9, #1, #5, ...

........................................................................
.............................. CYCLE   47 ..............................
........................................................................
   1    -38.2599740 -0.382600E+02  0.925E-02    1.50       0.0  T
   2    -38.2599763 -0.222861E-05  0.579E-02    1.51       1.0  T
   3    -38.2599736  0.263104E-05  0.166E-02    1.50       1.1  T
   4    -38.2599770 -0.334368E-05  0.611E-03    1.51       2.9  T
   5    -38.2599770 -0.541486E-07  0.390E-03    1.51       4.6  T
   6    -38.2599770  0.153238E-07  0.166E-03    1.51      10.8  T
   7    -38.2599770 -0.366522E-07  0.796E-04    1.51      22.6  T
   8    -38.2599770 -0.807781E-09  0.568E-04    1.51      31.6  T
     SCC iter.                  ...        0 min,  0.212 sec
     gradient                   ...        0 min,  0.007 sec
 * total energy  :   -37.6421440 Eh     change       -0.8404586E-04 Eh
   gradient norm :     0.0090625 Eh/α   predicted    -0.8225734E-04 (  -2.13%)
   displ. norm   :     0.1470596 α      lambda       -0.1440688E-03
   maximum displ.:     0.0966765 α      in ANC's #1, #9, #5, ...

........................................................................
.............................. CYCLE   48 ..............................
........................................................................
   1    -38.2607339 -0.382607E+02  0.370E-02    1.51       0.0  T
   2    -38.2607342 -0.275946E-06  0.239E-02    1.51       1.0  T
   3    -38.2607332  0.967506E-06  0.881E-03    1.51       2.0  T
   4    -38.2607343 -0.111211E-05  0.330E-03    1.51       5.4  T
   5    -38.2607343  0.435538E-07  0.236E-03    1.51       7.6  T
   6    -38.2607343 -0.609043E-07  0.624E-04    1.51      28.8  T
   7    -38.2607344 -0.496503E-08  0.394E-04    1.51      45.6  T
     SCC iter.                  ...        0 min,  0.180 sec
     gradient                   ...        0 min,  0.072 sec
 * total energy  :   -37.6422658 Eh     change       -0.1218350E-03 Eh
   gradient norm :     0.0072213 Eh/α   predicted    -0.7359246E-04 ( -39.60%)
   displ. norm   :     0.3535539 α      lambda       -0.4514941E-03
   maximum displ.:     0.2185542 α      in ANC's #1, #9, #5, ...

........................................................................
.............................. CYCLE   49 ..............................
........................................................................
   1    -38.2642534 -0.382643E+02  0.112E-01    1.51       0.0  T
   2    -38.2642557 -0.228874E-05  0.716E-02    1.50       1.0  T
   3    -38.2642490  0.665012E-05  0.228E-02    1.51       1.0  T
   4    -38.2642566 -0.757194E-05  0.708E-03    1.51       2.5  T
   5    -38.2642568 -0.240067E-06  0.500E-03    1.51       3.6  T
   6    -38.2642570 -0.117303E-06  0.133E-03    1.51      13.5  T
   7    -38.2642570 -0.233881E-07  0.117E-03    1.51      15.4  T
   8    -38.2642570 -0.583925E-08  0.490E-04    1.51      36.6  T
   9    -38.2642570 -0.130528E-08  0.151E-04    1.51     118.9  T
     SCC iter.                  ...        0 min,  0.184 sec
     gradient                   ...        0 min,  0.007 sec
 * total energy  :   -37.6425188 Eh     change       -0.2530327E-03 Eh
   gradient norm :     0.0044600 Eh/α   predicted    -0.2539665E-03 (   0.37%)
   displ. norm   :     0.6655836 α      lambda       -0.4023249E-03
   maximum displ.:     0.4100552 α      in ANC's #9, #1, #5, ...

........................................................................
.............................. CYCLE   50 ..............................
........................................................................
   1    -38.2544266 -0.382544E+02  0.160E-01    1.50       0.0  T
   2    -38.2544380 -0.114267E-04  0.101E-01    1.51       1.0  T
   3    -38.2543822  0.557644E-04  0.743E-02    1.50       1.0  T
   4    -38.2544659 -0.836831E-04  0.168E-02    1.50       1.1  T
   5    -38.2544675 -0.160006E-05  0.101E-02    1.50       1.8  T
   6    -38.2544674  0.637370E-07  0.539E-03    1.50       3.3  T
   7    -38.2544677 -0.236283E-06  0.154E-03    1.50      11.7  T
   8    -38.2544677 -0.157923E-07  0.889E-04    1.50      20.2  T
   9    -38.2544677 -0.354600E-08  0.359E-04    1.50      50.1  T
     SCC iter.                  ...        0 min,  0.167 sec
     gradient                   ...        0 min,  0.004 sec
 * total energy  :   -37.6421991 Eh     change        0.3197565E-03 Eh
   gradient norm :     0.0246205 Eh/α   predicted    -0.2902811E-03 (-190.78%)
   displ. norm   :     0.3259026 α      lambda       -0.1244254E-02
   maximum displ.:     0.2032694 α      in ANC's #9, #1, #5, ...

........................................................................
.............................. CYCLE   51 ..............................
........................................................................
   1    -38.2644625 -0.382645E+02  0.102E-01    1.51       0.0  T
   2    -38.2644729 -0.104071E-04  0.609E-02    1.50       1.0  T
   3    -38.2644626  0.103610E-04  0.380E-02    1.51       1.0  T
   4    -38.2644764 -0.138326E-04  0.142E-02    1.51       1.3  T
   5    -38.2644775 -0.109025E-05  0.103E-02    1.51       1.7  T
   6    -38.2644775 -0.333551E-07  0.495E-03    1.51       3.6  T
   7    -38.2644777 -0.156866E-06  0.189E-03    1.51       9.5  T
   8    -38.2644777 -0.141855E-07  0.103E-03    1.51      17.5  T
   9    -38.2644777 -0.292327E-08  0.360E-04    1.51      50.0  T
  10    -38.2644777 -0.337153E-09  0.258E-04    1.51      69.6  T
     SCC iter.                  ...        0 min,  0.196 sec
     gradient                   ...        0 min,  0.006 sec
 * total energy  :   -37.6426908 Eh     change       -0.4916982E-03 Eh
   gradient norm :     0.0034715 Eh/α   predicted    -0.6882049E-03 (  39.96%)
   displ. norm   :     0.0835775 α      lambda       -0.7834862E-04
   maximum displ.:     0.0429207 α      in ANC's #10, #9, #1, ...

........................................................................
.............................. CYCLE   52 ..............................
........................................................................
   1    -38.2637082 -0.382637E+02  0.485E-02    1.50       0.0  T
   2    -38.2637099 -0.164552E-05  0.299E-02    1.50       1.0  T
   3    -38.2637067  0.316474E-05  0.172E-02    1.50       1.0  T
   4    -38.2637105 -0.383403E-05  0.520E-03    1.50       3.5  T
   5    -38.2637108 -0.281771E-06  0.301E-03    1.50       6.0  T
   6    -38.2637108  0.280303E-08  0.140E-03    1.50      12.9  T
   7    -38.2637108 -0.170573E-07  0.640E-04    1.50      28.1  T
   8    -38.2637108 -0.106242E-08  0.405E-04    1.50      44.3  T
     SCC iter.                  ...        0 min,  0.168 sec
     gradient                   ...        0 min,  0.005 sec
 * total energy  :   -37.6427296 Eh     change       -0.3883221E-04 Eh
   gradient norm :     0.0026096 Eh/α   predicted    -0.3945910E-04 (   1.61%)
   displ. norm   :     0.1365020 α      lambda       -0.5874602E-04
   maximum displ.:     0.0867252 α      in ANC's #1, #9, #5, ...

........................................................................
.............................. CYCLE   53 ..............................
........................................................................
   1    -38.2632048 -0.382632E+02  0.351E-02    1.50       0.0  T
   2    -38.2632050 -0.225465E-06  0.219E-02    1.50       1.0  T
   3    -38.2632025  0.259347E-05  0.170E-02    1.50       1.1  T
   4    -38.2632065 -0.402785E-05  0.232E-03    1.50       7.7  T
   5    -38.2632065 -0.187528E-07  0.170E-03    1.50      10.6  T
   6    -38.2632065 -0.550850E-08  0.627E-04    1.50      28.7  T
   7    -38.2632065 -0.599681E-08  0.272E-04    1.50      66.0  T
     SCC iter.                  ...        0 min,  0.149 sec
     gradient                   ...        0 min,  0.074 sec
 * total energy  :   -37.6427738 Eh     change       -0.4420577E-04 Eh
   gradient norm :     0.0021919 Eh/α   predicted    -0.2992355E-04 ( -32.31%)
   displ. norm   :     0.2037523 α      lambda       -0.5978399E-04
   maximum displ.:     0.1403373 α      in ANC's #1, #9, #5, ...

........................................................................
.............................. CYCLE   54 ..............................
........................................................................
   1    -38.2627368 -0.382627E+02  0.482E-02    1.50       0.0  T
   2    -38.2627372 -0.362767E-06  0.302E-02    1.50       1.0  T
   3    -38.2627313  0.593986E-05  0.223E-02    1.50       1.0  T
   4    -38.2627393 -0.800448E-05  0.285E-03    1.50       6.3  T
   5    -38.2627393 -0.451468E-07  0.173E-03    1.50      10.4  T
   6    -38.2627393 -0.111358E-07  0.494E-04    1.50      36.3  T
   7    -38.2627393 -0.238352E-08  0.261E-04    1.50      68.8  T
     SCC iter.                  ...        0 min,  0.022 sec
     gradient                   ...        0 min,  0.004 sec
 * total energy  :   -37.6428038 Eh     change       -0.2995236E-04 Eh
   gradient norm :     0.0038319 Eh/α   predicted    -0.3113730E-04 (   3.96%)
   displ. norm   :     0.0340574 α      lambda       -0.2640864E-04
   maximum displ.:     0.0170600 α      in ANC's #3, #4, #1, ...

........................................................................
.............................. CYCLE   55 ..............................
........................................................................
   1    -38.2637899 -0.382638E+02  0.112E-02    1.50       0.0  T
   2    -38.2637900 -0.106330E-06  0.596E-03    1.50       3.0  T
   3    -38.2637899  0.126656E-06  0.520E-03    1.50       3.5  T
   4    -38.2637901 -0.191618E-06  0.165E-03    1.50      10.9  T
   5    -38.2637901 -0.115480E-08  0.130E-03    1.50      13.8  T
   6    -38.2637901 -0.286452E-08  0.499E-04    1.50      36.0  T
   7    -38.2637901 -0.223317E-08  0.177E-04    1.50     101.3  T
     SCC iter.                  ...        0 min,  0.029 sec
     gradient                   ...        0 min,  0.007 sec
 * total energy  :   -37.6428214 Eh     change       -0.1762002E-04 Eh
   gradient norm :     0.0011959 Eh/α   predicted    -0.1322387E-04 ( -24.95%)
   displ. norm   :     0.1207786 α      lambda       -0.2009316E-04
   maximum displ.:     0.0656973 α      in ANC's #1, #3, #4, ...

........................................................................
.............................. CYCLE   56 ..............................
........................................................................
   1    -38.2644944 -0.382645E+02  0.292E-02    1.50       0.0  T
   2    -38.2644946 -0.191932E-06  0.173E-02    1.50       1.0  T
   3    -38.2644944  0.204356E-06  0.547E-03    1.50       3.3  T
   4    -38.2644946 -0.274954E-06  0.205E-03    1.50       8.7  T
   5    -38.2644946  0.422558E-08  0.773E-04    1.50      23.2  T
   6    -38.2644947 -0.714277E-08  0.361E-04    1.50      49.7  T
     SCC iter.                  ...        0 min,  0.023 sec
     gradient                   ...        0 min,  0.005 sec
 * total energy  :   -37.6428397 Eh     change       -0.1832597E-04 Eh
   gradient norm :     0.0017336 Eh/α   predicted    -0.1011507E-04 ( -44.80%)
   displ. norm   :     0.1444183 α      lambda       -0.1699138E-04
   maximum displ.:     0.0758587 α      in ANC's #3, #1, #4, ...

........................................................................
.............................. CYCLE   57 ..............................
........................................................................
   1    -38.2641817 -0.382642E+02  0.372E-02    1.50       0.0  T
   2    -38.2641820 -0.260021E-06  0.235E-02    1.50       1.0  T
   3    -38.2641807  0.132338E-05  0.947E-03    1.50       1.9  T
   4    -38.2641821 -0.144522E-05  0.270E-03    1.50       6.7  T
   5    -38.2641822 -0.364141E-07  0.202E-03    1.50       8.9  T
   6    -38.2641822 -0.136718E-07  0.625E-04    1.50      28.7  T
   7    -38.2641822 -0.469842E-08  0.351E-04    1.50      51.1  T
     SCC iter.                  ...        0 min,  0.031 sec
     gradient                   ...        0 min,  0.004 sec
 * total energy  :   -37.6428586 Eh     change       -0.1892509E-04 Eh
   gradient norm :     0.0019617 Eh/α   predicted    -0.8576878E-05 ( -54.68%)
   displ. norm   :     0.1667012 α      lambda       -0.2568898E-04
   maximum displ.:     0.1105462 α      in ANC's #3, #4, #5, ...

........................................................................
.............................. CYCLE   58 ..............................
........................................................................
   1    -38.2641580 -0.382642E+02  0.432E-02    1.50       0.0  T
   2    -38.2641583 -0.275365E-06  0.323E-02    1.50       1.0  T
   3    -38.2641544  0.388831E-05  0.140E-02    1.49       1.3  T
   4    -38.2641586 -0.415336E-05  0.385E-03    1.50       4.7  T
   5    -38.2641587 -0.151760E-06  0.173E-03    1.50      10.4  T
   6    -38.2641587 -0.890998E-08  0.469E-04    1.50      38.3  T
   7    -38.2641587 -0.790287E-09  0.236E-04    1.50      76.1  T
     SCC iter.                  ...        0 min,  0.027 sec
     gradient                   ...        0 min,  0.004 sec
 * total energy  :   -37.6428902 Eh     change       -0.3157052E-04 Eh
   gradient norm :     0.0015745 Eh/α   predicted    -0.1300518E-04 ( -58.81%)
   displ. norm   :     0.2224963 α      lambda       -0.3472008E-04
   maximum displ.:     0.1448084 α      in ANC's #3, #5, #4, ...

........................................................................
.............................. CYCLE   59 ..............................
........................................................................
   1    -38.2634542 -0.382635E+02  0.601E-02    1.50       0.0  T
   2    -38.2634545 -0.390112E-06  0.413E-02    1.50       1.0  T
   3    -38.2634515  0.308871E-05  0.130E-02    1.49       1.4  T
   4    -38.2634547 -0.326970E-05  0.391E-03    1.50       4.6  T
   5    -38.2634548 -0.105558E-06  0.180E-03    1.50      10.0  T
   6    -38.2634548 -0.683213E-08  0.492E-04    1.50      36.5  T
   7    -38.2634548 -0.191573E-08  0.209E-04    1.50      85.9  T
     SCC iter.                  ...        0 min,  0.029 sec
     gradient                   ...        0 min,  0.004 sec
 * total energy  :   -37.6429339 Eh     change       -0.4371554E-04 Eh
   gradient norm :     0.0018731 Eh/α   predicted    -0.1774577E-04 ( -59.41%)
   displ. norm   :     0.3089705 α      lambda       -0.4491055E-04
   maximum displ.:     0.1968174 α      in ANC's #3, #5, #4, ...

........................................................................
.............................. CYCLE   60 ..............................
........................................................................
   1    -38.2627072 -0.382627E+02  0.785E-02    1.50       0.0  T
   2    -38.2627078 -0.635632E-06  0.517E-02    1.50       1.0  T
   3    -38.2627044  0.343424E-05  0.142E-02    1.49       1.3  T
   4    -38.2627081 -0.374966E-05  0.376E-03    1.50       4.8  T
   5    -38.2627081 -0.255738E-08  0.308E-03    1.50       5.8  T
   6    -38.2627082 -0.880256E-07  0.831E-04    1.50      21.6  T
   7    -38.2627082 -0.507668E-08  0.438E-04    1.50      41.0  T
     SCC iter.                  ...        0 min,  0.028 sec
     gradient                   ...        0 min,  0.004 sec
 * total energy  :   -37.6429884 Eh     change       -0.5444975E-04 Eh
   gradient norm :     0.0020172 Eh/α   predicted    -0.2341066E-04 ( -57.01%)
   displ. norm   :     0.2380633 α      lambda       -0.4559510E-04
   maximum displ.:     0.1522932 α      in ANC's #3, #5, #4, ...

........................................................................
.............................. CYCLE   61 ..............................
........................................................................
   1    -38.2624424 -0.382624E+02  0.612E-02    1.50       0.0  T
   2    -38.2624428 -0.410111E-06  0.407E-02    1.50       1.0  T
   3    -38.2624408  0.195834E-05  0.921E-03    1.50       1.9  T
   4    -38.2624430 -0.217267E-05  0.359E-03    1.50       5.0  T
   5    -38.2624430 -0.558809E-08  0.249E-03    1.50       7.2  T
   6    -38.2624430 -0.432766E-07  0.606E-04    1.50      29.6  T
   7    -38.2624430 -0.104298E-08  0.460E-04    1.50      39.1  T
     SCC iter.                  ...        0 min,  0.024 sec
     gradient                   ...        0 min,  0.004 sec
 * total energy  :   -37.6430274 Eh     change       -0.3908084E-04 Eh
   gradient norm :     0.0021687 Eh/α   predicted    -0.2409341E-04 ( -38.35%)
   displ. norm   :     0.3240793 α      lambda       -0.5817968E-04
   maximum displ.:     0.2089497 α      in ANC's #3, #4, #5, ...

........................................................................
.............................. CYCLE   62 ..............................
........................................................................
   1    -38.2620230 -0.382620E+02  0.832E-02    1.50       0.0  T
   2    -38.2620239 -0.929331E-06  0.534E-02    1.50       1.0  T
   3    -38.2620172  0.670875E-05  0.224E-02    1.50       1.0  T
   4    -38.2620246 -0.740808E-05  0.494E-03    1.50       3.6  T
   5    -38.2620247 -0.364785E-07  0.402E-03    1.50       4.5  T
   6    -38.2620248 -0.122441E-06  0.141E-03    1.50      12.8  T
   7    -38.2620248 -0.161771E-07  0.650E-04    1.50      27.6  T
   8    -38.2620248  0.935714E-09  0.569E-04    1.50      31.6  T
     SCC iter.                  ...        0 min,  0.032 sec
     gradient                   ...        0 min,  0.004 sec
 * total energy  :   -37.6430738 Eh     change       -0.4638995E-04 Eh
   gradient norm :     0.0025626 Eh/α   predicted    -0.3215009E-04 ( -30.70%)
   displ. norm   :     0.3340396 α      lambda       -0.5210856E-04
   maximum displ.:     0.2192697 α      in ANC's #3, #4, #5, ...

........................................................................
.............................. CYCLE   63 ..............................
........................................................................
   1    -38.2619905 -0.382620E+02  0.879E-02    1.50       0.0  T
   2    -38.2619916 -0.111315E-05  0.575E-02    1.50       1.0  T
   3    -38.2619855  0.610391E-05  0.193E-02    1.50       1.0  T
   4    -38.2619924 -0.683810E-05  0.538E-03    1.50       3.3  T
   5    -38.2619924 -0.251339E-07  0.391E-03    1.50       4.6  T
   6    -38.2619925 -0.108341E-06  0.127E-03    1.50      14.2  T
   7    -38.2619925 -0.127726E-07  0.707E-04    1.50      25.4  T
   8    -38.2619925  0.109821E-08  0.632E-04    1.50      28.4  T
     SCC iter.                  ...        0 min,  0.166 sec
     gradient                   ...        0 min,  0.004 sec
 * total energy  :   -37.6431127 Eh     change       -0.3887625E-04 Eh
   gradient norm :     0.0027144 Eh/α   predicted    -0.2896551E-04 ( -25.49%)
   displ. norm   :     0.2626858 α      lambda       -0.3951329E-04
   maximum displ.:     0.1785271 α      in ANC's #3, #4, #2, ...

........................................................................
.............................. CYCLE   64 ..............................
........................................................................
   1    -38.2630530 -0.382631E+02  0.710E-02    1.50       0.0  T
   2    -38.2630537 -0.781834E-06  0.467E-02    1.50       1.0  T
   3    -38.2630494  0.430638E-05  0.162E-02    1.50       1.1  T
   4    -38.2630543 -0.485620E-05  0.463E-03    1.50       3.9  T
   5    -38.2630543  0.309242E-09  0.329E-03    1.50       5.5  T
   6    -38.2630544 -0.809595E-07  0.917E-04    1.50      19.6  T
   7    -38.2630544 -0.566703E-08  0.571E-04    1.50      31.4  T
     SCC iter.                  ...        0 min,  0.155 sec
     gradient                   ...        0 min,  0.006 sec
 * total energy  :   -37.6431411 Eh     change       -0.2840274E-04 Eh
   gradient norm :     0.0016200 Eh/α   predicted    -0.2112105E-04 ( -25.64%)
   displ. norm   :     0.4318063 α      lambda       -0.2518422E-04
   maximum displ.:     0.3000376 α      in ANC's #3, #4, #2, ...

........................................................................
.............................. CYCLE   65 ..............................
........................................................................
   1    -38.2618140 -0.382618E+02  0.119E-01    1.50       0.0  T
   2    -38.2618154 -0.139707E-05  0.825E-02    1.50       1.0  T
   3    -38.2618014  0.139956E-04  0.223E-02    1.49       1.0  T
   4    -38.2618163 -0.148617E-04  0.958E-03    1.50       1.9  T
   5    -38.2618166 -0.317092E-06  0.452E-03    1.50       4.0  T
   6    -38.2618167 -0.709457E-07  0.168E-03    1.50      10.7  T
   7    -38.2618167 -0.258158E-07  0.880E-04    1.50      20.4  T
   8    -38.2618167  0.214055E-08  0.661E-04    1.50      27.2  T
     SCC iter.                  ...        0 min,  0.201 sec
     gradient                   ...        0 min,  0.008 sec
 * total energy  :   -37.6431568 Eh     change       -0.1566559E-04 Eh
   gradient norm :     0.0029413 Eh/α   predicted    -0.1364125E-04 ( -12.92%)
   displ. norm   :     0.0867985 α      lambda       -0.3976252E-04
   maximum displ.:     0.0694874 α      in ANC's #3, #1, #2, ...

........................................................................
.............................. CYCLE   66 ..............................
........................................................................
   1    -38.2652628 -0.382653E+02  0.286E-02    1.50       0.0  T
   2    -38.2652630 -0.193310E-06  0.204E-02    1.50       1.0  T
   3    -38.2652611  0.190234E-05  0.857E-03    1.50       2.1  T
   4    -38.2652631 -0.200141E-05  0.330E-03    1.50       5.4  T
   5    -38.2652632 -0.733938E-07  0.183E-03    1.50       9.8  T
   6    -38.2652632  0.143323E-08  0.915E-04    1.50      19.6  T
   7    -38.2652632 -0.510941E-08  0.232E-04    1.50      77.5  T
     SCC iter.                  ...        0 min,  0.203 sec
     gradient                   ...        0 min,  0.076 sec
 * total energy  :   -37.6431725 Eh     change       -0.1567268E-04 Eh
   gradient norm :     0.0020605 Eh/α   predicted    -0.2003200E-04 (  27.81%)
   displ. norm   :     0.0783935 α      lambda       -0.1194533E-04
   maximum displ.:     0.0607058 α      in ANC's #3, #5, #2, ...
 * RMSD in coord.:     0.5581330 α      energy gain  -0.1258364E-02 Eh

generating ANC from model Hessian ...
Using Lindh-Hessian (1995)
 Shifting diagonal of input Hessian by    1.3118753231839576E-002
 Lowest  eigenvalues of input Hessian
    0.010000    0.010413    0.000000    0.000000    0.000000    0.000000
    0.000000    0.000000    0.013487    0.013573    0.013795    0.014083
    0.014496    0.015024    0.017104    0.019293    0.020646    0.021244
 Highest eigenvalues
    1.732378    1.735788    1.737067    2.021331    2.352017    2.763384


........................................................................
.............................. CYCLE   67 ..............................
........................................................................
   1    -38.2644841 -0.382645E+02  0.226E-02    1.50       0.0  T
   2    -38.2644841 -0.437499E-07  0.154E-02    1.50       1.2  T
   3    -38.2644836  0.504354E-06  0.477E-03    1.50       3.8  T
   4    -38.2644842 -0.525880E-06  0.126E-03    1.50      14.3  T
   5    -38.2644842 -0.169847E-07  0.106E-03    1.50      16.9  T
   6    -38.2644842 -0.476216E-08  0.190E-04    1.50      94.7  T
   7    -38.2644842 -0.131720E-09  0.950E-05    1.50     189.1  T
     SCC iter.                  ...        0 min,  0.213 sec
     gradient                   ...        0 min,  0.081 sec
 * total energy  :   -37.6431825 Eh     change       -0.1005632E-04 Eh
   gradient norm :     0.0011635 Eh/α   predicted     0.0000000E+00 (-100.00%)
   displ. norm   :     0.0323036 α      lambda       -0.6040311E-05
   maximum displ.:     0.0181466 α      in ANC's #4, #7, #9, ...

........................................................................
.............................. CYCLE   68 ..............................
........................................................................
   1    -38.2638383 -0.382638E+02  0.114E-02    1.50       0.0  T
   2    -38.2638384 -0.119556E-06  0.683E-03    1.50       2.6  T
   3    -38.2638382  0.162773E-06  0.485E-03    1.50       3.7  T
   4    -38.2638385 -0.304025E-06  0.205E-03    1.50       8.8  T
   5    -38.2638385 -0.245405E-07  0.870E-04    1.50      20.6  T
   6    -38.2638385 -0.304908E-09  0.511E-04    1.50      35.2  T
     SCC iter.                  ...        0 min,  0.174 sec
     gradient                   ...        0 min,  0.074 sec
 * total energy  :   -37.6431922 Eh     change       -0.9714107E-05 Eh
   gradient norm :     0.0006377 Eh/α   predicted    -0.4301756E-05 ( -55.72%)
   displ. norm   :     0.0998714 α      lambda       -0.1783784E-04
   maximum displ.:     0.0647206 α      in ANC's #4, #7, #9, ...

........................................................................
.............................. CYCLE   69 ..............................
........................................................................
   1    -38.2630095 -0.382630E+02  0.392E-02    1.50       0.0  T
   2    -38.2630102 -0.709940E-06  0.234E-02    1.50       1.0  T
   3    -38.2630080  0.219699E-05  0.132E-02    1.50       1.4  T
   4    -38.2630106 -0.265280E-05  0.445E-03    1.50       4.0  T
   5    -38.2630107 -0.810764E-07  0.224E-03    1.50       8.0  T
   6    -38.2630107  0.444478E-08  0.125E-03    1.50      14.3  T
   7    -38.2630107 -0.170286E-07  0.550E-04    1.50      32.6  T
   8    -38.2630107 -0.983604E-10  0.427E-04    1.50      42.1  T
     SCC iter.                  ...        0 min,  0.214 sec
     gradient                   ...        0 min,  0.018 sec
 * total energy  :   -37.6432000 Eh     change       -0.7759272E-05 Eh
   gradient norm :     0.0019478 Eh/α   predicted    -0.8969569E-05 (  15.60%)
   displ. norm   :     0.0621375 α      lambda       -0.1595042E-04
   maximum displ.:     0.0391182 α      in ANC's #4, #2, #6, ...

........................................................................
.............................. CYCLE   70 ..............................
........................................................................
   1    -38.2635014 -0.382635E+02  0.235E-02    1.50       0.0  T
   2    -38.2635016 -0.197106E-06  0.145E-02    1.50       1.2  T
   3    -38.2635010  0.631076E-06  0.736E-03    1.50       2.4  T
   4    -38.2635017 -0.738891E-06  0.383E-03    1.50       4.7  T
   5    -38.2635018 -0.106063E-06  0.204E-03    1.50       8.8  T
   6    -38.2635018 -0.133932E-08  0.967E-04    1.50      18.6  T
   7    -38.2635018 -0.511032E-08  0.273E-04    1.50      65.7  T
     SCC iter.                  ...        0 min,  0.196 sec
     gradient                   ...        0 min,  0.080 sec
 * total energy  :   -37.6432086 Eh     change       -0.8604132E-05 Eh
   gradient norm :     0.0009608 Eh/α   predicted    -0.7998105E-05 (  -7.04%)
   displ. norm   :     0.0217181 α      lambda       -0.5935583E-05
   maximum displ.:     0.0113980 α      in ANC's #7, #4, #9, ...

........................................................................
.............................. CYCLE   71 ..............................
........................................................................
   1    -38.2639421 -0.382639E+02  0.958E-03    1.50       0.0  T
   2    -38.2639422 -0.848160E-07  0.617E-03    1.50       2.9  T
   3    -38.2639421  0.872906E-07  0.362E-03    1.50       5.0  T
   4    -38.2639423 -0.136616E-06  0.198E-03    1.50       9.1  T
   5    -38.2639423 -0.247903E-07  0.110E-03    1.50      16.4  T
   6    -38.2639423 -0.125208E-08  0.557E-04    1.50      32.3  T
   7    -38.2639423 -0.267539E-08  0.156E-04    1.50     115.4  T
     SCC iter.                  ...        0 min,  0.302 sec
     gradient                   ...        0 min,  0.108 sec
 * total energy  :   -37.6432150 Eh     change       -0.6417501E-05 Eh
   gradient norm :     0.0004281 Eh/α   predicted    -0.2968767E-05 ( -53.74%)
   displ. norm   :     0.0424412 α      lambda       -0.5683443E-05
   maximum displ.:     0.0273459 α      in ANC's #4, #3, #7, ...

........................................................................
.............................. CYCLE   72 ..............................
........................................................................
   1    -38.2641294 -0.382641E+02  0.175E-02    1.50       0.0  T
   2    -38.2641296 -0.144726E-06  0.113E-02    1.50       1.6  T
   3    -38.2641293  0.264439E-06  0.477E-03    1.50       3.8  T
   4    -38.2641296 -0.303871E-06  0.143E-03    1.50      12.5  T
   5    -38.2641296 -0.191868E-07  0.873E-04    1.50      20.6  T
   6    -38.2641296 -0.113798E-08  0.352E-04    1.50      51.1  T
     SCC iter.                  ...        0 min,  0.289 sec
     gradient                   ...        0 min,  0.127 sec
 * total energy  :   -37.6432197 Eh     change       -0.4673167E-05 Eh
   gradient norm :     0.0005331 Eh/α   predicted    -0.2846136E-05 ( -39.10%)
   displ. norm   :     0.0485455 α      lambda       -0.5207148E-05
   maximum displ.:     0.0352929 α      in ANC's #4, #3, #5, ...

   *** GEOMETRY OPTIMIZATION CONVERGED AFTER 72 ITERATIONS ***

------------------------------------------------------------------------
 total energy gain   :        -6.0157170 Eh    -3774.9194 kcal/mol
 total RMSD          :         1.7693420 a0        0.9363 Å
 total power (kW/mol):      -219.3647626 (step)-1007.9907 (real)
------------------------------------------------------------------------

 ANCopt (total)                0 d,  0 h,  0 min, 15.669 sec
 optimizer setup                ...        0 min,  0.001 sec (  0.004%)
 model hessian                  ...        0 min,  0.058 sec (  0.367%)
 ANC generation                 ...        0 min,  0.010 sec (  0.066%)
 coordinate transformation      ...        0 min,  0.001 sec (  0.007%)
 single point calculation       ...        0 min, 15.314 sec ( 97.734%)
 optimization log               ...        0 min,  0.011 sec (  0.068%)
 hessian update                 ...        0 min,  0.163 sec (  1.043%)
 rational function              ...        0 min,  0.106 sec (  0.679%)

================
 final structure:
================
31
 xtb: 6.5.1 (b24c23e)
Zr          -1.26338794549321       -0.15936331096319        0.67527959232240
C           -1.47019260674671        1.44449394183236       -1.48094204851058
C           -0.02949015541480       -2.24559161717894        1.06125854229713
C            0.38421285290651       -1.75378636918314       -0.20111074759281
C           -0.73072496779150       -1.81022907318278       -1.07668377455498
C           -1.83583142397117       -2.30965188340075       -0.34904542531502
C           -1.40941450524310       -2.56078113649922        0.98393738736418
H            0.62546501876565       -2.47556576129239        1.89367510125078
H            1.41034797559648       -1.55446518782886       -0.49504722480797
H           -0.70256931018374       -1.65417529273572       -2.14938213659997
H           -2.78284672522887       -2.61638580462594       -0.77539671719759
H           -1.98495193236253       -3.08166964551275        1.74351768007118
C            0.49620808918072        0.64127794946998        2.19816301508662
C           -0.55353059282751        0.12061294847576        2.99706752725343
C           -1.70082524783689        0.92860514264485        2.79603571592708
C           -1.35269774160715        1.95802724200188        1.87973840412829
C            0.00218929840317        1.77624921431275        1.51008889698319
H            1.53450279604843        0.32968400935055        2.23517987171424
H           -0.45466044891691       -0.65433289941630        3.74972540013659
H           -2.61595276691680        0.88123029170740        3.37695418153969
H           -1.96963939271618        2.81414345881801        1.63340213392049
H            0.60337319254036        2.47870727967995        0.94169519777415
H           -0.58539977871789        0.88219033128998       -1.09946685886473
H           -1.48413230373025        1.43225634892957       -2.56315222254453
H           -1.51358486825140        2.46351491746307       -1.10757541097786
C           -3.58888705479056        0.21804334905116        0.29910886677815
C           -3.35130331783269        0.66429063899851       -1.08064263377419
H           -3.85744284572741        1.57294480324678       -1.39609064194799
H           -3.40006296067490       -0.11110786027159       -1.84406215759463
H           -4.07463873414854        0.98480681511519        0.90965193714519
H           -4.12921194631766       -0.73443787029505        0.34720285859116

 Bond Distances (Angstroems)
 ---------------------------
Zr1-C2=2.6953        Zr1-C3=2.4543        Zr1-C4=2.4546        Zr1-C5=2.4655        Zr1-C6=2.4496        Zr1-C7=2.4256        
Zr1-C13=2.4610       Zr1-C14=2.4440       Zr1-C15=2.4234       Zr1-C16=2.4376       Zr1-C17=2.4587       Zr1-H23=2.1666       
Zr1-C26=2.3858       Zr1-C27=2.8497       C2-Zr1=2.6953        C2-H23=1.1156        C2-H24=1.0824        C2-H25=1.0861        
C3-Zr1=2.4543        C3-C4=1.4165         C3-C7=1.4176         C3-H8=1.0839         C4-Zr1=2.4546        C4-C3=1.4165         
C4-C5=1.4188         C4-H9=1.0859         C5-Zr1=2.4655        C5-C4=1.4188         C5-C6=1.4143         C5-H10=1.0844        
C6-Zr1=2.4496        C6-C5=1.4143         C6-C7=1.4219         C6-H11=1.0829        C7-Zr1=2.4256        C7-C3=1.4176         
C7-C6=1.4219         C7-H12=1.0861        H8-C3=1.0839         H9-C4=1.0859         H10-C5=1.0844        H11-C6=1.0829        
H12-C7=1.0861        C13-Zr1=2.4610       C13-C14=1.4182       C13-C17=1.4162       C13-H18=1.0847       C14-Zr1=2.4440       
C14-C13=1.4182       C14-C15=1.4176       C14-H19=1.0848       C15-Zr1=2.4234       C15-C14=1.4176       C15-C16=1.4214       
C15-H20=1.0850       C16-Zr1=2.4376       C16-C15=1.4214       C16-C17=1.4161       C16-H21=1.0836       C17-Zr1=2.4587       
C17-C13=1.4162       C17-C16=1.4161       C17-H22=1.0853       H18-C13=1.0847       H19-C14=1.0848       H20-C15=1.0850       
H21-C16=1.0836       H22-C17=1.0853       H23-Zr1=2.1666       H23-C2=1.1156        H24-C2=1.0824        H25-C2=1.0861        
C26-Zr1=2.3858       C26-C27=1.4695       C26-H30=1.0939       C26-H31=1.0961       C27-Zr1=2.8497       C27-C26=1.4695       
C27-H28=1.0869       C27-H29=1.0892       H28-C27=1.0869       H29-C27=1.0892       H30-C26=1.0939       H31-C26=1.0961       
 C  H  Rav=1.0880 sigma=0.0078  Rmin=1.0824  Rmax=1.1156    17
 C  C  Rav=1.4226 sigma=0.0150  Rmin=1.4143  Rmax=1.4695    11
 Zr H  Rav=2.1666 sigma=0.0000  Rmin=2.1666  Rmax=2.1666     1
 Zr C  Rav=2.4927 sigma=0.1248  Rmin=2.3858  Rmax=2.8497    13

 selected bond angles (degree)
 --------------------
C3-Zr1-C2=132.08               C4-Zr1-C2= 98.77               C4-Zr1-C3= 33.54               C5-Zr1-C2= 81.17               
C5-Zr1-C3= 55.53               C5-Zr1-C4= 33.52               C6-Zr1-C2= 99.78               C6-Zr1-C3= 55.74               
C6-Zr1-C4= 55.76               C6-Zr1-C5= 33.44               C7-Zr1-C2=133.34               C7-Zr1-C3= 33.77               
C7-Zr1-C4= 56.13               C7-Zr1-C5= 55.98               C7-Zr1-C6= 33.91               C13-Zr1-C2=110.87              
C13-Zr1-C3= 79.62              C13-Zr1-C4= 87.27              C13-Zr1-C5=120.21              C13-Zr1-C6=135.35              
C13-Zr1-C7=106.64              C14-Zr1-C2=135.57              C14-Zr1-C3= 78.58              C14-Zr1-C4=102.63              
C14-Zr1-C5=133.55              C14-Zr1-C6=124.45              C14-Zr1-C7= 90.57              C14-Zr1-C13= 33.61             
C15-Zr1-C2=114.78              C15-Zr1-C3=109.56              C15-Zr1-C4=136.49              C15-Zr1-C5=164.05              
C15-Zr1-C6=135.88              C15-Zr1-C7=108.80              C15-Zr1-C13= 56.05             C15-Zr1-C14= 33.86             
C16-Zr1-C2= 82.85              C16-Zr1-C3=132.77              C16-Zr1-C4=139.93              C16-Zr1-C5=160.16              
C16-Zr1-C6=163.85              C16-Zr1-C7=142.65              C16-Zr1-C13= 55.79             C16-Zr1-C14= 56.06             
C16-Zr1-C15= 34.00             C17-Zr1-C2= 80.95              C17-Zr1-C3=110.92              C17-Zr1-C4=106.68              
C17-Zr1-C5=131.09              C17-Zr1-C6=162.42              C17-Zr1-C7=140.10              C17-Zr1-C13= 33.46             
C17-Zr1-C14= 55.79             C17-Zr1-C15= 56.11             C17-Zr1-C16= 33.62             H23-Zr1-C2= 23.46              
H23-Zr1-C3=112.34              H23-Zr1-C4= 79.03              H23-Zr1-C5= 70.87              H23-Zr1-C6= 98.78              
H23-Zr1-C7=126.80              H23-Zr1-C13= 97.28             H23-Zr1-C14=129.21             H23-Zr1-C15=123.88             
H23-Zr1-C16= 89.92             H23-Zr1-C17= 74.85             C26-Zr1-C2= 72.84              C26-Zr1-C3=130.49              
C26-Zr1-C4=134.49              C26-Zr1-C5=101.80              C26-Zr1-C6= 81.09              C26-Zr1-C7= 96.78              
C26-Zr1-C13=137.99             C26-Zr1-C14=114.51             C26-Zr1-C15= 83.74             C26-Zr1-C16= 84.54             
C26-Zr1-C17=115.51             C26-Zr1-H23= 95.73             C27-Zr1-C2= 43.85              C27-Zr1-C3=135.31              
C27-Zr1-C4=117.36              C27-Zr1-C5= 85.06              C27-Zr1-C6= 79.91              C27-Zr1-C7=108.69              
C27-Zr1-C13=144.21             C27-Zr1-C14=139.91             C27-Zr1-C15=106.09             C27-Zr1-C16= 91.52             
C27-Zr1-C17=111.03             C27-Zr1-H23= 65.52             C27-Zr1-C26= 31.01             H23-C2-Zr1= 50.63              
H24-C2-Zr1=142.57              H24-C2-H23=110.27              H25-C2-Zr1=106.64              H25-C2-H23=112.77              
H25-C2-H24=110.72              C4-C3-Zr1= 73.24               C7-C3-Zr1= 72.00               C7-C3-C4=108.23                
H8-C3-Zr1=127.22               H8-C3-C4=125.56                H8-C3-C7=125.66                C3-C4-Zr1= 73.22               
C5-C4-Zr1= 73.66               C5-C4-C3=107.86                H9-C4-Zr1=127.72               H9-C4-C3=125.52                
H9-C4-C5=125.65                C4-C5-Zr1= 72.82               C6-C5-Zr1= 72.66               C6-C5-C4=108.10                
H10-C5-Zr1=127.75              H10-C5-C4=125.76               H10-C5-C6=125.46               C5-C6-Zr1= 73.89               
C7-C6-Zr1= 72.12               C7-C6-C5=108.08                H11-C6-Zr1=128.14              H11-C6-C5=125.51               
H11-C6-C7=125.54               C3-C7-Zr1= 74.23               C6-C7-Zr1= 73.97               C6-C7-C3=107.69                
H12-C7-Zr1=126.57              H12-C7-C3=125.76               H12-C7-C6=125.55               

 selected dihedral angles (degree)
 ---------------------------------
H23-C2-Zr1-C3=322.60          H23-C2-Zr1-C4=327.03          H23-C2-Zr1-C5=298.39          H23-C2-Zr1-C6=270.48          
H23-C2-Zr1-C7=276.07          H23-C2-Zr1-C13= 57.45         H23-C2-Zr1-C14= 85.29         H23-C2-Zr1-C15=118.61         
H23-C2-Zr1-C16=106.59         H23-C2-Zr1-C17= 72.67         H23-C2-Zr1-C26=193.05         H23-C2-Zr1-C27=206.33         
H24-C2-Zr1-C3= 33.03          H24-C2-Zr1-C4= 37.47          H24-C2-Zr1-C5=  8.82          H24-C2-Zr1-C6=340.91          
H24-C2-Zr1-C7=346.50          H24-C2-Zr1-C13=127.88         H24-C2-Zr1-C14=155.72         H24-C2-Zr1-C15=189.04         
H24-C2-Zr1-C16=177.02         H24-C2-Zr1-C17=143.11         H24-C2-Zr1-H23= 70.43         H24-C2-Zr1-C26=263.48         
H24-C2-Zr1-C27=276.76         H25-C2-Zr1-C3=216.50          H25-C2-Zr1-C4=220.94          H25-C2-Zr1-C5=192.29          
H25-C2-Zr1-C6=164.38          H25-C2-Zr1-C7=169.97          H25-C2-Zr1-C13=311.35         H25-C2-Zr1-C14=339.19         
H25-C2-Zr1-C15= 12.51         H25-C2-Zr1-C16=  0.49         H25-C2-Zr1-C17=326.58         H25-C2-Zr1-H23=253.90         
H25-C2-Zr1-C26= 86.95         H25-C2-Zr1-C27=100.23         C4-C3-Zr1-C2=  7.95           C4-C3-Zr1-C5= 37.39           
C4-C3-Zr1-C6= 78.19           C4-C3-Zr1-C7=116.20           C4-C3-Zr1-C13=259.12          C4-C3-Zr1-C14=224.89          
C4-C3-Zr1-C15=211.01          C4-C3-Zr1-C16=240.57          C4-C3-Zr1-C17=271.16          C4-C3-Zr1-H23=352.79          
C4-C3-Zr1-C26=112.32          C4-C3-Zr1-C27= 69.99          C7-C3-Zr1-C2=251.75           C7-C3-Zr1-C4=243.80           
C7-C3-Zr1-C5=281.19           C7-C3-Zr1-C6=321.99           C7-C3-Zr1-C13=142.93          C7-C3-Zr1-C14=108.70          
C7-C3-Zr1-C15= 94.82          C7-C3-Zr1-C16=124.38          C7-C3-Zr1-C17=154.96          C7-C3-Zr1-H23=236.60          
C7-C3-Zr1-C26=356.12          C7-C3-Zr1-C27=313.79          H8-C3-Zr1-C2=130.22           H8-C3-Zr1-C4=122.27           
H8-C3-Zr1-C5=159.66           H8-C3-Zr1-C6=200.46           H8-C3-Zr1-C7=238.47           H8-C3-Zr1-C13= 21.40          
H8-C3-Zr1-C14=347.17          H8-C3-Zr1-C15=333.29          H8-C3-Zr1-C16=  2.85          H8-C3-Zr1-C17= 33.43          
H8-C3-Zr1-H23=115.07          H8-C3-Zr1-C26=234.59          H8-C3-Zr1-C27=192.26          C3-C4-Zr1-C2=185.96           
C3-C4-Zr1-C5=245.03           C3-C4-Zr1-C6=281.87           C3-C4-Zr1-C7=323.08           C3-C4-Zr1-C13= 75.25          
C3-C4-Zr1-C14= 45.15          C3-C4-Zr1-C15= 44.85          C3-C4-Zr1-C16= 96.66          C3-C4-Zr1-C17=102.85          
C3-C4-Zr1-H23=173.21          C3-C4-Zr1-C26=260.47          C3-C4-Zr1-C27=228.08          C5-C4-Zr1-C2=300.93           
C5-C4-Zr1-C3=114.97           C5-C4-Zr1-C6= 36.84           C5-C4-Zr1-C7= 78.05           C5-C4-Zr1-C13=190.22          
C5-C4-Zr1-C14=160.12          C5-C4-Zr1-C15=159.82          C5-C4-Zr1-C16=211.63          C5-C4-Zr1-C17=217.82          
C5-C4-Zr1-H23=288.18          C5-C4-Zr1-C26= 15.44          C5-C4-Zr1-C27=343.05          H9-C4-Zr1-C2= 63.69           
H9-C4-Zr1-C3=237.73           H9-C4-Zr1-C5=122.76           H9-C4-Zr1-C6=159.60           H9-C4-Zr1-C7=200.82           
H9-C4-Zr1-C13=312.98          H9-C4-Zr1-C14=282.88          H9-C4-Zr1-C15=282.58          H9-C4-Zr1-C16=334.39          
H9-C4-Zr1-C17=340.58          H9-C4-Zr1-H23= 50.95          H9-C4-Zr1-C26=138.20          H9-C4-Zr1-C27=105.81          
Zr1-C4-C3-C7= 63.96           Zr1-C4-C3-H8=235.86           C5-C4-C3-Zr1=293.94           C5-C4-C3-C7=357.91            
C5-C4-C3-H8=169.80            H9-C4-C3-Zr1=124.73           H9-C4-C3-C7=188.70            H9-C4-C3-H8=  0.59            
C4-C5-Zr1-C2=120.91           C4-C5-Zr1-C3=322.58           C4-C5-Zr1-C6=244.08           C4-C5-Zr1-C7=281.44           
C4-C5-Zr1-C13= 11.84          C4-C5-Zr1-C14=332.75          C4-C5-Zr1-C15=300.20          C4-C5-Zr1-C16= 84.19          
C4-C5-Zr1-C17= 51.20          C4-C5-Zr1-H23= 99.16          C4-C5-Zr1-C26=191.19          C4-C5-Zr1-C27=164.93          
C6-C5-Zr1-C2=236.83           C6-C5-Zr1-C3= 78.50           C6-C5-Zr1-C4=115.92           C6-C5-Zr1-C7= 37.36           
C6-C5-Zr1-C13=127.76          C6-C5-Zr1-C14= 88.67          C6-C5-Zr1-C15= 56.11          C6-C5-Zr1-C16=200.11          
C6-C5-Zr1-C17=167.12          C6-C5-Zr1-H23=215.08          C6-C5-Zr1-C26=307.11          C6-C5-Zr1-C27=280.85          
H10-C5-Zr1-C2=358.63          H10-C5-Zr1-C3=200.29          H10-C5-Zr1-C4=237.71          H10-C5-Zr1-C6=121.79          
H10-C5-Zr1-C7=159.16          H10-C5-Zr1-C13=249.55         H10-C5-Zr1-C14=210.46         H10-C5-Zr1-C15=177.91         
H10-C5-Zr1-C16=321.90         H10-C5-Zr1-C17=288.91         H10-C5-Zr1-H23=336.87         H10-C5-Zr1-C26= 68.90         
H10-C5-Zr1-C27= 42.65         Zr1-C5-C4-C3= 65.76           Zr1-C5-C4-H9=234.95           C6-C5-C4-Zr1=295.41           
C6-C5-C4-C3=  1.18            C6-C5-C4-H9=170.37            H10-C5-C4-Zr1=124.54          H10-C5-C4-C3=190.30           
H10-C5-C4-H9=359.49           C5-C6-Zr1-C2= 57.07           C5-C6-Zr1-C3=282.21           C5-C6-Zr1-C4=323.07           
C5-C6-Zr1-C7=244.37           C5-C6-Zr1-C13=283.52          C5-C6-Zr1-C14=241.48          C5-C6-Zr1-C15=199.13          
C5-C6-Zr1-C16=155.21          C5-C6-Zr1-C17=326.18          C5-C6-Zr1-H23= 33.32          C5-C6-Zr1-C26=127.80          
C5-C6-Zr1-C27= 96.36          C7-C6-Zr1-C2=172.71           C7-C6-Zr1-C3= 37.84           C7-C6-Zr1-C4= 78.71           
C7-C6-Zr1-C5=115.63           C7-C6-Zr1-C13= 39.15          C7-C6-Zr1-C14=357.11          C7-C6-Zr1-C15=314.76          
C7-C6-Zr1-C16=270.84          C7-C6-Zr1-C17= 81.82          C7-C6-Zr1-H23=148.96          C7-C6-Zr1-C26=243.43          
C7-C6-Zr1-C27=212.00          H11-C6-Zr1-C2=294.26          H11-C6-Zr1-C3=159.40          H11-C6-Zr1-C4=200.26          
H11-C6-Zr1-C5=237.19          H11-C6-Zr1-C7=121.55          H11-C6-Zr1-C13=160.71         H11-C6-Zr1-C14=118.66         
H11-C6-Zr1-C15= 76.32         H11-C6-Zr1-C16= 32.39         H11-C6-Zr1-C17=203.37         H11-C6-Zr1-H23=270.51         
H11-C6-Zr1-C26=  4.99         H11-C6-Zr1-C27=333.55         Zr1-C6-C5-C4= 64.69           Zr1-C6-C5-H10=235.59          
C7-C6-C5-Zr1=295.50           C7-C6-C5-C4=  0.19            C7-C6-C5-H10=171.09           H11-C6-C5-Zr1=125.71          
H11-C6-C5-C4=190.40           H11-C6-C5-H10=  1.30          C3-C7-Zr1-C2=104.27           C3-C7-Zr1-C4= 36.67           
C3-C7-Zr1-C5= 77.35           C3-C7-Zr1-C6=114.18           C3-C7-Zr1-C13=321.77          C3-C7-Zr1-C14=291.80          
C3-C7-Zr1-C15=262.70          C3-C7-Zr1-C16=266.90          C3-C7-Zr1-C17=321.95          C3-C7-Zr1-H23= 74.65          
C3-C7-Zr1-C26=177.03          C3-C7-Zr1-C27=147.59          C6-C7-Zr1-C2=350.09           C6-C7-Zr1-C3=245.82           
C6-C7-Zr1-C4=282.49           C6-C7-Zr1-C5=323.17           C6-C7-Zr1-C13=207.59          C6-C7-Zr1-C14=177.62          
C6-C7-Zr1-C15=148.52          C6-C7-Zr1-C16=152.72          C6-C7-Zr1-C17=207.78          C6-C7-Zr1-H23=320.47          
C6-C7-Zr1-C26= 62.85          C6-C7-Zr1-C27= 33.42          H12-C7-Zr1-C2=227.40          H12-C7-Zr1-C3=123.13          
H12-C7-Zr1-C4=159.79          H12-C7-Zr1-C5=200.47          H12-C7-Zr1-C6=237.31          H12-C7-Zr1-C13= 84.90         
H12-C7-Zr1-C14= 54.92         H12-C7-Zr1-C15= 25.83         H12-C7-Zr1-C16= 30.02         H12-C7-Zr1-C17= 85.08         
H12-C7-Zr1-H23=197.78         H12-C7-Zr1-C26=300.16         H12-C7-Zr1-C27=270.72         Zr1-C7-C3-C4=295.23           
Zr1-C7-C3-H8=123.35           C6-C7-C3-Zr1= 66.97           C6-C7-C3-C4=  2.21            C6-C7-C3-H8=190.32            
H12-C7-C3-Zr1=235.98          H12-C7-C3-C4=171.22           H12-C7-C3-H8=359.33           Zr1-C7-C6-C5= 65.67           
Zr1-C7-C6-H11=235.45          C3-C7-C6-Zr1=292.86           C3-C7-C6-C5=358.52            C3-C7-C6-H11=168.31           
H12-C7-C6-Zr1=123.82          H12-C7-C6-C5=189.49           H12-C7-C6-H11=359.27          

 CMA Distance (Angstroems)
 ---------------------------
R(CMA):  2.9393
           -------------------------------------------------
          |                Final Singlepoint                |
           -------------------------------------------------

          ...................................................
          :                      SETUP                      :
          :.................................................:
          :  # basis functions                  79          :
          :  # atomic orbitals                  78          :
          :  # shells                           46          :
          :  # electrons                        72          :
          :  max. iterations                   250          :
          :  Hamiltonian                  GFN2-xTB          :
          :  restarted?                      false          :
          :  GBSA solvation                  false          :
          :  PC potential                    false          :
          :  electronic temp.          300.0000000     K    :
          :  accuracy                    1.0000000          :
          :  -> integral cutoff          0.2500000E+02      :
          :  -> integral neglect         0.1000000E-07      :
          :  -> SCF convergence          0.1000000E-05 Eh   :
          :  -> wf. convergence          0.1000000E-03 e    :
          :  Broyden damping             0.4000000          :
          ...................................................

 iter      E             dE          RMSdq      gap      omega  full diag
   1    -38.2641296 -0.382641E+02  0.152E-04    1.50       0.0  T
   2    -38.2641296 -0.380638E-10  0.923E-05    1.50     194.7  T
   3    -38.2641296 -0.120565E-09  0.892E-05    1.50     201.4  T

   *** convergence criteria satisfied after 3 iterations ***

         #    Occupation            Energy/Eh            Energy/eV
      -------------------------------------------------------------
         1        2.0000           -0.8721178             -23.7315
       ...           ...                  ...                  ...
        30        2.0000           -0.5827870             -15.8584
        31        2.0000           -0.5622418             -15.2994
        32        2.0000           -0.5245663             -14.2742
        33        2.0000           -0.5240838             -14.2610
        34        2.0000           -0.5140217             -13.9872
        35        2.0000           -0.5090151             -13.8510
        36        2.0000           -0.4816085             -13.1052 (HOMO)
        37                         -0.4265605             -11.6073 (LUMO)
        38                         -0.4135166             -11.2524
        39                         -0.4104921             -11.1701
        40                         -0.4040083             -10.9936
        41                         -0.3989194             -10.8551
       ...                                ...                  ...
        78                          2.4923888              67.8214
      -------------------------------------------------------------
                  HL-Gap            0.0550479 Eh            1.4979 eV
             Fermi-level           -0.4540845 Eh          -12.3563 eV

 SCC (total)                   0 d,  0 h,  0 min,  0.367 sec
 SCC setup                      ...        0 min,  0.011 sec (  2.996%)
 Dispersion                     ...        0 min,  0.023 sec (  6.289%)
 classical contributions        ...        0 min,  0.011 sec (  2.984%)
 integral evaluation            ...        0 min,  0.034 sec (  9.376%)
 iterations                     ...        0 min,  0.168 sec ( 45.955%)
 molecular gradient             ...        0 min,  0.119 sec ( 32.347%)
 printout                       ...        0 min,  0.000 sec (  0.046%)

         :::::::::::::::::::::::::::::::::::::::::::::::::::::
         ::                     SUMMARY                     ::
         :::::::::::::::::::::::::::::::::::::::::::::::::::::
         :: total energy             -37.643219682795 Eh    ::
         :: gradient norm              0.000534279437 Eh/a0 ::
         :: HOMO-LUMO gap              1.497930591942 eV    ::
         ::.................................................::
         :: SCC energy               -38.264129621006 Eh    ::
         :: -> isotropic ES            0.087000823355 Eh    ::
         :: -> anisotropic ES         -0.011590828306 Eh    ::
         :: -> anisotropic XC          0.019327544054 Eh    ::
         :: -> dispersion             -0.027426545893 Eh    ::
         :: repulsion energy           0.618761495948 Eh    ::
         :: add. restraining           0.001477063920 Eh    ::
         :: total charge               1.000000000000 e     ::
         :::::::::::::::::::::::::::::::::::::::::::::::::::::

           -------------------------------------------------
          |                Property Printout                |
           -------------------------------------------------

    * Orbital Energies and Occupations

         #    Occupation            Energy/Eh            Energy/eV
      -------------------------------------------------------------
         1        2.0000           -0.8721178             -23.7315
       ...           ...                  ...                  ...
        24        2.0000           -0.5974256             -16.2568
        25        2.0000           -0.5955002             -16.2044
        26        2.0000           -0.5932803             -16.1440
        27        2.0000           -0.5930614             -16.1380
        28        2.0000           -0.5916345             -16.0992
        29        2.0000           -0.5913731             -16.0921
        30        2.0000           -0.5827870             -15.8584
        31        2.0000           -0.5622418             -15.2994
        32        2.0000           -0.5245663             -14.2742
        33        2.0000           -0.5240838             -14.2610
        34        2.0000           -0.5140217             -13.9872
        35        2.0000           -0.5090151             -13.8510
        36        2.0000           -0.4816085             -13.1052 (HOMO)
        37                         -0.4265605             -11.6073 (LUMO)
        38                         -0.4135166             -11.2524
        39                         -0.4104921             -11.1701
        40                         -0.4040083             -10.9936
        41                         -0.3989194             -10.8551
        42                         -0.3506583              -9.5419
        43                         -0.3097284              -8.4281
        44                         -0.3086549              -8.3989
        45                         -0.3082015              -8.3866
        46                         -0.3068721              -8.3504
        47                         -0.0802763              -2.1844
       ...                                ...                  ...
        78                          2.4923888              67.8214
      -------------------------------------------------------------
                  HL-Gap            0.0550479 Eh            1.4979 eV
             Fermi-level           -0.4540845 Eh          -12.3563 eV

     #   Z          covCN         q      C6AA      α(0)
     1  40 Zr       9.964     0.948   138.888    17.708
     2   6 C        3.695    -0.201    24.668     7.105
     3   6 C        3.760    -0.082    22.108     6.703
     4   6 C        3.756    -0.091    22.295     6.732
     5   6 C        3.753    -0.090    22.275     6.730
     6   6 C        3.761    -0.085    22.174     6.713
     7   6 C        3.766    -0.090    22.257     6.724
     8   1 H        0.925     0.087     1.904     2.158
     9   1 H        0.925     0.077     2.013     2.219
    10   1 H        0.925     0.078     2.002     2.213
    11   1 H        0.925     0.089     1.891     2.150
    12   1 H        0.925     0.084     1.934     2.175
    13   6 C        3.755    -0.086    22.193     6.717
    14   6 C        3.762    -0.086    22.179     6.713
    15   6 C        3.767    -0.086    22.177     6.712
    16   6 C        3.765    -0.089    22.233     6.721
    17   6 C        3.755    -0.089    22.261     6.728
    18   1 H        0.925     0.084     1.938     2.177
    19   1 H        0.925     0.086     1.923     2.168
    20   1 H        0.925     0.090     1.875     2.141
    21   1 H        0.925     0.089     1.890     2.150
    22   1 H        0.925     0.074     2.038     2.232
    23   1 H        1.522     0.079     1.975     2.194
    24   1 H        0.925     0.085     1.925     2.169
    25   1 H        0.925     0.083     1.952     2.185
    26   6 C        3.605    -0.245    26.111     7.385
    27   6 C        3.576    -0.059    22.426     6.881
    28   1 H        0.925     0.094     1.838     2.120
    29   1 H        0.925     0.088     1.903     2.157
    30   1 H        0.924     0.078     1.997     2.210
    31   1 H        0.925     0.085     1.931     2.173

 Mol. C6AA /au·bohr⁶  :       9462.620217
 Mol. C8AA /au·bohr⁸  :     321106.711666
 Mol. α(0) /au        :        143.264611


Wiberg/Mayer (AO) data.
largest (>0.10) Wiberg bond orders for each atom

 ---------------------------------------------------------------------------
     #   Z sym  total        # sym  WBO       # sym  WBO       # sym  WBO
 ---------------------------------------------------------------------------
     1  40 Zr   4.300 --    26 C    0.697     2 C    0.301     7 C    0.267
                            15 C    0.266    16 C    0.247    14 C    0.246
                             6 C    0.245     4 C    0.237    13 C    0.236
                            17 C    0.232     5 C    0.232     3 C    0.231
                            27 C    0.151    23 H    0.142
     2   6 C    3.943 --    24 H    0.975    25 H    0.955    23 H    0.812
                            27 C    0.698     1 Zr   0.301
     3   6 C    3.981 --     4 C    1.309     7 C    1.302     8 H    0.924
                             1 Zr   0.231
     4   6 C    3.978 --     3 C    1.309     5 C    1.297     9 H    0.922
                             1 Zr   0.237
     5   6 C    3.979 --     6 C    1.313     4 C    1.297    10 H    0.927
                             1 Zr   0.232
     6   6 C    3.980 --     5 C    1.313     7 C    1.280    11 H    0.925
                             1 Zr   0.245
     7   6 C    3.979 --     3 C    1.302     6 C    1.280    12 H    0.917
                             1 Zr   0.267
     8   1 H    0.990 --     3 C    0.924
     9   1 H    0.992 --     4 C    0.922
    10   1 H    0.991 --     5 C    0.927
    11   1 H    0.990 --     6 C    0.925
    12   1 H    0.991 --     7 C    0.917
    13   6 C    3.980 --    17 C    1.305    14 C    1.302    18 H    0.924
                             1 Zr   0.236
    14   6 C    3.980 --    13 C    1.302    15 C    1.297    19 H    0.922
                             1 Zr   0.246
    15   6 C    3.981 --    14 C    1.297    16 C    1.285    20 H    0.918
                             1 Zr   0.266
    16   6 C    3.979 --    17 C    1.309    15 C    1.285    21 H    0.923
                             1 Zr   0.247
    17   6 C    3.980 --    16 C    1.309    13 C    1.305    22 H    0.924
                             1 Zr   0.232
    18   1 H    0.990 --    13 C    0.924
    19   1 H    0.990 --    14 C    0.922
    20   1 H    0.990 --    15 C    0.918
    21   1 H    0.989 --    16 C    0.923
    22   1 H    0.992 --    17 C    0.924
    23   1 H    0.994 --     2 C    0.812     1 Zr   0.142
    24   1 H    0.990 --     2 C    0.975
    25   1 H    0.992 --     2 C    0.955
    26   6 C    3.862 --    27 C    1.142    30 H    0.920    31 H    0.888
                             1 Zr   0.697
    27   6 C    3.973 --    26 C    1.142    28 H    0.958    29 H    0.946
                             2 C    0.698     1 Zr   0.151
    28   1 H    0.990 --    27 C    0.958
    29   1 H    0.991 --    27 C    0.946
    30   1 H    0.992 --    26 C    0.920
    31   1 H    0.992 --    26 C    0.888
 ---------------------------------------------------------------------------

Topologies differ in total number of bonds
Writing topology from bond orders to xtbtopo.mol

molecular dipole:
                 x           y           z       tot (Debye)
 q only:       -2.740       0.000       0.736
   full:       -2.291       0.020       0.620       6.033
molecular quadrupole (traceless):
                xx          xy          yy          xz          yz          zz
 q only:        8.146      -0.851      -6.717      -0.963      -4.510      -1.429
  q+dip:        8.953      -0.817      -8.004      -0.589      -7.811      -0.948
   full:        7.130       0.393      -6.813      -2.060      -6.966      -0.317

           -------------------------------------------------
          |                Geometry Summary                 |
           -------------------------------------------------

      molecular mass/u    :      264.4982010
   center of mass at/Å    :       -1.2199698      -0.1842942       0.6865501
  moments of inertia/u·Å² :        0.6214954E+03   0.7157986E+03   0.9585655E+03
rotational constants/cm⁻¹ :        0.2712431E-01   0.2355080E-01   0.1758631E-01

 * 39 selected distances

     #   Z          #   Z                                           value/Å
     1  40 Zr       3   6 C                                       2.4543498
     1  40 Zr       4   6 C                                       2.4545538
     3   6 C        4   6 C                                       1.4165448
     1  40 Zr       5   6 C                                       2.4654542 (max)
     4   6 C        5   6 C                                       1.4187673
     1  40 Zr       6   6 C                                       2.4496276
     5   6 C        6   6 C                                       1.4142635
     1  40 Zr       7   6 C                                       2.4255725
     3   6 C        7   6 C                                       1.4175735
     6   6 C        7   6 C                                       1.4218793
     3   6 C        8   1 H                                       1.0838690
     4   6 C        9   1 H                                       1.0858550
     5   6 C       10   1 H                                       1.0843558
     6   6 C       11   1 H                                       1.0829124
     7   6 C       12   1 H                                       1.0860620
     1  40 Zr      13   6 C                                       2.4609713
     1  40 Zr      14   6 C                                       2.4439690
    13   6 C       14   6 C                                       1.4182003
     1  40 Zr      15   6 C                                       2.4233519
    14   6 C       15   6 C                                       1.4175862
     1  40 Zr      16   6 C                                       2.4376302
    15   6 C       16   6 C                                       1.4214443
     1  40 Zr      17   6 C                                       2.4586967
    13   6 C       17   6 C                                       1.4162135
    16   6 C       17   6 C                                       1.4161226
    13   6 C       18   1 H                                       1.0846738
    14   6 C       19   1 H                                       1.0848090
    15   6 C       20   1 H                                       1.0849743
    16   6 C       21   1 H                                       1.0836207
    17   6 C       22   1 H                                       1.0853299
     2   6 C       23   1 H                                       1.1156017
     2   6 C       24   1 H                                       1.0823692 (min)
     2   6 C       25   1 H                                       1.0861351
     1  40 Zr      26   6 C                                       2.3857677
    26   6 C       27   6 C                                       1.4694548
    27   6 C       28   1 H                                       1.0868934
    27   6 C       29   1 H                                       1.0892336
    26   6 C       30   1 H                                       1.0939122
    26   6 C       31   1 H                                       1.0961226

 * 3 distinct bonds (by element types)

   Z      Z             #   av. dist./Å        max./Å        min./Å
   1 H    6 C          17     1.0880429     1.1156017     1.0823692
   6 C    6 C          11     1.4225500     1.4694548     1.4142635
   6 C   40 Zr         11     2.4418132     2.4654542     2.3857677


optimized geometry written to: xtbopt.xyz


           -------------------------------------------------
          | TOTAL ENERGY              -37.643219682795 Eh   |
          | GRADIENT NORM               0.000534279437 Eh/α |
          | HOMO-LUMO GAP               1.497930591942 eV   |
           -------------------------------------------------

------------------------------------------------------------------------
 * finished run on 2026/08/18 at 18:28:44.781     
------------------------------------------------------------------------
 total:
 * wall-time:     0 d,  0 h,  0 min, 16.825 sec
 *  cpu-time:     0 d,  0 h,  1 min, 59.016 sec
 * ratio c/w:     7.074 speedup
 SCF:
 * wall-time:     0 d,  0 h,  0 min,  0.630 sec
 *  cpu-time:     0 d,  0 h,  0 min,  4.500 sec
 * ratio c/w:     7.138 speedup
 ANC optimizer:
 * wall-time:     0 d,  0 h,  0 min, 16.042 sec
 *  cpu-time:     0 d,  0 h,  1 min, 53.924 sec
 * ratio c/w:     7.102 speedup

