31
 energy: -37.643219682795 gnorm: 0.000534279437 xtb: 6.5.1 (b24c23e)
Zr          -1.26338794549321       -0.15936331096319        0.67527959232240
C           -1.47019260674671        1.44449394183236       -1.48094204851058
C           -0.02949015541480       -2.24559161717894        1.06125854229713
C            0.38421285290651       -1.75378636918314       -0.20111074759281
C           -0.73072496779150       -1.81022907318278       -1.07668377455498
C           -1.83583142397117       -2.30965188340075       -0.34904542531502
C           -1.40941450524310       -2.56078113649922        0.98393738736418
H            0.62546501876565       -2.47556576129239        1.89367510125078
H            1.41034797559648       -1.55446518782886       -0.49504722480797
H           -0.70256931018374       -1.65417529273572       -2.14938213659997
H           -2.78284672522887       -2.61638580462594       -0.77539671719759
H           -1.98495193236253       -3.08166964551275        1.74351768007118
C            0.49620808918072        0.64127794946998        2.19816301508662
C           -0.55353059282751        0.12061294847576        2.99706752725343
C           -1.70082524783689        0.92860514264485        2.79603571592708
C           -1.35269774160715        1.95802724200188        1.87973840412829
C            0.00218929840317        1.77624921431275        1.51008889698319
H            1.53450279604843        0.32968400935055        2.23517987171424
H           -0.45466044891691       -0.65433289941630        3.74972540013659
H           -2.61595276691680        0.88123029170740        3.37695418153969
H           -1.96963939271618        2.81414345881801        1.63340213392049
H            0.60337319254036        2.47870727967995        0.94169519777415
H           -0.58539977871789        0.88219033128998       -1.09946685886473
H           -1.48413230373025        1.43225634892957       -2.56315222254453
H           -1.51358486825140        2.46351491746307       -1.10757541097786
C           -3.58888705479056        0.21804334905116        0.29910886677815
C           -3.35130331783269        0.66429063899851       -1.08064263377419
H           -3.85744284572741        1.57294480324678       -1.39609064194799
H           -3.40006296067490       -0.11110786027159       -1.84406215759463
H           -4.07463873414854        0.98480681511519        0.90965193714519
H           -4.12921194631766       -0.73443787029505        0.34720285859116
