31
 energy: -37.647727667900 gnorm: 0.000331623278 xtb: 6.5.1 (b24c23e)
Zr          -1.60879644172842       -0.01412159073925        0.57949833833547
C           -2.21424827350525        1.37291085861503       -1.13837066644192
C            0.01338342639406       -1.86156511344968        0.58559000621362
C            0.07543241969530       -1.27081958592831       -0.69838237706477
C           -1.16005334490101       -1.51677583243772       -1.34985584736536
C           -1.98879790653816       -2.23403129094022       -0.46080162974334
C           -1.27476884598293       -2.42865034975572        0.75024096175244
H            0.85184030749485       -1.99315837266323        1.25923064150420
H            0.96898501144958       -0.86953945919548       -1.16639682825557
H           -1.37051844291839       -1.32780145015821       -2.39567219396117
H           -2.93273626428572       -2.69833142488568       -0.71921665093721
H           -1.58186908122562       -3.06930893324329        1.57134720458838
C           -0.49988738718739        0.19303479109879        2.75871386133133
C           -1.76812220117284        0.81007824691541        2.88017722204933
C           -1.77686556323346        1.95795555669242        2.04507267244819
C           -0.51537923495692        2.04574615177201        1.41134024976969
C            0.27195139168714        0.95325832445614        1.84427616318966
H           -0.13339646856954       -0.61222662883368        3.38589845968057
H           -2.51302514943576        0.56266815503588        3.62817295101510
H           -2.55211931044843        2.71452577083637        2.01822311450013
H           -0.15926623752447        2.88510131137158        0.82418689018415
H            1.32953419145209        0.82066851938962        1.64289280228034
H           -1.09731283210273        1.28298768656227       -1.17135113672238
H           -2.57423712061719        1.19900164251581       -2.15225947304962
H           -2.46996775820293        2.39970184084116       -0.86109075685153
C           -3.90202777446466       -0.22454912228237        0.98778057141836
C           -3.96270258193596        0.33456676902564       -0.29904492327018
H           -4.48221721138952        1.28067724629978       -0.41131545744438
H           -4.08728351336509       -0.33924954717204       -1.14526922915749
H           -4.28460436084877        0.37728965991824        1.80966017128022
H           -3.99737630165498       -1.30559926966036        1.10849139872730
