31
 energy: -37.642584120904 gnorm: 0.000319398097 xtb: 6.5.1 (b24c23e)
Zr          -1.57754575364862       -0.06977764377911        0.64706716088387
C           -2.33448105944748        1.47715911431548       -1.22772344958238
C            0.04484856273267       -1.90381747078467        0.61285687315037
C            0.11059565872109       -1.27519982566313       -0.65496200009062
C           -1.12282192146064       -1.50344659334048       -1.31748713508398
C           -1.95440974585469       -2.24775310318863       -0.45182677275566
C           -1.24310365741209       -2.47842056587102        0.75579612186033
H            0.88004559498115       -2.05039477445927        1.28792030040602
H            1.00631207871414       -0.86257230137388       -1.10937460398229
H           -1.33142333836485       -1.28658689606626       -2.35866923975709
H           -2.89660417229806       -2.70554086135593       -0.72710334563240
H           -1.55430821632447       -3.14167915357807        1.55721914072822
C           -0.46782884728934        0.19882047757271        2.80679413200400
C           -1.73287382855257        0.82907147059870        2.90713808867247
C           -1.73507008762196        1.94588018166771        2.03026892497255
C           -0.47304993338262        2.00258457123700        1.39103383140190
C            0.30980399196539        0.92417218426573        1.86759573653383
H           -0.10597984104288       -0.58855904876872        3.45941592742157
H           -2.48421803001355        0.61021875121901        3.65779839398983
H           -2.50699331512469        2.70458567499359        1.97724215705044
H           -0.11079114402518        2.82062304726736        0.77748707295136
H            1.36748306222534        0.78034305808865        1.67475063634453
H           -1.23742198484077        1.27164837302984       -1.20345191526331
H           -2.69530793441858        1.34716320160107       -2.24219586282453
H           -2.54144204253959        2.49200695785326       -0.89257739400470
C           -3.89620368601566       -0.23713951824389        0.96883013397261
C           -3.99663231699177        0.36229570849368       -0.32454526976983
H           -4.57224243653027        1.27935272800391       -0.40022241150641
H           -4.14619602806795       -0.30555587502610       -1.17117945356647
H           -4.31207075219823        0.34642693736715        1.78995910396216
H           -4.08652173589131       -1.31146424609403        1.03391162750548
