      -----------------------------------------------------------      
     |                   =====================                   |     
     |                           x T B                           |     
     |                   =====================                   |     
     |                         S. Grimme                         |     
     |          Mulliken Center for Theoretical Chemistry        |     
     |                    University of Bonn                     |     
      -----------------------------------------------------------      

   * xtb version 6.5.1 (b24c23e) compiled by 'conda@728c89f4b128' on 2022-07-12

   xtb is free software: you can redistribute it and/or modify it under
   the terms of the GNU Lesser General Public License as published by
   the Free Software Foundation, either version 3 of the License, or
   (at your option) any later version.
   
   xtb is distributed in the hope that it will be useful,
   but WITHOUT ANY WARRANTY; without even the implied warranty of
   MERCHANTABILITY or FITNESS FOR A PARTICULAR PURPOSE.  See the
   GNU Lesser General Public License for more details.
   
   Cite this work as:
   * C. Bannwarth, E. Caldeweyher, S. Ehlert, A. Hansen, P. Pracht,
     J. Seibert, S. Spicher, S. Grimme, WIREs Comput. Mol. Sci., 2020, 11,
     e01493. DOI: 10.1002/wcms.1493
   
   for GFN2-xTB:
   * C. Bannwarth, S. Ehlert and S. Grimme., J. Chem. Theory Comput., 2019,
     15, 1652-1671. DOI: 10.1021/acs.jctc.8b01176
   for GFN1-xTB:
   * S. Grimme, C. Bannwarth, P. Shushkov, J. Chem. Theory Comput., 2017,
     13, 1989-2009. DOI: 10.1021/acs.jctc.7b00118
   for GFN0-xTB:
   * P. Pracht, E. Caldeweyher, S. Ehlert, S. Grimme, ChemRxiv, 2019, preprint.
     DOI: 10.26434/chemrxiv.8326202.v1
   for GFN-FF:
   * S. Spicher and S. Grimme, Angew. Chem. Int. Ed., 2020, 59, 15665-15673.
     DOI: 10.1002/anie.202004239
   
   for ALPB and GBSA implicit solvation:
   * S. Ehlert, M. Stahn, S. Spicher, S. Grimme, J. Chem. Theory Comput.,
     2021, 17, 4250-4261. DOI: 10.1021/acs.jctc.1c00471
   
   for DFT-D4:
   * E. Caldeweyher, C. Bannwarth and S. Grimme, J. Chem. Phys., 2017,
     147, 034112. DOI: 10.1063/1.4993215
   * E. Caldeweyher, S. Ehlert, A. Hansen, H. Neugebauer, S. Spicher,
     C. Bannwarth and S. Grimme, J. Chem. Phys., 2019, 150, 154122.
     DOI: 10.1063/1.5090222
   * E. Caldeweyher, J.-M. Mewes, S. Ehlert and S. Grimme, Phys. Chem. Chem. Phys.
     2020, 22, 8499-8512. DOI: 10.1039/D0CP00502A
   
   for sTDA-xTB:
   * S. Grimme and C. Bannwarth, J. Chem. Phys., 2016, 145, 054103.
     DOI: 10.1063/1.4959605
   
   in the mass-spec context:
   * V. Asgeirsson, C. Bauer and S. Grimme, Chem. Sci., 2017, 8, 4879.
     DOI: 10.1039/c7sc00601b
   * J. Koopman and S. Grimme, ACS Omega 2019, 4, 12, 15120-15133.
     DOI: 10.1021/acsomega.9b02011
   
   for metadynamics refer to:
   * S. Grimme, J. Chem. Theory Comput., 2019, 155, 2847-2862
     DOI: 10.1021/acs.jctc.9b00143
   
   for SPH calculations refer to:
   * S. Spicher and S. Grimme, J. Chem. Theory Comput., 2021, 17, 1701-1714
     DOI: 10.1021/acs.jctc.0c01306
   
   with help from (in alphabetical order)
   P. Atkinson, C. Bannwarth, F. Bohle, G. Brandenburg, E. Caldeweyher
   M. Checinski, S. Dohm, S. Ehlert, S. Ehrlich, I. Gerasimov, C. Hölzer
   A. Katbashev, J. Koopman, C. Lavigne, S. Lehtola, F. März, M. Müller,
   F. Musil, H. Neugebauer, J. Pisarek, C. Plett, P. Pracht, F. Pultar,
   J. Seibert, P. Shushkov, S. Spicher, M. Stahn, M. Steiner, T. Strunk,
   J. Stückrath, T. Rose, and J. Unsleber
   
 * started run on 2026/08/16 at 16:01:20.412     

           -------------------------------------------------
          |                Calculation Setup                |
           -------------------------------------------------

          program call               : /h/332/chchoi/miniconda3/envs/el-agente/bin/xtb reactant_ts_preopt.xyz --opt --gfn 2 -P 4 --chrg 1 --uhf 0 --input detailed_input.inp
          coordinate file            : reactant_ts_preopt.xyz
          omp threads                :                     4

   ID    Z sym.   atoms
    1   40 Zr     1
    2    6 C      2-7, 13-17, 26, 27
    3    1 H      8-12, 18-25, 28-31
constraining bond 2 27 to    2.2000000 Å, actual value:    2.2046860 Å

           -------------------------------------------------
          |                 G F N 2 - x T B                 |
           -------------------------------------------------

        Reference                      10.1021/acs.jctc.8b01176
      * Hamiltonian:
        H0-scaling (s, p, d)           1.850000    2.230000    2.230000
        zeta-weighting                 0.500000
      * Dispersion:
        s8                             2.700000
        a1                             0.520000
        a2                             5.000000
        s9                             5.000000
      * Repulsion:
        kExp                           1.500000    1.000000
        rExp                           1.000000
      * Coulomb:
        alpha                          2.000000
        third order                    shell-resolved
        anisotropic                    true
        a3                             3.000000
        a5                             4.000000
        cn-shift                       1.200000
        cn-exp                         4.000000
        max-rad                        5.000000


          ...................................................
          :                      SETUP                      :
          :.................................................:
          :  # basis functions                  79          :
          :  # atomic orbitals                  78          :
          :  # shells                           46          :
          :  # electrons                        72          :
          :  max. iterations                   250          :
          :  Hamiltonian                  GFN2-xTB          :
          :  restarted?                      false          :
          :  GBSA solvation                  false          :
          :  PC potential                    false          :
          :  electronic temp.          300.0000000     K    :
          :  accuracy                    1.0000000          :
          :  -> integral cutoff          0.2500000E+02      :
          :  -> integral neglect         0.1000000E-07      :
          :  -> SCF convergence          0.1000000E-05 Eh   :
          :  -> wf. convergence          0.1000000E-03 e    :
          :  Broyden damping             0.4000000          :
          ...................................................

 iter      E             dE          RMSdq      gap      omega  full diag
   1    -37.0380806 -0.370381E+02  0.577E+00    0.20       0.0  T
   2    -36.4259144  0.612166E+00  0.776E+00    0.22       1.0  T
   3    -37.7000380 -0.127412E+01  0.532E+00    2.27       1.0  T
   4    -37.7931057 -0.930677E-01  0.496E+00    1.99       1.0  T
   5    -37.8021744 -0.906876E-02  0.471E+00    1.79       1.0  T
   6    -37.7379678  0.642067E-01  0.318E+00    0.36       1.0  T
   7    -37.7858265 -0.478588E-01  0.247E+00    0.41       1.0  T
   8    -37.8836602 -0.978337E-01  0.148E+00    0.78       1.0  T
   9    -37.5913674  0.292293E+00  0.372E+00    0.31       1.0  T
  10    -37.8160656 -0.224698E+00  0.199E+00    0.47       1.0  T
  11    -37.9050591 -0.889935E-01  0.583E-01    0.83       1.0  T
  12    -37.9096160 -0.455685E-02  0.501E-01    0.79       1.0  T
  13    -37.9098567 -0.240691E-03  0.385E-01    0.80       1.0  T
  14    -37.9103086 -0.451933E-03  0.173E-01    0.80       1.0  T
  15    -37.9102431  0.655304E-04  0.200E-01    0.77       1.0  T
  16    -37.9104434 -0.200276E-03  0.125E-01    0.76       1.0  T
  17    -37.9105712 -0.127819E-03  0.739E-02    0.76       1.0  T
  18    -37.9105830 -0.118550E-04  0.645E-02    0.77       1.0  T
  19    -37.9106014 -0.183406E-04  0.555E-02    0.77       1.0  T
  20    -37.9106261 -0.246822E-04  0.352E-02    0.76       1.0  T
  21    -37.9106304 -0.432572E-05  0.306E-02    0.76       1.0  T
  22    -37.9106413 -0.109718E-04  0.179E-02    0.76       1.0  T
  23    -37.9106443 -0.295760E-05  0.106E-02    0.76       1.7  T
  24    -37.9106458 -0.152604E-05  0.350E-03    0.76       5.1  T
  25    -37.9106460 -0.162559E-06  0.115E-03    0.76      15.7  T
  26    -37.9106460 -0.105572E-07  0.555E-04    0.76      32.3  T
  27    -37.9106460 -0.305612E-08  0.187E-04    0.76      96.2  T

   *** convergence criteria satisfied after 27 iterations ***

         #    Occupation            Energy/Eh            Energy/eV
      -------------------------------------------------------------
         1        2.0000           -0.8486109             -23.0919
       ...           ...                  ...                  ...
        30        2.0000           -0.5512183             -14.9994
        31        2.0000           -0.5194128             -14.1339
        32        2.0000           -0.5070625             -13.7979
        33        2.0000           -0.5029512             -13.6860
        34        2.0000           -0.4949654             -13.4687
        35        2.0000           -0.4844967             -13.1838
        36        2.0000           -0.4708286             -12.8119 (HOMO)
        37        0.0000           -0.4427772             -12.0486 (LUMO)
        38                         -0.4395049             -11.9595
        39                         -0.4355384             -11.8516
        40                         -0.4327149             -11.7748
        41                         -0.4278176             -11.6415
       ...                                ...                  ...
        78                          1.7175048              46.7357
      -------------------------------------------------------------
                  HL-Gap            0.0280513 Eh            0.7633 eV
             Fermi-level           -0.4568181 Eh          -12.4307 eV

 SCC (total)                   0 d,  0 h,  0 min,  1.136 sec
 SCC setup                      ...        0 min,  0.006 sec (  0.542%)
 Dispersion                     ...        0 min,  0.029 sec (  2.552%)
 classical contributions        ...        0 min,  0.014 sec (  1.221%)
 integral evaluation            ...        0 min,  0.032 sec (  2.850%)
 iterations                     ...        0 min,  0.954 sec ( 83.959%)
 molecular gradient             ...        0 min,  0.100 sec (  8.795%)
 printout                       ...        0 min,  0.001 sec (  0.077%)

         :::::::::::::::::::::::::::::::::::::::::::::::::::::
         ::                     SUMMARY                     ::
         :::::::::::::::::::::::::::::::::::::::::::::::::::::
         :: total energy             -37.272645962643 Eh    ::
         :: gradient norm              0.490919116549 Eh/a0 ::
         :: HOMO-LUMO gap              0.763315959824 eV    ::
         ::.................................................::
         :: SCC energy               -37.910646009129 Eh    ::
         :: -> isotropic ES            0.100801032919 Eh    ::
         :: -> anisotropic ES         -0.002117014936 Eh    ::
         :: -> anisotropic XC          0.021758289355 Eh    ::
         :: -> dispersion             -0.027387806543 Eh    ::
         :: repulsion energy           0.637178198158 Eh    ::
         :: add. restraining           0.000078416235 Eh    ::
         :: total charge               0.999999999998 e     ::
         :::::::::::::::::::::::::::::::::::::::::::::::::::::

      ----------------------------------------------------------- 
     |                   =====================                   |
     |                        A N C O P T                        |
     |                   =====================                   |
     |               Approximate Normal Coordinate               |
     |                Rational Function Optimizer                |
      ----------------------------------------------------------- 

          ...................................................
          :                      SETUP                      :
          :.................................................:
          :   optimization level            normal          :
          :   max. optcycles                   200          :
          :   ANC micro-cycles                  20          :
          :   degrees of freedom                87          :
          :.................................................:
          :   RF solver                   davidson          :
          :   write xtbopt.log                true          :
          :   linear?                        false          :
          :   energy convergence         0.5000000E-05 Eh   :
          :   grad. convergence          0.1000000E-02 Eh/α :
          :   maximium RF displ.         1.0000000          :
          :   Hlow (freq-cutoff)         0.1000000E-01      :
          :   Hmax (freq-cutoff)         5.0000000          :
          :   S6 in model hess.         20.0000000          :
          ...................................................

generating ANC from model Hessian ...
Using Lindh-Hessian (1995)
 Shifting diagonal of input Hessian by    1.3521608151431573E-002
 Lowest  eigenvalues of input Hessian
    0.010000    0.000000    0.000000    0.000000    0.000000    0.000000
    0.000000    0.013697    0.013787    0.013968    0.014084    0.014185
    0.014455    0.014786    0.015242    0.015293    0.016097    0.016844
 Highest eigenvalues
    1.495455    1.495571    1.495748    1.683308    1.918949    4.957178


........................................................................
.............................. CYCLE    1 ..............................
........................................................................
   1    -37.9106460 -0.379106E+02  0.193E-04    0.76       0.0  T
   2    -37.9106460  0.455742E-10  0.174E-04    0.76     103.3  T
   3    -37.9106460 -0.597005E-09  0.952E-05    0.76     188.6  T
     SCC iter.                  ...        0 min,  0.136 sec
     gradient                   ...        0 min,  0.104 sec
 * total energy  :   -37.2726460 Eh     change       -0.3484857E-09 Eh
   gradient norm :     0.4908970 Eh/α   predicted     0.0000000E+00 (-100.00%)
   displ. norm   :     0.5444770 α      lambda       -0.1940108E+00
   maximum displ.:     0.2479040 α      in ANC's #23, #55, #85, ...

........................................................................
.............................. CYCLE    2 ..............................
........................................................................
   1    -38.0334016 -0.380334E+02  0.755E-01    1.13       0.0  T
   2    -38.0336944 -0.292862E-03  0.636E-01    0.89       1.0  T
   3    -38.0347848 -0.109043E-02  0.383E-01    1.05       1.0  T
   4    -38.0351379 -0.353038E-03  0.136E-01    0.95       1.0  T
   5    -38.0352169 -0.790394E-04  0.938E-02    0.98       1.0  T
   6    -38.0352557 -0.388163E-04  0.377E-02    0.99       1.0  T
   7    -38.0352683 -0.125581E-04  0.194E-02    0.98       1.0  T
   8    -38.0352705 -0.218528E-05  0.942E-03    0.98       1.9  T
   9    -38.0352708 -0.335052E-06  0.411E-03    0.98       4.4  T
  10    -38.0352710 -0.159640E-06  0.213E-03    0.98       8.4  T
  11    -38.0352710 -0.559902E-08  0.114E-03    0.98      15.7  T
  12    -38.0352710 -0.473595E-08  0.452E-04    0.98      39.7  T
  13    -38.0352710 -0.146954E-08  0.171E-04    0.98     105.2  T
     SCC iter.                  ...        0 min,  0.451 sec
     gradient                   ...        0 min,  0.028 sec
 * total energy  :   -37.4106828 Eh     change       -0.1380369E+00 Eh
   gradient norm :     0.2252681 Eh/α   predicted    -0.1258615E+00 (  -8.82%)
   displ. norm   :     0.6290345 α      lambda       -0.1025423E+00
   maximum displ.:     0.2945915 α      in ANC's #23, #56, #39, ...

........................................................................
.............................. CYCLE    3 ..............................
........................................................................
   1    -38.1151246 -0.381151E+02  0.842E-01    1.18       0.0  T
   2    -38.1160672 -0.942560E-03  0.494E-01    1.13       1.0  T
   3    -38.1154549  0.612320E-03  0.388E-01    1.15       1.0  T
   4    -38.1169532 -0.149837E-02  0.143E-01    1.14       1.0  T
   5    -38.1170270 -0.737339E-04  0.691E-02    1.12       1.0  T
   6    -38.1170157  0.112648E-04  0.574E-02    1.15       1.0  T
   7    -38.1170429 -0.271764E-04  0.208E-02    1.14       1.0  T
   8    -38.1170449 -0.203340E-05  0.113E-02    1.14       1.6  T
   9    -38.1170456 -0.713853E-06  0.320E-03    1.14       5.6  T
  10    -38.1170457 -0.572751E-07  0.150E-03    1.14      11.9  T
  11    -38.1170457  0.252772E-08  0.105E-03    1.14      17.1  T
  12    -38.1170457 -0.809014E-08  0.351E-04    1.14      51.2  T
  13    -38.1170457 -0.524203E-09  0.238E-04    1.14      75.6  T
     SCC iter.                  ...        0 min,  0.478 sec
     gradient                   ...        0 min,  0.025 sec
 * total energy  :   -37.4835350 Eh     change       -0.7285215E-01 Eh
   gradient norm :     0.1250166 Eh/α   predicted    -0.7155836E-01 (  -1.78%)
   displ. norm   :     0.6365665 α      lambda       -0.4965081E-01
   maximum displ.:     0.2783955 α      in ANC's #2, #23, #19, ...

........................................................................
.............................. CYCLE    4 ..............................
........................................................................
   1    -38.1496016 -0.381496E+02  0.531E-01    1.30       0.0  T
   2    -38.1499353 -0.333748E-03  0.350E-01    1.28       1.0  T
   3    -38.1501445 -0.209184E-03  0.250E-01    1.26       1.0  T
   4    -38.1506726 -0.528038E-03  0.814E-02    1.28       1.0  T
   5    -38.1507493 -0.767456E-04  0.416E-02    1.26       1.0  T
   6    -38.1507551 -0.577069E-05  0.211E-02    1.27       1.0  T
   7    -38.1507554 -0.291411E-06  0.130E-02    1.26       1.4  T
   8    -38.1507561 -0.765177E-06  0.578E-03    1.26       3.1  T
   9    -38.1507563 -0.175187E-06  0.186E-03    1.26       9.6  T
  10    -38.1507563 -0.890567E-08  0.104E-03    1.26      17.3  T
  11    -38.1507563 -0.453362E-08  0.571E-04    1.26      31.5  T
  12    -38.1507563 -0.224182E-08  0.217E-04    1.26      82.7  T
     SCC iter.                  ...        0 min,  0.431 sec
     gradient                   ...        0 min,  0.015 sec
 * total energy  :   -37.5237853 Eh     change       -0.4025036E-01 Eh
   gradient norm :     0.0990246 Eh/α   predicted    -0.3488515E-01 ( -13.33%)
   displ. norm   :     0.6593122 α      lambda       -0.3882784E-01
   maximum displ.:     0.2989543 α      in ANC's #2, #19, #3, ...

........................................................................
.............................. CYCLE    5 ..............................
........................................................................
   1    -38.1832031 -0.381832E+02  0.475E-01    1.39       0.0  T
   2    -38.1833460 -0.142915E-03  0.348E-01    1.41       1.0  T
   3    -38.1841347 -0.788749E-03  0.209E-01    1.38       1.0  T
   4    -38.1843792 -0.244505E-03  0.659E-02    1.40       1.0  T
   5    -38.1844485 -0.692355E-04  0.232E-02    1.38       1.0  T
   6    -38.1844544 -0.590940E-05  0.144E-02    1.39       1.2  T
   7    -38.1844555 -0.107821E-05  0.711E-03    1.39       2.5  T
   8    -38.1844555 -0.434908E-07  0.455E-03    1.39       3.9  T
   9    -38.1844556 -0.771284E-07  0.158E-03    1.39      11.4  T
  10    -38.1844556 -0.131847E-07  0.107E-03    1.39      16.9  T
  11    -38.1844556 -0.356985E-08  0.582E-04    1.39      30.8  T
  12    -38.1844556 -0.552404E-09  0.258E-04    1.39      69.5  T
     SCC iter.                  ...        0 min,  0.385 sec
     gradient                   ...        0 min,  0.012 sec
 * total energy  :   -37.5544168 Eh     change       -0.3063145E-01 Eh
   gradient norm :     0.0733974 Eh/α   predicted    -0.2785302E-01 (  -9.07%)
   displ. norm   :     0.7179392 α      lambda       -0.2974526E-01
   maximum displ.:     0.3674615 α      in ANC's #2, #3, #1, ...

........................................................................
.............................. CYCLE    6 ..............................
........................................................................
   1    -38.1960475 -0.381960E+02  0.590E-01    1.34       0.0  T
   2    -38.1964849 -0.437463E-03  0.539E-01    1.30       1.0  T
   3    -38.1976843 -0.119936E-02  0.392E-01    1.29       1.0  T
   4    -38.1974442  0.240115E-03  0.194E-01    1.30       1.0  T
   5    -38.1978292 -0.385019E-03  0.117E-01    1.28       1.0  T
   6    -38.1979067 -0.775393E-04  0.529E-02    1.30       1.0  T
   7    -38.1979167 -0.998332E-05  0.236E-02    1.29       1.0  T
   8    -38.1979178 -0.105462E-05  0.932E-03    1.30       1.9  T
   9    -38.1979182 -0.411606E-06  0.532E-03    1.29       3.4  T
  10    -38.1979183 -0.137714E-06  0.275E-03    1.30       6.5  T
  11    -38.1979183 -0.294821E-07  0.950E-04    1.29      18.9  T
  12    -38.1979184 -0.878594E-08  0.560E-04    1.30      32.1  T
     SCC iter.                  ...        0 min,  0.449 sec
     gradient                   ...        0 min,  0.022 sec
 * total energy  :   -37.5695160 Eh     change       -0.1509924E-01 Eh
   gradient norm :     0.0781355 Eh/α   predicted    -0.2253854E-01 (  49.27%)
   displ. norm   :     0.7561882 α      lambda       -0.3922956E-01
   maximum displ.:     0.4243356 α      in ANC's #1, #2, #85, ...

........................................................................
.............................. CYCLE    7 ..............................
........................................................................
   1    -38.2040000 -0.382040E+02  0.935E-01    1.40       0.0  T
   2    -38.2040659 -0.659273E-04  0.936E-01    1.47       1.0  T
   3    -38.2084501 -0.438413E-02  0.637E-01    1.43       1.0  T
   4    -38.2076871  0.762939E-03  0.280E-01    1.45       1.0  T
   5    -38.2084935 -0.806396E-03  0.158E-01    1.43       1.0  T
   6    -38.2086559 -0.162396E-03  0.748E-02    1.42       1.0  T
   7    -38.2086651 -0.921157E-05  0.344E-02    1.43       1.0  T
   8    -38.2086678 -0.266887E-05  0.138E-02    1.43       1.3  T
   9    -38.2086684 -0.623061E-06  0.574E-03    1.43       3.1  T
  10    -38.2086686 -0.142496E-06  0.296E-03    1.43       6.1  T
  11    -38.2086686 -0.324458E-07  0.104E-03    1.43      17.3  T
  12    -38.2086686 -0.374324E-08  0.414E-04    1.43      43.4  T
  13    -38.2086686 -0.709598E-09  0.214E-04    1.43      84.1  T
     SCC iter.                  ...        0 min,  0.434 sec
     gradient                   ...        0 min,  0.007 sec
 * total energy  :   -37.5849248 Eh     change       -0.1540873E-01 Eh
   gradient norm :     0.0672769 Eh/α   predicted    -0.3083096E-01 ( 100.09%)
   displ. norm   :     0.5408658 α      lambda       -0.1706633E-01
   maximum displ.:     0.2568943 α      in ANC's #19, #2, #13, ...

........................................................................
.............................. CYCLE    8 ..............................
........................................................................
   1    -38.2279074 -0.382279E+02  0.420E-01    1.54       0.0  T
   2    -38.2282335 -0.326050E-03  0.388E-01    1.52       1.0  T
   3    -38.2282945 -0.610554E-04  0.254E-01    1.53       1.0  T
   4    -38.2282701  0.244189E-04  0.772E-02    1.51       1.0  T
   5    -38.2283191 -0.490503E-04  0.426E-02    1.52       1.0  T
   6    -38.2283210 -0.186524E-05  0.205E-02    1.52       1.0  T
   7    -38.2283234 -0.238513E-05  0.102E-02    1.52       1.8  T
   8    -38.2283239 -0.516936E-06  0.442E-03    1.52       4.1  T
   9    -38.2283240 -0.526667E-07  0.240E-03    1.52       7.5  T
  10    -38.2283240 -0.624621E-07  0.132E-03    1.52      13.6  T
  11    -38.2283240 -0.535240E-08  0.488E-04    1.52      36.8  T
  12    -38.2283240 -0.192168E-08  0.192E-04    1.52      93.6  T
     SCC iter.                  ...        0 min,  0.311 sec
     gradient                   ...        0 min,  0.006 sec
 * total energy  :   -37.5938424 Eh     change       -0.8917633E-02 Eh
   gradient norm :     0.0806920 Eh/α   predicted    -0.1102943E-01 (  23.68%)
   displ. norm   :     0.5565582 α      lambda       -0.1366525E-01
   maximum displ.:     0.3882239 α      in ANC's #2, #3, #26, ...

........................................................................
.............................. CYCLE    9 ..............................
........................................................................
   1    -38.2286888 -0.382287E+02  0.458E-01    1.49       0.0  T
   2    -38.2289275 -0.238743E-03  0.460E-01    1.40       1.0  T
   3    -38.2296004 -0.672850E-03  0.334E-01    1.41       1.0  T
   4    -38.2289396  0.660824E-03  0.180E-01    1.42       1.0  T
   5    -38.2296250 -0.685407E-03  0.772E-02    1.40       1.0  T
   6    -38.2296432 -0.182842E-04  0.367E-02    1.42       1.0  T
   7    -38.2296465 -0.323948E-05  0.126E-02    1.42       1.4  T
   8    -38.2296466 -0.693644E-07  0.751E-03    1.42       2.4  T
   9    -38.2296468 -0.229140E-06  0.327E-03    1.42       5.5  T
  10    -38.2296468 -0.513344E-07  0.157E-03    1.42      11.5  T
  11    -38.2296468 -0.720690E-08  0.677E-04    1.42      26.5  T
  12    -38.2296468 -0.262347E-08  0.211E-04    1.42      85.1  T
     SCC iter.                  ...        0 min,  0.296 sec
     gradient                   ...        0 min,  0.017 sec
 * total energy  :   -37.6021919 Eh     change       -0.8349538E-02 Eh
   gradient norm :     0.0549554 Eh/α   predicted    -0.8949085E-02 (   7.18%)
   displ. norm   :     0.5179696 α      lambda       -0.1067184E-01
   maximum displ.:     0.3143418 α      in ANC's #2, #5, #13, ...

........................................................................
.............................. CYCLE   10 ..............................
........................................................................
   1    -38.2390287 -0.382390E+02  0.306E-01    1.45       0.0  T
   2    -38.2390592 -0.305411E-04  0.224E-01    1.45       1.0  T
   3    -38.2388507  0.208554E-03  0.126E-01    1.45       1.0  T
   4    -38.2391791 -0.328405E-03  0.441E-02    1.46       1.0  T
   5    -38.2391997 -0.206151E-04  0.231E-02    1.45       1.0  T
   6    -38.2391986  0.106680E-05  0.108E-02    1.45       1.7  T
   7    -38.2392003 -0.170147E-05  0.488E-03    1.45       3.7  T
   8    -38.2392005 -0.141185E-06  0.234E-03    1.45       7.7  T
   9    -38.2392005 -0.169617E-07  0.114E-03    1.45      15.7  T
  10    -38.2392005  0.116657E-09  0.602E-04    1.45      29.8  T
  11    -38.2392005 -0.264944E-08  0.243E-04    1.45      73.8  T
     SCC iter.                  ...        0 min,  0.265 sec
     gradient                   ...        0 min,  0.005 sec
 * total energy  :   -37.6097709 Eh     change       -0.7578975E-02 Eh
   gradient norm :     0.0319390 Eh/α   predicted    -0.6767504E-02 ( -10.71%)
   displ. norm   :     0.6895152 α      lambda       -0.9624250E-02
   maximum displ.:     0.3845898 α      in ANC's #2, #5, #12, ...

........................................................................
.............................. CYCLE   11 ..............................
........................................................................
   1    -38.2362245 -0.382362E+02  0.469E-01    1.55       0.0  T
   2    -38.2361892  0.353073E-04  0.378E-01    1.57       1.0  T
   3    -38.2364142 -0.224973E-03  0.232E-01    1.55       1.0  T
   4    -38.2368807 -0.466465E-03  0.532E-02    1.56       1.0  T
   5    -38.2369107 -0.300424E-04  0.330E-02    1.56       1.0  T
   6    -38.2369192 -0.844724E-05  0.165E-02    1.56       1.1  T
   7    -38.2369197 -0.546753E-06  0.650E-03    1.56       2.8  T
   8    -38.2369198 -0.549633E-07  0.371E-03    1.56       4.8  T
   9    -38.2369198 -0.488221E-07  0.184E-03    1.56       9.7  T
  10    -38.2369198 -0.859549E-08  0.106E-03    1.56      17.0  T
  11    -38.2369198 -0.420467E-08  0.462E-04    1.56      38.9  T
  12    -38.2369198 -0.153281E-08  0.147E-04    1.56     122.4  T
     SCC iter.                  ...        0 min,  0.305 sec
     gradient                   ...        0 min,  0.005 sec
 * total energy  :   -37.6163530 Eh     change       -0.6582061E-02 Eh
   gradient norm :     0.0570083 Eh/α   predicted    -0.7099975E-02 (   7.87%)
   displ. norm   :     0.6126549 α      lambda       -0.7198651E-02
   maximum displ.:     0.3177110 α      in ANC's #2, #5, #12, ...

........................................................................
.............................. CYCLE   12 ..............................
........................................................................
   1    -38.2375378 -0.382375E+02  0.381E-01    1.63       0.0  T
   2    -38.2375334  0.431564E-05  0.343E-01    1.65       1.0  T
   3    -38.2381037 -0.570267E-03  0.182E-01    1.65       1.0  T
   4    -38.2381424 -0.387291E-04  0.539E-02    1.65       1.0  T
   5    -38.2381850 -0.425686E-04  0.246E-02    1.65       1.0  T
   6    -38.2381898 -0.479745E-05  0.118E-02    1.65       1.5  T
   7    -38.2381903 -0.494142E-06  0.562E-03    1.65       3.2  T
   8    -38.2381904 -0.856535E-07  0.271E-03    1.65       6.6  T
   9    -38.2381904 -0.387115E-07  0.121E-03    1.65      14.8  T
  10    -38.2381904 -0.336842E-08  0.657E-04    1.65      27.3  T
  11    -38.2381904 -0.491134E-09  0.302E-04    1.65      59.5  T
     SCC iter.                  ...        0 min,  0.259 sec
     gradient                   ...        0 min,  0.007 sec
 * total energy  :   -37.6204708 Eh     change       -0.4117859E-02 Eh
   gradient norm :     0.0425105 Eh/α   predicted    -0.4950322E-02 (  20.22%)
   displ. norm   :     0.6010702 α      lambda       -0.7405977E-02
   maximum displ.:     0.3271815 α      in ANC's #2, #5, #11, ...

........................................................................
.............................. CYCLE   13 ..............................
........................................................................
   1    -38.2522943 -0.382523E+02  0.336E-01    1.73       0.0  T
   2    -38.2523861 -0.917261E-04  0.216E-01    1.70       1.0  T
   3    -38.2522840  0.102080E-03  0.161E-01    1.73       1.0  T
   4    -38.2524466 -0.162613E-03  0.486E-02    1.71       1.0  T
   5    -38.2524927 -0.461466E-04  0.175E-02    1.71       1.0  T
   6    -38.2524946 -0.190017E-05  0.102E-02    1.71       1.8  T
   7    -38.2524950 -0.388710E-06  0.398E-03    1.71       4.5  T
   8    -38.2524950 -0.131371E-07  0.257E-03    1.71       7.0  T
   9    -38.2524951 -0.414875E-07  0.133E-03    1.71      13.5  T
  10    -38.2524951 -0.442463E-08  0.668E-04    1.71      26.9  T
  11    -38.2524951 -0.101722E-08  0.268E-04    1.71      67.0  T
     SCC iter.                  ...        0 min,  0.177 sec
     gradient                   ...        0 min,  0.007 sec
 * total energy  :   -37.6251521 Eh     change       -0.4681273E-02 Eh
   gradient norm :     0.0524907 Eh/α   predicted    -0.5040831E-02 (   7.68%)
   displ. norm   :     0.6010493 α      lambda       -0.6657302E-02
   maximum displ.:     0.3377128 α      in ANC's #5, #2, #12, ...

........................................................................
.............................. CYCLE   14 ..............................
........................................................................
   1    -38.2552461 -0.382552E+02  0.348E-01    1.74       0.0  T
   2    -38.2552523 -0.615438E-05  0.260E-01    1.77       1.0  T
   3    -38.2554782 -0.225886E-03  0.174E-01    1.74       1.0  T
   4    -38.2556995 -0.221351E-03  0.411E-02    1.75       1.0  T
   5    -38.2557132 -0.136912E-04  0.265E-02    1.75       1.0  T
   6    -38.2557202 -0.700985E-05  0.128E-02    1.75       1.4  T
   7    -38.2557210 -0.814660E-06  0.451E-03    1.75       4.0  T
   8    -38.2557211 -0.335832E-07  0.283E-03    1.75       6.3  T
   9    -38.2557211 -0.324855E-07  0.145E-03    1.75      12.4  T
  10    -38.2557211 -0.336450E-08  0.729E-04    1.75      24.6  T
  11    -38.2557211 -0.189790E-08  0.222E-04    1.75      80.8  T
     SCC iter.                  ...        0 min,  0.214 sec
     gradient                   ...        0 min,  0.006 sec
 * total energy  :   -37.6274255 Eh     change       -0.2273377E-02 Eh
   gradient norm :     0.0407557 Eh/α   predicted    -0.4531165E-02 (  99.31%)
   displ. norm   :     0.3891331 α      lambda       -0.5085574E-02
   maximum displ.:     0.1861223 α      in ANC's #5, #2, #12, ...

........................................................................
.............................. CYCLE   15 ..............................
........................................................................
   1    -38.2648421 -0.382648E+02  0.230E-01    1.79       0.0  T
   2    -38.2648747 -0.326113E-04  0.118E-01    1.78       1.0  T
   3    -38.2648041  0.706382E-04  0.112E-01    1.80       1.0  T
   4    -38.2649062 -0.102127E-03  0.226E-02    1.79       1.0  T
   5    -38.2649085 -0.229587E-05  0.176E-02    1.79       1.0  T
   6    -38.2649118 -0.328567E-05  0.552E-03    1.79       3.3  T
   7    -38.2649119 -0.768623E-07  0.278E-03    1.79       6.5  T
   8    -38.2649119 -0.133795E-07  0.167E-03    1.79      10.8  T
   9    -38.2649119 -0.139201E-07  0.962E-04    1.79      18.7  T
  10    -38.2649119 -0.279790E-08  0.579E-04    1.79      31.0  T
     SCC iter.                  ...        0 min,  0.207 sec
     gradient                   ...        0 min,  0.013 sec
 * total energy  :   -37.6306301 Eh     change       -0.3204574E-02 Eh
   gradient norm :     0.0292763 Eh/α   predicted    -0.2927831E-02 (  -8.64%)
   displ. norm   :     0.4980868 α      lambda       -0.4216296E-02
   maximum displ.:     0.2307293 α      in ANC's #12, #5, #2, ...

........................................................................
.............................. CYCLE   16 ..............................
........................................................................
   1    -38.2609665 -0.382610E+02  0.259E-01    1.85       0.0  T
   2    -38.2609937 -0.272683E-04  0.165E-01    1.85       1.0  T
   3    -38.2609442  0.495090E-04  0.135E-01    1.86       1.0  T
   4    -38.2611185 -0.174270E-03  0.342E-02    1.85       1.0  T
   5    -38.2611322 -0.137462E-04  0.162E-02    1.85       1.1  T
   6    -38.2611323 -0.325534E-07  0.858E-03    1.85       2.1  T
   7    -38.2611329 -0.638940E-06  0.357E-03    1.85       5.0  T
   8    -38.2611329 -0.281587E-07  0.223E-03    1.85       8.0  T
   9    -38.2611330 -0.188233E-07  0.122E-03    1.85      14.7  T
  10    -38.2611330 -0.263584E-08  0.531E-04    1.85      33.8  T
  11    -38.2611330 -0.182162E-08  0.155E-04    1.85     116.0  T
     SCC iter.                  ...        0 min,  0.250 sec
     gradient                   ...        0 min,  0.017 sec
 * total energy  :   -37.6326984 Eh     change       -0.2068349E-02 Eh
   gradient norm :     0.0306271 Eh/α   predicted    -0.2631168E-02 (  27.21%)
   displ. norm   :     0.3936289 α      lambda       -0.2820389E-02
   maximum displ.:     0.1878773 α      in ANC's #5, #2, #12, ...

........................................................................
.............................. CYCLE   17 ..............................
........................................................................
   1    -38.2646104 -0.382646E+02  0.173E-01    1.88       0.0  T
   2    -38.2646175 -0.705514E-05  0.109E-01    1.88       1.0  T
   3    -38.2645414  0.760500E-04  0.843E-02    1.88       1.0  T
   4    -38.2646423 -0.100891E-03  0.165E-02    1.88       1.1  T
   5    -38.2646453 -0.293495E-05  0.844E-03    1.88       2.1  T
   6    -38.2646453 -0.533943E-07  0.352E-03    1.88       5.1  T
   7    -38.2646454 -0.126190E-06  0.178E-03    1.88      10.1  T
   8    -38.2646455 -0.404529E-08  0.121E-03    1.88      14.8  T
   9    -38.2646455 -0.674478E-08  0.507E-04    1.88      35.4  T
  10    -38.2646455 -0.459771E-09  0.209E-04    1.88      86.0  T
     SCC iter.                  ...        0 min,  0.191 sec
     gradient                   ...        0 min,  0.007 sec
 * total energy  :   -37.6349719 Eh     change       -0.2273502E-02 Eh
   gradient norm :     0.0217358 Eh/α   predicted    -0.1628696E-02 ( -28.36%)
   displ. norm   :     0.5872997 α      lambda       -0.3703834E-02
   maximum displ.:     0.3050961 α      in ANC's #12, #2, #5, ...

........................................................................
.............................. CYCLE   18 ..............................
........................................................................
   1    -38.2721321 -0.382721E+02  0.331E-01    1.90       0.0  T
   2    -38.2721697 -0.376107E-04  0.206E-01    1.90       1.0  T
   3    -38.2720324  0.137276E-03  0.107E-01    1.90       1.0  T
   4    -38.2721937 -0.161235E-03  0.341E-02    1.90       1.0  T
   5    -38.2722014 -0.770242E-05  0.174E-02    1.90       1.0  T
   6    -38.2722019 -0.531836E-06  0.952E-03    1.90       1.9  T
   7    -38.2722023 -0.431863E-06  0.577E-03    1.90       3.1  T
   8    -38.2722024 -0.856680E-07  0.276E-03    1.90       6.5  T
   9    -38.2722025 -0.693407E-07  0.116E-03    1.90      15.4  T
  10    -38.2722025 -0.307978E-08  0.522E-04    1.90      34.4  T
  11    -38.2722025 -0.217185E-08  0.175E-04    1.90     102.6  T
     SCC iter.                  ...        0 min,  0.196 sec
     gradient                   ...        0 min,  0.007 sec
 * total energy  :   -37.6373615 Eh     change       -0.2389588E-02 Eh
   gradient norm :     0.0330767 Eh/α   predicted    -0.2490687E-02 (   4.23%)
   displ. norm   :     0.5843631 α      lambda       -0.3150324E-02
   maximum displ.:     0.3092539 α      in ANC's #12, #5, #2, ...

........................................................................
.............................. CYCLE   19 ..............................
........................................................................
   1    -38.2591510 -0.382592E+02  0.318E-01    1.94       0.0  T
   2    -38.2591501  0.903900E-06  0.204E-01    1.95       1.0  T
   3    -38.2587761  0.373950E-03  0.165E-01    1.95       1.0  T
   4    -38.2592823 -0.506196E-03  0.329E-02    1.94       1.0  T
   5    -38.2592846 -0.228830E-05  0.207E-02    1.94       1.0  T
   6    -38.2592846  0.393814E-07  0.386E-03    1.95       4.7  T
   7    -38.2592848 -0.224765E-06  0.238E-03    1.95       7.6  T
   8    -38.2592848 -0.158304E-07  0.145E-03    1.95      12.4  T
   9    -38.2592848 -0.113151E-08  0.889E-04    1.95      20.2  T
  10    -38.2592848 -0.448801E-08  0.351E-04    1.95      51.1  T
     SCC iter.                  ...        0 min,  0.261 sec
     gradient                   ...        0 min,  0.009 sec
 * total energy  :   -37.6387570 Eh     change       -0.1395511E-02 Eh
   gradient norm :     0.0342973 Eh/α   predicted    -0.2113049E-02 (  51.42%)
   displ. norm   :     0.3244885 α      lambda       -0.3335796E-02
   maximum displ.:     0.1101592 α      in ANC's #11, #50, #26, ...

........................................................................
.............................. CYCLE   20 ..............................
........................................................................
   1    -38.2807119 -0.382807E+02  0.325E-01    1.95       0.0  T
   2    -38.2807562 -0.442977E-04  0.306E-01    1.91       1.0  T
   3    -38.2813611 -0.604975E-03  0.166E-01    1.93       1.0  T
   4    -38.2813428  0.183945E-04  0.480E-02    1.93       1.0  T
   5    -38.2813756 -0.328147E-04  0.188E-02    1.93       1.0  T
   6    -38.2813752  0.404404E-06  0.105E-02    1.93       1.7  T
   7    -38.2813759 -0.782083E-06  0.335E-03    1.93       5.4  T
   8    -38.2813760 -0.184616E-07  0.210E-03    1.93       8.6  T
   9    -38.2813760 -0.760281E-08  0.102E-03    1.93      17.5  T
  10    -38.2813760 -0.847642E-08  0.421E-04    1.93      42.6  T
  11    -38.2813760 -0.951196E-09  0.180E-04    1.93      99.5  T
     SCC iter.                  ...        0 min,  0.218 sec
     gradient                   ...        0 min,  0.008 sec
 * total energy  :   -37.6396295 Eh     change       -0.8724845E-03 Eh
   gradient norm :     0.0365477 Eh/α   predicted    -0.1843519E-02 ( 111.30%)
   displ. norm   :     0.4173918 α      lambda       -0.4345923E-02
   maximum displ.:     0.2484511 α      in ANC's #12, #5, #2, ...
 * RMSD in coord.:     1.4152606 α      energy gain  -0.3669835E+00 Eh

generating ANC from model Hessian ...
Using Lindh-Hessian (1995)
 Shifting diagonal of input Hessian by    9.7764934617927714E-003
 Lowest  eigenvalues of input Hessian
    0.000000    0.000000    0.000000    0.000000    0.000000    0.000000
    0.010000    0.010173    0.010609    0.010909    0.011565    0.011618
    0.011953    0.014064    0.016028    0.016405    0.017324    0.017543
 Highest eigenvalues
    1.696757    1.732444    1.747940    1.749929    1.757237    4.408463


........................................................................
.............................. CYCLE   21 ..............................
........................................................................
   1    -38.2797055 -0.382797E+02  0.303E-01    1.91       0.0  T
   2    -38.2797297 -0.242248E-04  0.195E-01    1.92       1.0  T
   3    -38.2794256  0.304127E-03  0.154E-01    1.90       1.0  T
   4    -38.2798575 -0.431921E-03  0.322E-02    1.91       1.0  T
   5    -38.2798630 -0.551224E-05  0.219E-02    1.91       1.0  T
   6    -38.2798624  0.648349E-06  0.106E-02    1.91       1.7  T
   7    -38.2798637 -0.128430E-05  0.534E-03    1.91       3.4  T
   8    -38.2798638 -0.125774E-06  0.277E-03    1.91       6.5  T
   9    -38.2798638 -0.451692E-07  0.108E-03    1.91      16.6  T
  10    -38.2798638 -0.309557E-08  0.544E-04    1.91      33.0  T
  11    -38.2798638 -0.124405E-08  0.246E-04    1.91      73.0  T
     SCC iter.                  ...        0 min,  0.189 sec
     gradient                   ...        0 min,  0.007 sec
 * total energy  :   -37.6414325 Eh     change       -0.1802969E-02 Eh
   gradient norm :     0.0322796 Eh/α   predicted     0.0000000E+00 (-100.00%)
   displ. norm   :     0.3403985 α      lambda       -0.3393029E-02
   maximum displ.:     0.2136224 α      in ANC's #8, #4, #5, ...

........................................................................
.............................. CYCLE   22 ..............................
........................................................................
   1    -38.2790924 -0.382791E+02  0.193E-01    1.92       0.0  T
   2    -38.2791276 -0.352755E-04  0.123E-01    1.94       1.0  T
   3    -38.2791087  0.189213E-04  0.847E-02    1.93       1.0  T
   4    -38.2791563 -0.475680E-04  0.290E-02    1.94       1.0  T
   5    -38.2791658 -0.948935E-05  0.169E-02    1.94       1.1  T
   6    -38.2791668 -0.104445E-05  0.862E-03    1.93       2.1  T
   7    -38.2791671 -0.308164E-06  0.490E-03    1.93       3.7  T
   8    -38.2791672 -0.668295E-07  0.242E-03    1.93       7.4  T
   9    -38.2791672 -0.353694E-07  0.111E-03    1.93      16.2  T
  10    -38.2791672 -0.310240E-08  0.185E-04    1.93      97.2  T
  11    -38.2791672 -0.463309E-09  0.810E-05    1.93     221.8  T
     SCC iter.                  ...        0 min,  0.188 sec
     gradient                   ...        0 min,  0.009 sec
 * total energy  :   -37.6435839 Eh     change       -0.2151454E-02 Eh
   gradient norm :     0.0117113 Eh/α   predicted    -0.1893349E-02 ( -12.00%)
   displ. norm   :     0.3508027 α      lambda       -0.1485967E-02
   maximum displ.:     0.2557540 α      in ANC's #4, #8, #5, ...

........................................................................
.............................. CYCLE   23 ..............................
........................................................................
   1    -38.2779878 -0.382780E+02  0.130E-01    1.94       0.0  T
   2    -38.2779997 -0.119066E-04  0.764E-02    1.95       1.0  T
   3    -38.2779839  0.158650E-04  0.604E-02    1.94       1.0  T
   4    -38.2780162 -0.322946E-04  0.131E-02    1.95       1.4  T
   5    -38.2780190 -0.288642E-05  0.705E-03    1.95       2.5  T
   6    -38.2780193 -0.300532E-06  0.272E-03    1.95       6.6  T
   7    -38.2780194 -0.269496E-07  0.156E-03    1.95      11.5  T
   8    -38.2780194 -0.319516E-08  0.105E-03    1.95      17.0  T
   9    -38.2780194 -0.446842E-08  0.478E-04    1.95      37.6  T
  10    -38.2780194 -0.878764E-09  0.165E-04    1.95     109.0  T
     SCC iter.                  ...        0 min,  0.221 sec
     gradient                   ...        0 min,  0.011 sec
 * total energy  :   -37.6445474 Eh     change       -0.9635101E-03 Eh
   gradient norm :     0.0084317 Eh/α   predicted    -0.8347802E-03 ( -13.36%)
   displ. norm   :     0.2923375 α      lambda       -0.7248040E-03
   maximum displ.:     0.2114086 α      in ANC's #4, #8, #7, ...

........................................................................
.............................. CYCLE   24 ..............................
........................................................................
   1    -38.2779961 -0.382780E+02  0.135E-01    1.95       0.0  T
   2    -38.2780000 -0.394853E-05  0.887E-02    1.96       1.0  T
   3    -38.2779774  0.226261E-04  0.347E-02    1.95       1.0  T
   4    -38.2780019 -0.245438E-04  0.121E-02    1.96       1.5  T
   5    -38.2780030 -0.113240E-05  0.788E-03    1.95       2.3  T
   6    -38.2780034 -0.350323E-06  0.186E-03    1.96       9.6  T
   7    -38.2780034 -0.290969E-07  0.971E-04    1.96      18.5  T
   8    -38.2780034  0.113175E-09  0.697E-04    1.96      25.8  T
     SCC iter.                  ...        0 min,  0.197 sec
     gradient                   ...        0 min,  0.006 sec
 * total energy  :   -37.6450699 Eh     change       -0.5224880E-03 Eh
   gradient norm :     0.0105869 Eh/α   predicted    -0.3933757E-03 ( -24.71%)
   displ. norm   :     0.2948039 α      lambda       -0.6203435E-03
   maximum displ.:     0.2301974 α      in ANC's #4, #7, #8, ...

........................................................................
.............................. CYCLE   25 ..............................
........................................................................
   1    -38.2802081 -0.382802E+02  0.123E-01    1.96       0.0  T
   2    -38.2802125 -0.442455E-05  0.852E-02    1.95       1.0  T
   3    -38.2801891  0.234013E-04  0.371E-02    1.96       1.0  T
   4    -38.2802140 -0.248799E-04  0.111E-02    1.96       1.6  T
   5    -38.2802161 -0.214786E-05  0.674E-03    1.96       2.7  T
   6    -38.2802164 -0.305000E-06  0.257E-03    1.96       7.0  T
   7    -38.2802165 -0.204769E-07  0.104E-03    1.96      17.3  T
   8    -38.2802165  0.685660E-09  0.828E-04    1.96      21.7  T
   9    -38.2802165 -0.224723E-08  0.322E-04    1.96      55.8  T
     SCC iter.                  ...        0 min,  0.085 sec
     gradient                   ...        0 min,  0.006 sec
 * total energy  :   -37.6455284 Eh     change       -0.4584500E-03 Eh
   gradient norm :     0.0073472 Eh/α   predicted    -0.3371295E-03 ( -26.46%)
   displ. norm   :     0.3113275 α      lambda       -0.4313928E-03
   maximum displ.:     0.2387501 α      in ANC's #4, #3, #8, ...

........................................................................
.............................. CYCLE   26 ..............................
........................................................................
   1    -38.2812896 -0.382813E+02  0.167E-01    1.95       0.0  T
   2    -38.2812921 -0.252134E-05  0.111E-01    1.95       1.0  T
   3    -38.2812857  0.646639E-05  0.189E-02    1.95       1.0  T
   4    -38.2812925 -0.681641E-05  0.125E-02    1.95       1.4  T
   5    -38.2812932 -0.735338E-06  0.608E-03    1.95       3.0  T
   6    -38.2812934 -0.185777E-06  0.303E-03    1.95       5.9  T
   7    -38.2812935 -0.103758E-06  0.131E-03    1.95      13.7  T
   8    -38.2812935  0.197569E-08  0.847E-04    1.95      21.2  T
   9    -38.2812935 -0.460214E-08  0.323E-04    1.95      55.6  T
     SCC iter.                  ...        0 min,  0.045 sec
     gradient                   ...        0 min,  0.006 sec
 * total energy  :   -37.6458237 Eh     change       -0.2953782E-03 Eh
   gradient norm :     0.0064098 Eh/α   predicted    -0.2366030E-03 ( -19.90%)
   displ. norm   :     0.2420319 α      lambda       -0.2743215E-03
   maximum displ.:     0.1893084 α      in ANC's #4, #3, #2, ...

........................................................................
.............................. CYCLE   27 ..............................
........................................................................
   1    -38.2841789 -0.382842E+02  0.134E-01    1.96       0.0  T
   2    -38.2841835 -0.464917E-05  0.845E-02    1.95       1.0  T
   3    -38.2841579  0.256506E-04  0.496E-02    1.96       1.0  T
   4    -38.2841859 -0.280721E-04  0.103E-02    1.95       1.7  T
   5    -38.2841877 -0.173859E-05  0.561E-03    1.95       3.2  T
   6    -38.2841878 -0.154738E-06  0.291E-03    1.95       6.2  T
   7    -38.2841879 -0.913913E-07  0.899E-04    1.95      20.0  T
   8    -38.2841879 -0.788269E-09  0.562E-04    1.95      31.9  T
     SCC iter.                  ...        0 min,  0.052 sec
     gradient                   ...        0 min,  0.007 sec
 * total energy  :   -37.6459578 Eh     change       -0.1340956E-03 Eh
   gradient norm :     0.0051117 Eh/α   predicted    -0.1451979E-03 (   8.28%)
   displ. norm   :     0.2123482 α      lambda       -0.1539390E-03
   maximum displ.:     0.1554750 α      in ANC's #4, #8, #3, ...

........................................................................
.............................. CYCLE   28 ..............................
........................................................................
   1    -38.2822529 -0.382823E+02  0.101E-01    1.95       0.0  T
   2    -38.2822536 -0.772906E-06  0.589E-02    1.95       1.0  T
   3    -38.2822180  0.356454E-04  0.554E-02    1.95       1.0  T
   4    -38.2822621 -0.441432E-04  0.119E-02    1.95       1.5  T
   5    -38.2822621 -0.623920E-09  0.758E-03    1.95       2.4  T
   6    -38.2822625 -0.313413E-06  0.207E-03    1.95       8.7  T
   7    -38.2822625 -0.445099E-07  0.764E-04    1.95      23.5  T
   8    -38.2822625 -0.108813E-08  0.470E-04    1.95      38.2  T
     SCC iter.                  ...        0 min,  0.116 sec
     gradient                   ...        0 min,  0.012 sec
 * total energy  :   -37.6460183 Eh     change       -0.6045035E-04 Eh
   gradient norm :     0.0041513 Eh/α   predicted    -0.8044151E-04 (  33.07%)
   displ. norm   :     0.0443778 α      lambda       -0.5682020E-04
   maximum displ.:     0.0208693 α      in ANC's #8, #4, #6, ...

........................................................................
.............................. CYCLE   29 ..............................
........................................................................
   1    -38.2834906 -0.382835E+02  0.275E-02    1.95       0.0  T
   2    -38.2834911 -0.522588E-06  0.179E-02    1.95       1.0  T
   3    -38.2834901  0.102372E-05  0.991E-03    1.95       1.8  T
   4    -38.2834914 -0.129022E-05  0.394E-03    1.95       4.6  T
   5    -38.2834915 -0.115340E-06  0.235E-03    1.95       7.6  T
   6    -38.2834915  0.120552E-07  0.112E-03    1.95      16.0  T
   7    -38.2834915 -0.174562E-07  0.445E-04    1.95      40.3  T
   8    -38.2834915  0.274980E-11  0.315E-04    1.95      57.0  T
     SCC iter.                  ...        0 min,  0.149 sec
     gradient                   ...        0 min,  0.008 sec
 * total energy  :   -37.6460556 Eh     change       -0.3730312E-04 Eh
   gradient norm :     0.0017464 Eh/α   predicted    -0.2846716E-04 ( -23.69%)
   displ. norm   :     0.1303826 α      lambda       -0.3443765E-04
   maximum displ.:     0.0685175 α      in ANC's #4, #6, #2, ...

........................................................................
.............................. CYCLE   30 ..............................
........................................................................
   1    -38.2829903 -0.382830E+02  0.587E-02    1.96       0.0  T
   2    -38.2829916 -0.132652E-05  0.447E-02    1.95       1.0  T
   3    -38.2829927 -0.112294E-05  0.273E-02    1.95       1.0  T
   4    -38.2829986 -0.586661E-05  0.914E-03    1.96       2.0  T
   5    -38.2829998 -0.116893E-05  0.405E-03    1.95       4.4  T
   6    -38.2829998 -0.230034E-07  0.149E-03    1.95      12.0  T
   7    -38.2829998 -0.126694E-07  0.785E-04    1.95      22.9  T
   8    -38.2829998 -0.590240E-08  0.373E-04    1.95      48.1  T
     SCC iter.                  ...        0 min,  0.144 sec
     gradient                   ...        0 min,  0.013 sec
 * total energy  :   -37.6460820 Eh     change       -0.2639532E-04 Eh
   gradient norm :     0.0037152 Eh/α   predicted    -0.1735734E-04 ( -34.24%)
   displ. norm   :     0.0589454 α      lambda       -0.2610912E-04
   maximum displ.:     0.0369196 α      in ANC's #2, #6, #4, ...

........................................................................
.............................. CYCLE   31 ..............................
........................................................................
   1    -38.2834056 -0.382834E+02  0.280E-02    1.96       0.0  T
   2    -38.2834055  0.583942E-07  0.210E-02    1.96       1.0  T
   3    -38.2834099 -0.438617E-05  0.123E-02    1.96       1.5  T
   4    -38.2834106 -0.722358E-06  0.326E-03    1.96       5.5  T
   5    -38.2834108 -0.180807E-06  0.164E-03    1.96      11.0  T
   6    -38.2834108  0.402044E-08  0.579E-04    1.96      31.0  T
   7    -38.2834108 -0.589083E-08  0.303E-04    1.96      59.2  T
     SCC iter.                  ...        0 min,  0.132 sec
     gradient                   ...        0 min,  0.008 sec
 * total energy  :   -37.6461016 Eh     change       -0.1965047E-04 Eh
   gradient norm :     0.0029736 Eh/α   predicted    -0.1310017E-04 ( -33.33%)
   displ. norm   :     0.1371957 α      lambda       -0.4677294E-04
   maximum displ.:     0.0824422 α      in ANC's #2, #4, #6, ...

........................................................................
.............................. CYCLE   32 ..............................
........................................................................
   1    -38.2830366 -0.382830E+02  0.582E-02    1.96       0.0  T
   2    -38.2830362  0.436461E-06  0.456E-02    1.96       1.0  T
   3    -38.2830499 -0.136528E-04  0.274E-02    1.96       1.0  T
   4    -38.2830531 -0.320937E-05  0.567E-03    1.96       3.2  T
   5    -38.2830539 -0.795291E-06  0.236E-03    1.96       7.6  T
   6    -38.2830539  0.361197E-08  0.974E-04    1.96      18.4  T
   7    -38.2830539 -0.749443E-08  0.597E-04    1.96      30.1  T
     SCC iter.                  ...        0 min,  0.126 sec
     gradient                   ...        0 min,  0.006 sec
 * total energy  :   -37.6461392 Eh     change       -0.3757590E-04 Eh
   gradient norm :     0.0017823 Eh/α   predicted    -0.2383463E-04 ( -36.57%)
   displ. norm   :     0.3572578 α      lambda       -0.6901637E-04
   maximum displ.:     0.2295583 α      in ANC's #2, #4, #6, ...

........................................................................
.............................. CYCLE   33 ..............................
........................................................................
   1    -38.2811058 -0.382811E+02  0.128E-01    1.97       0.0  T
   2    -38.2811024  0.341270E-05  0.102E-01    1.97       1.0  T
   3    -38.2811588 -0.563382E-04  0.609E-02    1.97       1.0  T
   4    -38.2811754 -0.166534E-04  0.122E-02    1.97       1.5  T
   5    -38.2811790 -0.359610E-05  0.595E-03    1.97       3.0  T
   6    -38.2811790 -0.246188E-07  0.225E-03    1.97       8.0  T
   7    -38.2811791 -0.288437E-07  0.132E-03    1.97      13.6  T
   8    -38.2811791 -0.275656E-08  0.894E-04    1.97      20.1  T
   9    -38.2811791 -0.446833E-08  0.283E-04    1.97      63.4  T
     SCC iter.                  ...        0 min,  0.170 sec
     gradient                   ...        0 min,  0.005 sec
 * total energy  :   -37.6462049 Eh     change       -0.6568137E-04 Eh
   gradient norm :     0.0043069 Eh/α   predicted    -0.3647153E-04 ( -44.47%)
   displ. norm   :     0.1572701 α      lambda       -0.5877632E-04
   maximum displ.:     0.1145865 α      in ANC's #2, #8, #4, ...

........................................................................
.............................. CYCLE   34 ..............................
........................................................................
   1    -38.2812755 -0.382813E+02  0.302E-02    1.97       0.0  T
   2    -38.2812755 -0.366612E-08  0.189E-02    1.97       1.0  T
   3    -38.2812732  0.228815E-05  0.151E-02    1.97       1.2  T
   4    -38.2812770 -0.377781E-05  0.170E-03    1.97      10.5  T
   5    -38.2812770 -0.309522E-07  0.136E-03    1.97      13.2  T
   6    -38.2812771 -0.801882E-08  0.518E-04    1.97      34.7  T
   7    -38.2812771 -0.448850E-09  0.164E-04    1.97     109.3  T
     SCC iter.                  ...        0 min,  0.132 sec
     gradient                   ...        0 min,  0.005 sec
 * total energy  :   -37.6462563 Eh     change       -0.5139951E-04 Eh
   gradient norm :     0.0041110 Eh/α   predicted    -0.3011544E-04 ( -41.41%)
   displ. norm   :     0.3691386 α      lambda       -0.1491822E-03
   maximum displ.:     0.2622404 α      in ANC's #2, #4, #8, ...

........................................................................
.............................. CYCLE   35 ..............................
........................................................................
   1    -38.2805892 -0.382806E+02  0.682E-02    1.97       0.0  T
   2    -38.2805901 -0.944858E-06  0.423E-02    1.97       1.0  T
   3    -38.2805839  0.620529E-05  0.166E-02    1.97       1.1  T
   4    -38.2805906 -0.666666E-05  0.651E-03    1.97       2.8  T
   5    -38.2805910 -0.412172E-06  0.414E-03    1.97       4.3  T
   6    -38.2805910 -0.114005E-07  0.210E-03    1.97       8.5  T
   7    -38.2805911 -0.384577E-07  0.498E-04    1.97      36.0  T
   8    -38.2805911 -0.925226E-09  0.245E-04    1.97      73.4  T
     SCC iter.                  ...        0 min,  0.105 sec
     gradient                   ...        0 min,  0.007 sec
 * total energy  :   -37.6463772 Eh     change       -0.1209602E-03 Eh
   gradient norm :     0.0069251 Eh/α   predicted    -0.8475600E-04 ( -29.93%)
   displ. norm   :     0.3949476 α      lambda       -0.1736952E-03
   maximum displ.:     0.2873622 α      in ANC's #2, #4, #8, ...

........................................................................
.............................. CYCLE   36 ..............................
........................................................................
   1    -38.2800672 -0.382801E+02  0.959E-02    1.97       0.0  T
   2    -38.2800675 -0.304228E-06  0.760E-02    1.97       1.0  T
   3    -38.2800759 -0.838641E-05  0.427E-02    1.97       1.0  T
   4    -38.2800903 -0.144236E-04  0.117E-02    1.97       1.5  T
   5    -38.2800926 -0.228028E-05  0.713E-03    1.97       2.5  T
   6    -38.2800927 -0.130596E-06  0.221E-03    1.97       8.1  T
   7    -38.2800928 -0.377191E-07  0.719E-04    1.97      25.0  T
   8    -38.2800928 -0.620249E-08  0.354E-04    1.97      50.8  T
     SCC iter.                  ...        0 min,  0.103 sec
     gradient                   ...        0 min,  0.007 sec
 * total energy  :   -37.6464973 Eh     change       -0.1200546E-03 Eh
   gradient norm :     0.0079247 Eh/α   predicted    -0.1004005E-03 ( -16.37%)
   displ. norm   :     0.2763715 α      lambda       -0.1464754E-03
   maximum displ.:     0.1986833 α      in ANC's #2, #4, #8, ...

........................................................................
.............................. CYCLE   37 ..............................
........................................................................
   1    -38.2808772 -0.382809E+02  0.863E-02    1.97       0.0  T
   2    -38.2808749  0.228146E-05  0.756E-02    1.96       1.0  T
   3    -38.2809128 -0.379144E-04  0.413E-02    1.97       1.0  T
   4    -38.2809148 -0.193719E-05  0.978E-03    1.96       1.8  T
   5    -38.2809169 -0.215894E-05  0.547E-03    1.96       3.3  T
   6    -38.2809170 -0.708202E-07  0.184E-03    1.96       9.8  T
   7    -38.2809170 -0.165301E-07  0.748E-04    1.96      24.0  T
   8    -38.2809170 -0.160802E-08  0.483E-04    1.96      37.2  T
     SCC iter.                  ...        0 min,  0.136 sec
     gradient                   ...        0 min,  0.005 sec
 * total energy  :   -37.6466006 Eh     change       -0.1032540E-03 Eh
   gradient norm :     0.0065090 Eh/α   predicted    -0.7883398E-04 ( -23.65%)
   displ. norm   :     0.3458947 α      lambda       -0.1950862E-03
   maximum displ.:     0.2599998 α      in ANC's #2, #8, #4, ...

........................................................................
.............................. CYCLE   38 ..............................
........................................................................
   1    -38.2845282 -0.382845E+02  0.140E-01    1.96       0.0  T
   2    -38.2845248  0.338624E-05  0.118E-01    1.95       1.0  T
   3    -38.2845664 -0.416841E-04  0.669E-02    1.96       1.0  T
   4    -38.2845891 -0.226329E-04  0.126E-02    1.95       1.4  T
   5    -38.2845920 -0.292050E-05  0.677E-03    1.96       2.7  T
   6    -38.2845921 -0.102612E-06  0.214E-03    1.96       8.4  T
   7    -38.2845921 -0.178934E-07  0.129E-03    1.96      14.0  T
   8    -38.2845921 -0.657919E-08  0.611E-04    1.96      29.4  T
   9    -38.2845921 -0.321597E-08  0.237E-04    1.96      75.9  T
     SCC iter.                  ...        0 min,  0.205 sec
     gradient                   ...        0 min,  0.005 sec
 * total energy  :   -37.6466900 Eh     change       -0.8940814E-04 Eh
   gradient norm :     0.0097553 Eh/α   predicted    -0.1092148E-03 (  22.15%)
   displ. norm   :     0.5195288 α      lambda       -0.2532202E-03
   maximum displ.:     0.3647085 α      in ANC's #2, #4, #6, ...

........................................................................
.............................. CYCLE   39 ..............................
........................................................................
   1    -38.2767755 -0.382768E+02  0.125E-01    1.95       0.0  T
   2    -38.2767802 -0.468605E-05  0.742E-02    1.95       1.0  T
   3    -38.2767731  0.705791E-05  0.285E-02    1.94       1.0  T
   4    -38.2767819 -0.884329E-05  0.107E-02    1.95       1.7  T
   5    -38.2767818  0.121338E-06  0.740E-03    1.95       2.4  T
   6    -38.2767819 -0.101873E-06  0.195E-03    1.95       9.2  T
   7    -38.2767820 -0.854920E-07  0.655E-04    1.95      27.4  T
   8    -38.2767820 -0.463377E-08  0.355E-04    1.95      50.5  T
     SCC iter.                  ...        0 min,  0.071 sec
     gradient                   ...        0 min,  0.005 sec
 * total energy  :   -37.6467394 Eh     change       -0.4944741E-04 Eh
   gradient norm :     0.0210140 Eh/α   predicted    -0.1607846E-03 ( 225.16%)
   displ. norm   :     0.2121349 α      lambda       -0.5784273E-03
   maximum displ.:     0.0969752 α      in ANC's #3, #8, #5, ...

........................................................................
.............................. CYCLE   40 ..............................
........................................................................
   1    -38.2840926 -0.382841E+02  0.150E-01    1.95       0.0  T
   2    -38.2841017 -0.903138E-05  0.961E-02    1.95       1.0  T
   3    -38.2840534  0.483241E-04  0.682E-02    1.95       1.0  T
   4    -38.2841140 -0.606682E-04  0.160E-02    1.95       1.1  T
   5    -38.2841179 -0.385577E-05  0.697E-03    1.95       2.6  T
   6    -38.2841179  0.210702E-07  0.265E-03    1.95       6.8  T
   7    -38.2841179 -0.527602E-07  0.164E-03    1.95      11.0  T
   8    -38.2841179 -0.100371E-07  0.700E-04    1.95      25.7  T
   9    -38.2841179 -0.229156E-08  0.333E-04    1.95      53.9  T
     SCC iter.                  ...        0 min,  0.021 sec
     gradient                   ...        0 min,  0.004 sec
 * total energy  :   -37.6463946 Eh     change        0.3448012E-03 Eh
   gradient norm :     0.0480264 Eh/α   predicted    -0.3022291E-03 (-187.65%)
   displ. norm   :     0.1520426 α      lambda       -0.1023537E-02
   maximum displ.:     0.0893077 α      in ANC's #3, #8, #5, ...

........................................................................
.............................. CYCLE   41 ..............................
........................................................................
   1    -38.2846196 -0.382846E+02  0.140E-01    1.95       0.0  T
   2    -38.2846236 -0.395692E-05  0.924E-02    1.95       1.0  T
   3    -38.2845692  0.544128E-04  0.599E-02    1.95       1.0  T
   4    -38.2846306 -0.614106E-04  0.136E-02    1.95       1.3  T
   5    -38.2846328 -0.222791E-05  0.622E-03    1.95       2.9  T
   6    -38.2846329 -0.508767E-07  0.222E-03    1.95       8.1  T
   7    -38.2846329 -0.166820E-07  0.128E-03    1.95      14.0  T
   8    -38.2846329 -0.505979E-08  0.474E-04    1.95      37.9  T
   9    -38.2846329 -0.279870E-08  0.224E-04    1.95      80.2  T
     SCC iter.                  ...        0 min,  0.017 sec
     gradient                   ...        0 min,  0.004 sec
 * total energy  :   -37.6469231 Eh     change       -0.5285124E-03 Eh
   gradient norm :     0.0029724 Eh/α   predicted    -0.5236018E-03 (  -0.93%)
   displ. norm   :     0.2865969 α      lambda       -0.1138494E-03
   maximum displ.:     0.2098807 α      in ANC's #2, #4, #1, ...

........................................................................
.............................. CYCLE   42 ..............................
........................................................................
   1    -38.2805835 -0.382806E+02  0.625E-02    1.95       0.0  T
   2    -38.2805842 -0.725964E-06  0.397E-02    1.95       1.0  T
   3    -38.2805753  0.893154E-05  0.193E-02    1.95       1.0  T
   4    -38.2805850 -0.969858E-05  0.603E-03    1.95       3.0  T
   5    -38.2805853 -0.257847E-06  0.366E-03    1.95       4.9  T
   6    -38.2805852  0.161005E-07  0.106E-03    1.95      16.9  T
   7    -38.2805853 -0.192442E-07  0.301E-04    1.95      59.7  T
   8    -38.2805853 -0.433928E-09  0.148E-04    1.95     121.0  T
     SCC iter.                  ...        0 min,  0.015 sec
     gradient                   ...        0 min,  0.004 sec
 * total energy  :   -37.6469878 Eh     change       -0.6471910E-04 Eh
   gradient norm :     0.0082627 Eh/α   predicted    -0.6159804E-04 (  -4.82%)
   displ. norm   :     0.1687547 α      lambda       -0.7961248E-04
   maximum displ.:     0.1155199 α      in ANC's #2, #1, #4, ...
 * RMSD in coord.:     0.7244843 α      energy gain  -0.7358356E-02 Eh

generating ANC from model Hessian ...
Using Lindh-Hessian (1995)
 Shifting diagonal of input Hessian by    9.7167100583851647E-003
 Lowest  eigenvalues of input Hessian
    0.000000    0.000000    0.000000    0.000000    0.000000    0.000000
    0.010000    0.010181    0.010821    0.011114    0.011351    0.011680
    0.011961    0.014354    0.016580    0.016975    0.017579    0.017674
 Highest eigenvalues
    1.681110    1.730392    1.735895    1.736462    1.739691    4.411397


........................................................................
.............................. CYCLE   43 ..............................
........................................................................
   1    -38.2811017 -0.382811E+02  0.386E-02    1.95       0.0  T
   2    -38.2811020 -0.354357E-06  0.243E-02    1.95       1.0  T
   3    -38.2810999  0.213128E-05  0.933E-03    1.95       1.9  T
   4    -38.2811022 -0.232529E-05  0.351E-03    1.95       5.1  T
   5    -38.2811023 -0.898175E-07  0.198E-03    1.95       9.1  T
   6    -38.2811023 -0.103007E-07  0.707E-04    1.95      25.4  T
   7    -38.2811023 -0.321837E-08  0.280E-04    1.95      64.2  T
     SCC iter.                  ...        0 min,  0.014 sec
     gradient                   ...        0 min,  0.004 sec
 * total energy  :   -37.6470575 Eh     change       -0.6966230E-04 Eh
   gradient norm :     0.0090545 Eh/α   predicted     0.0000000E+00 (-100.00%)
   displ. norm   :     0.0577359 α      lambda        0.9027601E-04
   maximum displ.:     0.0310252 α      in ANC's #1, #4, #3, ...

........................................................................
.............................. CYCLE   44 ..............................
........................................................................
   1    -38.2837523 -0.382838E+02  0.240E-02    1.95       0.0  T
   2    -38.2837524 -0.115578E-06  0.122E-02    1.95       1.5  T
   3    -38.2837523  0.154800E-06  0.137E-02    1.95       1.3  T
   4    -38.2837544 -0.207725E-05  0.461E-03    1.95       3.9  T
   5    -38.2837544 -0.191067E-07  0.364E-03    1.95       4.9  T
   6    -38.2837544 -0.419522E-07  0.988E-04    1.95      18.2  T
   7    -38.2837544 -0.146524E-07  0.218E-04    1.95      82.2  T
     SCC iter.                  ...        0 min,  0.014 sec
     gradient                   ...        0 min,  0.004 sec
 * total energy  :   -37.6471270 Eh     change       -0.6952769E-04 Eh
   gradient norm :     0.0013845 Eh/α   predicted    -0.5112638E-04 ( -26.47%)
   displ. norm   :     0.1417722 α      lambda       -0.5989607E-04
   maximum displ.:     0.0809973 α      in ANC's #1, #3, #4, ...

........................................................................
.............................. CYCLE   45 ..............................
........................................................................
   1    -38.2859838 -0.382860E+02  0.491E-02    1.95       0.0  T
   2    -38.2859844 -0.636585E-06  0.314E-02    1.95       1.0  T
   3    -38.2859771  0.728677E-05  0.221E-02    1.95       1.0  T
   4    -38.2859858 -0.866836E-05  0.430E-03    1.95       4.2  T
   5    -38.2859860 -0.234852E-06  0.296E-03    1.95       6.1  T
   6    -38.2859861 -0.310518E-07  0.962E-04    1.95      18.7  T
   7    -38.2859861 -0.899959E-08  0.350E-04    1.95      51.3  T
     SCC iter.                  ...        0 min,  0.013 sec
     gradient                   ...        0 min,  0.004 sec
 * total energy  :   -37.6471860 Eh     change       -0.5901242E-04 Eh
   gradient norm :     0.0050724 Eh/α   predicted    -0.3023872E-04 ( -48.76%)
   displ. norm   :     0.1063129 α      lambda       -0.5032909E-04
   maximum displ.:     0.0644857 α      in ANC's #1, #3, #4, ...

........................................................................
.............................. CYCLE   46 ..............................
........................................................................
   1    -38.2856593 -0.382857E+02  0.304E-02    1.95       0.0  T
   2    -38.2856596 -0.219401E-06  0.193E-02    1.95       1.0  T
   3    -38.2856573  0.225842E-05  0.112E-02    1.95       1.6  T
   4    -38.2856598 -0.251182E-05  0.247E-03    1.95       7.3  T
   5    -38.2856599 -0.673847E-07  0.181E-03    1.95       9.9  T
   6    -38.2856599 -0.155830E-07  0.477E-04    1.95      37.7  T
   7    -38.2856599 -0.166676E-08  0.169E-04    1.95     106.1  T
     SCC iter.                  ...        0 min,  0.013 sec
     gradient                   ...        0 min,  0.004 sec
 * total energy  :   -37.6472311 Eh     change       -0.4501580E-04 Eh
   gradient norm :     0.0036106 Eh/α   predicted    -0.2545200E-04 ( -43.46%)
   displ. norm   :     0.1996832 α      lambda       -0.8758269E-04
   maximum displ.:     0.1232674 α      in ANC's #1, #3, #4, ...

........................................................................
.............................. CYCLE   47 ..............................
........................................................................
   1    -38.2839430 -0.382839E+02  0.667E-02    1.95       0.0  T
   2    -38.2839438 -0.785243E-06  0.440E-02    1.95       1.0  T
   3    -38.2839407  0.307281E-05  0.116E-02    1.95       1.6  T
   4    -38.2839441 -0.340181E-05  0.501E-03    1.95       3.6  T
   5    -38.2839442 -0.498139E-07  0.294E-03    1.95       6.1  T
   6    -38.2839442 -0.216702E-07  0.123E-03    1.95      14.6  T
   7    -38.2839442 -0.337494E-07  0.389E-04    1.95      46.2  T
   8    -38.2839442 -0.808726E-09  0.237E-04    1.95      75.7  T
     SCC iter.                  ...        0 min,  0.016 sec
     gradient                   ...        0 min,  0.004 sec
 * total energy  :   -37.6472990 Eh     change       -0.6794316E-04 Eh
   gradient norm :     0.0015438 Eh/α   predicted    -0.4554068E-04 ( -32.97%)
   displ. norm   :     0.2820736 α      lambda       -0.5632343E-04
   maximum displ.:     0.1869623 α      in ANC's #1, #3, #4, ...

........................................................................
.............................. CYCLE   48 ..............................
........................................................................
   1    -38.2817771 -0.382818E+02  0.898E-02    1.94       0.0  T
   2    -38.2817780 -0.879315E-06  0.611E-02    1.95       1.0  T
   3    -38.2817558  0.221660E-04  0.292E-02    1.95       1.0  T
   4    -38.2817793 -0.234362E-04  0.729E-03    1.95       2.5  T
   5    -38.2817798 -0.523127E-06  0.411E-03    1.95       4.4  T
   6    -38.2817798 -0.281472E-08  0.130E-03    1.95      13.8  T
   7    -38.2817798 -0.232841E-07  0.362E-04    1.95      49.7  T
   8    -38.2817798 -0.434468E-09  0.231E-04    1.95      77.6  T
     SCC iter.                  ...        0 min,  0.016 sec
     gradient                   ...        0 min,  0.004 sec
 * total energy  :   -37.6473439 Eh     change       -0.4492196E-04 Eh
   gradient norm :     0.0059512 Eh/α   predicted    -0.2916550E-04 ( -35.08%)
   displ. norm   :     0.0443836 α      lambda       -0.3729063E-04
   maximum displ.:     0.0373051 α      in ANC's #1, #8, #16, ...

........................................................................
.............................. CYCLE   49 ..............................
........................................................................
   1    -38.2825580 -0.382826E+02  0.259E-02    1.95       0.0  T
   2    -38.2825579  0.574747E-07  0.210E-02    1.94       1.0  T
   3    -38.2825570  0.925879E-06  0.120E-02    1.95       1.5  T
   4    -38.2825591 -0.207111E-05  0.186E-03    1.95       9.7  T
   5    -38.2825591 -0.385428E-07  0.982E-04    1.95      18.3  T
   6    -38.2825591 -0.319972E-08  0.343E-04    1.95      52.3  T
     SCC iter.                  ...        0 min,  0.011 sec
     gradient                   ...        0 min,  0.004 sec
 * total energy  :   -37.6473768 Eh     change       -0.3285916E-04 Eh
   gradient norm :     0.0043335 Eh/α   predicted    -0.1868813E-04 ( -43.13%)
   displ. norm   :     0.1337121 α      lambda       -0.9416177E-04
   maximum displ.:     0.1067611 α      in ANC's #1, #8, #2, ...

........................................................................
.............................. CYCLE   50 ..............................
........................................................................
   1    -38.2850106 -0.382850E+02  0.775E-02    1.94       0.0  T
   2    -38.2850093  0.124579E-05  0.673E-02    1.94       1.0  T
   3    -38.2850239 -0.145400E-04  0.378E-02    1.94       1.0  T
   4    -38.2850296 -0.570688E-05  0.605E-03    1.94       3.0  T
   5    -38.2850302 -0.609042E-06  0.346E-03    1.94       5.2  T
   6    -38.2850302 -0.352539E-07  0.986E-04    1.94      18.2  T
   7    -38.2850302 -0.481361E-08  0.562E-04    1.94      32.0  T
     SCC iter.                  ...        0 min,  0.016 sec
     gradient                   ...        0 min,  0.004 sec
 * total energy  :   -37.6474405 Eh     change       -0.6369316E-04 Eh
   gradient norm :     0.0012348 Eh/α   predicted    -0.4792418E-04 ( -24.76%)
   displ. norm   :     0.2092502 α      lambda       -0.4638556E-04
   maximum displ.:     0.1712429 α      in ANC's #1, #8, #7, ...

........................................................................
.............................. CYCLE   51 ..............................
........................................................................
   1    -38.2858731 -0.382859E+02  0.963E-02    1.94       0.0  T
   2    -38.2858718  0.130128E-05  0.835E-02    1.93       1.0  T
   3    -38.2858862 -0.144083E-04  0.462E-02    1.94       1.0  T
   4    -38.2858973 -0.110953E-04  0.754E-03    1.93       2.4  T
   5    -38.2858980 -0.751778E-06  0.471E-03    1.94       3.8  T
   6    -38.2858980 -0.395783E-07  0.137E-03    1.94      13.1  T
   7    -38.2858981 -0.183280E-07  0.673E-04    1.94      26.7  T
   8    -38.2858981 -0.235105E-08  0.357E-04    1.94      50.3  T
     SCC iter.                  ...        0 min,  0.015 sec
     gradient                   ...        0 min,  0.004 sec
 * total energy  :   -37.6474870 Eh     change       -0.4655310E-04 Eh
   gradient norm :     0.0034261 Eh/α   predicted    -0.2364579E-04 ( -49.21%)
   displ. norm   :     0.0919949 α      lambda       -0.3098233E-04
   maximum displ.:     0.0734530 α      in ANC's #1, #4, #2, ...

........................................................................
.............................. CYCLE   52 ..............................
........................................................................
   1    -38.2856432 -0.382856E+02  0.290E-02    1.93       0.0  T
   2    -38.2856432  0.427882E-07  0.243E-02    1.93       1.0  T
   3    -38.2856446 -0.146607E-05  0.132E-02    1.93       1.4  T
   4    -38.2856457 -0.106826E-05  0.239E-03    1.93       7.5  T
   5    -38.2856458 -0.106330E-06  0.136E-03    1.93      13.2  T
   6    -38.2856458 -0.299962E-08  0.420E-04    1.93      42.7  T
   7    -38.2856458 -0.168941E-08  0.185E-04    1.93      97.2  T
     SCC iter.                  ...        0 min,  0.014 sec
     gradient                   ...        0 min,  0.004 sec
 * total energy  :   -37.6475137 Eh     change       -0.2663244E-04 Eh
   gradient norm :     0.0019926 Eh/α   predicted    -0.1562262E-04 ( -41.34%)
   displ. norm   :     0.1204140 α      lambda       -0.2685694E-04
   maximum displ.:     0.0954206 α      in ANC's #1, #4, #2, ...

........................................................................
.............................. CYCLE   53 ..............................
........................................................................
   1    -38.2847189 -0.382847E+02  0.253E-02    1.93       0.0  T
   2    -38.2847194 -0.514034E-06  0.185E-02    1.93       1.0  T
   3    -38.2847188  0.656492E-06  0.999E-03    1.93       1.8  T
   4    -38.2847201 -0.130251E-05  0.362E-03    1.93       5.0  T
   5    -38.2847203 -0.215061E-06  0.173E-03    1.93      10.4  T
   6    -38.2847203 -0.235767E-08  0.455E-04    1.93      39.5  T
   7    -38.2847203 -0.341814E-08  0.219E-04    1.93      82.1  T
     SCC iter.                  ...        0 min,  0.013 sec
     gradient                   ...        0 min,  0.004 sec
 * total energy  :   -37.6475440 Eh     change       -0.3033519E-04 Eh
   gradient norm :     0.0014772 Eh/α   predicted    -0.1351729E-04 ( -55.44%)
   displ. norm   :     0.0797271 α      lambda       -0.1629692E-04
   maximum displ.:     0.0678898 α      in ANC's #1, #2, #11, ...

........................................................................
.............................. CYCLE   54 ..............................
........................................................................
   1    -38.2846965 -0.382847E+02  0.169E-02    1.93       0.0  T
   2    -38.2846968 -0.214811E-06  0.987E-03    1.93       1.8  T
   3    -38.2846964  0.338425E-06  0.637E-03    1.93       2.8  T
   4    -38.2846969 -0.473901E-06  0.115E-03    1.93      15.7  T
   5    -38.2846969 -0.135435E-07  0.980E-04    1.93      18.3  T
   6    -38.2846969 -0.685277E-08  0.252E-04    1.93      71.3  T
     SCC iter.                  ...        0 min,  0.011 sec
     gradient                   ...        0 min,  0.004 sec
 * total energy  :   -37.6475658 Eh     change       -0.2185040E-04 Eh
   gradient norm :     0.0014675 Eh/α   predicted    -0.8171866E-05 ( -62.60%)
   displ. norm   :     0.0890736 α      lambda       -0.1926395E-04
   maximum displ.:     0.0725183 α      in ANC's #1, #2, #3, ...

........................................................................
.............................. CYCLE   55 ..............................
........................................................................
   1    -38.2850216 -0.382850E+02  0.155E-02    1.93       0.0  T
   2    -38.2850218 -0.135862E-06  0.816E-03    1.93       2.2  T
   3    -38.2850214  0.333873E-06  0.845E-03    1.93       2.1  T
   4    -38.2850222 -0.828772E-06  0.187E-03    1.93       9.6  T
   5    -38.2850223 -0.325978E-07  0.105E-03    1.93      17.1  T
   6    -38.2850223 -0.520792E-08  0.202E-04    1.93      88.8  T
   7    -38.2850223 -0.833772E-09  0.834E-05    1.93     215.4  T
     SCC iter.                  ...        0 min,  0.050 sec
     gradient                   ...        0 min,  0.004 sec
 * total energy  :   -37.6475913 Eh     change       -0.2542727E-04 Eh
   gradient norm :     0.0007880 Eh/α   predicted    -0.9668299E-05 ( -61.98%)
   displ. norm   :     0.1111412 α      lambda       -0.2070580E-04
   maximum displ.:     0.0900184 α      in ANC's #1, #2, #4, ...

........................................................................
.............................. CYCLE   56 ..............................
........................................................................
   1    -38.2852105 -0.382852E+02  0.194E-02    1.93       0.0  T
   2    -38.2852105  0.141223E-07  0.110E-02    1.93       1.6  T
   3    -38.2852111 -0.527082E-06  0.106E-02    1.93       1.7  T
   4    -38.2852121 -0.105499E-05  0.234E-03    1.93       7.7  T
   5    -38.2852121 -0.256474E-07  0.148E-03    1.93      12.2  T
   6    -38.2852121 -0.118361E-07  0.254E-04    1.93      70.8  T
   7    -38.2852121 -0.803709E-09  0.121E-04    1.93     148.9  T
     SCC iter.                  ...        0 min,  0.116 sec
     gradient                   ...        0 min,  0.005 sec
 * total energy  :   -37.6476183 Eh     change       -0.2699810E-04 Eh
   gradient norm :     0.0008612 Eh/α   predicted    -0.1041310E-04 ( -61.43%)
   displ. norm   :     0.1101563 α      lambda       -0.1737292E-04
   maximum displ.:     0.0908075 α      in ANC's #1, #2, #4, ...

........................................................................
.............................. CYCLE   57 ..............................
........................................................................
   1    -38.2852302 -0.382852E+02  0.185E-02    1.94       0.0  T
   2    -38.2852302 -0.537661E-07  0.999E-03    1.94       1.8  T
   3    -38.2852295  0.766012E-06  0.107E-02    1.94       1.7  T
   4    -38.2852308 -0.135958E-05  0.191E-03    1.94       9.4  T
   5    -38.2852309 -0.224184E-07  0.119E-03    1.94      15.1  T
   6    -38.2852309 -0.737109E-08  0.171E-04    1.94     104.9  T
   7    -38.2852309 -0.358234E-09  0.788E-05    1.94     228.0  T
     SCC iter.                  ...        0 min,  0.121 sec
     gradient                   ...        0 min,  0.005 sec
 * total energy  :   -37.6476410 Eh     change       -0.2273830E-04 Eh
   gradient norm :     0.0005904 Eh/α   predicted    -0.8737338E-05 ( -61.57%)
   displ. norm   :     0.0887383 α      lambda       -0.1240086E-04
   maximum displ.:     0.0764554 α      in ANC's #1, #2, #4, ...

........................................................................
.............................. CYCLE   58 ..............................
........................................................................
   1    -38.2850344 -0.382850E+02  0.219E-02    1.93       0.0  T
   2    -38.2850345 -0.534388E-07  0.125E-02    1.94       1.4  T
   3    -38.2850330  0.145020E-05  0.121E-02    1.93       1.5  T
   4    -38.2850348 -0.177472E-05  0.190E-03    1.93       9.4  T
   5    -38.2850348 -0.184127E-07  0.107E-03    1.94      16.7  T
   6    -38.2850348 -0.686131E-08  0.195E-04    1.93      91.9  T
   7    -38.2850348 -0.637840E-09  0.738E-05    1.94     243.2  T
     SCC iter.                  ...        0 min,  0.132 sec
     gradient                   ...        0 min,  0.005 sec
 * total energy  :   -37.6476575 Eh     change       -0.1645571E-04 Eh
   gradient norm :     0.0006477 Eh/α   predicted    -0.6223866E-05 ( -62.18%)
   displ. norm   :     0.0673555 α      lambda       -0.8515916E-05
   maximum displ.:     0.0604927 α      in ANC's #1, #2, #5, ...

........................................................................
.............................. CYCLE   59 ..............................
........................................................................
   1    -38.2850685 -0.382851E+02  0.178E-02    1.93       0.0  T
   2    -38.2850685 -0.303601E-07  0.121E-02    1.93       1.5  T
   3    -38.2850675  0.102662E-05  0.612E-03    1.94       2.9  T
   4    -38.2850686 -0.109820E-05  0.143E-03    1.93      12.5  T
   5    -38.2850686 -0.184315E-07  0.667E-04    1.93      26.9  T
   6    -38.2850686 -0.899007E-09  0.186E-04    1.93      96.5  T
     SCC iter.                  ...        0 min,  0.103 sec
     gradient                   ...        0 min,  0.004 sec
 * total energy  :   -37.6476693 Eh     change       -0.1180452E-04 Eh
   gradient norm :     0.0003868 Eh/α   predicted    -0.4269349E-05 ( -63.83%)
   displ. norm   :     0.0534584 α      lambda       -0.6723544E-05
   maximum displ.:     0.0491196 α      in ANC's #1, #2, #3, ...

........................................................................
.............................. CYCLE   60 ..............................
........................................................................
   1    -38.2849827 -0.382850E+02  0.184E-02    1.93       0.0  T
   2    -38.2849827  0.500179E-09  0.138E-02    1.93       1.3  T
   3    -38.2849813  0.138215E-05  0.815E-03    1.93       2.2  T
   4    -38.2849830 -0.167796E-05  0.126E-03    1.93      14.2  T
   5    -38.2849830 -0.165312E-07  0.687E-04    1.93      26.1  T
   6    -38.2849830 -0.764878E-09  0.156E-04    1.93     115.4  T
     SCC iter.                  ...        0 min,  0.140 sec
     gradient                   ...        0 min,  0.076 sec
 * total energy  :   -37.6476789 Eh     change       -0.9602389E-05 Eh
   gradient norm :     0.0004013 Eh/α   predicted    -0.3368291E-05 ( -64.92%)
   displ. norm   :     0.0515588 α      lambda       -0.6628999E-05
   maximum displ.:     0.0468278 α      in ANC's #1, #3, #4, ...

........................................................................
.............................. CYCLE   61 ..............................
........................................................................
   1    -38.2850537 -0.382851E+02  0.183E-02    1.93       0.0  T
   2    -38.2850537  0.148575E-07  0.152E-02    1.93       1.2  T
   3    -38.2850537  0.115678E-07  0.831E-03    1.93       2.2  T
   4    -38.2850544 -0.678709E-06  0.142E-03    1.93      12.6  T
   5    -38.2850544 -0.320190E-07  0.811E-04    1.93      22.1  T
   6    -38.2850544 -0.100120E-08  0.231E-04    1.93      77.7  T
     SCC iter.                  ...        0 min,  0.124 sec
     gradient                   ...        0 min,  0.009 sec
 * total energy  :   -37.6476884 Eh     change       -0.9488965E-05 Eh
   gradient norm :     0.0006072 Eh/α   predicted    -0.3319123E-05 ( -65.02%)
   displ. norm   :     0.0564885 α      lambda       -0.7096965E-05
   maximum displ.:     0.0506386 α      in ANC's #1, #3, #4, ...

........................................................................
.............................. CYCLE   62 ..............................
........................................................................
   1    -38.2851292 -0.382851E+02  0.207E-02    1.93       0.0  T
   2    -38.2851292  0.190845E-07  0.174E-02    1.93       1.0  T
   3    -38.2851294 -0.211772E-06  0.950E-03    1.93       1.9  T
   4    -38.2851302 -0.758861E-06  0.157E-03    1.93      11.4  T
   5    -38.2851302 -0.457178E-07  0.875E-04    1.93      20.5  T
   6    -38.2851302 -0.139820E-08  0.218E-04    1.93      82.3  T
     SCC iter.                  ...        0 min,  0.130 sec
     gradient                   ...        0 min,  0.013 sec
 * total energy  :   -37.6476984 Eh     change       -0.1003121E-04 Eh
   gradient norm :     0.0003963 Eh/α   predicted    -0.3557834E-05 ( -64.53%)
   displ. norm   :     0.0597522 α      lambda       -0.6957626E-05
   maximum displ.:     0.0541065 α      in ANC's #1, #4, #3, ...

........................................................................
.............................. CYCLE   63 ..............................
........................................................................
   1    -38.2852305 -0.382852E+02  0.198E-02    1.93       0.0  T
   2    -38.2852305 -0.222062E-08  0.170E-02    1.93       1.1  T
   3    -38.2852309 -0.405107E-06  0.928E-03    1.93       1.9  T
   4    -38.2852314 -0.508714E-06  0.175E-03    1.93      10.3  T
   5    -38.2852315 -0.576279E-07  0.995E-04    1.93      18.0  T
   6    -38.2852315 -0.204169E-08  0.239E-04    1.93      75.2  T
     SCC iter.                  ...        0 min,  0.174 sec
     gradient                   ...        0 min,  0.012 sec
 * total energy  :   -37.6477081 Eh     change       -0.9727447E-05 Eh
   gradient norm :     0.0003588 Eh/α   predicted    -0.3488884E-05 ( -64.13%)
   displ. norm   :     0.0548759 α      lambda       -0.5832334E-05
   maximum displ.:     0.0509625 α      in ANC's #1, #4, #3, ...

........................................................................
.............................. CYCLE   64 ..............................
........................................................................
   1    -38.2853520 -0.382854E+02  0.161E-02    1.93       0.0  T
   2    -38.2853520 -0.192068E-07  0.130E-02    1.93       1.4  T
   3    -38.2853517  0.325390E-06  0.702E-03    1.93       2.6  T
   4    -38.2853524 -0.723116E-06  0.131E-03    1.93      13.7  T
   5    -38.2853524 -0.309258E-07  0.710E-04    1.93      25.3  T
   6    -38.2853524 -0.122449E-08  0.151E-04    1.93     118.9  T
     SCC iter.                  ...        0 min,  0.078 sec
     gradient                   ...        0 min,  0.023 sec
 * total energy  :   -37.6477163 Eh     change       -0.8144078E-05 Eh
   gradient norm :     0.0002122 Eh/α   predicted    -0.2921167E-05 ( -64.13%)
   displ. norm   :     0.0455900 α      lambda       -0.4536275E-05
   maximum displ.:     0.0436724 α      in ANC's #1, #4, #3, ...

........................................................................
.............................. CYCLE   65 ..............................
........................................................................
   1    -38.2854450 -0.382854E+02  0.121E-02    1.93       0.0  T
   2    -38.2854450 -0.202848E-07  0.952E-03    1.93       1.9  T
   3    -38.2854447  0.346505E-06  0.502E-03    1.93       3.6  T
   4    -38.2854452 -0.488695E-06  0.126E-03    1.93      14.3  T
   5    -38.2854452 -0.230748E-07  0.683E-04    1.93      26.3  T
   6    -38.2854452 -0.130337E-08  0.136E-04    1.93     131.9  T
     SCC iter.                  ...        0 min,  0.079 sec
     gradient                   ...        0 min,  0.018 sec
 * total energy  :   -37.6477227 Eh     change       -0.6406804E-05 Eh
   gradient norm :     0.0002441 Eh/α   predicted    -0.2271269E-05 ( -64.55%)
   displ. norm   :     0.0359897 α      lambda       -0.3473858E-05
   maximum displ.:     0.0351527 α      in ANC's #1, #2, #3, ...

........................................................................
.............................. CYCLE   66 ..............................
........................................................................
   1    -38.2854847 -0.382855E+02  0.742E-03    1.93       0.0  T
   2    -38.2854847 -0.941229E-08  0.500E-03    1.93       3.6  T
   3    -38.2854846  0.954749E-07  0.191E-03    1.93       9.4  T
   4    -38.2854847 -0.996477E-07  0.668E-04    1.93      26.9  T
   5    -38.2854847 -0.510065E-08  0.315E-04    1.93      57.0  T
     SCC iter.                  ...        0 min,  0.086 sec
     gradient                   ...        0 min,  0.013 sec
 * total energy  :   -37.6477277 Eh     change       -0.4994557E-05 Eh
   gradient norm :     0.0003315 Eh/α   predicted    -0.1742092E-05 ( -65.12%)
   displ. norm   :     0.0302572 α      lambda       -0.2908178E-05
   maximum displ.:     0.0296797 α      in ANC's #1, #2, #57, ...

   *** GEOMETRY OPTIMIZATION CONVERGED AFTER 66 ITERATIONS ***

------------------------------------------------------------------------
 total energy gain   :        -0.3750817 Eh     -235.3673 kcal/mol
 total RMSD          :         1.8708802 a0        0.9900 Å
 total power (kW/mol):       -14.9208618 (step)  -86.6177 (real)
------------------------------------------------------------------------

 ANCopt (total)                0 d,  0 h,  0 min, 11.369 sec
 optimizer setup                ...        0 min,  0.001 sec (  0.005%)
 model hessian                  ...        0 min,  0.050 sec (  0.437%)
 ANC generation                 ...        0 min,  0.009 sec (  0.081%)
 coordinate transformation      ...        0 min,  0.001 sec (  0.007%)
 single point calculation       ...        0 min, 11.189 sec ( 98.418%)
 optimization log               ...        0 min,  0.006 sec (  0.055%)
 hessian update                 ...        0 min,  0.052 sec (  0.462%)
 rational function              ...        0 min,  0.057 sec (  0.499%)

================
 final structure:
================
31
 xtb: 6.5.1 (b24c23e)
Zr          -1.60879644172842       -0.01412159073925        0.57949833833547
C           -2.21424827350525        1.37291085861503       -1.13837066644192
C            0.01338342639406       -1.86156511344968        0.58559000621362
C            0.07543241969530       -1.27081958592831       -0.69838237706477
C           -1.16005334490101       -1.51677583243772       -1.34985584736536
C           -1.98879790653816       -2.23403129094022       -0.46080162974334
C           -1.27476884598293       -2.42865034975572        0.75024096175244
H            0.85184030749485       -1.99315837266323        1.25923064150420
H            0.96898501144958       -0.86953945919548       -1.16639682825557
H           -1.37051844291839       -1.32780145015821       -2.39567219396117
H           -2.93273626428572       -2.69833142488568       -0.71921665093721
H           -1.58186908122562       -3.06930893324329        1.57134720458838
C           -0.49988738718739        0.19303479109879        2.75871386133133
C           -1.76812220117284        0.81007824691541        2.88017722204933
C           -1.77686556323346        1.95795555669242        2.04507267244819
C           -0.51537923495692        2.04574615177201        1.41134024976969
C            0.27195139168714        0.95325832445614        1.84427616318966
H           -0.13339646856954       -0.61222662883368        3.38589845968057
H           -2.51302514943576        0.56266815503588        3.62817295101510
H           -2.55211931044843        2.71452577083637        2.01822311450013
H           -0.15926623752447        2.88510131137158        0.82418689018415
H            1.32953419145209        0.82066851938962        1.64289280228034
H           -1.09731283210273        1.28298768656227       -1.17135113672238
H           -2.57423712061719        1.19900164251581       -2.15225947304962
H           -2.46996775820293        2.39970184084116       -0.86109075685153
C           -3.90202777446466       -0.22454912228237        0.98778057141836
C           -3.96270258193596        0.33456676902564       -0.29904492327018
H           -4.48221721138952        1.28067724629978       -0.41131545744438
H           -4.08728351336509       -0.33924954717204       -1.14526922915749
H           -4.28460436084877        0.37728965991824        1.80966017128022
H           -3.99737630165498       -1.30559926966036        1.10849139872730

 Bond Distances (Angstroems)
 ---------------------------
Zr1-C2=2.2894        Zr1-C3=2.4586        Zr1-C4=2.4595        Zr1-C5=2.4863        Zr1-C6=2.4809        Zr1-C7=2.4435        
Zr1-C13=2.4539       Zr1-C14=2.4490       Zr1-C15=2.4628       Zr1-C16=2.4760       Zr1-C17=2.4643       Zr1-H23=2.2382       
Zr1-C26=2.3388       Zr1-C27=2.5366       C2-Zr1=2.2894        C2-H23=1.1210        C2-H24=1.0899        C2-H25=1.0939        
C3-Zr1=2.4586        C3-C4=1.4147         C3-C7=1.4171         C3-H8=1.0836         C4-Zr1=2.4595        C4-C3=1.4147         
C4-C5=1.4182         C4-H9=1.0856         C5-Zr1=2.4863        C5-C4=1.4182         C5-C6=1.4113         C5-H10=1.0834        
C6-Zr1=2.4809        C6-C5=1.4113         C6-C7=1.4193         C6-H11=1.0832        C7-Zr1=2.4435        C7-C3=1.4171         
C7-C6=1.4193         C7-H12=1.0858        H8-C3=1.0836         H9-C4=1.0856         H10-C5=1.0834        H11-C6=1.0832        
H12-C7=1.0858        C13-Zr1=2.4539       C13-C14=1.4156       C13-C17=1.4177       C13-H18=1.0845       C14-Zr1=2.4490       
C14-C13=1.4156       C14-C15=1.4195       C14-H19=1.0842       C15-Zr1=2.4628       C15-C14=1.4195       C15-C16=1.4145       
C15-H20=1.0836       C16-Zr1=2.4760       C16-C15=1.4145       C16-C17=1.4145       C16-H21=1.0845       C17-Zr1=2.4643       
C17-C13=1.4177       C17-C16=1.4145       C17-H22=1.0847       H18-C13=1.0845       H19-C14=1.0842       H20-C15=1.0836       
H21-C16=1.0845       H22-C17=1.0847       H23-Zr1=2.2382       H23-C2=1.1210        H24-C2=1.0899        H25-C2=1.0939        
C26-Zr1=2.3388       C26-C27=1.4044       C26-H30=1.0881       C26-H31=1.0919       C27-Zr1=2.5366       C27-C26=1.4044       
C27-H28=1.0852       C27-H29=1.0889       H28-C27=1.0852       H29-C27=1.0889       H30-C26=1.0881       H31-C26=1.0919       
 C  H  Rav=1.0884 sigma=0.0087  Rmin=1.0832  Rmax=1.1210    17
 C  C  Rav=1.4152 sigma=0.0041  Rmin=1.4044  Rmax=1.4195    11
 Zr H  Rav=2.2382 sigma=0.0000  Rmin=2.2382  Rmax=2.2382     1
 Zr C  Rav=2.4461 sigma=0.0614  Rmin=2.2894  Rmax=2.5366    13

 selected bond angles (degree)
 --------------------
C3-Zr1-C2=129.17               C4-Zr1-C2= 95.79               C4-Zr1-C3= 33.44               C5-Zr1-C2= 80.31               
C5-Zr1-C3= 55.16               C5-Zr1-C4= 33.32               C6-Zr1-C2=100.78               C6-Zr1-C3= 55.23               
C6-Zr1-C4= 55.24               C6-Zr1-C5= 33.01               C7-Zr1-C2=133.41               C7-Zr1-C3= 33.60               
C7-Zr1-C4= 55.79               C7-Zr1-C5= 55.41               C7-Zr1-C6= 33.49               C13-Zr1-C2=137.28              
C13-Zr1-C3= 76.29              C13-Zr1-C4=101.25              C13-Zr1-C5=131.19              C13-Zr1-C6=121.14              
C13-Zr1-C7= 87.68              C14-Zr1-C2=118.93              C14-Zr1-C3=107.07              C14-Zr1-C4=134.80              
C14-Zr1-C5=160.75              C14-Zr1-C6=133.24              C14-Zr1-C7=106.01              C14-Zr1-C13= 33.56             
C15-Zr1-C2= 86.75              C15-Zr1-C3=130.19              C15-Zr1-C4=139.92              C15-Zr1-C5=163.35              
C15-Zr1-C6=162.87              C15-Zr1-C7=139.38              C15-Zr1-C13= 55.58             C15-Zr1-C14= 33.60             
C16-Zr1-C2= 82.23              C16-Zr1-C3=109.45              C16-Zr1-C4=107.29              C16-Zr1-C5=133.14              
C16-Zr1-C6=162.35              C16-Zr1-C7=137.58              C16-Zr1-C13= 55.38             C16-Zr1-C14= 55.47             
C16-Zr1-C15= 33.28             C17-Zr1-C2=110.43              C17-Zr1-C3= 77.89              C17-Zr1-C4= 86.83              
C17-Zr1-C5=119.85              C17-Zr1-C6=133.11              C17-Zr1-C7=104.34              C17-Zr1-C13= 33.51             
C17-Zr1-C14= 55.62             C17-Zr1-C15= 55.41             C17-Zr1-C16= 33.27             H23-Zr1-C2= 28.64              
H23-Zr1-C3=106.66              H23-Zr1-C4= 74.53              H23-Zr1-C5= 72.66              H23-Zr1-C6=103.04              
H23-Zr1-C7=126.59              H23-Zr1-C13=122.85             H23-Zr1-C14=123.69             H23-Zr1-C15= 90.98             
H23-Zr1-C16= 71.32             H23-Zr1-C17= 89.98             C26-Zr1-C2= 85.77              C26-Zr1-C3=125.37              
C26-Zr1-C4=135.74              C26-Zr1-C5=104.95              C26-Zr1-C6= 80.94              C26-Zr1-C7= 91.89              
C26-Zr1-C13=107.20             C26-Zr1-C14= 78.61             C26-Zr1-C15= 84.33             C26-Zr1-C16=116.69             
C26-Zr1-C17=133.95             C26-Zr1-H23=114.38             C27-Zr1-C2= 53.94              C27-Zr1-C3=135.76              
C27-Zr1-C4=121.72              C27-Zr1-C5= 88.96              C27-Zr1-C6= 80.54              C27-Zr1-C7=106.67              
C27-Zr1-C13=135.67             C27-Zr1-C14=102.63             C27-Zr1-C15= 91.87             C27-Zr1-C16=114.32             
C27-Zr1-C17=146.31             C27-Zr1-H23= 82.04             C27-Zr1-C26= 33.17             H23-C2-Zr1= 73.14              
H24-C2-Zr1=133.53              H24-C2-H23=106.79              H25-C2-Zr1=116.12              H25-C2-H23=108.40              
H25-C2-H24=107.96              C4-C3-Zr1= 73.32               C7-C3-Zr1= 72.62               C7-C3-C4=108.21                
H8-C3-Zr1=127.11               H8-C3-C4=125.52                H8-C3-C7=125.63                C3-C4-Zr1= 73.25               
C5-C4-Zr1= 74.38               C5-C4-C3=107.84                H9-C4-Zr1=126.78               H9-C4-C3=125.57                
H9-C4-C5=125.67                C4-C5-Zr1= 72.30               C6-C5-Zr1= 73.28               C6-C5-C4=108.08                
H10-C5-Zr1=127.49              H10-C5-C4=125.62               H10-C5-C6=125.64               C5-C6-Zr1= 73.71               
C7-C6-Zr1= 71.81               C7-C6-C5=108.17                H11-C6-Zr1=128.10              H11-C6-C5=125.40               
H11-C6-C7=125.68               C3-C7-Zr1= 73.78               C6-C7-Zr1= 74.70               C6-C7-C3=107.66                
H12-C7-Zr1=126.67              H12-C7-C3=125.53               H12-C7-C6=125.72               

 selected dihedral angles (degree)
 ---------------------------------
H23-C2-Zr1-C3=316.08          H23-C2-Zr1-C4=318.16          H23-C2-Zr1-C5=288.54          H23-C2-Zr1-C6=262.50          
H23-C2-Zr1-C7=271.16          H23-C2-Zr1-C13= 71.66         H23-C2-Zr1-C14=108.07         H23-C2-Zr1-C15= 98.02         
H23-C2-Zr1-C16= 64.88         H23-C2-Zr1-C17= 46.92         H23-C2-Zr1-C26=182.57         H23-C2-Zr1-C27=192.71         
H24-C2-Zr1-C3= 53.46          H24-C2-Zr1-C4= 55.54          H24-C2-Zr1-C5= 25.93          H24-C2-Zr1-C6=359.89          
H24-C2-Zr1-C7=  8.55          H24-C2-Zr1-C13=169.05         H24-C2-Zr1-C14=205.45         H24-C2-Zr1-C15=195.41         
H24-C2-Zr1-C16=162.26         H24-C2-Zr1-C17=144.30         H24-C2-Zr1-H23= 97.39         H24-C2-Zr1-C26=279.95         
H24-C2-Zr1-C27=290.10         H25-C2-Zr1-C3=213.44          H25-C2-Zr1-C4=215.52          H25-C2-Zr1-C5=185.90          
H25-C2-Zr1-C6=159.86          H25-C2-Zr1-C7=168.53          H25-C2-Zr1-C13=329.02         H25-C2-Zr1-C14=  5.43         
H25-C2-Zr1-C15=355.38         H25-C2-Zr1-C16=322.24         H25-C2-Zr1-C17=304.28         H25-C2-Zr1-H23=257.36         
H25-C2-Zr1-C26= 79.93         H25-C2-Zr1-C27= 90.08         C4-C3-Zr1-C2=  3.76           C4-C3-Zr1-C5= 37.49           
C4-C3-Zr1-C6= 77.98           C4-C3-Zr1-C7=115.82           C4-C3-Zr1-C13=222.79          C4-C3-Zr1-C14=209.22          
C4-C3-Zr1-C15=237.43          C4-C3-Zr1-C16=267.86          C4-C3-Zr1-C17=257.16          C4-C3-Zr1-H23=343.45          
C4-C3-Zr1-C26=121.25          C4-C3-Zr1-C27= 79.19          C7-C3-Zr1-C2=247.93           C7-C3-Zr1-C4=244.18           
C7-C3-Zr1-C5=281.66           C7-C3-Zr1-C6=322.15           C7-C3-Zr1-C13=106.97          C7-C3-Zr1-C14= 93.40          
C7-C3-Zr1-C15=121.60          C7-C3-Zr1-C16=152.04          C7-C3-Zr1-C17=141.33          C7-C3-Zr1-H23=227.63          
C7-C3-Zr1-C26=  5.43          C7-C3-Zr1-C27=323.36          H8-C3-Zr1-C2=126.02           H8-C3-Zr1-C4=122.26           
H8-C3-Zr1-C5=159.75           H8-C3-Zr1-C6=200.24           H8-C3-Zr1-C7=238.09           H8-C3-Zr1-C13=345.06          
H8-C3-Zr1-C14=331.49          H8-C3-Zr1-C15=359.69          H8-C3-Zr1-C16= 30.12          H8-C3-Zr1-C17= 19.42          
H8-C3-Zr1-H23=105.71          H8-C3-Zr1-C26=243.52          H8-C3-Zr1-C27=201.45          C3-C4-Zr1-C2=182.93           
C3-C4-Zr1-C5=245.40           C3-C4-Zr1-C6=282.04           C3-C4-Zr1-C7=322.96           C3-C4-Zr1-C13= 42.29          
C3-C4-Zr1-C14= 41.12          C3-C4-Zr1-C15= 91.10          C3-C4-Zr1-C16= 99.29          C3-C4-Zr1-C17= 72.70          
C3-C4-Zr1-H23=163.55          C3-C4-Zr1-C26=272.79          C3-C4-Zr1-C27=233.67          C5-C4-Zr1-C2=297.53           
C5-C4-Zr1-C3=114.60           C5-C4-Zr1-C6= 36.64           C5-C4-Zr1-C7= 77.56           C5-C4-Zr1-C13=156.90          
C5-C4-Zr1-C14=155.73          C5-C4-Zr1-C15=205.70          C5-C4-Zr1-C16=213.89          C5-C4-Zr1-C17=187.30          
C5-C4-Zr1-H23=278.15          C5-C4-Zr1-C26= 27.40          C5-C4-Zr1-C27=348.27          H9-C4-Zr1-C2= 60.69           
H9-C4-Zr1-C3=237.76           H9-C4-Zr1-C5=123.16           H9-C4-Zr1-C6=159.80           H9-C4-Zr1-C7=200.72           
H9-C4-Zr1-C13=280.05          H9-C4-Zr1-C14=278.88          H9-C4-Zr1-C15=328.86          H9-C4-Zr1-C16=337.04          
H9-C4-Zr1-C17=310.45          H9-C4-Zr1-H23= 41.31          H9-C4-Zr1-C26=150.55          H9-C4-Zr1-C27=111.43          
Zr1-C4-C3-C7= 64.73           Zr1-C4-C3-H8=235.95           C5-C4-C3-Zr1=293.09           C5-C4-C3-C7=357.82            
C5-C4-C3-H8=169.04            H9-C4-C3-Zr1=123.61           H9-C4-C3-C7=188.34            H9-C4-C3-H8=359.56            
C4-C5-Zr1-C2=116.49           C4-C5-Zr1-C3=322.38           C4-C5-Zr1-C6=244.15           C4-C5-Zr1-C7=281.21           
C4-C5-Zr1-C13=329.24          C4-C5-Zr1-C14=297.74          C4-C5-Zr1-C15= 76.98          C4-C5-Zr1-C16= 46.85          
C4-C5-Zr1-C17=  8.41          C4-C5-Zr1-H23= 88.06          C4-C5-Zr1-C26=199.41          C4-C5-Zr1-C27=170.04          
C6-C5-Zr1-C2=232.33           C6-C5-Zr1-C3= 78.23           C6-C5-Zr1-C4=115.85           C6-C5-Zr1-C7= 37.05           
C6-C5-Zr1-C13= 85.09          C6-C5-Zr1-C14= 53.59          C6-C5-Zr1-C15=192.83          C6-C5-Zr1-C16=162.70          
C6-C5-Zr1-C17=124.26          C6-C5-Zr1-H23=203.90          C6-C5-Zr1-C26=315.26          C6-C5-Zr1-C27=285.89          
H10-C5-Zr1-C2=354.77          H10-C5-Zr1-C3=200.67          H10-C5-Zr1-C4=238.29          H10-C5-Zr1-C6=122.44          
H10-C5-Zr1-C7=159.49          H10-C5-Zr1-C13=207.52         H10-C5-Zr1-C14=176.03         H10-C5-Zr1-C15=315.27         
H10-C5-Zr1-C16=285.14         H10-C5-Zr1-C17=246.69         H10-C5-Zr1-H23=326.34         H10-C5-Zr1-C26= 77.70         
H10-C5-Zr1-C27= 48.32         Zr1-C5-C4-C3= 66.15           Zr1-C5-C4-H9=235.62           C6-C5-C4-Zr1=294.95           
C6-C5-C4-C3=  1.10            C6-C5-C4-H9=170.57            H10-C5-C4-Zr1=123.86          H10-C5-C4-C3=190.01           
H10-C5-C4-H9=359.49           C5-C6-Zr1-C2= 52.59           C5-C6-Zr1-C3=282.01           C5-C6-Zr1-C4=323.00           
C5-C6-Zr1-C7=244.03           C5-C6-Zr1-C13=241.16          C5-C6-Zr1-C14=201.36          C5-C6-Zr1-C15=167.52          
C5-C6-Zr1-C16=314.28          C5-C6-Zr1-C17=280.91          C5-C6-Zr1-H23= 23.39          C5-C6-Zr1-C26=136.48          
C5-C6-Zr1-C27=102.86          C7-C6-Zr1-C2=168.56           C7-C6-Zr1-C3= 37.98           C7-C6-Zr1-C4= 78.98           
C7-C6-Zr1-C5=115.97           C7-C6-Zr1-C13=357.14          C7-C6-Zr1-C14=317.33          C7-C6-Zr1-C15=283.50          
C7-C6-Zr1-C16= 70.26          C7-C6-Zr1-C17= 36.89          C7-C6-Zr1-H23=139.37          C7-C6-Zr1-C26=252.45          
C7-C6-Zr1-C27=218.84          H11-C6-Zr1-C2=290.06          H11-C6-Zr1-C3=159.48          H11-C6-Zr1-C4=200.47          
H11-C6-Zr1-C5=237.47          H11-C6-Zr1-C7=121.50          H11-C6-Zr1-C13=118.63         H11-C6-Zr1-C14= 78.83         
H11-C6-Zr1-C15= 44.99         H11-C6-Zr1-C16=191.75         H11-C6-Zr1-C17=158.38         H11-C6-Zr1-H23=260.86         
H11-C6-Zr1-C26= 13.95         H11-C6-Zr1-C27=340.33         Zr1-C6-C5-C4= 64.41           Zr1-C6-C5-H10=235.49          
C7-C6-C5-Zr1=295.99           C7-C6-C5-C4=  0.40            C7-C6-C5-H10=171.48           H11-C6-C5-Zr1=125.52          
H11-C6-C5-C4=189.92           H11-C6-C5-H10=  1.01          C3-C7-Zr1-C2= 98.47           C3-C7-Zr1-C4= 36.85           
C3-C7-Zr1-C5= 77.51           C3-C7-Zr1-C6=114.02           C3-C7-Zr1-C13=291.57          C3-C7-Zr1-C14=263.11          
C3-C7-Zr1-C15=267.92          C3-C7-Zr1-C16=319.04          C3-C7-Zr1-C17=320.91          C3-C7-Zr1-H23= 61.82          
C3-C7-Zr1-C26=184.43          C3-C7-Zr1-C27=154.24          C6-C7-Zr1-C2=344.45           C6-C7-Zr1-C3=245.98           
C6-C7-Zr1-C4=282.83           C6-C7-Zr1-C5=323.49           C6-C7-Zr1-C13=177.55          C6-C7-Zr1-C14=149.09          
C6-C7-Zr1-C15=153.90          C6-C7-Zr1-C16=205.02          C6-C7-Zr1-C17=206.89          C6-C7-Zr1-H23=307.80          
C6-C7-Zr1-C26= 70.40          C6-C7-Zr1-C27= 40.22          H12-C7-Zr1-C2=221.01          H12-C7-Zr1-C3=122.54          
H12-C7-Zr1-C4=159.39          H12-C7-Zr1-C5=200.06          H12-C7-Zr1-C6=236.56          H12-C7-Zr1-C13= 54.11         
H12-C7-Zr1-C14= 25.66         H12-C7-Zr1-C15= 30.46         H12-C7-Zr1-C16= 81.59         H12-C7-Zr1-C17= 83.45         
H12-C7-Zr1-H23=184.36         H12-C7-Zr1-C26=306.97         H12-C7-Zr1-C27=276.78         Zr1-C7-C3-C4=294.81           
Zr1-C7-C3-H8=123.60           C6-C7-C3-Zr1= 67.60           C6-C7-C3-C4=  2.42            C6-C7-C3-H8=191.21            
H12-C7-C3-Zr1=236.18          H12-C7-C3-C4=171.00           H12-C7-C3-H8=359.79           Zr1-C7-C6-C5= 65.25           
Zr1-C7-C6-H11=235.69          C3-C7-C6-Zr1=293.01           C3-C7-C6-C5=358.27            C3-C7-C6-H11=168.70           
H12-C7-C6-Zr1=124.46          H12-C7-C6-C5=189.72           H12-C7-C6-H11=  0.15          
           -------------------------------------------------
          |                Final Singlepoint                |
           -------------------------------------------------

          ...................................................
          :                      SETUP                      :
          :.................................................:
          :  # basis functions                  79          :
          :  # atomic orbitals                  78          :
          :  # shells                           46          :
          :  # electrons                        72          :
          :  max. iterations                   250          :
          :  Hamiltonian                  GFN2-xTB          :
          :  restarted?                      false          :
          :  GBSA solvation                  false          :
          :  PC potential                    false          :
          :  electronic temp.          300.0000000     K    :
          :  accuracy                    1.0000000          :
          :  -> integral cutoff          0.2500000E+02      :
          :  -> integral neglect         0.1000000E-07      :
          :  -> SCF convergence          0.1000000E-05 Eh   :
          :  -> wf. convergence          0.1000000E-03 e    :
          :  Broyden damping             0.4000000          :
          ...................................................

 iter      E             dE          RMSdq      gap      omega  full diag
   1    -38.2854847 -0.382855E+02  0.530E-05    1.93       0.0  T
   2    -38.2854847 -0.116529E-10  0.270E-05    1.93     664.1  T
   3    -38.2854847 -0.433431E-11  0.217E-05    1.93     826.0  T

   *** convergence criteria satisfied after 3 iterations ***

         #    Occupation            Energy/Eh            Energy/eV
      -------------------------------------------------------------
         1        2.0000           -0.8747192             -23.8023
       ...           ...                  ...                  ...
        30        2.0000           -0.5866346             -15.9631
        31        2.0000           -0.5837507             -15.8847
        32        2.0000           -0.5198542             -14.1460
        33        2.0000           -0.5194538             -14.1351
        34        2.0000           -0.5088308             -13.8460
        35        2.0000           -0.5036209             -13.7042
        36        2.0000           -0.4957174             -13.4892 (HOMO)
        37                         -0.4247719             -11.5586 (LUMO)
        38                         -0.4086895             -11.1210
        39                         -0.4022967             -10.9471
        40                         -0.4009208             -10.9096
        41                         -0.3906557             -10.6303
       ...                                ...                  ...
        78                          2.5330563              68.9280
      -------------------------------------------------------------
                  HL-Gap            0.0709455 Eh            1.9305 eV
             Fermi-level           -0.4602446 Eh          -12.5239 eV

 SCC (total)                   0 d,  0 h,  0 min,  0.067 sec
 SCC setup                      ...        0 min,  0.006 sec (  8.740%)
 Dispersion                     ...        0 min,  0.002 sec (  2.565%)
 classical contributions        ...        0 min,  0.000 sec (  0.420%)
 integral evaluation            ...        0 min,  0.008 sec ( 11.597%)
 iterations                     ...        0 min,  0.035 sec ( 52.354%)
 molecular gradient             ...        0 min,  0.016 sec ( 24.064%)
 printout                       ...        0 min,  0.000 sec (  0.229%)

         :::::::::::::::::::::::::::::::::::::::::::::::::::::
         ::                     SUMMARY                     ::
         :::::::::::::::::::::::::::::::::::::::::::::::::::::
         :: total energy             -37.647727667900 Eh    ::
         :: gradient norm              0.000331623278 Eh/a0 ::
         :: HOMO-LUMO gap              1.930525058459 eV    ::
         ::.................................................::
         :: SCC energy               -38.285484690649 Eh    ::
         :: -> isotropic ES            0.088171284484 Eh    ::
         :: -> anisotropic ES         -0.014055048008 Eh    ::
         :: -> anisotropic XC          0.021308786301 Eh    ::
         :: -> dispersion             -0.028322204740 Eh    ::
         :: repulsion energy           0.637081973953 Eh    ::
         :: add. restraining           0.000000014512 Eh    ::
         :: total charge               1.000000000000 e     ::
         :::::::::::::::::::::::::::::::::::::::::::::::::::::

           -------------------------------------------------
          |                Property Printout                |
           -------------------------------------------------

    * Orbital Energies and Occupations

         #    Occupation            Energy/Eh            Energy/eV
      -------------------------------------------------------------
         1        2.0000           -0.8747192             -23.8023
       ...           ...                  ...                  ...
        24        2.0000           -0.5932464             -16.1431
        25        2.0000           -0.5918152             -16.1041
        26        2.0000           -0.5897839             -16.0488
        27        2.0000           -0.5891042             -16.0303
        28        2.0000           -0.5887508             -16.0207
        29        2.0000           -0.5869477             -15.9717
        30        2.0000           -0.5866346             -15.9631
        31        2.0000           -0.5837507             -15.8847
        32        2.0000           -0.5198542             -14.1460
        33        2.0000           -0.5194538             -14.1351
        34        2.0000           -0.5088308             -13.8460
        35        2.0000           -0.5036209             -13.7042
        36        2.0000           -0.4957174             -13.4892 (HOMO)
        37                         -0.4247719             -11.5586 (LUMO)
        38                         -0.4086895             -11.1210
        39                         -0.4022967             -10.9471
        40                         -0.4009208             -10.9096
        41                         -0.3906557             -10.6303
        42                         -0.3739564             -10.1759
        43                         -0.3048639              -8.2958
        44                         -0.3041973              -8.2776
        45                         -0.3029283              -8.2431
        46                         -0.3019462              -8.2164
        47                         -0.0533456              -1.4516
       ...                                ...                  ...
        78                          2.5330563              68.9280
      -------------------------------------------------------------
                  HL-Gap            0.0709455 Eh            1.9305 eV
             Fermi-level           -0.4602446 Eh          -12.5239 eV

     #   Z          covCN         q      C6AA      α(0)
     1  40 Zr      10.330     0.955   138.695    17.696
     2   6 C        3.707    -0.279    26.378     7.341
     3   6 C        3.762    -0.083    22.132     6.706
     4   6 C        3.758    -0.092    22.316     6.735
     5   6 C        3.748    -0.089    22.269     6.731
     6   6 C        3.751    -0.092    22.308     6.736
     7   6 C        3.763    -0.094    22.333     6.736
     8   1 H        0.925     0.085     1.929     2.172
     9   1 H        0.925     0.074     2.038     2.233
    10   1 H        0.925     0.078     2.003     2.213
    11   1 H        0.925     0.076     2.016     2.220
    12   1 H        0.925     0.079     1.992     2.207
    13   6 C        3.761    -0.087    22.203     6.717
    14   6 C        3.762    -0.090    22.269     6.727
    15   6 C        3.757    -0.092    22.311     6.734
    16   6 C        3.752    -0.087    22.219     6.722
    17   6 C        3.757    -0.089    22.251     6.726
    18   1 H        0.925     0.084     1.937     2.176
    19   1 H        0.925     0.081     1.968     2.194
    20   1 H        0.925     0.080     1.980     2.200
    21   1 H        0.925     0.075     2.037     2.232
    22   1 H        0.925     0.080     1.982     2.202
    23   1 H        1.415     0.089     1.874     2.137
    24   1 H        0.925     0.082     1.960     2.189
    25   1 H        0.925     0.078     1.995     2.209
    26   6 C        3.619    -0.198    24.962     7.206
    27   6 C        3.687    -0.074    22.116     6.732
    28   1 H        0.925     0.123     1.586     1.970
    29   1 H        0.925     0.118     1.631     1.997
    30   1 H        0.925     0.104     1.751     2.069
    31   1 H        0.934     0.105     1.742     2.064

 Mol. C6AA /au·bohr⁶  :       9436.582775
 Mol. C8AA /au·bohr⁸  :     320645.061961
 Mol. α(0) /au        :        142.929257


Wiberg/Mayer (AO) data.
largest (>0.10) Wiberg bond orders for each atom

 ---------------------------------------------------------------------------
     #   Z sym  total        # sym  WBO       # sym  WBO       # sym  WBO
 ---------------------------------------------------------------------------
     1  40 Zr   4.329 --     2 C    0.571    26 C    0.470     7 C    0.251
                            14 C    0.244    13 C    0.241     4 C    0.239
                            17 C    0.236     3 C    0.231    15 C    0.230
                            16 C    0.229     6 C    0.224     5 C    0.223
                            27 C    0.217    23 H    0.124
     2   6 C    3.894 --    24 H    0.956    25 H    0.943    23 H    0.816
                             1 Zr   0.571    27 C    0.341    26 C    0.159
     3   6 C    3.982 --     4 C    1.312     7 C    1.302     8 H    0.925
                             1 Zr   0.231
     4   6 C    3.978 --     3 C    1.312     5 C    1.295     9 H    0.922
                             1 Zr   0.239
     5   6 C    3.979 --     6 C    1.324     4 C    1.295    10 H    0.929
                             1 Zr   0.223
     6   6 C    3.979 --     5 C    1.324     7 C    1.290    11 H    0.929
                             1 Zr   0.224
     7   6 C    3.979 --     3 C    1.302     6 C    1.290    12 H    0.920
                             1 Zr   0.251
     8   1 H    0.991 --     3 C    0.925
     9   1 H    0.992 --     4 C    0.922
    10   1 H    0.991 --     5 C    0.929
    11   1 H    0.992 --     6 C    0.929
    12   1 H    0.993 --     7 C    0.920
    13   6 C    3.980 --    17 C    1.302    14 C    1.302    18 H    0.922
                             1 Zr   0.241
    14   6 C    3.981 --    13 C    1.302    15 C    1.291    19 H    0.923
                             1 Zr   0.244
    15   6 C    3.978 --    16 C    1.313    14 C    1.291    20 H    0.927
                             1 Zr   0.230
    16   6 C    3.981 --    15 C    1.313    17 C    1.308    21 H    0.927
                             1 Zr   0.229
    17   6 C    3.980 --    16 C    1.308    13 C    1.302    22 H    0.924
                             1 Zr   0.236
    18   1 H    0.990 --    13 C    0.922
    19   1 H    0.991 --    14 C    0.923
    20   1 H    0.990 --    15 C    0.927
    21   1 H    0.992 --    16 C    0.927
    22   1 H    0.991 --    17 C    0.924
    23   1 H    0.992 --     2 C    0.816     1 Zr   0.124
    24   1 H    0.992 --     2 C    0.956
    25   1 H    0.993 --     2 C    0.943
    26   6 C    3.940 --    27 C    1.422    30 H    0.914    31 H    0.884
                             1 Zr   0.470     2 C    0.159
    27   6 C    3.976 --    26 C    1.422    28 H    0.938    29 H    0.925
                             2 C    0.341     1 Zr   0.217
    28   1 H    0.984 --    27 C    0.938
    29   1 H    0.984 --    27 C    0.925
    30   1 H    0.988 --    26 C    0.914
    31   1 H    0.988 --    26 C    0.884
 ---------------------------------------------------------------------------

Topologies differ in total number of bonds
Writing topology from bond orders to xtbtopo.mol

molecular dipole:
                 x           y           z       tot (Debye)
 q only:       -3.977       0.110       0.825
   full:       -3.634       0.201       0.709       9.424
molecular quadrupole (traceless):
                xx          xy          yy          xz          yz          zz
 q only:       19.847      -1.175     -11.809      -3.558      -3.573      -8.038
  q+dip:       17.996      -1.326     -11.444      -3.324      -7.690      -6.552
   full:       17.241      -0.457     -10.635      -4.207      -6.499      -6.606

           -------------------------------------------------
          |                Geometry Summary                 |
           -------------------------------------------------

      molecular mass/u    :      264.4982010
   center of mass at/Å    :       -1.5225757      -0.0847514       0.6504684
  moments of inertia/u·Å² :        0.5688808E+03   0.7232148E+03   0.9007386E+03
rotational constants/cm⁻¹ :        0.2963298E-01   0.2330930E-01   0.1871534E-01

 * 41 selected distances

     #   Z          #   Z                                           value/Å
     1  40 Zr       2   6 C                                       2.2894335
     1  40 Zr       3   6 C                                       2.4585673
     1  40 Zr       4   6 C                                       2.4594505
     3   6 C        4   6 C                                       1.4147140
     1  40 Zr       5   6 C                                       2.4863123
     4   6 C        5   6 C                                       1.4182163
     1  40 Zr       6   6 C                                       2.4808517
     5   6 C        6   6 C                                       1.4112727
     1  40 Zr       7   6 C                                       2.4434970
     3   6 C        7   6 C                                       1.4170505
     6   6 C        7   6 C                                       1.4192740
     3   6 C        8   1 H                                       1.0835676
     4   6 C        9   1 H                                       1.0855873
     5   6 C       10   1 H                                       1.0833923
     6   6 C       11   1 H                                       1.0832233 (min)
     7   6 C       12   1 H                                       1.0858037
     1  40 Zr      13   6 C                                       2.4538897
     1  40 Zr      14   6 C                                       2.4490436
    13   6 C       14   6 C                                       1.4155974
     1  40 Zr      15   6 C                                       2.4627718
    14   6 C       15   6 C                                       1.4195417
     1  40 Zr      16   6 C                                       2.4760005
    15   6 C       16   6 C                                       1.4144512
     1  40 Zr      17   6 C                                       2.4642850
    13   6 C       17   6 C                                       1.4176994
    16   6 C       17   6 C                                       1.4145151
    13   6 C       18   1 H                                       1.0844917
    14   6 C       19   1 H                                       1.0842463
    15   6 C       20   1 H                                       1.0835765
    16   6 C       21   1 H                                       1.0844735
    17   6 C       22   1 H                                       1.0847197
     2   6 C       23   1 H                                       1.1210347
     2   6 C       24   1 H                                       1.0898656
     2   6 C       25   1 H                                       1.0938814
     1  40 Zr      26   6 C                                       2.3387785
     1  40 Zr      27   6 C                                       2.5365916 (max)
    26   6 C       27   6 C                                       1.4043547
    27   6 C       28   1 H                                       1.0851845
    27   6 C       29   1 H                                       1.0888731
    26   6 C       30   1 H                                       1.0881457
    26   6 C       31   1 H                                       1.0919396

 * 3 distinct bonds (by element types)

   Z      Z             #   av. dist./Å        max./Å        min./Å
   1 H    6 C          17     1.0883533     1.1210347     1.0832233
   6 C    6 C          11     1.4151534     1.4195417     1.4043547
   6 C   40 Zr         13     2.4461133     2.5365916     2.2894335


optimized geometry written to: xtbopt.xyz


           -------------------------------------------------
          | TOTAL ENERGY              -37.647727667900 Eh   |
          | GRADIENT NORM               0.000331623278 Eh/α |
          | HOMO-LUMO GAP               1.930525058459 eV   |
           -------------------------------------------------

------------------------------------------------------------------------
 * finished run on 2026/08/16 at 16:01:33.067     
------------------------------------------------------------------------
 total:
 * wall-time:     0 d,  0 h,  0 min, 12.655 sec
 *  cpu-time:     0 d,  0 h,  1 min, 27.212 sec
 * ratio c/w:     6.892 speedup
 SCF:
 * wall-time:     0 d,  0 h,  0 min,  1.137 sec
 *  cpu-time:     0 d,  0 h,  0 min,  7.742 sec
 * ratio c/w:     6.809 speedup
 ANC optimizer:
 * wall-time:     0 d,  0 h,  0 min, 11.444 sec
 *  cpu-time:     0 d,  0 h,  1 min, 19.099 sec
 * ratio c/w:     6.912 speedup

