31
 energy: -37.698390679253 gnorm: 0.000366732099 xtb: 6.5.1 (b24c23e)
Zr          -1.31019293486869       -0.28072442499219        0.74061856858662
C           -1.60586174801545        1.28804937802036       -1.67993066549798
C            0.48827992657775       -1.97866814608616        0.66942949298691
C            0.15658795991261       -1.64550238598110       -0.66689524269065
C           -1.17941780111712       -2.06199705468905       -0.90055194603474
C           -1.68112958448879       -2.62931214716134        0.30353009185528
C           -0.64332707088331       -2.58328196247574        1.26865224041127
H            1.47948434068729       -1.92122364179812        1.10493079947948
H            0.85757795580070       -1.31407315521547       -1.42729112365435
H           -1.67296614817062       -2.10395661662312       -1.86427794139412
H           -2.61864741332423       -3.16690621495802        0.40376108226457
H           -0.66566025579494       -3.06491082188046        2.24055887059821
C           -0.24918966386886        0.08078446891814        2.94457562429770
C           -1.64291597950937        0.29447385414510        3.07556825220942
C           -1.98024855156036        1.44388724376276        2.30811300077503
C           -0.79664465915466        1.91368823424661        1.68154470049660
C            0.27074559907468        1.06128936812486        2.06502648891964
H            0.33761005056734       -0.62596175783842        3.51977088333306
H           -2.29884364939335       -0.20584267202231        3.78206108440777
H           -2.92730053992770        1.96872360124368        2.34524975907661
H           -0.69391124672845        2.85849446376650        1.15782513477444
H            1.32371725178617        1.24256951706081        1.87239541158240
H           -0.79068547088904        1.10351160034792       -0.92676562873792
H           -1.63686130695173        0.46217865765299       -2.39880522855924
H           -1.34619107307796        2.19327474781213       -2.23265009113390
C           -3.36855707117027        0.20279817806722       -0.19934522324344
C           -2.98122818208436        1.45670748352519       -1.00701139618161
H           -2.95990678908133        2.34082908291684       -0.35465406777752
H           -3.71513570459423        1.66152057544811       -1.79729653382613
H           -4.19734438801008        0.44526875299124        0.48302949469990
H           -3.73691621172046       -0.56615325633325       -0.89808157202839
