31
 energy: -37.657322389811 gnorm: 0.000457989146 xtb: 6.5.1 (b24c23e)
Zr          -1.33257205153747       -0.01658171630816        0.41153356003505
C           -1.07515246706982        1.14688848471092       -1.45537461100134
C            0.25978495910743       -1.89650255756934        0.87291664478547
C            0.35147795374535       -1.56400319748836       -0.50019819049105
C           -0.87555563974953       -1.91843702749085       -1.11458612358086
C           -1.72708156838749       -2.44680162463471       -0.11379183180820
C           -1.03136720885242       -2.41119097570445        1.11900459002934
H            1.08489626782595       -1.89654115481526        1.57389505631125
H            1.25526345655297       -1.26336583474136       -1.01916080466512
H           -1.06007435004945       -1.94347189760082       -2.18138558329031
H           -2.63750746009674       -3.00187363592429       -0.29880577662918
H           -1.36104320141604       -2.87821016617693        2.04047641235926
C           -0.57810799993003        0.27167975872853        2.78047949953143
C           -1.80412811166459        0.95634780060990        2.65408059196831
C           -1.60435213423534        2.04910926965248        1.76760199875111
C           -0.25680893552599        2.02008645521241        1.33615905495011
C            0.37639921579913        0.91756083239758        1.95584971803161
H           -0.36681818331170       -0.51142062746288        3.49908286658584
H           -2.67522339129060        0.79359115802977        3.28031784617368
H           -2.28791260466476        2.87278600373300        1.60418495063069
H            0.24282672988551        2.79653150913248        0.76974961326578
H            1.44154973485527        0.71646963749796        1.93353982692731
H           -0.01100636524885        1.16489639715611       -1.74714588214985
H           -1.62424887868419        0.71624380430283       -2.30880439684412
H           -1.38926108921309        2.19939010918704       -1.38006918127808
C           -3.77714986801767       -0.48429300006411       -0.15773400098912
C           -3.74832039819533        0.79627165198360        0.24662591175087
H           -4.13510429244386        1.07309970662786        1.22407562197646
H           -3.60518648291850        1.60649653383771       -0.46752043949360
H           -4.17239859644974       -1.25762684399607        0.49967506312049
H           -3.66089739881951       -0.73759390282333       -1.21158768496627
