      -----------------------------------------------------------      
     |                   =====================                   |     
     |                           x T B                           |     
     |                   =====================                   |     
     |                         S. Grimme                         |     
     |          Mulliken Center for Theoretical Chemistry        |     
     |                    University of Bonn                     |     
      -----------------------------------------------------------      

   * xtb version 6.5.1 (b24c23e) compiled by 'conda@728c89f4b128' on 2022-07-12

   xtb is free software: you can redistribute it and/or modify it under
   the terms of the GNU Lesser General Public License as published by
   the Free Software Foundation, either version 3 of the License, or
   (at your option) any later version.
   
   xtb is distributed in the hope that it will be useful,
   but WITHOUT ANY WARRANTY; without even the implied warranty of
   MERCHANTABILITY or FITNESS FOR A PARTICULAR PURPOSE.  See the
   GNU Lesser General Public License for more details.
   
   Cite this work as:
   * C. Bannwarth, E. Caldeweyher, S. Ehlert, A. Hansen, P. Pracht,
     J. Seibert, S. Spicher, S. Grimme, WIREs Comput. Mol. Sci., 2020, 11,
     e01493. DOI: 10.1002/wcms.1493
   
   for GFN2-xTB:
   * C. Bannwarth, S. Ehlert and S. Grimme., J. Chem. Theory Comput., 2019,
     15, 1652-1671. DOI: 10.1021/acs.jctc.8b01176
   for GFN1-xTB:
   * S. Grimme, C. Bannwarth, P. Shushkov, J. Chem. Theory Comput., 2017,
     13, 1989-2009. DOI: 10.1021/acs.jctc.7b00118
   for GFN0-xTB:
   * P. Pracht, E. Caldeweyher, S. Ehlert, S. Grimme, ChemRxiv, 2019, preprint.
     DOI: 10.26434/chemrxiv.8326202.v1
   for GFN-FF:
   * S. Spicher and S. Grimme, Angew. Chem. Int. Ed., 2020, 59, 15665-15673.
     DOI: 10.1002/anie.202004239
   
   for ALPB and GBSA implicit solvation:
   * S. Ehlert, M. Stahn, S. Spicher, S. Grimme, J. Chem. Theory Comput.,
     2021, 17, 4250-4261. DOI: 10.1021/acs.jctc.1c00471
   
   for DFT-D4:
   * E. Caldeweyher, C. Bannwarth and S. Grimme, J. Chem. Phys., 2017,
     147, 034112. DOI: 10.1063/1.4993215
   * E. Caldeweyher, S. Ehlert, A. Hansen, H. Neugebauer, S. Spicher,
     C. Bannwarth and S. Grimme, J. Chem. Phys., 2019, 150, 154122.
     DOI: 10.1063/1.5090222
   * E. Caldeweyher, J.-M. Mewes, S. Ehlert and S. Grimme, Phys. Chem. Chem. Phys.
     2020, 22, 8499-8512. DOI: 10.1039/D0CP00502A
   
   for sTDA-xTB:
   * S. Grimme and C. Bannwarth, J. Chem. Phys., 2016, 145, 054103.
     DOI: 10.1063/1.4959605
   
   in the mass-spec context:
   * V. Asgeirsson, C. Bauer and S. Grimme, Chem. Sci., 2017, 8, 4879.
     DOI: 10.1039/c7sc00601b
   * J. Koopman and S. Grimme, ACS Omega 2019, 4, 12, 15120-15133.
     DOI: 10.1021/acsomega.9b02011
   
   for metadynamics refer to:
   * S. Grimme, J. Chem. Theory Comput., 2019, 155, 2847-2862
     DOI: 10.1021/acs.jctc.9b00143
   
   for SPH calculations refer to:
   * S. Spicher and S. Grimme, J. Chem. Theory Comput., 2021, 17, 1701-1714
     DOI: 10.1021/acs.jctc.0c01306
   
   with help from (in alphabetical order)
   P. Atkinson, C. Bannwarth, F. Bohle, G. Brandenburg, E. Caldeweyher
   M. Checinski, S. Dohm, S. Ehlert, S. Ehrlich, I. Gerasimov, C. Hölzer
   A. Katbashev, J. Koopman, C. Lavigne, S. Lehtola, F. März, M. Müller,
   F. Musil, H. Neugebauer, J. Pisarek, C. Plett, P. Pracht, F. Pultar,
   J. Seibert, P. Shushkov, S. Spicher, M. Stahn, M. Steiner, T. Strunk,
   J. Stückrath, T. Rose, and J. Unsleber
   
 * started run on 2026/08/03 at 12:00:39.875     

           -------------------------------------------------
          |                Calculation Setup                |
           -------------------------------------------------

          program call               : /h/332/chchoi/miniconda3/envs/el-agente/bin/xtb reactant_opt.xyz --opt --gfn 2 -P 4 --chrg 1 --uhf 0 --input detailed_input.inp
          coordinate file            : reactant_opt.xyz
          omp threads                :                     4

   ID    Z sym.   atoms
    1   40 Zr     1
    2    6 C      2-7, 13-17, 26, 27
    3    1 H      8-12, 18-25, 28-31
constraining bond 2 27 to    2.1500000 Å, actual value:    3.1883486 Å
constraining bond 1 2 to    2.3500000 Å, actual value:    2.2147855 Å
constraining bond 1 26 to    2.5000000 Å, actual value:    2.5531904 Å
constraining bond 26 27 to    1.4000000 Å, actual value:    1.3431993 Å

           -------------------------------------------------
          |                 G F N 2 - x T B                 |
           -------------------------------------------------

        Reference                      10.1021/acs.jctc.8b01176
      * Hamiltonian:
        H0-scaling (s, p, d)           1.850000    2.230000    2.230000
        zeta-weighting                 0.500000
      * Dispersion:
        s8                             2.700000
        a1                             0.520000
        a2                             5.000000
        s9                             5.000000
      * Repulsion:
        kExp                           1.500000    1.000000
        rExp                           1.000000
      * Coulomb:
        alpha                          2.000000
        third order                    shell-resolved
        anisotropic                    true
        a3                             3.000000
        a5                             4.000000
        cn-shift                       1.200000
        cn-exp                         4.000000
        max-rad                        5.000000


          ...................................................
          :                      SETUP                      :
          :.................................................:
          :  # basis functions                  79          :
          :  # atomic orbitals                  78          :
          :  # shells                           46          :
          :  # electrons                        72          :
          :  max. iterations                   250          :
          :  Hamiltonian                  GFN2-xTB          :
          :  restarted?                      false          :
          :  GBSA solvation                  false          :
          :  PC potential                    false          :
          :  electronic temp.          300.0000000     K    :
          :  accuracy                    1.0000000          :
          :  -> integral cutoff          0.2500000E+02      :
          :  -> integral neglect         0.1000000E-07      :
          :  -> SCF convergence          0.1000000E-05 Eh   :
          :  -> wf. convergence          0.1000000E-03 e    :
          :  Broyden damping             0.4000000          :
          ...................................................

 iter      E             dE          RMSdq      gap      omega  full diag
   1    -38.1916118 -0.381916E+02  0.405E+00    1.25       0.0  T
   2    -38.2923535 -0.100742E+00  0.325E+00    1.90       1.0  T
   3    -38.3070170 -0.146635E-01  0.229E+00    1.60       1.0  T
   4    -38.3062399  0.777126E-03  0.450E-01    1.77       1.0  T
   5    -38.3074547 -0.121477E-02  0.311E-01    1.56       1.0  T
   6    -38.3077933 -0.338615E-03  0.159E-01    1.61       1.0  T
   7    -38.3077440  0.493059E-04  0.894E-02    1.62       1.0  T
   8    -38.3078094 -0.654777E-04  0.334E-02    1.64       1.0  T
   9    -38.3078112 -0.175198E-05  0.122E-02    1.65       1.5  T
  10    -38.3078115 -0.321145E-06  0.726E-03    1.65       2.5  T
  11    -38.3078119 -0.337478E-06  0.220E-03    1.65       8.2  T
  12    -38.3078119 -0.195125E-07  0.111E-03    1.65      16.1  T
  13    -38.3078119 -0.811795E-08  0.360E-04    1.65      49.9  T
  14    -38.3078119 -0.361510E-09  0.125E-04    1.65     143.5  T

   *** convergence criteria satisfied after 14 iterations ***

         #    Occupation            Energy/Eh            Energy/eV
      -------------------------------------------------------------
         1        2.0000           -0.8691307             -23.6503
       ...           ...                  ...                  ...
        30        2.0000           -0.5752917             -15.6545
        31        2.0000           -0.5741306             -15.6229
        32        2.0000           -0.5209811             -14.1766
        33        2.0000           -0.5148528             -14.0099
        34        2.0000           -0.5065660             -13.7844
        35        2.0000           -0.5001975             -13.6111
        36        2.0000           -0.4934531             -13.4275 (HOMO)
        37                         -0.4329357             -11.7808 (LUMO)
        38                         -0.4186775             -11.3928
        39                         -0.4055726             -11.0362
        40                         -0.4041751             -10.9982
        41                         -0.3893597             -10.5950
       ...                                ...                  ...
        78                          2.5388887              69.0867
      -------------------------------------------------------------
                  HL-Gap            0.0605174 Eh            1.6468 eV
             Fermi-level           -0.4631944 Eh          -12.6042 eV

 SCC (total)                   0 d,  0 h,  0 min,  1.626 sec
 SCC setup                      ...        0 min,  0.026 sec (  1.571%)
 Dispersion                     ...        0 min,  0.024 sec (  1.487%)
 classical contributions        ...        0 min,  0.023 sec (  1.438%)
 integral evaluation            ...        0 min,  0.070 sec (  4.304%)
 iterations                     ...        0 min,  1.273 sec ( 78.275%)
 molecular gradient             ...        0 min,  0.210 sec ( 12.910%)
 printout                       ...        0 min,  0.000 sec (  0.013%)

         :::::::::::::::::::::::::::::::::::::::::::::::::::::
         ::                     SUMMARY                     ::
         :::::::::::::::::::::::::::::::::::::::::::::::::::::
         :: total energy             -33.720250946710 Eh    ::
         :: gradient norm              5.379343288404 Eh/a0 ::
         :: HOMO-LUMO gap              1.646761010749 eV    ::
         ::.................................................::
         :: SCC energy               -38.307811882165 Eh    ::
         :: -> isotropic ES            0.092591564746 Eh    ::
         :: -> anisotropic ES         -0.013046580041 Eh    ::
         :: -> anisotropic XC          0.021779068891 Eh    ::
         :: -> dispersion             -0.028081679540 Eh    ::
         :: repulsion energy           0.649731226426 Eh    ::
         :: add. restraining           3.937120613543 Eh    ::
         :: total charge               1.000000000000 e     ::
         :::::::::::::::::::::::::::::::::::::::::::::::::::::

      ----------------------------------------------------------- 
     |                   =====================                   |
     |                        A N C O P T                        |
     |                   =====================                   |
     |               Approximate Normal Coordinate               |
     |                Rational Function Optimizer                |
      ----------------------------------------------------------- 

          ...................................................
          :                      SETUP                      :
          :.................................................:
          :   optimization level            normal          :
          :   max. optcycles                   200          :
          :   ANC micro-cycles                  20          :
          :   degrees of freedom                87          :
          :.................................................:
          :   RF solver                   davidson          :
          :   write xtbopt.log                true          :
          :   linear?                        false          :
          :   energy convergence         0.5000000E-05 Eh   :
          :   grad. convergence          0.1000000E-02 Eh/α :
          :   maximium RF displ.         1.0000000          :
          :   Hlow (freq-cutoff)         0.1000000E-01      :
          :   Hmax (freq-cutoff)         5.0000000          :
          :   S6 in model hess.         20.0000000          :
          ...................................................

generating ANC from model Hessian ...
Using Lindh-Hessian (1995)
 Shifting diagonal of input Hessian by   0.10274939875298707     
 Lowest  eigenvalues of input Hessian
    0.010000    0.078660    0.096993    0.000000    0.000000    0.000000
    0.000000    0.000000    0.000000    0.103278    0.103470    0.104412
    0.104522    0.106666    0.109586    0.109891    0.110099    0.110349
 Highest eigenvalues
    1.838150    1.839445    3.512034    3.986362    5.868695    6.442413


........................................................................
.............................. CYCLE    1 ..............................
........................................................................
   1    -38.3078119 -0.383078E+02  0.597E-05    1.65       0.0  T
   2    -38.3078119 -0.258353E-10  0.353E-05    1.65     508.6  T
   3    -38.3078119 -0.236469E-10  0.168E-05    1.65    1069.5  T
     SCC iter.                  ...        0 min,  0.278 sec
     gradient                   ...        0 min,  0.152 sec
 * total energy  :   -33.7202509 Eh     change       -0.1478000E-09 Eh
   gradient norm :     5.3793433 Eh/α   predicted     0.0000000E+00 (-100.00%)
   displ. norm   :     0.6982185 α      lambda       -0.3718070E+01
   maximum displ.:     0.5187555 α      in ANC's #84, #87, #65, ...

........................................................................
.............................. CYCLE    2 ..............................
........................................................................
   1    -38.2437932 -0.382438E+02  0.853E-01    1.36       0.0  T
   2    -38.2444758 -0.682610E-03  0.605E-01    1.54       1.0  T
   3    -38.2441780  0.297895E-03  0.263E-01    1.43       1.0  T
   4    -38.2445509 -0.372933E-03  0.130E-01    1.52       1.0  T
   5    -38.2446343 -0.833664E-04  0.773E-02    1.50       1.0  T
   6    -38.2446910 -0.567706E-04  0.388E-02    1.50       1.0  T
   7    -38.2446987 -0.763001E-05  0.213E-02    1.50       1.0  T
   8    -38.2446996 -0.957291E-06  0.124E-02    1.50       1.5  T
   9    -38.2447003 -0.712030E-06  0.469E-03    1.50       3.8  T
  10    -38.2447003 -0.159836E-07  0.260E-03    1.50       6.9  T
  11    -38.2447004 -0.329677E-07  0.985E-04    1.50      18.2  T
  12    -38.2447004 -0.547612E-08  0.350E-04    1.50      51.3  T
     SCC iter.                  ...        0 min,  1.546 sec
     gradient                   ...        0 min,  0.279 sec
 * total energy  :   -36.4758546 Eh     change       -0.2755604E+01 Eh
   gradient norm :     2.6032012 Eh/α   predicted    -0.2765332E+01 (   0.35%)
   displ. norm   :     0.5557088 α      lambda       -0.1390264E+01
   maximum displ.:     0.4591655 α      in ANC's #84, #87, #65, ...

........................................................................
.............................. CYCLE    3 ..............................
........................................................................
   1    -38.1522142 -0.381522E+02  0.106E+00    1.21       0.0  T
   2    -38.1454042  0.680997E-02  0.119E+00    1.71       1.0  T
   3    -38.1652659 -0.198616E-01  0.527E-01    1.49       1.0  T
   4    -38.1637820  0.148387E-02  0.282E-01    1.40       1.0  T
   5    -38.1654712 -0.168917E-02  0.926E-02    1.44       1.0  T
   6    -38.1655429 -0.717402E-04  0.546E-02    1.46       1.0  T
   7    -38.1655401  0.282576E-05  0.373E-02    1.46       1.0  T
   8    -38.1655523 -0.122489E-04  0.123E-02    1.45       1.5  T
   9    -38.1655535 -0.116831E-05  0.672E-03    1.45       2.7  T
  10    -38.1655537 -0.166820E-06  0.316E-03    1.45       5.7  T
  11    -38.1655537 -0.744417E-07  0.142E-03    1.45      12.7  T
  12    -38.1655537 -0.131608E-07  0.977E-04    1.45      18.4  T
  13    -38.1655537 -0.371470E-08  0.430E-04    1.45      41.7  T
     SCC iter.                  ...        0 min,  1.690 sec
     gradient                   ...        0 min,  0.222 sec
 * total energy  :   -37.3866092 Eh     change       -0.9107546E+00 Eh
   gradient norm :     0.7998001 Eh/α   predicted    -0.9098075E+00 (  -0.10%)
   displ. norm   :     0.4428244 α      lambda       -0.2298224E+00
   maximum displ.:     0.2715767 α      in ANC's #1, #84, #65, ...

........................................................................
.............................. CYCLE    4 ..............................
........................................................................
   1    -38.1388697 -0.381389E+02  0.713E-01    1.55       0.0  T
   2    -38.1360390  0.283077E-02  0.685E-01    1.73       1.0  T
   3    -38.1442911 -0.825212E-02  0.315E-01    1.61       1.0  T
   4    -38.1443202 -0.291477E-04  0.105E-01    1.62       1.0  T
   5    -38.1445482 -0.227997E-03  0.424E-02    1.62       1.0  T
   6    -38.1445489 -0.630771E-06  0.301E-02    1.62       1.0  T
   7    -38.1445510 -0.218349E-05  0.168E-02    1.62       1.1  T
   8    -38.1445540 -0.296922E-05  0.609E-03    1.62       2.9  T
   9    -38.1445542 -0.196443E-06  0.311E-03    1.62       5.8  T
  10    -38.1445542 -0.221691E-07  0.130E-03    1.62      13.8  T
  11    -38.1445542 -0.367285E-08  0.682E-04    1.62      26.3  T
  12    -38.1445542 -0.394804E-08  0.379E-04    1.62      47.4  T
     SCC iter.                  ...        0 min,  1.360 sec
     gradient                   ...        0 min,  0.298 sec
 * total energy  :   -37.5092042 Eh     change       -0.1225950E+00 Eh
   gradient norm :     0.2244238 Eh/α   predicted    -0.1374451E+00 (  12.11%)
   displ. norm   :     1.1266434 α      lambda        0.1041813E+00
   maximum displ.:     1.0000000 α      in ANC's #25, #24, #84, ...

........................................................................
.............................. CYCLE    5 ..............................
........................................................................
   1    -38.1056139 -0.381056E+02  0.994E-01    1.41       0.0  T
   2    -38.1028237  0.279025E-02  0.108E+00    1.64       1.0  T
   3    -38.1150367 -0.122130E-01  0.567E-01    1.53       1.0  T
   4    -38.1147103  0.326424E-03  0.138E-01    1.51       1.0  T
   5    -38.1151023 -0.392019E-03  0.872E-02    1.54       1.0  T
   6    -38.1151067 -0.437344E-05  0.508E-02    1.53       1.0  T
   7    -38.1151203 -0.136141E-04  0.215E-02    1.53       1.0  T
   8    -38.1151249 -0.458286E-05  0.744E-03    1.52       2.4  T
   9    -38.1151247  0.137219E-06  0.528E-03    1.53       3.4  T
  10    -38.1151250 -0.299252E-06  0.223E-03    1.52       8.1  T
  11    -38.1151250 -0.524231E-08  0.117E-03    1.52      15.4  T
  12    -38.1151250 -0.589397E-08  0.422E-04    1.52      42.6  T
  13    -38.1151250 -0.965869E-09  0.178E-04    1.52     101.2  T
     SCC iter.                  ...        0 min,  1.465 sec
     gradient                   ...        0 min,  0.062 sec
 * total energy  :   -37.4350167 Eh     change        0.7418756E-01 Eh
   gradient norm :     0.8167900 Eh/α   predicted     0.1194493E+00 (  61.01%)
   displ. norm   :     0.3731971 α      lambda       -0.1702516E+00
   maximum displ.:     0.1995549 α      in ANC's #1, #25, #84, ...

........................................................................
.............................. CYCLE    6 ..............................
........................................................................
   1    -38.1459379 -0.381459E+02  0.508E-01    1.48       0.0  T
   2    -38.1457295  0.208381E-03  0.335E-01    1.45       1.0  T
   3    -38.1472144 -0.148489E-02  0.255E-01    1.49       1.0  T
   4    -38.1481111 -0.896658E-03  0.117E-01    1.47       1.0  T
   5    -38.1481976 -0.865041E-04  0.431E-02    1.47       1.0  T
   6    -38.1481905  0.706156E-05  0.284E-02    1.47       1.0  T
   7    -38.1482030 -0.124682E-04  0.132E-02    1.47       1.4  T
   8    -38.1482040 -0.102226E-05  0.407E-03    1.47       4.4  T
   9    -38.1482041 -0.676276E-07  0.287E-03    1.47       6.3  T
  10    -38.1482041 -0.670476E-07  0.155E-03    1.47      11.6  T
  11    -38.1482041 -0.511293E-08  0.892E-04    1.47      20.1  T
  12    -38.1482041 -0.154935E-08  0.371E-04    1.47      48.4  T
     SCC iter.                  ...        0 min,  1.366 sec
     gradient                   ...        0 min,  0.246 sec
 * total energy  :   -37.5382268 Eh     change       -0.1032102E+00 Eh
   gradient norm :     0.2837509 Eh/α   predicted    -0.9698339E-01 (  -6.03%)
   displ. norm   :     0.6785014 α      lambda       -0.8649455E-01
   maximum displ.:     0.5763327 α      in ANC's #1, #84, #25, ...

........................................................................
.............................. CYCLE    7 ..............................
........................................................................
   1    -38.1980627 -0.381981E+02  0.111E+00    1.79       0.0  T
   2    -38.1991784 -0.111566E-02  0.862E-01    1.50       1.0  T
   3    -38.2011090 -0.193063E-02  0.503E-01    1.71       1.0  T
   4    -38.2011737 -0.646699E-04  0.238E-01    1.60       1.0  T
   5    -38.2022713 -0.109758E-02  0.963E-02    1.63       1.0  T
   6    -38.2022850 -0.137303E-04  0.536E-02    1.64       1.0  T
   7    -38.2022935 -0.847545E-05  0.222E-02    1.64       1.0  T
   8    -38.2022985 -0.506298E-05  0.102E-02    1.64       1.8  T
   9    -38.2022994 -0.840219E-06  0.531E-03    1.64       3.4  T
  10    -38.2022995 -0.118467E-06  0.308E-03    1.64       5.8  T
  11    -38.2022995 -0.313130E-07  0.131E-03    1.64      13.7  T
  12    -38.2022995 -0.154567E-07  0.451E-04    1.64      39.8  T
  13    -38.2022995 -0.121415E-08  0.326E-04    1.64      55.0  T
     SCC iter.                  ...        0 min,  1.632 sec
     gradient                   ...        0 min,  0.049 sec
 * total energy  :   -37.5256489 Eh     change        0.1257796E-01 Eh
   gradient norm :     0.5807924 Eh/α   predicted    -0.6315725E-01 (-602.13%)
   displ. norm   :     0.3942368 α      lambda       -0.8367102E-01
   maximum displ.:     0.2977141 α      in ANC's #1, #65, #56, ...

........................................................................
.............................. CYCLE    8 ..............................
........................................................................
   1    -38.2116254 -0.382116E+02  0.603E-01    1.53       0.0  T
   2    -38.2123209 -0.695543E-03  0.349E-01    1.64       1.0  T
   3    -38.2122958  0.251529E-04  0.282E-01    1.55       1.0  T
   4    -38.2128580 -0.562192E-03  0.129E-01    1.60       1.0  T
   5    -38.2130386 -0.180684E-03  0.749E-02    1.60       1.0  T
   6    -38.2130462 -0.754392E-05  0.352E-02    1.59       1.0  T
   7    -38.2130572 -0.110281E-04  0.108E-02    1.60       1.7  T
   8    -38.2130573 -0.681376E-07  0.505E-03    1.60       3.6  T
   9    -38.2130576 -0.262642E-06  0.272E-03    1.60       6.6  T
  10    -38.2130576 -0.612679E-07  0.116E-03    1.60      15.5  T
  11    -38.2130576 -0.115234E-08  0.755E-04    1.60      23.8  T
  12    -38.2130576 -0.355013E-08  0.292E-04    1.60      61.5  T
     SCC iter.                  ...        0 min,  1.254 sec
     gradient                   ...        0 min,  0.305 sec
 * total energy  :   -37.5791798 Eh     change       -0.5353092E-01 Eh
   gradient norm :     0.1847542 Eh/α   predicted    -0.4833773E-01 (  -9.70%)
   displ. norm   :     0.3552565 α      lambda       -0.3001705E-01
   maximum displ.:     0.1301712 α      in ANC's #3, #27, #57, ...

........................................................................
.............................. CYCLE    9 ..............................
........................................................................
   1    -38.2207580 -0.382208E+02  0.557E-01    1.50       0.0  T
   2    -38.2198538  0.904220E-03  0.511E-01    1.56       1.0  T
   3    -38.2232586 -0.340489E-02  0.224E-01    1.53       1.0  T
   4    -38.2232744 -0.157389E-04  0.113E-01    1.53       1.0  T
   5    -38.2235195 -0.245143E-03  0.318E-02    1.54       1.0  T
   6    -38.2235207 -0.115771E-05  0.178E-02    1.53       1.0  T
   7    -38.2235218 -0.111553E-05  0.675E-03    1.53       2.7  T
   8    -38.2235220 -0.239170E-06  0.347E-03    1.53       5.2  T
   9    -38.2235221 -0.100631E-06  0.214E-03    1.53       8.4  T
  10    -38.2235222 -0.356047E-07  0.945E-04    1.53      19.0  T
  11    -38.2235222 -0.216144E-08  0.690E-04    1.53      26.0  T
     SCC iter.                  ...        0 min,  1.823 sec
     gradient                   ...        0 min,  0.232 sec
 * total energy  :   -37.5985318 Eh     change       -0.1935199E-01 Eh
   gradient norm :     0.1288990 Eh/α   predicted    -0.1690278E-01 ( -12.66%)
   displ. norm   :     0.4094870 α      lambda       -0.1845788E-01
   maximum displ.:     0.1541963 α      in ANC's #57, #27, #24, ...

........................................................................
.............................. CYCLE   10 ..............................
........................................................................
   1    -38.2458040 -0.382458E+02  0.481E-01    1.51       0.0  T
   2    -38.2459701 -0.166085E-03  0.269E-01    1.48       1.0  T
   3    -38.2456162  0.353904E-03  0.168E-01    1.51       1.0  T
   4    -38.2459720 -0.355809E-03  0.703E-02    1.50       1.0  T
   5    -38.2460715 -0.995190E-04  0.280E-02    1.50       1.0  T
   6    -38.2460713  0.218770E-06  0.143E-02    1.50       1.3  T
   7    -38.2460737 -0.243100E-05  0.705E-03    1.50       2.5  T
   8    -38.2460740 -0.276791E-06  0.292E-03    1.50       6.2  T
   9    -38.2460740 -0.299738E-07  0.170E-03    1.50      10.6  T
  10    -38.2460741 -0.161570E-07  0.110E-03    1.50      16.3  T
  11    -38.2460741 -0.495655E-08  0.668E-04    1.50      26.9  T
  12    -38.2460741 -0.886629E-09  0.206E-04    1.50      87.1  T
     SCC iter.                  ...        0 min,  1.369 sec
     gradient                   ...        0 min,  0.118 sec
 * total energy  :   -37.6095515 Eh     change       -0.1101971E-01 Eh
   gradient norm :     0.1247173 Eh/α   predicted    -0.1077651E-01 (  -2.21%)
   displ. norm   :     0.3145177 α      lambda       -0.1109055E-01
   maximum displ.:     0.2071899 α      in ANC's #1, #3, #14, ...

........................................................................
.............................. CYCLE   11 ..............................
........................................................................
   1    -38.2518215 -0.382518E+02  0.421E-01    1.50       0.0  T
   2    -38.2518726 -0.510764E-04  0.302E-01    1.48       1.0  T
   3    -38.2517817  0.908243E-04  0.199E-01    1.50       1.0  T
   4    -38.2522694 -0.487677E-03  0.795E-02    1.49       1.0  T
   5    -38.2523330 -0.635728E-04  0.277E-02    1.49       1.0  T
   6    -38.2523347 -0.174684E-05  0.156E-02    1.50       1.2  T
   7    -38.2523364 -0.164295E-05  0.693E-03    1.49       2.6  T
   8    -38.2523364  0.185853E-07  0.286E-03    1.49       6.3  T
   9    -38.2523365 -0.119350E-06  0.148E-03    1.49      12.2  T
  10    -38.2523365 -0.105209E-07  0.827E-04    1.49      21.7  T
  11    -38.2523365 -0.108984E-08  0.327E-04    1.49      54.9  T
     SCC iter.                  ...        0 min,  1.257 sec
     gradient                   ...        0 min,  0.282 sec
 * total energy  :   -37.6144610 Eh     change       -0.4909519E-02 Eh
   gradient norm :     0.1003797 Eh/α   predicted    -0.6093872E-02 (  24.12%)
   displ. norm   :     0.1635503 α      lambda       -0.4875769E-02
   maximum displ.:     0.0642319 α      in ANC's #3, #8, #15, ...

........................................................................
.............................. CYCLE   12 ..............................
........................................................................
   1    -38.2538279 -0.382538E+02  0.162E-01    1.50       0.0  T
   2    -38.2538424 -0.145573E-04  0.954E-02    1.48       1.0  T
   3    -38.2538063  0.361280E-04  0.767E-02    1.50       1.0  T
   4    -38.2538638 -0.574882E-04  0.251E-02    1.49       1.0  T
   5    -38.2538678 -0.401229E-05  0.179E-02    1.49       1.0  T
   6    -38.2538711 -0.335295E-05  0.861E-03    1.49       2.1  T
   7    -38.2538713 -0.177540E-06  0.343E-03    1.49       5.2  T
   8    -38.2538713 -0.343754E-07  0.207E-03    1.49       8.7  T
   9    -38.2538714 -0.226421E-07  0.113E-03    1.49      16.0  T
  10    -38.2538714 -0.231234E-08  0.587E-04    1.49      30.6  T
  11    -38.2538714 -0.142968E-08  0.932E-05    1.49     192.8  T
     SCC iter.                  ...        0 min,  1.204 sec
     gradient                   ...        0 min,  0.238 sec
 * total energy  :   -37.6173221 Eh     change       -0.2861084E-02 Eh
   gradient norm :     0.0373706 Eh/α   predicted    -0.2503161E-02 ( -12.51%)
   displ. norm   :     0.1516029 α      lambda       -0.2259182E-02
   maximum displ.:     0.0804445 α      in ANC's #3, #9, #15, ...

........................................................................
.............................. CYCLE   13 ..............................
........................................................................
   1    -38.2514543 -0.382515E+02  0.931E-02    1.50       0.0  T
   2    -38.2514565 -0.217184E-05  0.797E-02    1.50       1.0  T
   3    -38.2514939 -0.374266E-04  0.460E-02    1.50       1.0  T
   4    -38.2514951 -0.117771E-05  0.198E-02    1.50       1.0  T
   5    -38.2515011 -0.602287E-05  0.738E-03    1.50       2.4  T
   6    -38.2515010  0.140983E-06  0.454E-03    1.50       4.0  T
   7    -38.2515012 -0.249098E-06  0.152E-03    1.50      11.8  T
   8    -38.2515012 -0.344418E-08  0.136E-03    1.50      13.2  T
   9    -38.2515012 -0.721607E-08  0.685E-04    1.50      26.2  T
  10    -38.2515012 -0.126086E-08  0.348E-04    1.50      51.6  T
     SCC iter.                  ...        0 min,  1.109 sec
     gradient                   ...        0 min,  0.245 sec
 * total energy  :   -37.6190529 Eh     change       -0.1730855E-02 Eh
   gradient norm :     0.0414717 Eh/α   predicted    -0.1155572E-02 ( -33.24%)
   displ. norm   :     0.3731750 α      lambda       -0.3713208E-02
   maximum displ.:     0.2168219 α      in ANC's #3, #15, #9, ...

........................................................................
.............................. CYCLE   14 ..............................
........................................................................
   1    -38.2485381 -0.382485E+02  0.246E-01    1.52       0.0  T
   2    -38.2484984  0.397283E-04  0.224E-01    1.51       1.0  T
   3    -38.2488135 -0.315142E-03  0.123E-01    1.52       1.0  T
   4    -38.2488174 -0.390755E-05  0.357E-02    1.51       1.0  T
   5    -38.2488433 -0.258976E-04  0.156E-02    1.51       1.2  T
   6    -38.2488435 -0.158414E-06  0.796E-03    1.51       2.3  T
   7    -38.2488440 -0.497981E-06  0.353E-03    1.51       5.1  T
   8    -38.2488440  0.238186E-07  0.280E-03    1.51       6.4  T
   9    -38.2488440 -0.556061E-07  0.111E-03    1.51      16.2  T
  10    -38.2488440 -0.206511E-08  0.637E-04    1.51      28.2  T
  11    -38.2488440 -0.664905E-09  0.200E-04    1.51      90.0  T
     SCC iter.                  ...        0 min,  1.111 sec
     gradient                   ...        0 min,  0.226 sec
 * total energy  :   -37.6218401 Eh     change       -0.2787128E-02 Eh
   gradient norm :     0.0617813 Eh/α   predicted    -0.2115168E-02 ( -24.11%)
   displ. norm   :     0.4059880 α      lambda       -0.3471301E-02
   maximum displ.:     0.2382561 α      in ANC's #3, #15, #9, ...

........................................................................
.............................. CYCLE   15 ..............................
........................................................................
   1    -38.2476173 -0.382476E+02  0.243E-01    1.53       0.0  T
   2    -38.2476017  0.156054E-04  0.204E-01    1.53       1.0  T
   3    -38.2477542 -0.152486E-03  0.115E-01    1.53       1.0  T
   4    -38.2478074 -0.532351E-04  0.338E-02    1.52       1.0  T
   5    -38.2478266 -0.192098E-04  0.165E-02    1.53       1.1  T
   6    -38.2478272 -0.609546E-06  0.883E-03    1.53       2.0  T
   7    -38.2478277 -0.511436E-06  0.345E-03    1.53       5.2  T
   8    -38.2478277  0.305379E-07  0.273E-03    1.53       6.6  T
   9    -38.2478277 -0.558203E-07  0.110E-03    1.53      16.3  T
  10    -38.2478277 -0.153072E-08  0.606E-04    1.53      29.6  T
  11    -38.2478277 -0.696893E-09  0.188E-04    1.53      95.7  T
     SCC iter.                  ...        0 min,  1.148 sec
     gradient                   ...        0 min,  0.190 sec
 * total energy  :   -37.6244380 Eh     change       -0.2597912E-02 Eh
   gradient norm :     0.0549731 Eh/α   predicted    -0.2021843E-02 ( -22.17%)
   displ. norm   :     0.3698350 α      lambda       -0.3020451E-02
   maximum displ.:     0.2322930 α      in ANC's #3, #9, #15, ...

........................................................................
.............................. CYCLE   16 ..............................
........................................................................
   1    -38.2511545 -0.382512E+02  0.196E-01    1.55       0.0  T
   2    -38.2511506  0.383011E-05  0.151E-01    1.53       1.0  T
   3    -38.2511429  0.774135E-05  0.908E-02    1.55       1.0  T
   4    -38.2512349 -0.920248E-04  0.231E-02    1.54       1.0  T
   5    -38.2512400 -0.506687E-05  0.142E-02    1.54       1.3  T
   6    -38.2512410 -0.104216E-05  0.639E-03    1.54       2.8  T
   7    -38.2512412 -0.172895E-06  0.258E-03    1.54       7.0  T
   8    -38.2512412  0.111933E-07  0.158E-03    1.54      11.4  T
   9    -38.2512412 -0.212210E-07  0.815E-04    1.54      22.0  T
  10    -38.2512412 -0.126826E-08  0.342E-04    1.54      52.6  T
     SCC iter.                  ...        0 min,  1.007 sec
     gradient                   ...        0 min,  0.176 sec
 * total energy  :   -37.6267359 Eh     change       -0.2297943E-02 Eh
   gradient norm :     0.0329978 Eh/α   predicted    -0.1716801E-02 ( -25.29%)
   displ. norm   :     0.3786347 α      lambda       -0.2543608E-02
   maximum displ.:     0.2627183 α      in ANC's #3, #57, #9, ...

........................................................................
.............................. CYCLE   17 ..............................
........................................................................
   1    -38.2559972 -0.382560E+02  0.183E-01    1.56       0.0  T
   2    -38.2560036 -0.641142E-05  0.137E-01    1.53       1.0  T
   3    -38.2559669  0.367227E-04  0.822E-02    1.56       1.0  T
   4    -38.2560523 -0.853861E-04  0.265E-02    1.54       1.0  T
   5    -38.2560577 -0.544527E-05  0.159E-02    1.54       1.1  T
   6    -38.2560581 -0.357635E-06  0.573E-03    1.54       3.1  T
   7    -38.2560585 -0.348105E-06  0.230E-03    1.54       7.8  T
   8    -38.2560585 -0.269829E-07  0.101E-03    1.54      17.7  T
   9    -38.2560585 -0.405521E-08  0.664E-04    1.54      27.1  T
  10    -38.2560585  0.251518E-09  0.331E-04    1.54      54.3  T
     SCC iter.                  ...        0 min,  0.937 sec
     gradient                   ...        0 min,  0.197 sec
 * total energy  :   -37.6286995 Eh     change       -0.1963546E-02 Eh
   gradient norm :     0.0254672 Eh/α   predicted    -0.1454141E-02 ( -25.94%)
   displ. norm   :     0.4136652 α      lambda       -0.2327699E-02
   maximum displ.:     0.3035793 α      in ANC's #3, #57, #9, ...

........................................................................
.............................. CYCLE   18 ..............................
........................................................................
   1    -38.2604392 -0.382604E+02  0.181E-01    1.57       0.0  T
   2    -38.2604565 -0.172902E-04  0.120E-01    1.54       1.0  T
   3    -38.2604141  0.424561E-04  0.693E-02    1.57       1.0  T
   4    -38.2604721 -0.579717E-04  0.203E-02    1.55       1.0  T
   5    -38.2604737 -0.169199E-05  0.120E-02    1.55       1.5  T
   6    -38.2604734  0.360813E-06  0.611E-03    1.55       2.9  T
   7    -38.2604738 -0.424384E-06  0.198E-03    1.55       9.1  T
   8    -38.2604738 -0.131172E-07  0.926E-04    1.55      19.4  T
   9    -38.2604738 -0.658379E-08  0.459E-04    1.55      39.1  T
     SCC iter.                  ...        0 min,  1.072 sec
     gradient                   ...        0 min,  0.291 sec
 * total energy  :   -37.6305363 Eh     change       -0.1836874E-02 Eh
   gradient norm :     0.0202809 Eh/α   predicted    -0.1363008E-02 ( -25.80%)
   displ. norm   :     0.4650756 α      lambda       -0.2301909E-02
   maximum displ.:     0.3562319 α      in ANC's #3, #57, #9, ...

........................................................................
.............................. CYCLE   19 ..............................
........................................................................
   1    -38.2631538 -0.382632E+02  0.223E-01    1.58       0.0  T
   2    -38.2631716 -0.177960E-04  0.151E-01    1.56       1.0  T
   3    -38.2631160  0.556139E-04  0.726E-02    1.59       1.0  T
   4    -38.2631845 -0.685361E-04  0.186E-02    1.56       1.0  T
   5    -38.2631850 -0.463691E-06  0.100E-02    1.57       1.8  T
   6    -38.2631853 -0.350083E-06  0.458E-03    1.57       3.9  T
   7    -38.2631855 -0.212333E-06  0.167E-03    1.57      10.7  T
   8    -38.2631856 -0.155170E-07  0.736E-04    1.57      24.4  T
   9    -38.2631856 -0.443700E-08  0.372E-04    1.57      48.2  T
     SCC iter.                  ...        0 min,  1.040 sec
     gradient                   ...        0 min,  0.280 sec
 * total energy  :   -37.6323206 Eh     change       -0.1784245E-02 Eh
   gradient norm :     0.0284027 Eh/α   predicted    -0.1399908E-02 ( -21.54%)
   displ. norm   :     0.4576108 α      lambda       -0.2666713E-02
   maximum displ.:     0.2973533 α      in ANC's #3, #57, #15, ...

........................................................................
.............................. CYCLE   20 ..............................
........................................................................
   1    -38.2725827 -0.382726E+02  0.238E-01    1.61       0.0  T
   2    -38.2726236 -0.408885E-04  0.183E-01    1.58       1.0  T
   3    -38.2726464 -0.227797E-04  0.107E-01    1.60       1.0  T
   4    -38.2726978 -0.514501E-04  0.270E-02    1.60       1.0  T
   5    -38.2727123 -0.144869E-04  0.136E-02    1.59       1.3  T
   6    -38.2727127 -0.354734E-06  0.640E-03    1.59       2.8  T
   7    -38.2727129 -0.201350E-06  0.241E-03    1.59       7.5  T
   8    -38.2727129 -0.212155E-07  0.132E-03    1.59      13.6  T
   9    -38.2727129 -0.574603E-08  0.729E-04    1.59      24.7  T
  10    -38.2727129 -0.114785E-08  0.243E-04    1.59      74.0  T
     SCC iter.                  ...        0 min,  1.076 sec
     gradient                   ...        0 min,  0.278 sec
 * total energy  :   -37.6335590 Eh     change       -0.1238399E-02 Eh
   gradient norm :     0.0477220 Eh/α   predicted    -0.1612574E-02 (  30.21%)
   displ. norm   :     0.5274339 α      lambda       -0.2819386E-02
   maximum displ.:     0.4286225 α      in ANC's #3, #57, #12, ...
 * RMSD in coord.:     0.8719440 α      energy gain  -0.3913308E+01 Eh

generating ANC from model Hessian ...
Using Lindh-Hessian (1995)
 Shifting diagonal of input Hessian by    9.7154823054238556E-003
 Lowest  eigenvalues of input Hessian
    0.000000    0.000000    0.000000    0.000000    0.000000    0.000000
    0.010000    0.010182    0.010956    0.011166    0.011589    0.011712
    0.012846    0.014023    0.014955    0.016521    0.017466    0.017726
 Highest eigenvalues
    1.740317    1.747237    3.498837    3.816003    5.009136    6.174271


........................................................................
.............................. CYCLE   21 ..............................
........................................................................
   1    -38.2623405 -0.382623E+02  0.344E-01    1.62       0.0  T
   2    -38.2623545 -0.140060E-04  0.250E-01    1.61       1.0  T
   3    -38.2619532  0.401291E-03  0.124E-01    1.62       1.0  T
   4    -38.2623814 -0.428158E-03  0.308E-02    1.61       1.0  T
   5    -38.2623850 -0.359460E-05  0.161E-02    1.61       1.1  T
   6    -38.2623866 -0.162258E-05  0.560E-03    1.61       3.2  T
   7    -38.2623868 -0.176208E-06  0.379E-03    1.61       4.7  T
   8    -38.2623868 -0.384697E-07  0.119E-03    1.61      15.1  T
   9    -38.2623868 -0.426030E-08  0.733E-04    1.61      24.5  T
  10    -38.2623868 -0.267111E-08  0.345E-04    1.61      52.1  T
     SCC iter.                  ...        0 min,  1.070 sec
     gradient                   ...        0 min,  0.287 sec
 * total energy  :   -37.6342619 Eh     change       -0.7029223E-03 Eh
   gradient norm :     0.0641835 Eh/α   predicted     0.0000000E+00 (-100.00%)
   displ. norm   :     0.3395144 α      lambda       -0.4672900E-02
   maximum displ.:     0.1683679 α      in ANC's #5, #7, #3, ...

........................................................................
.............................. CYCLE   22 ..............................
........................................................................
   1    -38.2681920 -0.382682E+02  0.256E-01    1.62       0.0  T
   2    -38.2682374 -0.453828E-04  0.155E-01    1.64       1.0  T
   3    -38.2681623  0.751019E-04  0.121E-01    1.62       1.0  T
   4    -38.2682839 -0.121604E-03  0.314E-02    1.63       1.0  T
   5    -38.2682888 -0.491729E-05  0.236E-02    1.63       1.0  T
   6    -38.2682916 -0.278503E-05  0.577E-03    1.63       3.1  T
   7    -38.2682919 -0.309334E-06  0.150E-03    1.63      12.0  T
   8    -38.2682919  0.219158E-08  0.129E-03    1.63      14.0  T
   9    -38.2682919 -0.764004E-08  0.669E-04    1.63      26.9  T
  10    -38.2682919 -0.118099E-08  0.361E-04    1.63      49.8  T
     SCC iter.                  ...        0 min,  1.024 sec
     gradient                   ...        0 min,  0.214 sec
 * total energy  :   -37.6370939 Eh     change       -0.2831967E-02 Eh
   gradient norm :     0.0147592 Eh/α   predicted    -0.2605772E-02 (  -7.99%)
   displ. norm   :     0.3992160 α      lambda       -0.1996538E-02
   maximum displ.:     0.2108261 α      in ANC's #7, #3, #5, ...

........................................................................
.............................. CYCLE   23 ..............................
........................................................................
   1    -38.2704782 -0.382705E+02  0.236E-01    1.64       0.0  T
   2    -38.2704859 -0.768982E-05  0.151E-01    1.65       1.0  T
   3    -38.2703854  0.100498E-03  0.748E-02    1.64       1.0  T
   4    -38.2704957 -0.110326E-03  0.204E-02    1.65       1.0  T
   5    -38.2704954  0.283073E-06  0.166E-02    1.65       1.1  T
   6    -38.2704969 -0.148007E-05  0.532E-03    1.65       3.4  T
   7    -38.2704970 -0.755858E-07  0.205E-03    1.65       8.8  T
   8    -38.2704970 -0.768648E-08  0.110E-03    1.65      16.4  T
   9    -38.2704970 -0.570731E-08  0.473E-04    1.65      38.0  T
  10    -38.2704970 -0.435953E-09  0.209E-04    1.65      85.9  T
     SCC iter.                  ...        0 min,  1.111 sec
     gradient                   ...        0 min,  0.229 sec
 * total energy  :   -37.6384431 Eh     change       -0.1349266E-02 Eh
   gradient norm :     0.0114868 Eh/α   predicted    -0.1157417E-02 ( -14.22%)
   displ. norm   :     0.4473725 α      lambda       -0.1354626E-02
   maximum displ.:     0.2498662 α      in ANC's #3, #7, #5, ...

........................................................................
.............................. CYCLE   24 ..............................
........................................................................
   1    -38.2703159 -0.382703E+02  0.242E-01    1.67       0.0  T
   2    -38.2703308 -0.148504E-04  0.157E-01    1.66       1.0  T
   3    -38.2702645  0.662690E-04  0.825E-02    1.67       1.0  T
   4    -38.2703342 -0.696625E-04  0.255E-02    1.66       1.0  T
   5    -38.2703436 -0.944504E-05  0.123E-02    1.66       1.5  T
   6    -38.2703443 -0.669754E-06  0.593E-03    1.66       3.0  T
   7    -38.2703445 -0.220899E-06  0.217E-03    1.66       8.3  T
   8    -38.2703445 -0.190234E-09  0.143E-03    1.66      12.6  T
   9    -38.2703445 -0.774020E-08  0.681E-04    1.66      26.4  T
  10    -38.2703445 -0.101380E-08  0.322E-04    1.66      55.8  T
     SCC iter.                  ...        0 min,  1.016 sec
     gradient                   ...        0 min,  0.210 sec
 * total energy  :   -37.6392931 Eh     change       -0.8499043E-03 Eh
   gradient norm :     0.0403427 Eh/α   predicted    -0.8128741E-03 (  -4.36%)
   displ. norm   :     0.3194632 α      lambda       -0.8782247E-03
   maximum displ.:     0.1948307 α      in ANC's #3, #7, #5, ...

........................................................................
.............................. CYCLE   25 ..............................
........................................................................
   1    -38.2712623 -0.382713E+02  0.182E-01    1.68       0.0  T
   2    -38.2712776 -0.152876E-04  0.111E-01    1.67       1.0  T
   3    -38.2712485  0.291207E-04  0.596E-02    1.68       1.0  T
   4    -38.2712864 -0.378608E-04  0.116E-02    1.67       1.6  T
   5    -38.2712864 -0.498719E-07  0.809E-03    1.68       2.2  T
   6    -38.2712868 -0.393530E-06  0.269E-03    1.68       6.7  T
   7    -38.2712869 -0.850663E-07  0.201E-03    1.68       8.9  T
   8    -38.2712869 -0.154852E-07  0.124E-03    1.68      14.5  T
   9    -38.2712869  0.207780E-08  0.569E-04    1.68      31.6  T
  10    -38.2712869 -0.454732E-08  0.319E-04    1.68      56.4  T
     SCC iter.                  ...        0 min,  0.881 sec
     gradient                   ...        0 min,  0.220 sec
 * total energy  :   -37.6398813 Eh     change       -0.5882762E-03 Eh
   gradient norm :     0.0171375 Eh/α   predicted    -0.4839367E-03 ( -17.74%)
   displ. norm   :     0.3327262 α      lambda       -0.5932465E-03
   maximum displ.:     0.2210991 α      in ANC's #7, #3, #8, ...

........................................................................
.............................. CYCLE   26 ..............................
........................................................................
   1    -38.2711139 -0.382711E+02  0.149E-01    1.68       0.0  T
   2    -38.2711190 -0.507085E-05  0.935E-02    1.69       1.0  T
   3    -38.2710623  0.567281E-04  0.644E-02    1.68       1.0  T
   4    -38.2711297 -0.674386E-04  0.129E-02    1.68       1.4  T
   5    -38.2711313 -0.156655E-05  0.654E-03    1.68       2.7  T
   6    -38.2711314 -0.652807E-07  0.225E-03    1.68       8.0  T
   7    -38.2711314 -0.350298E-07  0.134E-03    1.68      13.4  T
   8    -38.2711314 -0.100538E-07  0.692E-04    1.68      26.0  T
   9    -38.2711314 -0.161970E-08  0.276E-04    1.68      65.0  T
     SCC iter.                  ...        0 min,  0.763 sec
     gradient                   ...        0 min,  0.277 sec
 * total energy  :   -37.6402886 Eh     change       -0.4072537E-03 Eh
   gradient norm :     0.0205604 Eh/α   predicted    -0.3294666E-03 ( -19.10%)
   displ. norm   :     0.2593390 α      lambda       -0.5492958E-03
   maximum displ.:     0.1645515 α      in ANC's #7, #3, #8, ...

........................................................................
.............................. CYCLE   27 ..............................
........................................................................
   1    -38.2739761 -0.382740E+02  0.129E-01    1.69       0.0  T
   2    -38.2739791 -0.296969E-05  0.760E-02    1.69       1.0  T
   3    -38.2739321  0.470005E-04  0.611E-02    1.69       1.0  T
   4    -38.2739896 -0.574941E-04  0.121E-02    1.69       1.5  T
   5    -38.2739900 -0.463660E-06  0.697E-03    1.69       2.6  T
   6    -38.2739902 -0.144596E-06  0.131E-03    1.69      13.7  T
   7    -38.2739902 -0.239740E-07  0.869E-04    1.69      20.7  T
   8    -38.2739902 -0.101446E-08  0.654E-04    1.69      27.5  T
     SCC iter.                  ...        0 min,  0.873 sec
     gradient                   ...        0 min,  0.326 sec
 * total energy  :   -37.6406031 Eh     change       -0.3144869E-03 Eh
   gradient norm :     0.0112248 Eh/α   predicted    -0.2931229E-03 (  -6.79%)
   displ. norm   :     0.3400265 α      lambda       -0.3965932E-03
   maximum displ.:     0.2626696 α      in ANC's #7, #3, #2, ...

........................................................................
.............................. CYCLE   28 ..............................
........................................................................
   1    -38.2718122 -0.382718E+02  0.205E-01    1.69       0.0  T
   2    -38.2718146 -0.242135E-05  0.144E-01    1.69       1.0  T
   3    -38.2716710  0.143643E-03  0.919E-02    1.69       1.0  T
   4    -38.2718394 -0.168424E-03  0.141E-02    1.69       1.3  T
   5    -38.2718412 -0.183272E-05  0.692E-03    1.69       2.6  T
   6    -38.2718414 -0.153021E-06  0.259E-03    1.69       6.9  T
   7    -38.2718414 -0.809264E-08  0.167E-03    1.69      10.7  T
   8    -38.2718414 -0.689388E-08  0.722E-04    1.69      24.9  T
   9    -38.2718414 -0.469159E-08  0.295E-04    1.69      60.9  T
     SCC iter.                  ...        0 min,  0.951 sec
     gradient                   ...        0 min,  0.198 sec
 * total energy  :   -37.6407520 Eh     change       -0.1489077E-03 Eh
   gradient norm :     0.0257236 Eh/α   predicted    -0.2212335E-03 (  48.57%)
   displ. norm   :     0.0807828 α      lambda       -0.3027578E-03
   maximum displ.:     0.0452845 α      in ANC's #5, #3, #10, ...

........................................................................
.............................. CYCLE   29 ..............................
........................................................................
   1    -38.2743682 -0.382744E+02  0.514E-02    1.70       0.0  T
   2    -38.2743705 -0.228301E-05  0.289E-02    1.69       1.0  T
   3    -38.2743674  0.311084E-05  0.244E-02    1.70       1.0  T
   4    -38.2743735 -0.619671E-05  0.657E-03    1.70       2.7  T
   5    -38.2743739 -0.331514E-06  0.403E-03    1.70       4.5  T
   6    -38.2743738  0.374243E-07  0.173E-03    1.70      10.4  T
   7    -38.2743739 -0.481957E-07  0.570E-04    1.70      31.5  T
   8    -38.2743739 -0.284395E-08  0.449E-04    1.70      40.0  T
     SCC iter.                  ...        0 min,  0.810 sec
     gradient                   ...        0 min,  0.135 sec
 * total energy  :   -37.6409290 Eh     change       -0.1770530E-03 Eh
   gradient norm :     0.0099670 Eh/α   predicted    -0.1523705E-03 ( -13.94%)
   displ. norm   :     0.1564089 α      lambda       -0.1621550E-03
   maximum displ.:     0.1179564 α      in ANC's #7, #10, #1, ...

........................................................................
.............................. CYCLE   30 ..............................
........................................................................
   1    -38.2741013 -0.382741E+02  0.602E-02    1.70       0.0  T
   2    -38.2741047 -0.340163E-05  0.374E-02    1.70       1.0  T
   3    -38.2741012  0.351923E-05  0.214E-02    1.70       1.0  T
   4    -38.2741068 -0.558288E-05  0.632E-03    1.70       2.8  T
   5    -38.2741070 -0.190862E-06  0.372E-03    1.70       4.8  T
   6    -38.2741070 -0.327434E-07  0.166E-03    1.70      10.8  T
   7    -38.2741070 -0.228257E-07  0.870E-04    1.70      20.6  T
   8    -38.2741070 -0.573434E-08  0.526E-04    1.70      34.1  T
     SCC iter.                  ...        0 min,  0.680 sec
     gradient                   ...        0 min,  0.060 sec
 * total energy  :   -37.6410442 Eh     change       -0.1151402E-03 Eh
   gradient norm :     0.0060147 Eh/α   predicted    -0.8306907E-04 ( -27.85%)
   displ. norm   :     0.2873151 α      lambda       -0.2017561E-03
   maximum displ.:     0.2358281 α      in ANC's #7, #1, #10, ...

........................................................................
.............................. CYCLE   31 ..............................
........................................................................
   1    -38.2728514 -0.382729E+02  0.124E-01    1.71       0.0  T
   2    -38.2728580 -0.659046E-05  0.837E-02    1.71       1.0  T
   3    -38.2728293  0.287106E-04  0.427E-02    1.72       1.0  T
   4    -38.2728632 -0.339331E-04  0.128E-02    1.71       1.4  T
   5    -38.2728645 -0.129303E-05  0.679E-03    1.71       2.6  T
   6    -38.2728645  0.109219E-07  0.270E-03    1.71       6.7  T
   7    -38.2728646 -0.131808E-06  0.970E-04    1.71      18.5  T
   8    -38.2728647 -0.439331E-08  0.544E-04    1.71      33.0  T
     SCC iter.                  ...        0 min,  0.880 sec
     gradient                   ...        0 min,  0.119 sec
 * total energy  :   -37.6411709 Eh     change       -0.1266905E-03 Eh
   gradient norm :     0.0082224 Eh/α   predicted    -0.1092100E-03 ( -13.80%)
   displ. norm   :     0.1653040 α      lambda       -0.1367965E-03
   maximum displ.:     0.1075759 α      in ANC's #7, #1, #9, ...

........................................................................
.............................. CYCLE   32 ..............................
........................................................................
   1    -38.2740251 -0.382740E+02  0.494E-02    1.72       0.0  T
   2    -38.2740269 -0.178041E-05  0.328E-02    1.71       1.0  T
   3    -38.2740244  0.248859E-05  0.183E-02    1.72       1.0  T
   4    -38.2740286 -0.417591E-05  0.379E-03    1.71       4.7  T
   5    -38.2740286  0.459586E-09  0.300E-03    1.71       6.0  T
   6    -38.2740287 -0.707682E-07  0.765E-04    1.71      23.5  T
   7    -38.2740287 -0.118175E-07  0.329E-04    1.71      54.5  T
     SCC iter.                  ...        0 min,  0.866 sec
     gradient                   ...        0 min,  0.275 sec
 * total energy  :   -37.6412674 Eh     change       -0.9654868E-04 Eh
   gradient norm :     0.0052910 Eh/α   predicted    -0.7026816E-04 ( -27.22%)
   displ. norm   :     0.2533766 α      lambda       -0.1354051E-03
   maximum displ.:     0.1677188 α      in ANC's #7, #1, #9, ...

........................................................................
.............................. CYCLE   33 ..............................
........................................................................
   1    -38.2740349 -0.382740E+02  0.718E-02    1.72       0.0  T
   2    -38.2740364 -0.154643E-05  0.490E-02    1.72       1.0  T
   3    -38.2740292  0.726539E-05  0.252E-02    1.72       1.0  T
   4    -38.2740379 -0.874053E-05  0.777E-03    1.72       2.3  T
   5    -38.2740385 -0.559746E-06  0.525E-03    1.72       3.4  T
   6    -38.2740386 -0.176351E-06  0.153E-03    1.72      11.8  T
   7    -38.2740386 -0.921870E-08  0.669E-04    1.72      26.9  T
   8    -38.2740386 -0.247952E-08  0.366E-04    1.72      49.0  T
     SCC iter.                  ...        0 min,  0.861 sec
     gradient                   ...        0 min,  0.257 sec
 * total energy  :   -37.6413644 Eh     change       -0.9695408E-04 Eh
   gradient norm :     0.0096416 Eh/α   predicted    -0.7205042E-04 ( -25.69%)
   displ. norm   :     0.3105749 α      lambda       -0.2308351E-03
   maximum displ.:     0.1989292 α      in ANC's #1, #7, #9, ...

........................................................................
.............................. CYCLE   34 ..............................
........................................................................
   1    -38.2762129 -0.382762E+02  0.883E-02    1.73       0.0  T
   2    -38.2762156 -0.272505E-05  0.517E-02    1.72       1.0  T
   3    -38.2762107  0.484170E-05  0.235E-02    1.73       1.0  T
   4    -38.2762165 -0.571050E-05  0.865E-03    1.72       2.1  T
   5    -38.2762170 -0.560349E-06  0.468E-03    1.72       3.8  T
   6    -38.2762170 -0.238932E-07  0.241E-03    1.72       7.5  T
   7    -38.2762171 -0.362809E-07  0.864E-04    1.72      20.8  T
   8    -38.2762171 -0.568811E-09  0.619E-04    1.72      29.0  T
     SCC iter.                  ...        0 min,  0.941 sec
     gradient                   ...        0 min,  0.235 sec
 * total energy  :   -37.6415023 Eh     change       -0.1379171E-03 Eh
   gradient norm :     0.0044636 Eh/α   predicted    -0.1265526E-03 (  -8.24%)
   displ. norm   :     0.4645538 α      lambda       -0.2277517E-03
   maximum displ.:     0.2853181 α      in ANC's #1, #7, #9, ...

........................................................................
.............................. CYCLE   35 ..............................
........................................................................
   1    -38.2728658 -0.382729E+02  0.130E-01    1.73       0.0  T
   2    -38.2728679 -0.209739E-05  0.826E-02    1.73       1.0  T
   3    -38.2728303  0.376041E-04  0.505E-02    1.73       1.0  T
   4    -38.2728729 -0.425896E-04  0.121E-02    1.73       1.5  T
   5    -38.2728735 -0.586804E-06  0.736E-03    1.73       2.4  T
   6    -38.2728739 -0.339809E-06  0.171E-03    1.73      10.5  T
   7    -38.2728739 -0.241801E-07  0.842E-04    1.73      21.3  T
   8    -38.2728739 -0.266211E-08  0.604E-04    1.73      29.7  T
     SCC iter.                  ...        0 min,  1.006 sec
     gradient                   ...        0 min,  0.278 sec
 * total energy  :   -37.6416166 Eh     change       -0.1143604E-03 Eh
   gradient norm :     0.0218442 Eh/α   predicted    -0.1384520E-03 (  21.07%)
   displ. norm   :     0.1633334 α      lambda       -0.2757525E-03
   maximum displ.:     0.1051775 α      in ANC's #1, #2, #9, ...

........................................................................
.............................. CYCLE   36 ..............................
........................................................................
   1    -38.2747523 -0.382748E+02  0.514E-02    1.73       0.0  T
   2    -38.2747546 -0.233511E-05  0.331E-02    1.73       1.0  T
   3    -38.2747513  0.325032E-05  0.212E-02    1.73       1.0  T
   4    -38.2747565 -0.516496E-05  0.631E-03    1.73       2.8  T
   5    -38.2747567 -0.188136E-06  0.433E-03    1.73       4.1  T
   6    -38.2747568 -0.644441E-07  0.180E-03    1.73      10.0  T
   7    -38.2747568 -0.464449E-07  0.505E-04    1.73      35.6  T
   8    -38.2747568 -0.595115E-09  0.389E-04    1.73      46.2  T
     SCC iter.                  ...        0 min,  1.103 sec
     gradient                   ...        0 min,  0.293 sec
 * total energy  :   -37.6417777 Eh     change       -0.1610600E-03 Eh
   gradient norm :     0.0089796 Eh/α   predicted    -0.1415546E-03 ( -12.11%)
   displ. norm   :     0.3172292 α      lambda       -0.3565728E-03
   maximum displ.:     0.2171619 α      in ANC's #1, #2, #9, ...

........................................................................
.............................. CYCLE   37 ..............................
........................................................................
   1    -38.2758659 -0.382759E+02  0.997E-02    1.73       0.0  T
   2    -38.2758703 -0.439576E-05  0.630E-02    1.73       1.0  T
   3    -38.2758576  0.126312E-04  0.294E-02    1.73       1.0  T
   4    -38.2758728 -0.151187E-04  0.722E-03    1.73       2.5  T
   5    -38.2758730 -0.219262E-06  0.568E-03    1.73       3.2  T
   6    -38.2758732 -0.212874E-06  0.179E-03    1.73      10.0  T
   7    -38.2758732 -0.139949E-07  0.108E-03    1.73      16.7  T
   8    -38.2758732 -0.989866E-08  0.488E-04    1.73      36.8  T
   9    -38.2758732 -0.121845E-08  0.207E-04    1.73      87.0  T
     SCC iter.                  ...        0 min,  1.140 sec
     gradient                   ...        0 min,  0.339 sec
 * total energy  :   -37.6419301 Eh     change       -0.1524164E-03 Eh
   gradient norm :     0.0104676 Eh/α   predicted    -0.1962290E-03 (  28.75%)
   displ. norm   :     0.4095310 α      lambda       -0.2707690E-03
   maximum displ.:     0.2815122 α      in ANC's #1, #7, #2, ...

........................................................................
.............................. CYCLE   38 ..............................
........................................................................
   1    -38.2703136 -0.382703E+02  0.103E-01    1.73       0.0  T
   2    -38.2703182 -0.463611E-05  0.587E-02    1.74       1.0  T
   3    -38.2703066  0.116220E-04  0.326E-02    1.73       1.0  T
   4    -38.2703205 -0.138928E-04  0.106E-02    1.73       1.7  T
   5    -38.2703210 -0.517664E-06  0.711E-03    1.73       2.5  T
   6    -38.2703209  0.651308E-07  0.279E-03    1.73       6.4  T
   7    -38.2703210 -0.988547E-07  0.946E-04    1.73      19.0  T
   8    -38.2703210 -0.637731E-08  0.614E-04    1.73      29.2  T
     SCC iter.                  ...        0 min,  0.931 sec
     gradient                   ...        0 min,  0.316 sec
 * total energy  :   -37.6420597 Eh     change       -0.1296320E-03 Eh
   gradient norm :     0.0140174 Eh/α   predicted    -0.1580932E-03 (  21.96%)
   displ. norm   :     0.1033434 α      lambda       -0.1702728E-03
   maximum displ.:     0.0720244 α      in ANC's #1, #2, #9, ...

........................................................................
.............................. CYCLE   39 ..............................
........................................................................
   1    -38.2726269 -0.382726E+02  0.351E-02    1.74       0.0  T
   2    -38.2726279 -0.905173E-06  0.216E-02    1.73       1.0  T
   3    -38.2726255  0.233254E-05  0.132E-02    1.74       1.4  T
   4    -38.2726285 -0.299004E-05  0.397E-03    1.73       4.5  T
   5    -38.2726287 -0.141592E-06  0.198E-03    1.73       9.1  T
   6    -38.2726287  0.183952E-08  0.104E-03    1.73      17.3  T
   7    -38.2726287 -0.124342E-07  0.438E-04    1.73      41.0  T
   8    -38.2726287 -0.129795E-08  0.275E-04    1.73      65.3  T
     SCC iter.                  ...        0 min,  0.915 sec
     gradient                   ...        0 min,  0.374 sec
 * total energy  :   -37.6421766 Eh     change       -0.1168480E-03 Eh
   gradient norm :     0.0115729 Eh/α   predicted    -0.8605034E-04 ( -26.36%)
   displ. norm   :     0.2758072 α      lambda       -0.2085065E-03
   maximum displ.:     0.2063824 α      in ANC's #1, #2, #9, ...

........................................................................
.............................. CYCLE   40 ..............................
........................................................................
   1    -38.2749864 -0.382750E+02  0.678E-02    1.74       0.0  T
   2    -38.2749879 -0.151907E-05  0.499E-02    1.73       1.0  T
   3    -38.2749766  0.112789E-04  0.276E-02    1.74       1.0  T
   4    -38.2749927 -0.161413E-04  0.707E-03    1.74       2.5  T
   5    -38.2749933 -0.553853E-06  0.316E-03    1.73       5.7  T
   6    -38.2749933  0.202097E-08  0.964E-04    1.73      18.6  T
   7    -38.2749933 -0.145063E-07  0.318E-04    1.73      56.5  T
     SCC iter.                  ...        0 min,  0.945 sec
     gradient                   ...        0 min,  0.336 sec
 * total energy  :   -37.6423181 Eh     change       -0.1414932E-03 Eh
   gradient norm :     0.0041486 Eh/α   predicted    -0.1121852E-03 ( -20.71%)
   displ. norm   :     0.5824237 α      lambda       -0.2246417E-03
   maximum displ.:     0.4304611 α      in ANC's #1, #2, #9, ...

........................................................................
.............................. CYCLE   41 ..............................
........................................................................
   1    -38.2704991 -0.382705E+02  0.128E-01    1.73       0.0  T
   2    -38.2705020 -0.292598E-05  0.788E-02    1.73       1.0  T
   3    -38.2704917  0.103597E-04  0.288E-02    1.73       1.0  T
   4    -38.2705035 -0.118740E-04  0.995E-03    1.73       1.8  T
   5    -38.2705033  0.179763E-06  0.602E-03    1.73       3.0  T
   6    -38.2705038 -0.405192E-06  0.156E-03    1.73      11.5  T
   7    -38.2705038 -0.298060E-07  0.676E-04    1.73      26.6  T
   8    -38.2705038 -0.436248E-08  0.376E-04    1.73      47.8  T
     SCC iter.                  ...        0 min,  0.814 sec
     gradient                   ...        0 min,  0.004 sec
 * total energy  :   -37.6423575 Eh     change       -0.3944457E-04 Eh
   gradient norm :     0.0258737 Eh/α   predicted    -0.1504292E-03 ( 281.37%)
   displ. norm   :     0.0777639 α      lambda       -0.2674097E-03
   maximum displ.:     0.0618083 α      in ANC's #9, #7, #4, ...

........................................................................
.............................. CYCLE   42 ..............................
........................................................................
   1    -38.2758187 -0.382758E+02  0.387E-02    1.73       0.0  T
   2    -38.2758193 -0.554894E-06  0.306E-02    1.73       1.0  T
   3    -38.2758208 -0.158089E-05  0.177E-02    1.73       1.0  T
   4    -38.2758227 -0.183447E-05  0.582E-03    1.73       3.1  T
   5    -38.2758230 -0.368626E-06  0.305E-03    1.73       5.9  T
   6    -38.2758231 -0.132513E-07  0.118E-03    1.73      15.2  T
   7    -38.2758231 -0.876166E-08  0.472E-04    1.73      38.0  T
   8    -38.2758231 -0.609234E-09  0.316E-04    1.73      56.9  T
     SCC iter.                  ...        0 min,  0.728 sec
     gradient                   ...        0 min,  0.209 sec
 * total energy  :   -37.6424786 Eh     change       -0.1210637E-03 Eh
   gradient norm :     0.0090215 Eh/α   predicted    -0.1345140E-03 (  11.11%)
   displ. norm   :     0.1391136 α      lambda       -0.8477662E-04
   maximum displ.:     0.1076179 α      in ANC's #1, #2, #7, ...
 * RMSD in coord.:     0.8090080 α      energy gain  -0.8919606E-02 Eh

generating ANC from model Hessian ...
Using Lindh-Hessian (1995)
 Shifting diagonal of input Hessian by    9.8944052695507777E-003
 Lowest  eigenvalues of input Hessian
    0.000000    0.000000    0.000000    0.000000    0.000000    0.000000
    0.010000    0.010305    0.010597    0.011158    0.011436    0.011512
    0.011619    0.014774    0.015569    0.015873    0.017977    0.018113
 Highest eigenvalues
    1.735375    1.736513    3.283628    3.886986    4.814779    6.475077


........................................................................
.............................. CYCLE   43 ..............................
........................................................................
   1    -38.2758002 -0.382758E+02  0.372E-02    1.73       0.0  T
   2    -38.2758006 -0.428791E-06  0.228E-02    1.73       1.0  T
   3    -38.2757997  0.896751E-06  0.818E-03    1.73       2.2  T
   4    -38.2758008 -0.109918E-05  0.273E-03    1.73       6.6  T
   5    -38.2758008  0.416570E-08  0.180E-03    1.73      10.0  T
   6    -38.2758009 -0.316810E-07  0.879E-04    1.73      20.4  T
   7    -38.2758009 -0.467352E-08  0.378E-04    1.73      47.5  T
     SCC iter.                  ...        0 min,  0.569 sec
     gradient                   ...        0 min,  0.074 sec
 * total energy  :   -37.6425332 Eh     change       -0.5460205E-04 Eh
   gradient norm :     0.0040012 Eh/α   predicted     0.0000000E+00 (-100.00%)
   displ. norm   :     0.0394870 α      lambda        0.2663355E-04
   maximum displ.:     0.0179610 α      in ANC's #3, #4, #1, ...

........................................................................
.............................. CYCLE   44 ..............................
........................................................................
   1    -38.2762434 -0.382762E+02  0.217E-02    1.73       0.0  T
   2    -38.2762438 -0.399164E-06  0.139E-02    1.73       1.3  T
   3    -38.2762432  0.624941E-06  0.984E-03    1.73       1.8  T
   4    -38.2762442 -0.962864E-06  0.274E-03    1.73       6.5  T
   5    -38.2762443 -0.125294E-06  0.130E-03    1.73      13.8  T
   6    -38.2762443  0.331937E-09  0.509E-04    1.73      35.3  T
   7    -38.2762443 -0.317186E-08  0.125E-04    1.73     143.9  T
     SCC iter.                  ...        0 min,  0.700 sec
     gradient                   ...        0 min,  0.043 sec
 * total energy  :   -37.6425570 Eh     change       -0.2380990E-04 Eh
   gradient norm :     0.0009560 Eh/α   predicted    -0.1621837E-04 ( -31.88%)
   displ. norm   :     0.1202601 α      lambda       -0.3426996E-04
   maximum displ.:     0.0544667 α      in ANC's #4, #3, #1, ...

........................................................................
.............................. CYCLE   45 ..............................
........................................................................
   1    -38.2767873 -0.382768E+02  0.434E-02    1.73       0.0  T
   2    -38.2767884 -0.109428E-05  0.276E-02    1.73       1.0  T
   3    -38.2767847  0.365141E-05  0.169E-02    1.73       1.1  T
   4    -38.2767892 -0.450701E-05  0.429E-03    1.73       4.2  T
   5    -38.2767895 -0.267458E-06  0.272E-03    1.73       6.6  T
   6    -38.2767895 -0.176760E-07  0.964E-04    1.73      18.6  T
   7    -38.2767895 -0.113863E-07  0.278E-04    1.73      64.5  T
     SCC iter.                  ...        0 min,  0.636 sec
     gradient                   ...        0 min,  0.090 sec
 * total energy  :   -37.6425815 Eh     change       -0.2452175E-04 Eh
   gradient norm :     0.0038840 Eh/α   predicted    -0.1724782E-04 ( -29.66%)
   displ. norm   :     0.0481090 α      lambda       -0.1754912E-04
   maximum displ.:     0.0231105 α      in ANC's #4, #1, #3, ...

........................................................................
.............................. CYCLE   46 ..............................
........................................................................
   1    -38.2766302 -0.382766E+02  0.234E-02    1.73       0.0  T
   2    -38.2766303 -0.103796E-06  0.152E-02    1.73       1.2  T
   3    -38.2766298  0.460414E-06  0.477E-03    1.73       3.8  T
   4    -38.2766303 -0.515901E-06  0.159E-03    1.73      11.3  T
   5    -38.2766303 -0.166072E-08  0.102E-03    1.73      17.6  T
   6    -38.2766303 -0.836889E-08  0.350E-04    1.73      51.4  T
   7    -38.2766303 -0.182448E-08  0.166E-04    1.73     108.0  T
     SCC iter.                  ...        0 min,  0.603 sec
     gradient                   ...        0 min,  0.146 sec
 * total energy  :   -37.6425940 Eh     change       -0.1243768E-04 Eh
   gradient norm :     0.0022003 Eh/α   predicted    -0.8800270E-05 ( -29.25%)
   displ. norm   :     0.0759864 α      lambda       -0.2164661E-04
   maximum displ.:     0.0387005 α      in ANC's #1, #4, #7, ...

........................................................................
.............................. CYCLE   47 ..............................
........................................................................
   1    -38.2762321 -0.382762E+02  0.280E-02    1.73       0.0  T
   2    -38.2762322 -0.190515E-06  0.172E-02    1.73       1.0  T
   3    -38.2762318  0.446556E-06  0.582E-03    1.73       3.1  T
   4    -38.2762323 -0.527696E-06  0.173E-03    1.73      10.4  T
   5    -38.2762323 -0.278936E-08  0.111E-03    1.73      16.2  T
   6    -38.2762323 -0.394710E-08  0.454E-04    1.73      39.6  T
   7    -38.2762323 -0.336633E-08  0.231E-04    1.73      77.8  T
     SCC iter.                  ...        0 min,  0.706 sec
     gradient                   ...        0 min,  0.206 sec
 * total energy  :   -37.6426093 Eh     change       -0.1534371E-04 Eh
   gradient norm :     0.0008253 Eh/α   predicted    -0.1088653E-04 ( -29.05%)
   displ. norm   :     0.1094499 α      lambda       -0.1183827E-04
   maximum displ.:     0.0612909 α      in ANC's #1, #4, #7, ...

........................................................................
.............................. CYCLE   48 ..............................
........................................................................
   1    -38.2759497 -0.382759E+02  0.415E-02    1.73       0.0  T
   2    -38.2759499 -0.185791E-06  0.250E-02    1.73       1.0  T
   3    -38.2759495  0.403494E-06  0.750E-03    1.73       2.4  T
   4    -38.2759499 -0.490027E-06  0.221E-03    1.73       8.1  T
   5    -38.2759499  0.779633E-08  0.109E-03    1.73      16.5  T
   6    -38.2759499 -0.754885E-08  0.424E-04    1.73      42.4  T
   7    -38.2759499 -0.329749E-08  0.236E-04    1.73      76.2  T
     SCC iter.                  ...        0 min,  0.569 sec
     gradient                   ...        0 min,  0.145 sec
 * total energy  :   -37.6426201 Eh     change       -0.1081625E-04 Eh
   gradient norm :     0.0015517 Eh/α   predicted    -0.5955395E-05 ( -44.94%)
   displ. norm   :     0.0569898 α      lambda       -0.6303512E-05
   maximum displ.:     0.0371013 α      in ANC's #1, #4, #7, ...

........................................................................
.............................. CYCLE   49 ..............................
........................................................................
   1    -38.2762800 -0.382763E+02  0.234E-02    1.73       0.0  T
   2    -38.2762801 -0.894438E-07  0.148E-02    1.73       1.2  T
   3    -38.2762791  0.101006E-05  0.671E-03    1.73       2.7  T
   4    -38.2762802 -0.109896E-05  0.185E-03    1.73       9.7  T
   5    -38.2762802 -0.239147E-07  0.848E-04    1.73      21.2  T
   6    -38.2762802 -0.885123E-10  0.275E-04    1.73      65.2  T
     SCC iter.                  ...        0 min,  0.522 sec
     gradient                   ...        0 min,  0.215 sec
 * total energy  :   -37.6426279 Eh     change       -0.7794167E-05 Eh
   gradient norm :     0.0010017 Eh/α   predicted    -0.3157741E-05 ( -59.49%)
   displ. norm   :     0.0904128 α      lambda       -0.9537419E-05
   maximum displ.:     0.0585789 α      in ANC's #1, #7, #8, ...

........................................................................
.............................. CYCLE   50 ..............................
........................................................................
   1    -38.2766001 -0.382766E+02  0.307E-02    1.73       0.0  T
   2    -38.2766003 -0.179119E-06  0.199E-02    1.73       1.0  T
   3    -38.2765989  0.135688E-05  0.772E-03    1.73       2.3  T
   4    -38.2766004 -0.145708E-05  0.309E-03    1.73       5.8  T
   5    -38.2766004 -0.585433E-07  0.160E-03    1.73      11.2  T
   6    -38.2766004 -0.511157E-09  0.390E-04    1.73      46.0  T
   7    -38.2766004 -0.178590E-08  0.185E-04    1.73      97.2  T
     SCC iter.                  ...        0 min,  0.576 sec
     gradient                   ...        0 min,  0.114 sec
 * total energy  :   -37.6426391 Eh     change       -0.1118054E-04 Eh
   gradient norm :     0.0010758 Eh/α   predicted    -0.4788076E-05 ( -57.17%)
   displ. norm   :     0.1491765 α      lambda       -0.1242949E-04
   maximum displ.:     0.0929751 α      in ANC's #1, #7, #8, ...

........................................................................
.............................. CYCLE   51 ..............................
........................................................................
   1    -38.2765800 -0.382766E+02  0.421E-02    1.73       0.0  T
   2    -38.2765802 -0.263221E-06  0.272E-02    1.73       1.0  T
   3    -38.2765760  0.418796E-05  0.124E-02    1.73       1.4  T
   4    -38.2765806 -0.454656E-05  0.341E-03    1.73       5.3  T
   5    -38.2765807 -0.807844E-07  0.189E-03    1.73       9.5  T
   6    -38.2765807 -0.301171E-09  0.450E-04    1.73      39.9  T
   7    -38.2765807 -0.247574E-08  0.157E-04    1.73     114.4  T
     SCC iter.                  ...        0 min,  0.521 sec
     gradient                   ...        0 min,  0.263 sec
 * total energy  :   -37.6426536 Eh     change       -0.1446403E-04 Eh
   gradient norm :     0.0018379 Eh/α   predicted    -0.6281149E-05 ( -56.57%)
   displ. norm   :     0.2059171 α      lambda       -0.1511148E-04
   maximum displ.:     0.1272073 α      in ANC's #1, #7, #8, ...

........................................................................
.............................. CYCLE   52 ..............................
........................................................................
   1    -38.2761814 -0.382762E+02  0.505E-02    1.73       0.0  T
   2    -38.2761817 -0.364563E-06  0.314E-02    1.73       1.0  T
   3    -38.2761810  0.764599E-06  0.748E-03    1.73       2.4  T
   4    -38.2761819 -0.918240E-06  0.378E-03    1.73       4.8  T
   5    -38.2761819  0.279788E-07  0.167E-03    1.73      10.8  T
   6    -38.2761819 -0.185469E-07  0.101E-03    1.73      17.8  T
   7    -38.2761819 -0.210111E-07  0.209E-04    1.73      85.9  T
   8    -38.2761819 -0.556497E-10  0.133E-04    1.73     134.6  T
     SCC iter.                  ...        0 min,  0.733 sec
     gradient                   ...        0 min,  0.122 sec
 * total energy  :   -37.6426702 Eh     change       -0.1664006E-04 Eh
   gradient norm :     0.0025050 Eh/α   predicted    -0.7701078E-05 ( -53.72%)
   displ. norm   :     0.1435044 α      lambda       -0.1399251E-04
   maximum displ.:     0.0857472 α      in ANC's #1, #7, #8, ...

........................................................................
.............................. CYCLE   53 ..............................
........................................................................
   1    -38.2759998 -0.382760E+02  0.332E-02    1.73       0.0  T
   2    -38.2760000 -0.169604E-06  0.205E-02    1.73       1.0  T
   3    -38.2759995  0.433871E-06  0.484E-03    1.73       3.7  T
   4    -38.2760000 -0.513052E-06  0.185E-03    1.73       9.7  T
   5    -38.2760000  0.458982E-09  0.104E-03    1.73      17.3  T
   6    -38.2760000 -0.110847E-08  0.360E-04    1.73      50.0  T
   7    -38.2760000 -0.353229E-08  0.150E-04    1.73     119.5  T
     SCC iter.                  ...        0 min,  0.713 sec
     gradient                   ...        0 min,  0.250 sec
 * total energy  :   -37.6426805 Eh     change       -0.1031160E-04 Eh
   gradient norm :     0.0022413 Eh/α   predicted    -0.7143369E-05 ( -30.72%)
   displ. norm   :     0.1299005 α      lambda       -0.1237237E-04
   maximum displ.:     0.0722803 α      in ANC's #1, #7, #8, ...

........................................................................
.............................. CYCLE   54 ..............................
........................................................................
   1    -38.2761399 -0.382761E+02  0.305E-02    1.73       0.0  T
   2    -38.2761401 -0.181090E-06  0.182E-02    1.73       1.0  T
   3    -38.2761393  0.778172E-06  0.666E-03    1.73       2.7  T
   4    -38.2761402 -0.888498E-06  0.156E-03    1.73      11.5  T
   5    -38.2761402 -0.977302E-09  0.141E-03    1.73      12.8  T
   6    -38.2761403 -0.156766E-07  0.316E-04    1.73      56.8  T
   7    -38.2761403  0.424052E-10  0.196E-04    1.73      91.7  T
     SCC iter.                  ...        0 min,  0.961 sec
     gradient                   ...        0 min,  0.283 sec
 * total energy  :   -37.6426886 Eh     change       -0.8095041E-05 Eh
   gradient norm :     0.0013677 Eh/α   predicted    -0.6292141E-05 ( -22.27%)
   displ. norm   :     0.1549288 α      lambda       -0.8177417E-05
   maximum displ.:     0.0903556 α      in ANC's #7, #6, #1, ...

........................................................................
.............................. CYCLE   55 ..............................
........................................................................
   1    -38.2758508 -0.382759E+02  0.361E-02    1.72       0.0  T
   2    -38.2758511 -0.355695E-06  0.217E-02    1.72       1.0  T
   3    -38.2758494  0.170106E-05  0.831E-03    1.72       2.2  T
   4    -38.2758514 -0.194724E-05  0.201E-03    1.72       8.9  T
   5    -38.2758514 -0.490016E-07  0.140E-03    1.72      12.8  T
   6    -38.2758514 -0.396013E-08  0.643E-04    1.72      27.9  T
   7    -38.2758514 -0.476703E-09  0.265E-04    1.72      67.7  T
     SCC iter.                  ...        0 min,  0.903 sec
     gradient                   ...        0 min,  0.057 sec
 * total energy  :   -37.6426936 Eh     change       -0.5001869E-05 Eh
   gradient norm :     0.0037568 Eh/α   predicted    -0.4134213E-05 ( -17.35%)
   displ. norm   :     0.0508773 α      lambda       -0.1483329E-04
   maximum displ.:     0.0349966 α      in ANC's #2, #7, #6, ...

........................................................................
.............................. CYCLE   56 ..............................
........................................................................
   1    -38.2769092 -0.382769E+02  0.180E-02    1.72       0.0  T
   2    -38.2769094 -0.134832E-06  0.101E-02    1.72       1.8  T
   3    -38.2769091  0.289309E-06  0.551E-03    1.72       3.3  T
   4    -38.2769095 -0.363186E-06  0.148E-03    1.72      12.1  T
   5    -38.2769095 -0.702874E-08  0.885E-04    1.72      20.3  T
   6    -38.2769095  0.287564E-08  0.435E-04    1.72      41.3  T
     SCC iter.                  ...        0 min,  0.596 sec
     gradient                   ...        0 min,  0.027 sec
 * total energy  :   -37.6427010 Eh     change       -0.7356846E-05 Eh
   gradient norm :     0.0025591 Eh/α   predicted    -0.7437095E-05 (   1.09%)
   displ. norm   :     0.0576561 α      lambda       -0.1096271E-04
   maximum displ.:     0.0378847 α      in ANC's #7, #2, #6, ...

........................................................................
.............................. CYCLE   57 ..............................
........................................................................
   1    -38.2768111 -0.382768E+02  0.140E-02    1.72       0.0  T
   2    -38.2768111 -0.409654E-07  0.856E-03    1.72       2.1  T
   3    -38.2768110  0.977054E-07  0.215E-03    1.72       8.3  T
   4    -38.2768111 -0.114895E-06  0.820E-04    1.72      21.9  T
   5    -38.2768111 -0.234530E-08  0.556E-04    1.72      32.3  T
     SCC iter.                  ...        0 min,  0.352 sec
     gradient                   ...        0 min,  0.004 sec
 * total energy  :   -37.6427114 Eh     change       -0.1038578E-04 Eh
   gradient norm :     0.0018837 Eh/α   predicted    -0.5503913E-05 ( -47.01%)
   displ. norm   :     0.6918371 α      lambda       -0.8834218E-04
   maximum displ.:     0.4491076 α      in ANC's #7, #2, #6, ...

........................................................................
.............................. CYCLE   58 ..............................
........................................................................
   1    -38.2704671 -0.382705E+02  0.171E-01    1.71       0.0  T
   2    -38.2704735 -0.646522E-05  0.103E-01    1.72       1.0  T
   3    -38.2704635  0.100132E-04  0.329E-02    1.71       1.0  T
   4    -38.2704761 -0.126060E-04  0.124E-02    1.71       1.4  T
   5    -38.2704760  0.928916E-07  0.903E-03    1.71       2.0  T
   6    -38.2704760  0.457447E-07  0.307E-03    1.72       5.8  T
   7    -38.2704762 -0.204128E-06  0.810E-04    1.72      22.2  T
   8    -38.2704762 -0.544460E-08  0.548E-04    1.72      32.8  T
     SCC iter.                  ...        0 min,  0.538 sec
     gradient                   ...        0 min,  0.061 sec
 * total energy  :   -37.6425174 Eh     change        0.1940068E-03 Eh
   gradient norm :     0.0318369 Eh/α   predicted    -0.5357179E-04 (-127.61%)
   displ. norm   :     0.2996268 α      lambda       -0.5517614E-03
   maximum displ.:     0.2032983 α      in ANC's #7, #6, #8, ...

........................................................................
.............................. CYCLE   59 ..............................
........................................................................
   1    -38.2748411 -0.382748E+02  0.723E-02    1.72       0.0  T
   2    -38.2748429 -0.184450E-05  0.431E-02    1.72       1.0  T
   3    -38.2748395  0.348592E-05  0.173E-02    1.72       1.0  T
   4    -38.2748437 -0.423828E-05  0.680E-03    1.72       2.6  T
   5    -38.2748438 -0.105044E-06  0.551E-03    1.72       3.3  T
   6    -38.2748437  0.655543E-07  0.306E-03    1.72       5.9  T
   7    -38.2748438 -0.801806E-07  0.607E-04    1.72      29.6  T
   8    -38.2748438 -0.260680E-08  0.366E-04    1.72      49.1  T
     SCC iter.                  ...        0 min,  0.478 sec
     gradient                   ...        0 min,  0.113 sec
 * total energy  :   -37.6427786 Eh     change       -0.2612166E-03 Eh
   gradient norm :     0.0082233 Eh/α   predicted    -0.3006504E-03 (  15.10%)
   displ. norm   :     0.0687765 α      lambda       -0.3614380E-04
   maximum displ.:     0.0464971 α      in ANC's #1, #2, #3, ...

........................................................................
.............................. CYCLE   60 ..............................
........................................................................
   1    -38.2757686 -0.382758E+02  0.160E-02    1.72       0.0  T
   2    -38.2757687 -0.724821E-07  0.972E-03    1.72       1.8  T
   3    -38.2757682  0.455114E-06  0.663E-03    1.72       2.7  T
   4    -38.2757687 -0.532686E-06  0.137E-03    1.72      13.2  T
   5    -38.2757688 -0.656470E-08  0.103E-03    1.72      17.4  T
   6    -38.2757688 -0.467445E-08  0.391E-04    1.72      45.9  T
   7    -38.2757688 -0.168435E-08  0.952E-05    1.72     188.7  T
     SCC iter.                  ...        0 min,  0.454 sec
     gradient                   ...        0 min,  0.121 sec
 * total energy  :   -37.6428089 Eh     change       -0.3034886E-04 Eh
   gradient norm :     0.0049055 Eh/α   predicted    -0.1815835E-04 ( -40.17%)
   displ. norm   :     0.1658721 α      lambda       -0.5980699E-04
   maximum displ.:     0.1021233 α      in ANC's #2, #1, #3, ...

........................................................................
.............................. CYCLE   61 ..............................
........................................................................
   1    -38.2767007 -0.382767E+02  0.408E-02    1.72       0.0  T
   2    -38.2767009 -0.163136E-06  0.256E-02    1.72       1.0  T
   3    -38.2767003  0.568046E-06  0.722E-03    1.72       2.5  T
   4    -38.2767010 -0.630423E-06  0.265E-03    1.72       6.8  T
   5    -38.2767010  0.938640E-08  0.191E-03    1.72       9.4  T
   6    -38.2767010 -0.321848E-07  0.439E-04    1.72      40.9  T
   7    -38.2767010 -0.394892E-08  0.153E-04    1.72     117.1  T
     SCC iter.                  ...        0 min,  0.340 sec
     gradient                   ...        0 min,  0.027 sec
 * total energy  :   -37.6428555 Eh     change       -0.4654049E-04 Eh
   gradient norm :     0.0016427 Eh/α   predicted    -0.3072770E-04 ( -33.98%)
   displ. norm   :     0.4147622 α      lambda       -0.6479191E-04
   maximum displ.:     0.2465885 α      in ANC's #2, #1, #7, ...

........................................................................
.............................. CYCLE   62 ..............................
........................................................................
   1    -38.2757608 -0.382758E+02  0.944E-02    1.71       0.0  T
   2    -38.2757618 -0.998761E-06  0.568E-02    1.71       1.0  T
   3    -38.2757579  0.389166E-05  0.206E-02    1.71       1.0  T
   4    -38.2757623 -0.441835E-05  0.738E-03    1.71       2.4  T
   5    -38.2757621  0.198040E-06  0.580E-03    1.71       3.1  T
   6    -38.2757624 -0.243593E-06  0.141E-03    1.71      12.8  T
   7    -38.2757624 -0.297405E-07  0.411E-04    1.71      43.7  T
   8    -38.2757624 -0.979227E-09  0.246E-04    1.71      72.9  T
     SCC iter.                  ...        0 min,  0.390 sec
     gradient                   ...        0 min,  0.077 sec
 * total energy  :   -37.6429306 Eh     change       -0.7518229E-04 Eh
   gradient norm :     0.0068364 Eh/α   predicted    -0.3487577E-04 ( -53.61%)
   displ. norm   :     0.2695864 α      lambda       -0.5801550E-04
   maximum displ.:     0.1605271 α      in ANC's #2, #7, #1, ...

........................................................................
.............................. CYCLE   63 ..............................
........................................................................
   1    -38.2745691 -0.382746E+02  0.497E-02    1.71       0.0  T
   2    -38.2745697 -0.509012E-06  0.298E-02    1.71       1.0  T
   3    -38.2745688  0.856777E-06  0.996E-03    1.71       1.8  T
   4    -38.2745699 -0.108527E-05  0.284E-03    1.71       6.3  T
   5    -38.2745699  0.106764E-07  0.207E-03    1.71       8.7  T
   6    -38.2745699 -0.122904E-08  0.770E-04    1.71      23.3  T
   7    -38.2745699 -0.133730E-07  0.271E-04    1.71      66.4  T
     SCC iter.                  ...        0 min,  0.389 sec
     gradient                   ...        0 min,  0.067 sec
 * total energy  :   -37.6429670 Eh     change       -0.3633965E-04 Eh
   gradient norm :     0.0074527 Eh/α   predicted    -0.3111732E-04 ( -14.37%)
   displ. norm   :     0.0800311 α      lambda       -0.3978518E-04
   maximum displ.:     0.0616153 α      in ANC's #1, #2, #7, ...

........................................................................
.............................. CYCLE   64 ..............................
........................................................................
   1    -38.2756503 -0.382757E+02  0.168E-02    1.71       0.0  T
   2    -38.2756504 -0.101744E-06  0.106E-02    1.71       1.7  T
   3    -38.2756498  0.619949E-06  0.662E-03    1.71       2.7  T
   4    -38.2756505 -0.744639E-06  0.122E-03    1.71      14.7  T
   5    -38.2756506 -0.252689E-07  0.720E-04    1.71      24.9  T
   6    -38.2756506 -0.191936E-08  0.186E-04    1.71      96.8  T
     SCC iter.                  ...        0 min,  0.320 sec
     gradient                   ...        0 min,  0.037 sec
 * total energy  :   -37.6429980 Eh     change       -0.3098479E-04 Eh
   gradient norm :     0.0032392 Eh/α   predicted    -0.2002115E-04 ( -35.38%)
   displ. norm   :     0.1147283 α      lambda       -0.5066531E-04
   maximum displ.:     0.1036527 α      in ANC's #1, #2, #7, ...

........................................................................
.............................. CYCLE   65 ..............................
........................................................................
   1    -38.2773513 -0.382774E+02  0.224E-02    1.71       0.0  T
   2    -38.2773517 -0.361927E-06  0.122E-02    1.71       1.5  T
   3    -38.2773511  0.650173E-06  0.953E-03    1.71       1.9  T
   4    -38.2773519 -0.876300E-06  0.197E-03    1.71       9.1  T
   5    -38.2773520 -0.355259E-07  0.148E-03    1.71      12.1  T
   6    -38.2773520 -0.117179E-07  0.544E-04    1.71      33.0  T
   7    -38.2773520 -0.183540E-08  0.184E-04    1.71      97.4  T
     SCC iter.                  ...        0 min,  0.349 sec
     gradient                   ...        0 min,  0.118 sec
 * total energy  :   -37.6430364 Eh     change       -0.3842680E-04 Eh
   gradient norm :     0.0023934 Eh/α   predicted    -0.2566927E-04 ( -33.20%)
   displ. norm   :     0.1221487 α      lambda       -0.3819749E-04
   maximum displ.:     0.1036233 α      in ANC's #1, #7, #2, ...

........................................................................
.............................. CYCLE   66 ..............................
........................................................................
   1    -38.2776795 -0.382777E+02  0.242E-02    1.70       0.0  T
   2    -38.2776797 -0.204263E-06  0.135E-02    1.70       1.3  T
   3    -38.2776789  0.798937E-06  0.942E-03    1.70       1.9  T
   4    -38.2776799 -0.980102E-06  0.200E-03    1.70       9.0  T
   5    -38.2776799 -0.139544E-07  0.160E-03    1.70      11.2  T
   6    -38.2776799 -0.132259E-07  0.364E-04    1.70      49.3  T
   7    -38.2776799 -0.111201E-08  0.137E-04    1.70     131.4  T
     SCC iter.                  ...        0 min,  0.343 sec
     gradient                   ...        0 min,  0.113 sec
 * total energy  :   -37.6430713 Eh     change       -0.3487491E-04 Eh
   gradient norm :     0.0031234 Eh/α   predicted    -0.1938450E-04 ( -44.42%)
   displ. norm   :     0.1059160 α      lambda       -0.4070898E-04
   maximum displ.:     0.0937488 α      in ANC's #1, #7, #4, ...
 * RMSD in coord.:     0.3833165 α      energy gain  -0.5926689E-03 Eh

generating ANC from model Hessian ...
Using Lindh-Hessian (1995)
 Shifting diagonal of input Hessian by    9.8676304308870505E-003
 Lowest  eigenvalues of input Hessian
    0.000000    0.000000    0.000000    0.000000    0.000000    0.000000
    0.010000    0.010294    0.010640    0.011141    0.011398    0.011520
    0.011670    0.014734    0.015458    0.016044    0.017935    0.018077
 Highest eigenvalues
    1.736459    1.741485    3.317656    3.857975    4.857597    6.438047


........................................................................
.............................. CYCLE   67 ..............................
........................................................................
   1    -38.2776870 -0.382777E+02  0.181E-02    1.70       0.0  T
   2    -38.2776872 -0.141434E-06  0.105E-02    1.70       1.7  T
   3    -38.2776869  0.268247E-06  0.559E-03    1.70       3.2  T
   4    -38.2776873 -0.351351E-06  0.116E-03    1.70      15.5  T
   5    -38.2776873  0.346112E-08  0.101E-03    1.70      17.8  T
   6    -38.2776873 -0.685620E-08  0.261E-04    1.70      68.7  T
   7    -38.2776873 -0.794152E-09  0.154E-04    1.70     116.6  T
     SCC iter.                  ...        0 min,  0.266 sec
     gradient                   ...        0 min,  0.112 sec
 * total energy  :   -37.6431111 Eh     change       -0.3983891E-04 Eh
   gradient norm :     0.0020313 Eh/α   predicted     0.0000000E+00 (-100.00%)
   displ. norm   :     0.0459064 α      lambda        0.4029692E-06
   maximum displ.:     0.0338970 α      in ANC's #1, #2, #7, ...

........................................................................
.............................. CYCLE   68 ..............................
........................................................................
   1    -38.2769557 -0.382770E+02  0.887E-03    1.70       0.0  T
   2    -38.2769557 -0.491118E-07  0.602E-03    1.70       3.0  T
   3    -38.2769557  0.660934E-07  0.257E-03    1.70       7.0  T
   4    -38.2769557 -0.790352E-07  0.170E-03    1.70      10.6  T
   5    -38.2769557 -0.145422E-07  0.933E-04    1.70      19.2  T
   6    -38.2769557  0.502617E-09  0.541E-04    1.70      33.2  T
     SCC iter.                  ...        0 min,  0.235 sec
     gradient                   ...        0 min,  0.097 sec
 * total energy  :   -37.6431368 Eh     change       -0.2566289E-04 Eh
   gradient norm :     0.0006750 Eh/α   predicted    -0.1444969E-04 ( -43.69%)
   displ. norm   :     0.1639785 α      lambda       -0.5297576E-04
   maximum displ.:     0.1132469 α      in ANC's #1, #2, #7, ...

........................................................................
.............................. CYCLE   69 ..............................
........................................................................
   1    -38.2752629 -0.382753E+02  0.290E-02    1.70       0.0  T
   2    -38.2752634 -0.431337E-06  0.176E-02    1.70       1.0  T
   3    -38.2752628  0.578048E-06  0.744E-03    1.70       2.4  T
   4    -38.2752636 -0.768784E-06  0.255E-03    1.70       7.1  T
   5    -38.2752636 -0.217485E-07  0.146E-03    1.70      12.3  T
   6    -38.2752636 -0.121826E-08  0.750E-04    1.70      23.9  T
   7    -38.2752636 -0.579455E-08  0.262E-04    1.70      68.5  T
     SCC iter.                  ...        0 min,  0.294 sec
     gradient                   ...        0 min,  0.112 sec
 * total energy  :   -37.6432027 Eh     change       -0.6588855E-04 Eh
   gradient norm :     0.0027399 Eh/α   predicted    -0.2680893E-04 ( -59.31%)
   displ. norm   :     0.1538317 α      lambda       -0.6389878E-04
   maximum displ.:     0.1060468 α      in ANC's #1, #2, #7, ...

........................................................................
.............................. CYCLE   70 ..............................
........................................................................
   1    -38.2746360 -0.382746E+02  0.277E-02    1.70       0.0  T
   2    -38.2746362 -0.200786E-06  0.165E-02    1.70       1.1  T
   3    -38.2746353  0.916430E-06  0.935E-03    1.70       1.9  T
   4    -38.2746364 -0.106540E-05  0.222E-03    1.70       8.1  T
   5    -38.2746364 -0.755072E-09  0.201E-03    1.70       8.9  T
   6    -38.2746364 -0.317993E-07  0.434E-04    1.70      41.4  T
   7    -38.2746364 -0.160511E-08  0.256E-04    1.70      70.1  T
     SCC iter.                  ...        0 min,  0.289 sec
     gradient                   ...        0 min,  0.091 sec
 * total energy  :   -37.6432639 Eh     change       -0.6126842E-04 Eh
   gradient norm :     0.0037679 Eh/α   predicted    -0.3270612E-04 ( -46.62%)
   displ. norm   :     0.2585978 α      lambda       -0.1124760E-03
   maximum displ.:     0.1751387 α      in ANC's #1, #2, #7, ...

........................................................................
.............................. CYCLE   71 ..............................
........................................................................
   1    -38.2738729 -0.382739E+02  0.450E-02    1.70       0.0  T
   2    -38.2738734 -0.528597E-06  0.261E-02    1.70       1.0  T
   3    -38.2738713  0.211522E-05  0.144E-02    1.69       1.3  T
   4    -38.2738738 -0.248760E-05  0.295E-03    1.70       6.1  T
   5    -38.2738738 -0.273659E-07  0.249E-03    1.70       7.2  T
   6    -38.2738738 -0.445392E-07  0.558E-04    1.70      32.2  T
   7    -38.2738738 -0.377851E-08  0.312E-04    1.70      57.5  T
     SCC iter.                  ...        0 min,  0.424 sec
     gradient                   ...        0 min,  0.114 sec
 * total energy  :   -37.6433696 Eh     change       -0.1056392E-03 Eh
   gradient norm :     0.0047920 Eh/α   predicted    -0.6000442E-04 ( -43.20%)
   displ. norm   :     0.3964270 α      lambda       -0.1713232E-03
   maximum displ.:     0.2691143 α      in ANC's #1, #2, #7, ...

........................................................................
.............................. CYCLE   72 ..............................
........................................................................
   1    -38.2725707 -0.382726E+02  0.679E-02    1.69       0.0  T
   2    -38.2725720 -0.129224E-05  0.390E-02    1.69       1.0  T
   3    -38.2725653  0.667532E-05  0.258E-02    1.69       1.0  T
   4    -38.2725733 -0.794487E-05  0.520E-03    1.69       3.5  T
   5    -38.2725733 -0.588707E-07  0.443E-03    1.69       4.1  T
   6    -38.2725735 -0.143753E-06  0.899E-04    1.69      20.0  T
   7    -38.2725735 -0.784804E-08  0.514E-04    1.69      35.0  T
     SCC iter.                  ...        0 min,  0.377 sec
     gradient                   ...        0 min,  0.146 sec
 * total energy  :   -37.6435115 Eh     change       -0.1419748E-03 Eh
   gradient norm :     0.0066532 Eh/α   predicted    -0.9912928E-04 ( -30.18%)
   displ. norm   :     0.3553970 α      lambda       -0.1458507E-03
   maximum displ.:     0.2480876 α      in ANC's #1, #2, #7, ...

........................................................................
.............................. CYCLE   73 ..............................
........................................................................
   1    -38.2722475 -0.382722E+02  0.569E-02    1.68       0.0  T
   2    -38.2722485 -0.952095E-06  0.323E-02    1.69       1.0  T
   3    -38.2722435  0.495524E-05  0.216E-02    1.68       1.0  T
   4    -38.2722494 -0.594104E-05  0.393E-03    1.69       4.6  T
   5    -38.2722495 -0.728833E-07  0.324E-03    1.69       5.5  T
   6    -38.2722496 -0.722820E-07  0.695E-04    1.69      25.9  T
   7    -38.2722496 -0.410115E-08  0.383E-04    1.69      46.9  T
     SCC iter.                  ...        0 min,  0.387 sec
     gradient                   ...        0 min,  0.120 sec
 * total energy  :   -37.6436237 Eh     change       -0.1121250E-03 Eh
   gradient norm :     0.0059879 Eh/α   predicted    -0.8214375E-04 ( -26.74%)
   displ. norm   :     0.2945311 α      lambda       -0.1500420E-03
   maximum displ.:     0.2177299 α      in ANC's #1, #2, #7, ...

........................................................................
.............................. CYCLE   74 ..............................
........................................................................
   1    -38.2747174 -0.382747E+02  0.411E-02    1.68       0.0  T
   2    -38.2747181 -0.733311E-06  0.232E-02    1.68       1.0  T
   3    -38.2747146  0.350202E-05  0.187E-02    1.68       1.0  T
   4    -38.2747191 -0.451587E-05  0.329E-03    1.68       5.5  T
   5    -38.2747192 -0.695309E-07  0.268E-03    1.68       6.7  T
   6    -38.2747193 -0.464950E-07  0.695E-04    1.68      25.9  T
   7    -38.2747193 -0.253403E-08  0.303E-04    1.68      59.2  T
     SCC iter.                  ...        0 min,  0.311 sec
     gradient                   ...        0 min,  0.107 sec
 * total energy  :   -37.6437379 Eh     change       -0.1142571E-03 Eh
   gradient norm :     0.0034642 Eh/α   predicted    -0.8152940E-04 ( -28.64%)
   displ. norm   :     0.2849283 α      lambda       -0.1205824E-03
   maximum displ.:     0.2222333 α      in ANC's #1, #2, #7, ...

........................................................................
.............................. CYCLE   75 ..............................
........................................................................
   1    -38.2772733 -0.382773E+02  0.448E-02    1.68       0.0  T
   2    -38.2772739 -0.617950E-06  0.263E-02    1.68       1.0  T
   3    -38.2772712  0.267918E-05  0.152E-02    1.68       1.2  T
   4    -38.2772744 -0.316424E-05  0.333E-03    1.68       5.4  T
   5    -38.2772744 -0.632804E-08  0.321E-03    1.68       5.6  T
   6    -38.2772744 -0.740250E-07  0.569E-04    1.68      31.6  T
   7    -38.2772744 -0.266959E-08  0.262E-04    1.68      68.7  T
     SCC iter.                  ...        0 min,  0.134 sec
     gradient                   ...        0 min,  0.057 sec
 * total energy  :   -37.6438233 Eh     change       -0.8539301E-04 Eh
   gradient norm :     0.0024738 Eh/α   predicted    -0.6519275E-04 ( -23.66%)
   displ. norm   :     0.3236176 α      lambda       -0.8092411E-04
   maximum displ.:     0.2616300 α      in ANC's #1, #2, #3, ...

........................................................................
.............................. CYCLE   76 ..............................
........................................................................
   1    -38.2773552 -0.382774E+02  0.520E-02    1.68       0.0  T
   2    -38.2773560 -0.742289E-06  0.316E-02    1.68       1.0  T
   3    -38.2773496  0.639117E-05  0.246E-02    1.68       1.0  T
   4    -38.2773571 -0.751325E-05  0.518E-03    1.68       3.5  T
   5    -38.2773571  0.296014E-07  0.501E-03    1.68       3.6  T
   6    -38.2773573 -0.199060E-06  0.868E-04    1.68      20.7  T
   7    -38.2773573 -0.285038E-08  0.400E-04    1.68      44.9  T
     SCC iter.                  ...        0 min,  0.238 sec
     gradient                   ...        0 min,  0.106 sec
 * total energy  :   -37.6438726 Eh     change       -0.4931462E-04 Eh
   gradient norm :     0.0047025 Eh/α   predicted    -0.4470005E-04 (  -9.36%)
   displ. norm   :     0.1350135 α      lambda       -0.6636884E-04
   maximum displ.:     0.1135277 α      in ANC's #1, #3, #2, ...

........................................................................
.............................. CYCLE   77 ..............................
........................................................................
   1    -38.2799972 -0.382800E+02  0.284E-02    1.68       0.0  T
   2    -38.2799973 -0.144617E-06  0.181E-02    1.68       1.0  T
   3    -38.2799959  0.141287E-05  0.902E-03    1.68       2.0  T
   4    -38.2799975 -0.156176E-05  0.199E-03    1.68       9.0  T
   5    -38.2799975 -0.884395E-08  0.174E-03    1.68      10.3  T
   6    -38.2799975 -0.149103E-07  0.409E-04    1.68      44.0  T
   7    -38.2799975 -0.132388E-08  0.242E-04    1.68      74.2  T
     SCC iter.                  ...        0 min,  0.289 sec
     gradient                   ...        0 min,  0.121 sec
 * total energy  :   -37.6439111 Eh     change       -0.3849509E-04 Eh
   gradient norm :     0.0074024 Eh/α   predicted    -0.3378954E-04 ( -12.22%)
   displ. norm   :     0.2842319 α      lambda       -0.7334326E-04
   maximum displ.:     0.2484563 α      in ANC's #1, #2, #3, ...

........................................................................
.............................. CYCLE   78 ..............................
........................................................................
   1    -38.2782916 -0.382783E+02  0.581E-02    1.68       0.0  T
   2    -38.2782920 -0.426675E-06  0.391E-02    1.68       1.0  T
   3    -38.2782901  0.190868E-05  0.953E-03    1.68       1.9  T
   4    -38.2782922 -0.202001E-05  0.522E-03    1.68       3.4  T
   5    -38.2782922 -0.719855E-07  0.257E-03    1.68       7.0  T
   6    -38.2782923 -0.648575E-07  0.453E-04    1.68      39.6  T
   7    -38.2782923 -0.158536E-08  0.259E-04    1.68      69.3  T
     SCC iter.                  ...        0 min,  0.248 sec
     gradient                   ...        0 min,  0.018 sec
 * total energy  :   -37.6439646 Eh     change       -0.5351149E-04 Eh
   gradient norm :     0.0043032 Eh/α   predicted    -0.3963473E-04 ( -25.93%)
   displ. norm   :     0.3053050 α      lambda       -0.8622751E-04
   maximum displ.:     0.2739920 α      in ANC's #1, #2, #5, ...

........................................................................
.............................. CYCLE   79 ..............................
........................................................................
   1    -38.2770431 -0.382770E+02  0.836E-02    1.68       0.0  T
   2    -38.2770438 -0.661265E-06  0.594E-02    1.68       1.0  T
   3    -38.2770326  0.111907E-04  0.209E-02    1.68       1.0  T
   4    -38.2770442 -0.116001E-04  0.712E-03    1.68       2.5  T
   5    -38.2770445 -0.295916E-06  0.361E-03    1.68       5.0  T
   6    -38.2770446 -0.796008E-07  0.878E-04    1.68      20.5  T
   7    -38.2770446 -0.447325E-08  0.544E-04    1.68      33.0  T
     SCC iter.                  ...        0 min,  0.263 sec
     gradient                   ...        0 min,  0.005 sec
 * total energy  :   -37.6440292 Eh     change       -0.6453471E-04 Eh
   gradient norm :     0.0048843 Eh/α   predicted    -0.4713478E-04 ( -26.96%)
   displ. norm   :     0.2655034 α      lambda       -0.8066134E-04
   maximum displ.:     0.2226563 α      in ANC's #1, #5, #7, ...

........................................................................
.............................. CYCLE   80 ..............................
........................................................................
   1    -38.2760505 -0.382761E+02  0.863E-02    1.68       0.0  T
   2    -38.2760513 -0.764952E-06  0.584E-02    1.68       1.0  T
   3    -38.2760426  0.867235E-05  0.185E-02    1.68       1.0  T
   4    -38.2760517 -0.909754E-05  0.643E-03    1.68       2.8  T
   5    -38.2760519 -0.257653E-06  0.320E-03    1.68       5.6  T
   6    -38.2760520 -0.552972E-07  0.659E-04    1.68      27.3  T
   7    -38.2760520 -0.258598E-08  0.425E-04    1.68      42.3  T
     SCC iter.                  ...        0 min,  0.358 sec
     gradient                   ...        0 min,  0.121 sec
 * total energy  :   -37.6440852 Eh     change       -0.5600187E-04 Eh
   gradient norm :     0.0044088 Eh/α   predicted    -0.4317610E-04 ( -22.90%)
   displ. norm   :     0.1648541 α      lambda       -0.4034385E-04
   maximum displ.:     0.1178124 α      in ANC's #1, #5, #7, ...

........................................................................
.............................. CYCLE   81 ..............................
........................................................................
   1    -38.2765741 -0.382766E+02  0.630E-02    1.69       0.0  T
   2    -38.2765745 -0.476019E-06  0.438E-02    1.69       1.0  T
   3    -38.2765606  0.139289E-04  0.225E-02    1.69       1.0  T
   4    -38.2765757 -0.150659E-04  0.498E-03    1.69       3.6  T
   5    -38.2765759 -0.206214E-06  0.238E-03    1.69       7.5  T
   6    -38.2765759 -0.113467E-07  0.488E-04    1.69      36.8  T
   7    -38.2765759 -0.143811E-08  0.206E-04    1.69      87.4  T
     SCC iter.                  ...        0 min,  0.329 sec
     gradient                   ...        0 min,  0.059 sec
 * total energy  :   -37.6441106 Eh     change       -0.2541634E-04 Eh
   gradient norm :     0.0048655 Eh/α   predicted    -0.2072547E-04 ( -18.46%)
   displ. norm   :     0.1545774 α      lambda       -0.2551045E-04
   maximum displ.:     0.1337468 α      in ANC's #1, #5, #7, ...

........................................................................
.............................. CYCLE   82 ..............................
........................................................................
   1    -38.2760200 -0.382760E+02  0.451E-02    1.69       0.0  T
   2    -38.2760203 -0.306915E-06  0.303E-02    1.69       1.0  T
   3    -38.2760163  0.402603E-05  0.121E-02    1.69       1.5  T
   4    -38.2760206 -0.426061E-05  0.372E-03    1.69       4.8  T
   5    -38.2760207 -0.114161E-06  0.210E-03    1.69       8.6  T
   6    -38.2760207  0.157542E-08  0.628E-04    1.69      28.6  T
   7    -38.2760207 -0.504703E-08  0.242E-04    1.69      74.4  T
     SCC iter.                  ...        0 min,  0.317 sec
     gradient                   ...        0 min,  0.120 sec
 * total energy  :   -37.6441208 Eh     change       -0.1018874E-04 Eh
   gradient norm :     0.0027370 Eh/α   predicted    -0.1306037E-04 (  28.18%)
   displ. norm   :     0.0426622 α      lambda       -0.1596741E-04
   maximum displ.:     0.0367709 α      in ANC's #2, #8, #5, ...

........................................................................
.............................. CYCLE   83 ..............................
........................................................................
   1    -38.2776759 -0.382777E+02  0.144E-02    1.69       0.0  T
   2    -38.2776760 -0.116235E-06  0.957E-03    1.69       1.9  T
   3    -38.2776756  0.370197E-06  0.627E-03    1.69       2.9  T
   4    -38.2776762 -0.616778E-06  0.162E-03    1.69      11.1  T
   5    -38.2776762 -0.269369E-07  0.102E-03    1.69      17.6  T
   6    -38.2776762 -0.107472E-08  0.445E-04    1.69      40.4  T
   7    -38.2776762 -0.802892E-09  0.138E-04    1.69     129.8  T
     SCC iter.                  ...        0 min,  0.332 sec
     gradient                   ...        0 min,  0.029 sec
 * total energy  :   -37.6441301 Eh     change       -0.9280269E-05 Eh
   gradient norm :     0.0013163 Eh/α   predicted    -0.7998817E-05 ( -13.81%)
   displ. norm   :     0.0888085 α      lambda       -0.6939994E-05
   maximum displ.:     0.0827854 α      in ANC's #1, #5, #10, ...

........................................................................
.............................. CYCLE   84 ..............................
........................................................................
   1    -38.2778028 -0.382778E+02  0.282E-02    1.69       0.0  T
   2    -38.2778030 -0.251970E-06  0.199E-02    1.69       1.0  T
   3    -38.2778011  0.191155E-05  0.909E-03    1.69       2.0  T
   4    -38.2778032 -0.208475E-05  0.325E-03    1.69       5.5  T
   5    -38.2778033 -0.106273E-06  0.130E-03    1.69      13.8  T
   6    -38.2778033  0.447756E-09  0.465E-04    1.69      38.6  T
   7    -38.2778033 -0.232633E-08  0.140E-04    1.69     128.6  T
     SCC iter.                  ...        0 min,  0.318 sec
     gradient                   ...        0 min,  0.025 sec
 * total energy  :   -37.6441364 Eh     change       -0.6341395E-05 Eh
   gradient norm :     0.0022826 Eh/α   predicted    -0.3483416E-05 ( -45.07%)
   displ. norm   :     0.0478862 α      lambda       -0.6644624E-05
   maximum displ.:     0.0417871 α      in ANC's #1, #7, #4, ...

........................................................................
.............................. CYCLE   85 ..............................
........................................................................
   1    -38.2779325 -0.382779E+02  0.115E-02    1.69       0.0  T
   2    -38.2779326 -0.769967E-07  0.604E-03    1.69       3.0  T
   3    -38.2779324  0.189159E-06  0.506E-03    1.69       3.5  T
   4    -38.2779327 -0.263936E-06  0.106E-03    1.69      17.0  T
   5    -38.2779327 -0.114154E-07  0.590E-04    1.69      30.4  T
   6    -38.2779327 -0.108791E-08  0.244E-04    1.69      73.5  T
     SCC iter.                  ...        0 min,  0.269 sec
     gradient                   ...        0 min,  0.028 sec
 * total energy  :   -37.6441412 Eh     change       -0.4819560E-05 Eh
   gradient norm :     0.0008285 Eh/α   predicted    -0.3330981E-05 ( -30.89%)
   displ. norm   :     0.1142779 α      lambda       -0.6270855E-05
   maximum displ.:     0.1061903 α      in ANC's #1, #2, #7, ...

   *** GEOMETRY OPTIMIZATION CONVERGED AFTER 85 ITERATIONS ***

------------------------------------------------------------------------
 total energy gain   :        -3.9238903 Eh    -2462.2783 kcal/mol
 total RMSD          :         1.6120868 a0        0.8531 Å
 total power (kW/mol):      -121.2020293 (step) -115.1495 (real)
------------------------------------------------------------------------

 ANCopt (total)                0 d,  0 h,  1 min, 29.468 sec
 optimizer setup                ...        0 min,  0.000 sec (  0.000%)
 model hessian                  ...        0 min,  0.241 sec (  0.269%)
 ANC generation                 ...        0 min,  0.031 sec (  0.035%)
 coordinate transformation      ...        0 min,  0.001 sec (  0.001%)
 single point calculation       ...        1 min, 27.615 sec ( 97.929%)
 optimization log               ...        0 min,  0.018 sec (  0.020%)
 hessian update                 ...        0 min,  1.317 sec (  1.472%)
 rational function              ...        0 min,  0.215 sec (  0.241%)

================
 final structure:
================
31
 xtb: 6.5.1 (b24c23e)
Zr          -1.24476456328187       -0.08240145515215        0.55179749217012
C           -1.56671055314986        1.32321476357118       -1.30026478795889
C            0.23167613236698       -2.02114774248782        0.80649753919515
C            0.46151997590079       -1.50092821072358       -0.48924553325591
C           -0.72055194830469       -1.69152063728487       -1.25034761296198
C           -1.68342187394907       -2.30543124869603       -0.41837727513320
C           -1.10533731747940       -2.49094350123934        0.86469091639104
H            0.98869720008988       -2.17302035158074        1.56692861664011
H            1.42363960919297       -1.18685098736170       -0.88169429130516
H           -0.81396787179111       -1.54030383211183       -2.31909154922711
H           -2.62747480408472       -2.71920612615146       -0.75154338377069
H           -1.53808870272773       -3.06707806989335        1.67701746303930
C           -0.46039807871733        0.11947660654797        2.85828818002805
C           -1.72259127253971        0.75862134993893        2.78763335326139
C           -1.58546285718415        1.90174479836943        1.95620064240661
C           -0.24459935902403        1.95988719565600        1.50982718729004
C            0.45040572131994        0.85467298056378        2.05717778396576
H           -0.20293496650315       -0.68584873334577        3.53750667515401
H           -2.57676588876766        0.52868205529669        3.41521960735689
H           -2.33267266058620        2.67329674181364        1.81334354042687
H            0.20825063830220        2.78777479687537        0.97563644178272
H            1.52310564983729        0.69925920994784        2.01065372202404
H           -0.46258851198620        1.14926485459972       -1.16427397760277
H           -1.77812387852526        1.15656276042646       -2.35490520519971
H           -1.77596393083479        2.37148935138792       -1.07226214408284
C           -3.74025516228611       -0.04683716758824        0.54327553565957
C           -3.44778820228697        0.44460369603395       -0.73558797688143
H           -3.87462520334551        1.40913444953237       -0.99163886898096
H           -3.47198502106124       -0.26879456888168       -1.55856260286004
H           -4.18760521101387        0.62574724132987        1.26887950863710
H           -3.90769744760082       -1.11358526941194        0.70030532380396

 Bond Distances (Angstroems)
 ---------------------------
Zr1-C2=2.3472        Zr1-C3=2.4502        Zr1-C4=2.4510        Zr1-C5=2.4722        Zr1-C6=2.4649        Zr1-C7=2.4328        
Zr1-C13=2.4446       Zr1-C14=2.4361       Zr1-C15=2.4546       Zr1-C16=2.4676       Zr1-C17=2.4531       Zr1-H23=2.2525       
Zr1-C26=2.4958       Zr1-C27=2.6055       C2-Zr1=2.3472        C2-H23=1.1260        C2-H24=1.0885        C2-H25=1.0930        
C3-Zr1=2.4502        C3-C4=1.4151         C3-C7=1.4183         C3-H8=1.0837         C4-Zr1=2.4510        C4-C3=1.4151         
C4-C5=1.4188         C4-H9=1.0855         C5-Zr1=2.4722        C5-C4=1.4188         C5-C6=1.4129         C5-H10=1.0834        
C6-Zr1=2.4649        C6-C5=1.4129         C6-C7=1.4195         C6-H11=1.0833        C7-Zr1=2.4328        C7-C3=1.4183         
C7-C6=1.4195         C7-H12=1.0859        H8-C3=1.0837         H9-C4=1.0855         H10-C5=1.0834        H11-C6=1.0833        
H12-C7=1.0859        C13-Zr1=2.4446       C13-C14=1.4166       C13-C17=1.4184       C13-H18=1.0845       C14-Zr1=2.4361       
C14-C13=1.4166       C14-C15=1.4201       C14-H19=1.0846       C15-Zr1=2.4546       C15-C14=1.4201       C15-C16=1.4144       
C15-H20=1.0835       C16-Zr1=2.4676       C16-C15=1.4144       C16-C17=1.4157       C16-H21=1.0844       C17-Zr1=2.4531       
C17-C13=1.4184       C17-C16=1.4157       C17-H22=1.0849       H18-C13=1.0845       H19-C14=1.0846       H20-C15=1.0835       
H21-C16=1.0844       H22-C17=1.0849       H23-Zr1=2.2525       H23-C2=1.1260        H24-C2=1.0885        H25-C2=1.0930        
C26-Zr1=2.4958       C26-C27=1.4009       C26-H30=1.0858       C26-H31=1.0912       C27-Zr1=2.6055       C27-C26=1.4009       
C27-H28=1.0854       C27-H29=1.0894       H28-C27=1.0854       H29-C27=1.0894       H30-C26=1.0858       H31-C26=1.0912       
 C  H  Rav=1.0884 sigma=0.0098  Rmin=1.0833  Rmax=1.1260    17
 C  C  Rav=1.4155 sigma=0.0051  Rmin=1.4009  Rmax=1.4201    11
 Zr H  Rav=2.2525 sigma=0.0000  Rmin=2.2525  Rmax=2.2525     1
 Zr C  Rav=2.4597 sigma=0.0535  Rmin=2.3472  Rmax=2.6055    13

 selected bond angles (degree)
 --------------------
C3-Zr1-C2=129.68               C4-Zr1-C2= 96.14               C4-Zr1-C3= 33.56               C5-Zr1-C2= 81.01               
C5-Zr1-C3= 55.46               C5-Zr1-C4= 33.49               C6-Zr1-C2=101.84               C6-Zr1-C3= 55.56               
C6-Zr1-C4= 55.58               C6-Zr1-C5= 33.26               C7-Zr1-C2=134.60               C7-Zr1-C3= 33.77               
C7-Zr1-C4= 56.06               C7-Zr1-C5= 55.75               C7-Zr1-C6= 33.69               C13-Zr1-C2=137.65              
C13-Zr1-C3= 76.93              C13-Zr1-C4=103.01              C13-Zr1-C5=132.34              C13-Zr1-C6=120.20              
C13-Zr1-C7= 86.68              C14-Zr1-C2=119.38              C14-Zr1-C3=107.21              C14-Zr1-C4=136.57              
C14-Zr1-C5=159.28              C14-Zr1-C6=129.62              C14-Zr1-C7=103.59              C14-Zr1-C13= 33.74             
C15-Zr1-C2= 87.04              C15-Zr1-C3=131.59              C15-Zr1-C4=143.85              C15-Zr1-C5=166.56              
C15-Zr1-C6=158.36              C15-Zr1-C7=137.28              C15-Zr1-C13= 55.80             C15-Zr1-C14= 33.76             
C16-Zr1-C2= 82.32              C16-Zr1-C3=111.73              C16-Zr1-C4=111.21              C16-Zr1-C5=137.37              
C16-Zr1-C6=166.26              C16-Zr1-C7=138.26              C16-Zr1-C13= 55.62             C16-Zr1-C14= 55.77             
C16-Zr1-C15= 33.40             C17-Zr1-C2=110.50              C17-Zr1-C3= 79.75              C17-Zr1-C4= 90.04              
C17-Zr1-C5=123.33              C17-Zr1-C6=135.16              C17-Zr1-C7=105.05              C17-Zr1-C13= 33.67             
C17-Zr1-C14= 55.98             C17-Zr1-C15= 55.67             C17-Zr1-C16= 33.44             H23-Zr1-C2= 28.24              
H23-Zr1-C3=107.61              H23-Zr1-C4= 75.59              H23-Zr1-C5= 74.15              H23-Zr1-C6=104.78              
H23-Zr1-C7=128.28              H23-Zr1-C13=124.21             H23-Zr1-C14=125.35             H23-Zr1-C15= 92.41             
H23-Zr1-C16= 72.69             H23-Zr1-C17= 91.07             C26-Zr1-C2= 81.47              C26-Zr1-C3=127.89              
C26-Zr1-C4=134.66              C26-Zr1-C5=102.64              C26-Zr1-C6= 80.42              C26-Zr1-C7= 94.12              
C26-Zr1-C13=108.84             C26-Zr1-C14= 78.59             C26-Zr1-C15= 81.47             C26-Zr1-C16=113.25             
C26-Zr1-C17=133.44             C26-Zr1-H23=109.68             C27-Zr1-C2= 51.17              C27-Zr1-C3=136.13              
C27-Zr1-C4=119.72              C27-Zr1-C5= 87.18              C27-Zr1-C6= 80.65              C27-Zr1-C7=108.20              
C27-Zr1-C13=136.12             C27-Zr1-C14=102.58             C27-Zr1-C15= 90.11             C27-Zr1-C16=111.54             
C27-Zr1-C17=144.12             C27-Zr1-H23= 78.85             C27-Zr1-C26= 31.79             H23-C2-Zr1= 71.20              
H24-C2-Zr1=134.39              H24-C2-H23=106.49              H25-C2-Zr1=115.85              H25-C2-H23=108.10              
H25-C2-H24=108.17              C4-C3-Zr1= 73.25               C7-C3-Zr1= 72.44               C7-C3-C4=108.21                
H8-C3-Zr1=127.21               H8-C3-C4=125.49                H8-C3-C7=125.68                C3-C4-Zr1= 73.19               
C5-C4-Zr1= 74.07               C5-C4-C3=107.85                H9-C4-Zr1=127.09               H9-C4-C3=125.55                
H9-C4-C5=125.69                C4-C5-Zr1= 72.43               C6-C5-Zr1= 73.09               C6-C5-C4=108.08                
H10-C5-Zr1=127.59              H10-C5-C4=125.61               H10-C5-C6=125.65               C5-C6-Zr1= 73.66               
C7-C6-Zr1= 71.92               C7-C6-C5=108.15                H11-C6-Zr1=128.36              H11-C6-C5=125.37               
H11-C6-C7=125.66               C3-C7-Zr1= 73.79               C6-C7-Zr1= 74.40               C6-C7-C3=107.67                
H12-C7-Zr1=126.77              H12-C7-C3=125.60               H12-C7-C6=125.68               

 selected dihedral angles (degree)
 ---------------------------------
H23-C2-Zr1-C3=315.53          H23-C2-Zr1-C4=316.82          H23-C2-Zr1-C5=286.84          H23-C2-Zr1-C6=260.76          
H23-C2-Zr1-C7=269.86          H23-C2-Zr1-C13= 73.83         H23-C2-Zr1-C14=110.80         H23-C2-Zr1-C15=100.68         
H23-C2-Zr1-C16= 67.46         H23-C2-Zr1-C17= 49.16         H23-C2-Zr1-C26=182.49         H23-C2-Zr1-C27=193.20         
H24-C2-Zr1-C3= 50.48          H24-C2-Zr1-C4= 51.77          H24-C2-Zr1-C5= 21.79          H24-C2-Zr1-C6=355.71          
H24-C2-Zr1-C7=  4.81          H24-C2-Zr1-C13=168.78         H24-C2-Zr1-C14=205.75         H24-C2-Zr1-C15=195.63         
H24-C2-Zr1-C16=162.41         H24-C2-Zr1-C17=144.11         H24-C2-Zr1-H23= 94.95         H24-C2-Zr1-C26=277.44         
H24-C2-Zr1-C27=288.15         H25-C2-Zr1-C3=214.00          H25-C2-Zr1-C4=215.29          H25-C2-Zr1-C5=185.31          
H25-C2-Zr1-C6=159.23          H25-C2-Zr1-C7=168.34          H25-C2-Zr1-C13=332.30         H25-C2-Zr1-C14=  9.28         
H25-C2-Zr1-C15=359.16         H25-C2-Zr1-C16=325.94         H25-C2-Zr1-C17=307.64         H25-C2-Zr1-H23=258.48         
H25-C2-Zr1-C26= 80.97         H25-C2-Zr1-C27= 91.68         C4-C3-Zr1-C2=  2.32           C4-C3-Zr1-C5= 37.46           
C4-C3-Zr1-C6= 78.10           C4-C3-Zr1-C7=115.94           C4-C3-Zr1-C13=219.83          C4-C3-Zr1-C14=204.75          
C4-C3-Zr1-C15=232.04          C4-C3-Zr1-C16=264.06          C4-C3-Zr1-C17=254.11          C4-C3-Zr1-H23=341.96          
C4-C3-Zr1-C26=115.98          C4-C3-Zr1-C27= 74.11          C7-C3-Zr1-C2=246.38           C7-C3-Zr1-C4=244.06           
C7-C3-Zr1-C5=281.52           C7-C3-Zr1-C6=322.15           C7-C3-Zr1-C13=103.89          C7-C3-Zr1-C14= 88.81          
C7-C3-Zr1-C15=116.09          C7-C3-Zr1-C16=148.11          C7-C3-Zr1-C17=138.17          C7-C3-Zr1-H23=226.02          
C7-C3-Zr1-C26=  0.04          C7-C3-Zr1-C27=318.17          H8-C3-Zr1-C2=124.51           H8-C3-Zr1-C4=122.19           
H8-C3-Zr1-C5=159.66           H8-C3-Zr1-C6=200.29           H8-C3-Zr1-C7=238.14           H8-C3-Zr1-C13=342.02          
H8-C3-Zr1-C14=326.94          H8-C3-Zr1-C15=354.23          H8-C3-Zr1-C16= 26.25          H8-C3-Zr1-C17= 16.30          
H8-C3-Zr1-H23=104.16          H8-C3-Zr1-C26=238.17          H8-C3-Zr1-C27=196.30          C3-C4-Zr1-C2=181.79           
C3-C4-Zr1-C5=245.22           C3-C4-Zr1-C6=281.95           C3-C4-Zr1-C7=322.95           C3-C4-Zr1-C13= 39.82          
C3-C4-Zr1-C14= 35.57          C3-C4-Zr1-C15= 88.40          C3-C4-Zr1-C16= 97.68          C3-C4-Zr1-C17= 71.16          
C3-C4-Zr1-H23=162.26          C3-C4-Zr1-C26=265.85          C3-C4-Zr1-C27=230.13          C5-C4-Zr1-C2=296.58           
C5-C4-Zr1-C3=114.78           C5-C4-Zr1-C6= 36.74           C5-C4-Zr1-C7= 77.74           C5-C4-Zr1-C13=154.60          
C5-C4-Zr1-C14=150.36          C5-C4-Zr1-C15=203.19          C5-C4-Zr1-C16=212.46          C5-C4-Zr1-C17=185.95          
C5-C4-Zr1-H23=277.04          C5-C4-Zr1-C26= 20.64          C5-C4-Zr1-C27=344.92          H9-C4-Zr1-C2= 59.59           
H9-C4-Zr1-C3=237.80           H9-C4-Zr1-C5=123.01           H9-C4-Zr1-C6=159.75           H9-C4-Zr1-C7=200.75           
H9-C4-Zr1-C13=277.61          H9-C4-Zr1-C14=273.37          H9-C4-Zr1-C15=326.20          H9-C4-Zr1-C16=335.47          
H9-C4-Zr1-C17=308.96          H9-C4-Zr1-H23= 40.06          H9-C4-Zr1-C26=143.65          H9-C4-Zr1-C27=107.93          
Zr1-C4-C3-C7= 64.49           Zr1-C4-C3-H8=235.87           C5-C4-C3-Zr1=293.48           C5-C4-C3-C7=357.97            
C5-C4-C3-H8=169.35            H9-C4-C3-Zr1=123.95           H9-C4-C3-C7=188.44            H9-C4-C3-H8=359.82            
C4-C5-Zr1-C2=115.81           C4-C5-Zr1-C3=322.46           C4-C5-Zr1-C6=244.12           C4-C5-Zr1-C7=281.24           
C4-C5-Zr1-C13=325.58          C4-C5-Zr1-C14=286.01          C4-C5-Zr1-C15= 88.37          C4-C5-Zr1-C16= 47.63          
C4-C5-Zr1-C17=  7.13          C4-C5-Zr1-H23= 87.72          C4-C5-Zr1-C26=194.89          C4-C5-Zr1-C27=166.92          
C6-C5-Zr1-C2=231.68           C6-C5-Zr1-C3= 78.34           C6-C5-Zr1-C4=115.88           C6-C5-Zr1-C7= 37.12           
C6-C5-Zr1-C13= 81.45          C6-C5-Zr1-C14= 41.88          C6-C5-Zr1-C15=204.25          C6-C5-Zr1-C16=163.51          
C6-C5-Zr1-C17=123.00          C6-C5-Zr1-H23=203.60          C6-C5-Zr1-C26=310.76          C6-C5-Zr1-C27=282.80          
H10-C5-Zr1-C2=354.00          H10-C5-Zr1-C3=200.65          H10-C5-Zr1-C4=238.19          H10-C5-Zr1-C6=122.32          
H10-C5-Zr1-C7=159.43          H10-C5-Zr1-C13=203.77         H10-C5-Zr1-C14=164.20         H10-C5-Zr1-C15=326.56         
H10-C5-Zr1-C16=285.83         H10-C5-Zr1-C17=245.32         H10-C5-Zr1-H23=325.91         H10-C5-Zr1-C26= 73.08         
H10-C5-Zr1-C27= 45.12         Zr1-C5-C4-C3= 65.93           Zr1-C5-C4-H9=235.44           C6-C5-C4-Zr1=295.11           
C6-C5-C4-C3=  1.04            C6-C5-C4-H9=170.55            H10-C5-C4-Zr1=124.07          H10-C5-C4-C3=190.00           
H10-C5-C4-H9=359.51           C5-C6-Zr1-C2= 52.35           C5-C6-Zr1-C3=282.02           C5-C6-Zr1-C4=322.99           
C5-C6-Zr1-C7=244.07           C5-C6-Zr1-C13=237.75          C5-C6-Zr1-C14=197.86          C5-C6-Zr1-C15=165.00          
C5-C6-Zr1-C16=305.98          C5-C6-Zr1-C17=276.45          C5-C6-Zr1-H23= 23.47          C5-C6-Zr1-C26=131.45          
C5-C6-Zr1-C27= 99.22          C7-C6-Zr1-C2=168.28           C7-C6-Zr1-C3= 37.94           C7-C6-Zr1-C4= 78.92           
C7-C6-Zr1-C5=115.93           C7-C6-Zr1-C13=353.68          C7-C6-Zr1-C14=313.78          C7-C6-Zr1-C15=280.93          
C7-C6-Zr1-C16= 61.90          C7-C6-Zr1-C17= 32.38          C7-C6-Zr1-H23=139.40          C7-C6-Zr1-C26=247.38          
C7-C6-Zr1-C27=215.15          H11-C6-Zr1-C2=289.86          H11-C6-Zr1-C3=159.53          H11-C6-Zr1-C4=200.50          
H11-C6-Zr1-C5=237.51          H11-C6-Zr1-C7=121.58          H11-C6-Zr1-C13=115.26         H11-C6-Zr1-C14= 75.37         
H11-C6-Zr1-C15= 42.52         H11-C6-Zr1-C16=183.49         H11-C6-Zr1-C17=153.96         H11-C6-Zr1-H23=260.98         
H11-C6-Zr1-C26=  8.96         H11-C6-Zr1-C27=336.73         Zr1-C6-C5-C4= 64.46           Zr1-C6-C5-H10=235.50          
C7-C6-C5-Zr1=295.88           C7-C6-C5-C4=  0.34            C7-C6-C5-H10=171.38           H11-C6-C5-Zr1=125.80          
H11-C6-C5-C4=190.27           H11-C6-C5-H10=  1.30          C3-C7-Zr1-C2= 97.95           C3-C7-Zr1-C4= 36.81           
C3-C7-Zr1-C5= 77.53           C3-C7-Zr1-C6=114.17           C3-C7-Zr1-C13=288.70          C3-C7-Zr1-C14=259.27          
C3-C7-Zr1-C15=261.91          C3-C7-Zr1-C16=312.51          C3-C7-Zr1-C17=317.19          C3-C7-Zr1-H23= 60.89          
C3-C7-Zr1-C26=180.03          C3-C7-Zr1-C27=150.89          C6-C7-Zr1-C2=343.79           C6-C7-Zr1-C3=245.83           
C6-C7-Zr1-C4=282.65           C6-C7-Zr1-C5=323.37           C6-C7-Zr1-C13=174.53          C6-C7-Zr1-C14=145.10          
C6-C7-Zr1-C15=147.74          C6-C7-Zr1-C16=198.35          C6-C7-Zr1-C17=203.02          C6-C7-Zr1-H23=306.72          
C6-C7-Zr1-C26= 65.86          C6-C7-Zr1-C27= 36.72          H12-C7-Zr1-C2=220.61          H12-C7-Zr1-C3=122.65          
H12-C7-Zr1-C4=159.46          H12-C7-Zr1-C5=200.19          H12-C7-Zr1-C6=236.82          H12-C7-Zr1-C13= 51.35         
H12-C7-Zr1-C14= 21.92         H12-C7-Zr1-C15= 24.56         H12-C7-Zr1-C16= 75.16         H12-C7-Zr1-C17= 79.84         
H12-C7-Zr1-H23=183.54         H12-C7-Zr1-C26=302.68         H12-C7-Zr1-C27=273.54         Zr1-C7-C3-C4=294.98           
Zr1-C7-C3-H8=123.62           C6-C7-C3-Zr1= 67.26           C6-C7-C3-C4=  2.24            C6-C7-C3-H8=190.88            
H12-C7-C3-Zr1=236.04          H12-C7-C3-C4=171.02           H12-C7-C3-H8=359.66           Zr1-C7-C6-C5= 65.26           
Zr1-C7-C6-H11=235.30          C3-C7-C6-Zr1=293.15           C3-C7-C6-C5=358.41            C3-C7-C6-H11=168.45           
H12-C7-C6-Zr1=124.38          H12-C7-C6-C5=189.64           H12-C7-C6-H11=359.68          
           -------------------------------------------------
          |                Final Singlepoint                |
           -------------------------------------------------

          ...................................................
          :                      SETUP                      :
          :.................................................:
          :  # basis functions                  79          :
          :  # atomic orbitals                  78          :
          :  # shells                           46          :
          :  # electrons                        72          :
          :  max. iterations                   250          :
          :  Hamiltonian                  GFN2-xTB          :
          :  restarted?                      false          :
          :  GBSA solvation                  false          :
          :  PC potential                    false          :
          :  electronic temp.          300.0000000     K    :
          :  accuracy                    1.0000000          :
          :  -> integral cutoff          0.2500000E+02      :
          :  -> integral neglect         0.1000000E-07      :
          :  -> SCF convergence          0.1000000E-05 Eh   :
          :  -> wf. convergence          0.1000000E-03 e    :
          :  Broyden damping             0.4000000          :
          ...................................................

 iter      E             dE          RMSdq      gap      omega  full diag
   1    -38.2779327 -0.382779E+02  0.832E-05    1.69       0.0  T
   2    -38.2779327 -0.178346E-10  0.613E-05    1.69     293.2  T
   3    -38.2779327 -0.108216E-10  0.441E-05    1.69     407.1  T

   *** convergence criteria satisfied after 3 iterations ***

         #    Occupation            Energy/Eh            Energy/eV
      -------------------------------------------------------------
         1        2.0000           -0.8741646             -23.7872
       ...           ...                  ...                  ...
        30        2.0000           -0.5860913             -15.9484
        31        2.0000           -0.5784771             -15.7412
        32        2.0000           -0.5222459             -14.2110
        33        2.0000           -0.5220002             -14.2043
        34        2.0000           -0.5118969             -13.9294
        35        2.0000           -0.5067362             -13.7890
        36        2.0000           -0.4865415             -13.2395 (HOMO)
        37                         -0.4244915             -11.5510 (LUMO)
        38                         -0.4095958             -11.1457
        39                         -0.4053682             -11.0306
        40                         -0.4032236             -10.9723
        41                         -0.3980359             -10.8311
       ...                                ...                  ...
        78                          2.5312968              68.8801
      -------------------------------------------------------------
                  HL-Gap            0.0620500 Eh            1.6885 eV
             Fermi-level           -0.4555165 Eh          -12.3952 eV

 SCC (total)                   0 d,  0 h,  0 min,  0.202 sec
 SCC setup                      ...        0 min,  0.022 sec ( 10.880%)
 Dispersion                     ...        0 min,  0.009 sec (  4.460%)
 classical contributions        ...        0 min,  0.007 sec (  3.319%)
 integral evaluation            ...        0 min,  0.025 sec ( 12.533%)
 iterations                     ...        0 min,  0.121 sec ( 60.042%)
 molecular gradient             ...        0 min,  0.018 sec (  8.665%)
 printout                       ...        0 min,  0.000 sec (  0.085%)

         :::::::::::::::::::::::::::::::::::::::::::::::::::::
         ::                     SUMMARY                     ::
         :::::::::::::::::::::::::::::::::::::::::::::::::::::
         :: total energy             -37.644141217812 Eh    ::
         :: gradient norm              0.000829632656 Eh/a0 ::
         :: HOMO-LUMO gap              1.688466443101 eV    ::
         ::.................................................::
         :: SCC energy               -38.277932666745 Eh    ::
         :: -> isotropic ES            0.087822619503 Eh    ::
         :: -> anisotropic ES         -0.013829167282 Eh    ::
         :: -> anisotropic XC          0.020736982747 Eh    ::
         :: -> dispersion             -0.028043982700 Eh    ::
         :: repulsion energy           0.633006749222 Eh    ::
         :: add. restraining           0.000103205691 Eh    ::
         :: total charge               1.000000000000 e     ::
         :::::::::::::::::::::::::::::::::::::::::::::::::::::

           -------------------------------------------------
          |                Property Printout                |
           -------------------------------------------------

    * Orbital Energies and Occupations

         #    Occupation            Energy/Eh            Energy/eV
      -------------------------------------------------------------
         1        2.0000           -0.8741646             -23.7872
       ...           ...                  ...                  ...
        24        2.0000           -0.5955072             -16.2046
        25        2.0000           -0.5939983             -16.1635
        26        2.0000           -0.5917118             -16.1013
        27        2.0000           -0.5915661             -16.0973
        28        2.0000           -0.5900830             -16.0570
        29        2.0000           -0.5893955             -16.0383
        30        2.0000           -0.5860913             -15.9484
        31        2.0000           -0.5784771             -15.7412
        32        2.0000           -0.5222459             -14.2110
        33        2.0000           -0.5220002             -14.2043
        34        2.0000           -0.5118969             -13.9294
        35        2.0000           -0.5067362             -13.7890
        36        2.0000           -0.4865415             -13.2395 (HOMO)
        37                         -0.4244915             -11.5510 (LUMO)
        38                         -0.4095958             -11.1457
        39                         -0.4053682             -11.0306
        40                         -0.4032236             -10.9723
        41                         -0.3980359             -10.8311
        42                         -0.3646992              -9.9240
        43                         -0.3078400              -8.3768
        44                         -0.3065931              -8.3428
        45                         -0.3061038              -8.3295
        46                         -0.3046008              -8.2886
        47                         -0.0572714              -1.5584
       ...                                ...                  ...
        78                          2.5312968              68.8801
      -------------------------------------------------------------
                  HL-Gap            0.0620500 Eh            1.6885 eV
             Fermi-level           -0.4555165 Eh          -12.3952 eV

     #   Z          covCN         q      C6AA      α(0)
     1  40 Zr      10.234     0.955   138.710    17.697
     2   6 C        3.762    -0.274    26.128     7.287
     3   6 C        3.763    -0.083    22.123     6.704
     4   6 C        3.759    -0.091    22.293     6.731
     5   6 C        3.753    -0.089    22.255     6.727
     6   6 C        3.757    -0.090    22.276     6.729
     7   6 C        3.765    -0.092    22.305     6.731
     8   1 H        0.925     0.086     1.920     2.167
     9   1 H        0.925     0.075     2.026     2.226
    10   1 H        0.925     0.080     1.977     2.199
    11   1 H        0.925     0.080     1.975     2.198
    12   1 H        0.925     0.081     1.969     2.194
    13   6 C        3.764    -0.086    22.177     6.712
    14   6 C        3.765    -0.090    22.266     6.726
    15   6 C        3.760    -0.090    22.273     6.728
    16   6 C        3.754    -0.086    22.204     6.719
    17   6 C        3.759    -0.089    22.250     6.725
    18   1 H        0.925     0.086     1.923     2.168
    19   1 H        0.925     0.084     1.939     2.178
    20   1 H        0.925     0.084     1.939     2.178
    21   1 H        0.925     0.076     2.020     2.223
    22   1 H        0.925     0.080     1.976     2.198
    23   1 H        1.391     0.082     1.947     2.178
    24   1 H        0.925     0.080     1.977     2.199
    25   1 H        0.925     0.076     2.021     2.223
    26   6 C        3.567    -0.188    25.171     7.305
    27   6 C        3.704    -0.076    22.110     6.723
    28   1 H        0.925     0.119     1.618     1.989
    29   1 H        0.925     0.112     1.678     2.026
    30   1 H        0.925     0.095     1.835     2.118
    31   1 H        0.927     0.093     1.845     2.124

 Mol. C6AA /au·bohr⁶  :       9444.674720
 Mol. C8AA /au·bohr⁸  :     320762.797397
 Mol. α(0) /au        :        143.031282


Wiberg/Mayer (AO) data.
largest (>0.10) Wiberg bond orders for each atom

 ---------------------------------------------------------------------------
     #   Z sym  total        # sym  WBO       # sym  WBO       # sym  WBO
 ---------------------------------------------------------------------------
     1  40 Zr   4.331 --     2 C    0.553    26 C    0.455     7 C    0.254
                            14 C    0.250    13 C    0.244     4 C    0.242
                            17 C    0.241     3 C    0.234    15 C    0.233
                             6 C    0.231    16 C    0.230     5 C    0.227
                            27 C    0.217    23 H    0.130
     2   6 C    3.888 --    24 H    0.959    25 H    0.947    23 H    0.812
                             1 Zr   0.553    27 C    0.348    26 C    0.165
     3   6 C    3.982 --     4 C    1.311     7 C    1.299     8 H    0.925
                             1 Zr   0.234
     4   6 C    3.979 --     3 C    1.311     5 C    1.294     9 H    0.922
                             1 Zr   0.242
     5   6 C    3.979 --     6 C    1.319     4 C    1.294    10 H    0.928
                             1 Zr   0.227
     6   6 C    3.979 --     5 C    1.319     7 C    1.290    11 H    0.927
                             1 Zr   0.231
     7   6 C    3.979 --     3 C    1.299     6 C    1.290    12 H    0.919
                             1 Zr   0.254
     8   1 H    0.991 --     3 C    0.925
     9   1 H    0.992 --     4 C    0.922
    10   1 H    0.991 --     5 C    0.928
    11   1 H    0.991 --     6 C    0.927
    12   1 H    0.991 --     7 C    0.919
    13   6 C    3.980 --    14 C    1.300    17 C    1.300    18 H    0.922
                             1 Zr   0.244
    14   6 C    3.981 --    13 C    1.300    15 C    1.289    19 H    0.920
                             1 Zr   0.250
    15   6 C    3.978 --    16 C    1.313    14 C    1.289    20 H    0.926
                             1 Zr   0.233
    16   6 C    3.981 --    15 C    1.313    17 C    1.304    21 H    0.926
                             1 Zr   0.230
    17   6 C    3.979 --    16 C    1.304    13 C    1.300    22 H    0.923
                             1 Zr   0.241
    18   1 H    0.990 --    13 C    0.922
    19   1 H    0.991 --    14 C    0.920
    20   1 H    0.990 --    15 C    0.926
    21   1 H    0.992 --    16 C    0.926
    22   1 H    0.991 --    17 C    0.923
    23   1 H    0.993 --     2 C    0.812     1 Zr   0.130
    24   1 H    0.992 --     2 C    0.959
    25   1 H    0.993 --     2 C    0.947
    26   6 C    3.942 --    27 C    1.426    30 H    0.923    31 H    0.889
                             1 Zr   0.455     2 C    0.165
    27   6 C    3.980 --    26 C    1.426    28 H    0.941    29 H    0.926
                             2 C    0.348     1 Zr   0.217
    28   1 H    0.984 --    27 C    0.941
    29   1 H    0.986 --    27 C    0.926
    30   1 H    0.990 --    26 C    0.923
    31   1 H    0.991 --    26 C    0.889
 ---------------------------------------------------------------------------

Topologies differ in total number of bonds
Writing topology from bond orders to xtbtopo.mol

molecular dipole:
                 x           y           z       tot (Debye)
 q only:       -3.112       0.007       0.675
   full:       -2.645       0.051       0.635       6.916
molecular quadrupole (traceless):
                xx          xy          yy          xz          yz          zz
 q only:       12.943      -0.689      -8.512      -1.178      -3.573      -4.431
  q+dip:       11.201      -0.166      -8.427      -1.577      -7.651      -2.774
   full:       10.655       0.735      -7.560      -2.575      -6.241      -3.095

           -------------------------------------------------
          |                Geometry Summary                 |
           -------------------------------------------------

      molecular mass/u    :      264.4982010
   center of mass at/Å    :       -1.2133360      -0.1483159       0.6299892
  moments of inertia/u·Å² :        0.5844416E+03   0.7220855E+03   0.9147872E+03
rotational constants/cm⁻¹ :        0.2884400E-01   0.2334575E-01   0.1842793E-01

 * 40 selected distances

     #   Z          #   Z                                           value/Å
     1  40 Zr       2   6 C                                       2.3472413
     1  40 Zr       3   6 C                                       2.4502015
     1  40 Zr       4   6 C                                       2.4509991
     3   6 C        4   6 C                                       1.4150643
     1  40 Zr       5   6 C                                       2.4722038
     4   6 C        5   6 C                                       1.4187658
     1  40 Zr       6   6 C                                       2.4648574
     5   6 C        6   6 C                                       1.4128623
     1  40 Zr       7   6 C                                       2.4327799
     3   6 C        7   6 C                                       1.4183441
     6   6 C        7   6 C                                       1.4194580
     3   6 C        8   1 H                                       1.0836982
     4   6 C        9   1 H                                       1.0855114
     5   6 C       10   1 H                                       1.0834237
     6   6 C       11   1 H                                       1.0832569 (min)
     7   6 C       12   1 H                                       1.0858542
     1  40 Zr      13   6 C                                       2.4445625
     1  40 Zr      14   6 C                                       2.4361036
    13   6 C       14   6 C                                       1.4165557
     1  40 Zr      15   6 C                                       2.4546407
    14   6 C       15   6 C                                       1.4201465
     1  40 Zr      16   6 C                                       2.4676092
    15   6 C       16   6 C                                       1.4144063
     1  40 Zr      17   6 C                                       2.4531371
    13   6 C       17   6 C                                       1.4183989
    16   6 C       17   6 C                                       1.4156707
    13   6 C       18   1 H                                       1.0845156
    14   6 C       19   1 H                                       1.0845972
    15   6 C       20   1 H                                       1.0835235
    16   6 C       21   1 H                                       1.0843574
    17   6 C       22   1 H                                       1.0848978
     2   6 C       23   1 H                                       1.1259830
     2   6 C       24   1 H                                       1.0884554
     2   6 C       25   1 H                                       1.0930014
     1  40 Zr      26   6 C                                       2.4957588 (max)
    26   6 C       27   6 C                                       1.4009080
    27   6 C       28   1 H                                       1.0853901
    27   6 C       29   1 H                                       1.0894081
    26   6 C       30   1 H                                       1.0858145
    26   6 C       31   1 H                                       1.0911677

 * 3 distinct bonds (by element types)

   Z      Z             #   av. dist./Å        max./Å        min./Å
   1 H    6 C          17     1.0884033     1.1259830     1.0832569
   6 C    6 C          11     1.4155073     1.4201465     1.4009080
   6 C   40 Zr         12     2.4475079     2.4957588     2.3472413


optimized geometry written to: xtbopt.xyz


           -------------------------------------------------
          | TOTAL ENERGY              -37.644141217812 Eh   |
          | GRADIENT NORM               0.000829632656 Eh/α |
          | HOMO-LUMO GAP               1.688466443101 eV   |
           -------------------------------------------------

------------------------------------------------------------------------
 * finished run on 2026/08/03 at 12:02:11.348     
------------------------------------------------------------------------
 total:
 * wall-time:     0 d,  0 h,  1 min, 31.474 sec
 *  cpu-time:     0 d,  0 h,  3 min,  1.001 sec
 * ratio c/w:     1.979 speedup
 SCF:
 * wall-time:     0 d,  0 h,  0 min,  1.626 sec
 *  cpu-time:     0 d,  0 h,  0 min,  3.519 sec
 * ratio c/w:     2.164 speedup
 ANC optimizer:
 * wall-time:     0 d,  0 h,  1 min, 29.678 sec
 *  cpu-time:     0 d,  0 h,  2 min, 57.136 sec
 * ratio c/w:     1.975 speedup

