31
 energy: -37.644141217812 gnorm: 0.000829632656 xtb: 6.5.1 (b24c23e)
Zr          -1.24476456328187       -0.08240145515215        0.55179749217012
C           -1.56671055314986        1.32321476357118       -1.30026478795889
C            0.23167613236698       -2.02114774248782        0.80649753919515
C            0.46151997590079       -1.50092821072358       -0.48924553325591
C           -0.72055194830469       -1.69152063728487       -1.25034761296198
C           -1.68342187394907       -2.30543124869603       -0.41837727513320
C           -1.10533731747940       -2.49094350123934        0.86469091639104
H            0.98869720008988       -2.17302035158074        1.56692861664011
H            1.42363960919297       -1.18685098736170       -0.88169429130516
H           -0.81396787179111       -1.54030383211183       -2.31909154922711
H           -2.62747480408472       -2.71920612615146       -0.75154338377069
H           -1.53808870272773       -3.06707806989335        1.67701746303930
C           -0.46039807871733        0.11947660654797        2.85828818002805
C           -1.72259127253971        0.75862134993893        2.78763335326139
C           -1.58546285718415        1.90174479836943        1.95620064240661
C           -0.24459935902403        1.95988719565600        1.50982718729004
C            0.45040572131994        0.85467298056378        2.05717778396576
H           -0.20293496650315       -0.68584873334577        3.53750667515401
H           -2.57676588876766        0.52868205529669        3.41521960735689
H           -2.33267266058620        2.67329674181364        1.81334354042687
H            0.20825063830220        2.78777479687537        0.97563644178272
H            1.52310564983729        0.69925920994784        2.01065372202404
H           -0.46258851198620        1.14926485459972       -1.16427397760277
H           -1.77812387852526        1.15656276042646       -2.35490520519971
H           -1.77596393083479        2.37148935138792       -1.07226214408284
C           -3.74025516228611       -0.04683716758824        0.54327553565957
C           -3.44778820228697        0.44460369603395       -0.73558797688143
H           -3.87462520334551        1.40913444953237       -0.99163886898096
H           -3.47198502106124       -0.26879456888168       -1.55856260286004
H           -4.18760521101387        0.62574724132987        1.26887950863710
H           -3.90769744760082       -1.11358526941194        0.70030532380396
