      -----------------------------------------------------------      
     |                   =====================                   |     
     |                           x T B                           |     
     |                   =====================                   |     
     |                         S. Grimme                         |     
     |          Mulliken Center for Theoretical Chemistry        |     
     |                    University of Bonn                     |     
      -----------------------------------------------------------      

   * xtb version 6.5.1 (b24c23e) compiled by 'conda@728c89f4b128' on 2022-07-12

   xtb is free software: you can redistribute it and/or modify it under
   the terms of the GNU Lesser General Public License as published by
   the Free Software Foundation, either version 3 of the License, or
   (at your option) any later version.
   
   xtb is distributed in the hope that it will be useful,
   but WITHOUT ANY WARRANTY; without even the implied warranty of
   MERCHANTABILITY or FITNESS FOR A PARTICULAR PURPOSE.  See the
   GNU Lesser General Public License for more details.
   
   Cite this work as:
   * C. Bannwarth, E. Caldeweyher, S. Ehlert, A. Hansen, P. Pracht,
     J. Seibert, S. Spicher, S. Grimme, WIREs Comput. Mol. Sci., 2020, 11,
     e01493. DOI: 10.1002/wcms.1493
   
   for GFN2-xTB:
   * C. Bannwarth, S. Ehlert and S. Grimme., J. Chem. Theory Comput., 2019,
     15, 1652-1671. DOI: 10.1021/acs.jctc.8b01176
   for GFN1-xTB:
   * S. Grimme, C. Bannwarth, P. Shushkov, J. Chem. Theory Comput., 2017,
     13, 1989-2009. DOI: 10.1021/acs.jctc.7b00118
   for GFN0-xTB:
   * P. Pracht, E. Caldeweyher, S. Ehlert, S. Grimme, ChemRxiv, 2019, preprint.
     DOI: 10.26434/chemrxiv.8326202.v1
   for GFN-FF:
   * S. Spicher and S. Grimme, Angew. Chem. Int. Ed., 2020, 59, 15665-15673.
     DOI: 10.1002/anie.202004239
   
   for ALPB and GBSA implicit solvation:
   * S. Ehlert, M. Stahn, S. Spicher, S. Grimme, J. Chem. Theory Comput.,
     2021, 17, 4250-4261. DOI: 10.1021/acs.jctc.1c00471
   
   for DFT-D4:
   * E. Caldeweyher, C. Bannwarth and S. Grimme, J. Chem. Phys., 2017,
     147, 034112. DOI: 10.1063/1.4993215
   * E. Caldeweyher, S. Ehlert, A. Hansen, H. Neugebauer, S. Spicher,
     C. Bannwarth and S. Grimme, J. Chem. Phys., 2019, 150, 154122.
     DOI: 10.1063/1.5090222
   * E. Caldeweyher, J.-M. Mewes, S. Ehlert and S. Grimme, Phys. Chem. Chem. Phys.
     2020, 22, 8499-8512. DOI: 10.1039/D0CP00502A
   
   for sTDA-xTB:
   * S. Grimme and C. Bannwarth, J. Chem. Phys., 2016, 145, 054103.
     DOI: 10.1063/1.4959605
   
   in the mass-spec context:
   * V. Asgeirsson, C. Bauer and S. Grimme, Chem. Sci., 2017, 8, 4879.
     DOI: 10.1039/c7sc00601b
   * J. Koopman and S. Grimme, ACS Omega 2019, 4, 12, 15120-15133.
     DOI: 10.1021/acsomega.9b02011
   
   for metadynamics refer to:
   * S. Grimme, J. Chem. Theory Comput., 2019, 155, 2847-2862
     DOI: 10.1021/acs.jctc.9b00143
   
   for SPH calculations refer to:
   * S. Spicher and S. Grimme, J. Chem. Theory Comput., 2021, 17, 1701-1714
     DOI: 10.1021/acs.jctc.0c01306
   
   with help from (in alphabetical order)
   P. Atkinson, C. Bannwarth, F. Bohle, G. Brandenburg, E. Caldeweyher
   M. Checinski, S. Dohm, S. Ehlert, S. Ehrlich, I. Gerasimov, C. Hölzer
   A. Katbashev, J. Koopman, C. Lavigne, S. Lehtola, F. März, M. Müller,
   F. Musil, H. Neugebauer, J. Pisarek, C. Plett, P. Pracht, F. Pultar,
   J. Seibert, P. Shushkov, S. Spicher, M. Stahn, M. Steiner, T. Strunk,
   J. Stückrath, T. Rose, and J. Unsleber
   
 * started run on 2026/07/21 at 14:48:05.251     

           -------------------------------------------------
          |                Calculation Setup                |
           -------------------------------------------------

          program call               : /h/332/chchoi/miniconda3/envs/el-agente/bin/xtb product_raw.xyz --opt --gfn 2 -P 4 --chrg 1 --uhf 0 --input detailed_input.inp
          coordinate file            : product_raw.xyz
          omp threads                :                     4

   ID    Z sym.   atoms
    1   40 Zr     1
    2    6 C      2-7, 13-17, 25, 28
    3    1 H      8-12, 18-24, 26, 27, 29-31
constraining bond 1 2 to    2.4800000 Å, actual value:    2.4750002 Å

           -------------------------------------------------
          |                 G F N 2 - x T B                 |
           -------------------------------------------------

        Reference                      10.1021/acs.jctc.8b01176
      * Hamiltonian:
        H0-scaling (s, p, d)           1.850000    2.230000    2.230000
        zeta-weighting                 0.500000
      * Dispersion:
        s8                             2.700000
        a1                             0.520000
        a2                             5.000000
        s9                             5.000000
      * Repulsion:
        kExp                           1.500000    1.000000
        rExp                           1.000000
      * Coulomb:
        alpha                          2.000000
        third order                    shell-resolved
        anisotropic                    true
        a3                             3.000000
        a5                             4.000000
        cn-shift                       1.200000
        cn-exp                         4.000000
        max-rad                        5.000000


          ...................................................
          :                      SETUP                      :
          :.................................................:
          :  # basis functions                  79          :
          :  # atomic orbitals                  78          :
          :  # shells                           46          :
          :  # electrons                        72          :
          :  max. iterations                   250          :
          :  Hamiltonian                  GFN2-xTB          :
          :  restarted?                      false          :
          :  GBSA solvation                  false          :
          :  PC potential                    false          :
          :  electronic temp.          300.0000000     K    :
          :  accuracy                    1.0000000          :
          :  -> integral cutoff          0.2500000E+02      :
          :  -> integral neglect         0.1000000E-07      :
          :  -> SCF convergence          0.1000000E-05 Eh   :
          :  -> wf. convergence          0.1000000E-03 e    :
          :  Broyden damping             0.4000000          :
          ...................................................

 iter      E             dE          RMSdq      gap      omega  full diag
   1    -37.8040350 -0.378040E+02  0.138E+01    0.31       0.0  T
   2    -37.9680515 -0.164016E+00  0.607E+00    2.60       1.0  T
   3    -37.6874105  0.280641E+00  0.884E+00    0.34       1.0  T
   4    -38.0986470 -0.411236E+00  0.195E+00    1.96       1.0  T
   5    -38.1186027 -0.199557E-01  0.121E+00    1.60       1.0  T
   6    -38.1233916 -0.478895E-02  0.918E-01    1.55       1.0  T
   7    -38.1279412 -0.454960E-02  0.130E-01    1.37       1.0  T
   8    -38.1284215 -0.480227E-03  0.605E-02    1.35       1.0  T
   9    -38.1284435 -0.219954E-04  0.315E-02    1.36       1.0  T
  10    -38.1284455 -0.200333E-05  0.176E-02    1.36       1.0  T
  11    -38.1284481 -0.264805E-05  0.688E-03    1.36       2.6  T
  12    -38.1284482 -0.136699E-06  0.287E-03    1.36       6.3  T
  13    -38.1284482 -0.902091E-08  0.146E-03    1.36      12.3  T
  14    -38.1284483 -0.223341E-07  0.732E-04    1.36      24.5  T
  15    -38.1284483  0.311616E-09  0.572E-04    1.36      31.4  T

   *** convergence criteria satisfied after 15 iterations ***

         #    Occupation            Energy/Eh            Energy/eV
      -------------------------------------------------------------
         1        2.0000           -0.8369216             -22.7738
       ...           ...                  ...                  ...
        30        2.0000           -0.5540994             -15.0778
        31        2.0000           -0.5483991             -14.9227
        32        2.0000           -0.5175890             -14.0843
        33        2.0000           -0.5152997             -14.0220
        34        2.0000           -0.5060292             -13.7698
        35        2.0000           -0.5021925             -13.6654
        36        2.0000           -0.5013468             -13.6423 (HOMO)
        37                         -0.4513822             -12.2827 (LUMO)
        38                         -0.4508992             -12.2696
        39                         -0.4502714             -12.2525
        40                         -0.4443230             -12.0906
        41                         -0.4373875             -11.9019
       ...                                ...                  ...
        78                          1.3350047              36.3273
      -------------------------------------------------------------
                  HL-Gap            0.0499647 Eh            1.3596 eV
             Fermi-level           -0.4765053 Eh          -12.9664 eV

 SCC (total)                   0 d,  0 h,  0 min,  0.519 sec
 SCC setup                      ...        0 min,  0.006 sec (  1.073%)
 Dispersion                     ...        0 min,  0.005 sec (  0.985%)
 classical contributions        ...        0 min,  0.009 sec (  1.823%)
 integral evaluation            ...        0 min,  0.019 sec (  3.712%)
 iterations                     ...        0 min,  0.468 sec ( 90.137%)
 molecular gradient             ...        0 min,  0.011 sec (  2.178%)
 printout                       ...        0 min,  0.000 sec (  0.084%)

         :::::::::::::::::::::::::::::::::::::::::::::::::::::
         ::                     SUMMARY                     ::
         :::::::::::::::::::::::::::::::::::::::::::::::::::::
         :: total energy             -37.584692142667 Eh    ::
         :: gradient norm              0.175449472320 Eh/a0 ::
         :: HOMO-LUMO gap              1.359607479213 eV    ::
         ::.................................................::
         :: SCC energy               -38.128448270140 Eh    ::
         :: -> isotropic ES            0.087464463803 Eh    ::
         :: -> anisotropic ES         -0.003262609774 Eh    ::
         :: -> anisotropic XC          0.015445901534 Eh    ::
         :: -> dispersion             -0.024096968683 Eh    ::
         :: repulsion energy           0.543221170669 Eh    ::
         :: add. restraining           0.000044634201 Eh    ::
         :: total charge               0.999999999996 e     ::
         :::::::::::::::::::::::::::::::::::::::::::::::::::::

      ----------------------------------------------------------- 
     |                   =====================                   |
     |                        A N C O P T                        |
     |                   =====================                   |
     |               Approximate Normal Coordinate               |
     |                Rational Function Optimizer                |
      ----------------------------------------------------------- 

          ...................................................
          :                      SETUP                      :
          :.................................................:
          :   optimization level            normal          :
          :   max. optcycles                   200          :
          :   ANC micro-cycles                  20          :
          :   degrees of freedom                87          :
          :.................................................:
          :   RF solver                   davidson          :
          :   write xtbopt.log                true          :
          :   linear?                        false          :
          :   energy convergence         0.5000000E-05 Eh   :
          :   grad. convergence          0.1000000E-02 Eh/α :
          :   maximium RF displ.         1.0000000          :
          :   Hlow (freq-cutoff)         0.1000000E-01      :
          :   Hmax (freq-cutoff)         5.0000000          :
          :   S6 in model hess.         20.0000000          :
          ...................................................

generating ANC from model Hessian ...
Using Lindh-Hessian (1995)
 Shifting diagonal of input Hessian by    1.8094694227069198E-002
 Lowest  eigenvalues of input Hessian
    0.010000    0.016295    0.018029    0.000000    0.000000    0.000000
    0.000000    0.000000    0.000000    0.018203    0.018270    0.018298
    0.018532    0.018569    0.018623    0.018640    0.018746    0.019186
 Highest eigenvalues
    1.498008    1.499236    1.499279    1.499326    1.499346    2.241652


........................................................................
.............................. CYCLE    1 ..............................
........................................................................
   1    -38.1284483 -0.381284E+02  0.221E-04    1.36       0.0  T
   2    -38.1284483 -0.544844E-10  0.135E-04    1.36     133.3  T
   3    -38.1284483 -0.151751E-09  0.893E-05    1.36     201.1  T
     SCC iter.                  ...        0 min,  0.123 sec
     gradient                   ...        0 min,  0.082 sec
 * total energy  :   -37.5846921 Eh     change       -0.1419934E-08 Eh
   gradient norm :     0.1754491 Eh/α   predicted     0.0000000E+00 (-100.00%)
   displ. norm   :     0.5995713 α      lambda       -0.6438627E-01
   maximum displ.:     0.3003347 α      in ANC's #3, #22, #56, ...

........................................................................
.............................. CYCLE    2 ..............................
........................................................................
   1    -38.2061420 -0.382061E+02  0.106E+00    1.63       0.0  T
   2    -38.2068614 -0.719394E-03  0.531E-01    1.33       1.0  T
   3    -38.2069381 -0.767169E-04  0.512E-01    1.53       1.0  T
   4    -38.2075638 -0.625675E-03  0.104E-01    1.38       1.0  T
   5    -38.2076796 -0.115839E-03  0.617E-02    1.42       1.0  T
   6    -38.2077016 -0.219835E-04  0.270E-02    1.42       1.0  T
   7    -38.2077047 -0.308280E-05  0.128E-02    1.42       1.4  T
   8    -38.2077046  0.103499E-06  0.845E-03    1.42       2.1  T
   9    -38.2077050 -0.408826E-06  0.417E-03    1.42       4.3  T
  10    -38.2077050 -0.361286E-07  0.188E-03    1.43       9.6  T
  11    -38.2077050 -0.155338E-07  0.417E-04    1.43      43.1  T
  12    -38.2077050 -0.555644E-09  0.145E-04    1.43     124.0  T
     SCC iter.                  ...        0 min,  0.366 sec
     gradient                   ...        0 min,  0.007 sec
 * total energy  :   -37.6322735 Eh     change       -0.4758138E-01 Eh
   gradient norm :     0.0657142 Eh/α   predicted    -0.4377688E-01 (  -8.00%)
   displ. norm   :     0.7886686 α      lambda       -0.4118751E-01
   maximum displ.:     0.5319961 α      in ANC's #22, #3, #56, ...

........................................................................
.............................. CYCLE    3 ..............................
........................................................................
   1    -38.2553667 -0.382554E+02  0.131E+00    1.58       0.0  T
   2    -38.2560744 -0.707655E-03  0.846E-01    1.33       1.0  T
   3    -38.2556945  0.379882E-03  0.599E-01    1.53       1.0  T
   4    -38.2564886 -0.794120E-03  0.191E-01    1.35       1.0  T
   5    -38.2566727 -0.184015E-03  0.920E-02    1.40       1.0  T
   6    -38.2567121 -0.394745E-04  0.388E-02    1.41       1.0  T
   7    -38.2567144 -0.230207E-05  0.179E-02    1.41       1.0  T
   8    -38.2567146 -0.181448E-06  0.934E-03    1.41       1.9  T
   9    -38.2567151 -0.464329E-06  0.413E-03    1.41       4.4  T
  10    -38.2567151 -0.338156E-07  0.164E-03    1.41      11.0  T
  11    -38.2567151 -0.765443E-08  0.450E-04    1.41      39.9  T
  12    -38.2567151 -0.695067E-09  0.296E-04    1.41      60.8  T
     SCC iter.                  ...        0 min,  0.397 sec
     gradient                   ...        0 min,  0.007 sec
 * total energy  :   -37.6471196 Eh     change       -0.1484609E-01 Eh
   gradient norm :     0.1003197 Eh/α   predicted    -0.3340303E-01 ( 125.00%)
   displ. norm   :     0.6544486 α      lambda       -0.2537843E-01
   maximum displ.:     0.5347565 α      in ANC's #1, #3, #22, ...

........................................................................
.............................. CYCLE    4 ..............................
........................................................................
   1    -38.2522554 -0.382523E+02  0.974E-01    1.31       0.0  T
   2    -38.2535597 -0.130433E-02  0.889E-01    1.27       1.0  T
   3    -38.2537871 -0.227438E-03  0.558E-01    1.33       1.0  T
   4    -38.2531824  0.604760E-03  0.313E-01    1.21       1.0  T
   5    -38.2540929 -0.910513E-03  0.154E-01    1.30       1.0  T
   6    -38.2541177 -0.248502E-04  0.490E-02    1.31       1.0  T
   7    -38.2541227 -0.492085E-05  0.227E-02    1.31       1.0  T
   8    -38.2541248 -0.214926E-05  0.900E-03    1.31       2.0  T
   9    -38.2541252 -0.368101E-06  0.562E-03    1.31       3.2  T
  10    -38.2541252 -0.414094E-07  0.154E-03    1.31      11.7  T
  11    -38.2541252 -0.610498E-08  0.707E-04    1.31      25.4  T
  12    -38.2541252 -0.146204E-08  0.245E-04    1.31      73.4  T
     SCC iter.                  ...        0 min,  0.401 sec
     gradient                   ...        0 min,  0.022 sec
 * total energy  :   -37.6399943 Eh     change        0.7125355E-02 Eh
   gradient norm :     0.1200744 Eh/α   predicted    -0.1812420E-01 (-354.36%)
   displ. norm   :     0.5062176 α      lambda       -0.4588170E-01
   maximum displ.:     0.3410486 α      in ANC's #1, #22, #42, ...

........................................................................
.............................. CYCLE    5 ..............................
........................................................................
   1    -38.2516969 -0.382517E+02  0.826E-01    1.20       0.0  T
   2    -38.2524855 -0.788601E-03  0.634E-01    1.46       1.0  T
   3    -38.2532845 -0.798987E-03  0.480E-01    1.30       1.0  T
   4    -38.2534277 -0.143145E-03  0.146E-01    1.37       1.0  T
   5    -38.2534514 -0.237081E-04  0.106E-01    1.34       1.0  T
   6    -38.2535558 -0.104394E-03  0.576E-02    1.34       1.0  T
   7    -38.2535637 -0.791790E-05  0.173E-02    1.34       1.0  T
   8    -38.2535637 -0.547736E-07  0.781E-03    1.34       2.3  T
   9    -38.2535643 -0.553464E-06  0.374E-03    1.34       4.8  T
  10    -38.2535643 -0.213193E-07  0.134E-03    1.34      13.4  T
  11    -38.2535643 -0.336322E-08  0.494E-04    1.34      36.4  T
  12    -38.2535643 -0.742787E-09  0.266E-04    1.34      67.5  T
     SCC iter.                  ...        0 min,  0.385 sec
     gradient                   ...        0 min,  0.007 sec
 * total energy  :   -37.6553793 Eh     change       -0.1538500E-01 Eh
   gradient norm :     0.0890652 Eh/α   predicted    -0.2881960E-01 (  87.32%)
   displ. norm   :     0.3714806 α      lambda       -0.1629675E-01
   maximum displ.:     0.2128472 α      in ANC's #3, #22, #23, ...

........................................................................
.............................. CYCLE    6 ..............................
........................................................................
   1    -38.2713678 -0.382714E+02  0.636E-01    1.44       0.0  T
   2    -38.2716056 -0.237748E-03  0.485E-01    1.29       1.0  T
   3    -38.2717688 -0.163266E-03  0.339E-01    1.39       1.0  T
   4    -38.2718299 -0.610406E-04  0.123E-01    1.31       1.0  T
   5    -38.2719152 -0.852735E-04  0.550E-02    1.35       1.0  T
   6    -38.2719295 -0.143819E-04  0.287E-02    1.35       1.0  T
   7    -38.2719318 -0.227651E-05  0.109E-02    1.35       1.6  T
   8    -38.2719320 -0.150292E-06  0.409E-03    1.35       4.4  T
   9    -38.2719320 -0.602707E-07  0.188E-03    1.35       9.5  T
  10    -38.2719320 -0.105687E-07  0.596E-04    1.35      30.1  T
  11    -38.2719320 -0.720703E-09  0.260E-04    1.35      69.1  T
     SCC iter.                  ...        0 min,  0.368 sec
     gradient                   ...        0 min,  0.019 sec
 * total energy  :   -37.6610046 Eh     change       -0.5625337E-02 Eh
   gradient norm :     0.0391338 Eh/α   predicted    -0.9272829E-02 (  64.84%)
   displ. norm   :     0.3698690 α      lambda       -0.6321373E-02
   maximum displ.:     0.2996712 α      in ANC's #3, #2, #1, ...

........................................................................
.............................. CYCLE    7 ..............................
........................................................................
   1    -38.2766460 -0.382766E+02  0.233E-01    1.32       0.0  T
   2    -38.2767487 -0.102697E-03  0.203E-01    1.36       1.0  T
   3    -38.2768012 -0.524885E-04  0.142E-01    1.34       1.0  T
   4    -38.2768076 -0.645712E-05  0.467E-02    1.36       1.0  T
   5    -38.2768090 -0.140455E-05  0.316E-02    1.35       1.0  T
   6    -38.2768142 -0.511330E-05  0.167E-02    1.35       1.1  T
   7    -38.2768150 -0.839507E-06  0.586E-03    1.35       3.1  T
   8    -38.2768151 -0.121861E-06  0.195E-03    1.35       9.2  T
   9    -38.2768151 -0.969724E-08  0.902E-04    1.35      19.9  T
  10    -38.2768151 -0.228985E-08  0.348E-04    1.35      51.6  T
     SCC iter.                  ...        0 min,  0.325 sec
     gradient                   ...        0 min,  0.019 sec
 * total energy  :   -37.6653260 Eh     change       -0.4321418E-02 Eh
   gradient norm :     0.0137590 Eh/α   predicted    -0.3593110E-02 ( -16.85%)
   displ. norm   :     0.4836566 α      lambda       -0.3178142E-02
   maximum displ.:     0.4257361 α      in ANC's #3, #2, #15, ...

........................................................................
.............................. CYCLE    8 ..............................
........................................................................
   1    -38.2817396 -0.382817E+02  0.298E-01    1.33       0.0  T
   2    -38.2817822 -0.425351E-04  0.191E-01    1.34       1.0  T
   3    -38.2816166  0.165593E-03  0.957E-02    1.34       1.0  T
   4    -38.2818156 -0.198996E-03  0.333E-02    1.34       1.0  T
   5    -38.2818216 -0.603154E-05  0.182E-02    1.35       1.0  T
   6    -38.2818219 -0.277334E-06  0.128E-02    1.34       1.4  T
   7    -38.2818222 -0.336441E-06  0.499E-03    1.34       3.6  T
   8    -38.2818223 -0.998198E-07  0.267E-03    1.34       6.7  T
   9    -38.2818223 -0.190884E-07  0.107E-03    1.35      16.7  T
  10    -38.2818223 -0.268877E-08  0.373E-04    1.35      48.1  T
  11    -38.2818223 -0.648583E-10  0.183E-04    1.35      98.4  T
     SCC iter.                  ...        0 min,  0.335 sec
     gradient                   ...        0 min,  0.026 sec
 * total energy  :   -37.6675536 Eh     change       -0.2227567E-02 Eh
   gradient norm :     0.0161062 Eh/α   predicted    -0.1960797E-02 ( -11.98%)
   displ. norm   :     0.4068423 α      lambda       -0.1775201E-02
   maximum displ.:     0.3120611 α      in ANC's #3, #2, #8, ...

........................................................................
.............................. CYCLE    9 ..............................
........................................................................
   1    -38.2851658 -0.382852E+02  0.218E-01    1.33       0.0  T
   2    -38.2851752 -0.946402E-05  0.141E-01    1.34       1.0  T
   3    -38.2851343  0.409509E-04  0.427E-02    1.34       1.0  T
   4    -38.2851815 -0.472528E-04  0.172E-02    1.34       1.0  T
   5    -38.2851821 -0.533705E-06  0.102E-02    1.35       1.8  T
   6    -38.2851828 -0.728630E-06  0.708E-03    1.34       2.5  T
   7    -38.2851829 -0.830291E-07  0.400E-03    1.34       4.5  T
   8    -38.2851829 -0.356248E-07  0.171E-03    1.34      10.5  T
   9    -38.2851829 -0.105406E-07  0.437E-04    1.34      41.1  T
  10    -38.2851829 -0.533078E-09  0.147E-04    1.34     121.9  T
     SCC iter.                  ...        0 min,  0.361 sec
     gradient                   ...        0 min,  0.078 sec
 * total energy  :   -37.6687401 Eh     change       -0.1186528E-02 Eh
   gradient norm :     0.0089627 Eh/α   predicted    -0.1034522E-02 ( -12.81%)
   displ. norm   :     0.3014460 α      lambda       -0.7880529E-03
   maximum displ.:     0.1859334 α      in ANC's #3, #2, #8, ...

........................................................................
.............................. CYCLE   10 ..............................
........................................................................
   1    -38.2858561 -0.382859E+02  0.159E-01    1.35       0.0  T
   2    -38.2858657 -0.958792E-05  0.105E-01    1.34       1.0  T
   3    -38.2858527  0.129839E-04  0.528E-02    1.36       1.0  T
   4    -38.2858707 -0.179818E-04  0.167E-02    1.34       1.1  T
   5    -38.2858713 -0.629677E-06  0.959E-03    1.35       1.9  T
   6    -38.2858717 -0.413146E-06  0.475E-03    1.35       3.8  T
   7    -38.2858718 -0.102956E-06  0.255E-03    1.35       7.0  T
   8    -38.2858718  0.135204E-07  0.194E-03    1.35       9.2  T
   9    -38.2858719 -0.244755E-07  0.679E-04    1.35      26.4  T
  10    -38.2858719 -0.750653E-09  0.273E-04    1.35      65.7  T
     SCC iter.                  ...        0 min,  0.243 sec
     gradient                   ...        0 min,  0.007 sec
 * total energy  :   -37.6691813 Eh     change       -0.4412019E-03 Eh
   gradient norm :     0.0077542 Eh/α   predicted    -0.4298326E-03 (  -2.58%)
   displ. norm   :     0.2343515 α      lambda       -0.4651668E-03
   maximum displ.:     0.1332789 α      in ANC's #8, #2, #3, ...

........................................................................
.............................. CYCLE   11 ..............................
........................................................................
   1    -38.2847158 -0.382847E+02  0.155E-01    1.35       0.0  T
   2    -38.2847249 -0.907856E-05  0.997E-02    1.35       1.0  T
   3    -38.2846901  0.347304E-04  0.477E-02    1.34       1.0  T
   4    -38.2847298 -0.396227E-04  0.147E-02    1.35       1.2  T
   5    -38.2847319 -0.217985E-05  0.701E-03    1.35       2.6  T
   6    -38.2847320 -0.432887E-07  0.348E-03    1.35       5.2  T
   7    -38.2847320 -0.595984E-07  0.148E-03    1.35      12.2  T
   8    -38.2847320  0.185859E-08  0.122E-03    1.35      14.7  T
   9    -38.2847320 -0.667745E-08  0.483E-04    1.35      37.2  T
  10    -38.2847320 -0.454754E-09  0.187E-04    1.35      95.8  T
     SCC iter.                  ...        0 min,  0.250 sec
     gradient                   ...        0 min,  0.006 sec
 * total energy  :   -37.6694809 Eh     change       -0.2995405E-03 Eh
   gradient norm :     0.0072759 Eh/α   predicted    -0.2453662E-03 ( -18.09%)
   displ. norm   :     0.2785822 α      lambda       -0.4380500E-03
   maximum displ.:     0.1824543 α      in ANC's #8, #6, #2, ...

........................................................................
.............................. CYCLE   12 ..............................
........................................................................
   1    -38.2862728 -0.382863E+02  0.134E-01    1.35       0.0  T
   2    -38.2862793 -0.652097E-05  0.810E-02    1.35       1.0  T
   3    -38.2862320  0.472749E-04  0.600E-02    1.34       1.0  T
   4    -38.2862882 -0.562440E-04  0.122E-02    1.35       1.5  T
   5    -38.2862893 -0.109033E-05  0.578E-03    1.35       3.1  T
   6    -38.2862894 -0.906992E-07  0.243E-03    1.35       7.4  T
   7    -38.2862894 -0.176453E-07  0.130E-03    1.35      13.8  T
   8    -38.2862895 -0.325436E-08  0.740E-04    1.35      24.3  T
   9    -38.2862895 -0.169187E-08  0.430E-04    1.35      41.8  T
     SCC iter.                  ...        0 min,  0.232 sec
     gradient                   ...        0 min,  0.009 sec
 * total energy  :   -37.6697990 Eh     change       -0.3181006E-03 Eh
   gradient norm :     0.0058868 Eh/α   predicted    -0.2360237E-03 ( -25.80%)
   displ. norm   :     0.3643338 α      lambda       -0.4303833E-03
   maximum displ.:     0.2361657 α      in ANC's #8, #6, #3, ...

........................................................................
.............................. CYCLE   13 ..............................
........................................................................
   1    -38.2869382 -0.382869E+02  0.271E-01    1.33       0.0  T
   2    -38.2869477 -0.942359E-05  0.182E-01    1.34       1.0  T
   3    -38.2867827  0.164956E-03  0.110E-01    1.30       1.0  T
   4    -38.2869637 -0.181022E-03  0.143E-02    1.34       1.3  T
   5    -38.2869651 -0.141174E-05  0.880E-03    1.34       2.0  T
   6    -38.2869654 -0.270468E-06  0.394E-03    1.34       4.6  T
   7    -38.2869655 -0.934356E-07  0.174E-03    1.34      10.3  T
   8    -38.2869655 -0.464118E-08  0.977E-04    1.34      18.4  T
   9    -38.2869655 -0.512056E-08  0.565E-04    1.34      31.8  T
     SCC iter.                  ...        0 min,  0.199 sec
     gradient                   ...        0 min,  0.006 sec
 * total energy  :   -37.6700323 Eh     change       -0.2333726E-03 Eh
   gradient norm :     0.0087958 Eh/α   predicted    -0.2437580E-03 (   4.45%)
   displ. norm   :     0.3074205 α      lambda       -0.3605128E-03
   maximum displ.:     0.1813364 α      in ANC's #8, #6, #3, ...

........................................................................
.............................. CYCLE   14 ..............................
........................................................................
   1    -38.2868336 -0.382868E+02  0.110E-01    1.33       0.0  T
   2    -38.2868401 -0.647640E-05  0.738E-02    1.34       1.0  T
   3    -38.2868216  0.184097E-04  0.507E-02    1.33       1.0  T
   4    -38.2868472 -0.255310E-04  0.982E-03    1.34       1.8  T
   5    -38.2868480 -0.806682E-06  0.753E-03    1.34       2.4  T
   6    -38.2868482 -0.240650E-06  0.357E-03    1.34       5.0  T
   7    -38.2868483 -0.340563E-07  0.175E-03    1.34      10.2  T
   8    -38.2868483 -0.107749E-07  0.860E-04    1.34      20.9  T
   9    -38.2868483 -0.248453E-08  0.439E-04    1.34      40.9  T
     SCC iter.                  ...        0 min,  0.210 sec
     gradient                   ...        0 min,  0.072 sec
 * total energy  :   -37.6702371 Eh     change       -0.2047808E-03 Eh
   gradient norm :     0.0071626 Eh/α   predicted    -0.1972947E-03 (  -3.66%)
   displ. norm   :     0.2688971 α      lambda       -0.3010212E-03
   maximum displ.:     0.1610733 α      in ANC's #6, #8, #12, ...

........................................................................
.............................. CYCLE   15 ..............................
........................................................................
   1    -38.2877830 -0.382878E+02  0.164E-01    1.33       0.0  T
   2    -38.2877845 -0.146244E-05  0.110E-01    1.34       1.0  T
   3    -38.2877772  0.725028E-05  0.239E-02    1.33       1.0  T
   4    -38.2877852 -0.799740E-05  0.621E-03    1.34       2.9  T
   5    -38.2877853 -0.917046E-07  0.387E-03    1.34       4.6  T
   6    -38.2877854 -0.499250E-07  0.168E-03    1.34      10.7  T
   7    -38.2877854 -0.277999E-07  0.784E-04    1.34      22.9  T
   8    -38.2877854 -0.172273E-08  0.341E-04    1.34      52.7  T
     SCC iter.                  ...        0 min,  0.205 sec
     gradient                   ...        0 min,  0.048 sec
 * total energy  :   -37.6704932 Eh     change       -0.2561376E-03 Eh
   gradient norm :     0.0052882 Eh/α   predicted    -0.1613952E-03 ( -36.99%)
   displ. norm   :     0.5735641 α      lambda       -0.7127935E-03
   maximum displ.:     0.3215691 α      in ANC's #6, #9, #8, ...

........................................................................
.............................. CYCLE   16 ..............................
........................................................................
   1    -38.2870532 -0.382871E+02  0.372E-01    1.33       0.0  T
   2    -38.2870652 -0.119721E-04  0.248E-01    1.33       1.0  T
   3    -38.2869605  0.104655E-03  0.577E-02    1.34       1.0  T
   4    -38.2870723 -0.111808E-03  0.188E-02    1.33       1.0  T
   5    -38.2870744 -0.211848E-05  0.112E-02    1.33       1.6  T
   6    -38.2870748 -0.347177E-06  0.412E-03    1.33       4.4  T
   7    -38.2870749 -0.731946E-07  0.172E-03    1.33      10.4  T
   8    -38.2870749 -0.389771E-08  0.988E-04    1.33      18.2  T
   9    -38.2870749 -0.343417E-08  0.682E-04    1.33      26.3  T
     SCC iter.                  ...        0 min,  0.243 sec
     gradient                   ...        0 min,  0.062 sec
 * total energy  :   -37.6710312 Eh     change       -0.5379166E-03 Eh
   gradient norm :     0.0067959 Eh/α   predicted    -0.4736449E-03 ( -11.95%)
   displ. norm   :     0.5946569 α      lambda       -0.5085627E-03
   maximum displ.:     0.3387773 α      in ANC's #6, #9, #8, ...

........................................................................
.............................. CYCLE   17 ..............................
........................................................................
   1    -38.2832379 -0.382832E+02  0.354E-01    1.34       0.0  T
   2    -38.2832437 -0.571850E-05  0.233E-01    1.32       1.0  T
   3    -38.2831403  0.103382E-03  0.861E-02    1.36       1.0  T
   4    -38.2832507 -0.110417E-03  0.146E-02    1.33       1.2  T
   5    -38.2832509 -0.221294E-06  0.990E-03    1.33       1.8  T
   6    -38.2832515 -0.627090E-06  0.324E-03    1.33       5.5  T
   7    -38.2832516 -0.643555E-07  0.146E-03    1.33      12.3  T
   8    -38.2832516 -0.764356E-08  0.661E-04    1.33      27.2  T
   9    -38.2832516 -0.593474E-09  0.476E-04    1.33      37.7  T
     SCC iter.                  ...        0 min,  0.199 sec
     gradient                   ...        0 min,  0.005 sec
 * total energy  :   -37.6714030 Eh     change       -0.3717912E-03 Eh
   gradient norm :     0.0098790 Eh/α   predicted    -0.3442016E-03 (  -7.42%)
   displ. norm   :     0.4664675 α      lambda       -0.4623405E-03
   maximum displ.:     0.2515550 α      in ANC's #6, #9, #12, ...

........................................................................
.............................. CYCLE   18 ..............................
........................................................................
   1    -38.2845036 -0.382845E+02  0.227E-01    1.35       0.0  T
   2    -38.2845060 -0.236812E-05  0.141E-01    1.33       1.0  T
   3    -38.2844346  0.713529E-04  0.104E-01    1.37       1.0  T
   4    -38.2845166 -0.820173E-04  0.121E-02    1.34       1.5  T
   5    -38.2845165  0.171706E-06  0.823E-03    1.34       2.2  T
   6    -38.2845169 -0.443351E-06  0.292E-03    1.34       6.1  T
   7    -38.2845170 -0.559203E-07  0.113E-03    1.34      15.9  T
   8    -38.2845170 -0.242333E-08  0.495E-04    1.34      36.3  T
   9    -38.2845170 -0.243412E-08  0.312E-04    1.34      57.5  T
     SCC iter.                  ...        0 min,  0.193 sec
     gradient                   ...        0 min,  0.016 sec
 * total energy  :   -37.6717262 Eh     change       -0.3232683E-03 Eh
   gradient norm :     0.0088573 Eh/α   predicted    -0.2814719E-03 ( -12.93%)
   displ. norm   :     0.4883776 α      lambda       -0.4125664E-03
   maximum displ.:     0.2900594 α      in ANC's #6, #8, #9, ...

........................................................................
.............................. CYCLE   19 ..............................
........................................................................
   1    -38.2837251 -0.382837E+02  0.236E-01    1.34       0.0  T
   2    -38.2837295 -0.442300E-05  0.154E-01    1.33       1.0  T
   3    -38.2837137  0.157389E-04  0.341E-02    1.34       1.0  T
   4    -38.2837317 -0.179711E-04  0.959E-03    1.34       1.9  T
   5    -38.2837317 -0.642994E-08  0.492E-03    1.34       3.7  T
   6    -38.2837318 -0.115442E-06  0.146E-03    1.34      12.3  T
   7    -38.2837319 -0.252252E-07  0.970E-04    1.34      18.5  T
   8    -38.2837319  0.359414E-09  0.394E-04    1.34      45.6  T
     SCC iter.                  ...        0 min,  0.214 sec
     gradient                   ...        0 min,  0.011 sec
 * total energy  :   -37.6720315 Eh     change       -0.3053089E-03 Eh
   gradient norm :     0.0059930 Eh/α   predicted    -0.2554865E-03 ( -16.32%)
   displ. norm   :     0.3456062 α      lambda       -0.4812455E-03
   maximum displ.:     0.1916087 α      in ANC's #6, #9, #10, ...

........................................................................
.............................. CYCLE   20 ..............................
........................................................................
   1    -38.2913075 -0.382913E+02  0.126E-01    1.34       0.0  T
   2    -38.2913168 -0.922709E-05  0.787E-02    1.34       1.0  T
   3    -38.2913050  0.117668E-04  0.485E-02    1.34       1.0  T
   4    -38.2913238 -0.188005E-04  0.117E-02    1.34       1.5  T
   5    -38.2913237  0.911155E-07  0.652E-03    1.34       2.8  T
   6    -38.2913240 -0.265301E-06  0.251E-03    1.34       7.2  T
   7    -38.2913240 -0.108854E-07  0.144E-03    1.34      12.4  T
   8    -38.2913240  0.127117E-08  0.131E-03    1.34      13.7  T
   9    -38.2913240 -0.110514E-07  0.407E-04    1.34      44.1  T
  10    -38.2913240 -0.179796E-09  0.149E-04    1.34     120.7  T
     SCC iter.                  ...        0 min,  0.251 sec
     gradient                   ...        0 min,  0.015 sec
 * total energy  :   -37.6722069 Eh     change       -0.1753822E-03 Eh
   gradient norm :     0.0134027 Eh/α   predicted    -0.2693681E-03 (  53.59%)
   displ. norm   :     0.4860230 α      lambda       -0.3889406E-03
   maximum displ.:     0.3052576 α      in ANC's #6, #8, #9, ...
 * RMSD in coord.:     0.9893489 α      energy gain  -0.8751477E-01 Eh

generating ANC from model Hessian ...
Using Lindh-Hessian (1995)
 Shifting diagonal of input Hessian by    1.1678908348581554E-002
 Lowest  eigenvalues of input Hessian
    0.010000    0.010731    0.000000    0.000000    0.000000    0.000000
    0.000000    0.000000    0.012027    0.012046    0.012213    0.012489
    0.012918    0.013255    0.019849    0.020223    0.020259    0.020678
 Highest eigenvalues
    1.664344    1.707248    1.712672    1.713717    1.718172    2.280981


........................................................................
.............................. CYCLE   21 ..............................
........................................................................
   1    -38.2853093 -0.382853E+02  0.216E-01    1.32       0.0  T
   2    -38.2853124 -0.309323E-05  0.149E-01    1.34       1.0  T
   3    -38.2852178  0.945588E-04  0.870E-02    1.30       1.0  T
   4    -38.2853190 -0.101126E-03  0.105E-02    1.33       1.7  T
   5    -38.2853193 -0.306983E-06  0.834E-03    1.33       2.2  T
   6    -38.2853194 -0.117636E-06  0.326E-03    1.33       5.5  T
   7    -38.2853195 -0.103987E-06  0.126E-03    1.33      14.2  T
   8    -38.2853195 -0.104111E-08  0.721E-04    1.33      24.9  T
   9    -38.2853195 -0.398017E-08  0.361E-04    1.33      49.8  T
     SCC iter.                  ...        0 min,  0.236 sec
     gradient                   ...        0 min,  0.007 sec
 * total energy  :   -37.6724239 Eh     change       -0.2170225E-03 Eh
   gradient norm :     0.0088066 Eh/α   predicted     0.0000000E+00 (-100.00%)
   displ. norm   :     0.0865969 α      lambda       -0.2365863E-03
   maximum displ.:     0.0464045 α      in ANC's #1, #4, #15, ...

........................................................................
.............................. CYCLE   22 ..............................
........................................................................
   1    -38.2883980 -0.382884E+02  0.696E-02    1.32       0.0  T
   2    -38.2883993 -0.129586E-05  0.468E-02    1.33       1.0  T
   3    -38.2883962  0.312300E-05  0.203E-02    1.32       1.0  T
   4    -38.2884000 -0.389641E-05  0.644E-03    1.32       2.8  T
   5    -38.2884000  0.568813E-07  0.493E-03    1.32       3.6  T
   6    -38.2884001 -0.920931E-07  0.157E-03    1.32      11.4  T
   7    -38.2884001 -0.417733E-07  0.635E-04    1.32      28.3  T
   8    -38.2884001 -0.149266E-08  0.340E-04    1.32      52.9  T
     SCC iter.                  ...        0 min,  0.211 sec
     gradient                   ...        0 min,  0.009 sec
 * total energy  :   -37.6725906 Eh     change       -0.1666188E-03 Eh
   gradient norm :     0.0026928 Eh/α   predicted    -0.1191807E-03 ( -28.47%)
   displ. norm   :     0.1306521 α      lambda       -0.1401055E-03
   maximum displ.:     0.0762766 α      in ANC's #4, #1, #3, ...

........................................................................
.............................. CYCLE   23 ..............................
........................................................................
   1    -38.2900531 -0.382901E+02  0.898E-02    1.33       0.0  T
   2    -38.2900548 -0.169108E-05  0.592E-02    1.32       1.0  T
   3    -38.2900497  0.516714E-05  0.157E-02    1.32       1.1  T
   4    -38.2900560 -0.633443E-05  0.697E-03    1.32       2.6  T
   5    -38.2900560 -0.268310E-07  0.473E-03    1.33       3.8  T
   6    -38.2900561 -0.957177E-07  0.193E-03    1.32       9.3  T
   7    -38.2900561 -0.177938E-07  0.698E-04    1.32      25.7  T
   8    -38.2900561 -0.549214E-09  0.415E-04    1.32      43.3  T
     SCC iter.                  ...        0 min,  0.213 sec
     gradient                   ...        0 min,  0.011 sec
 * total energy  :   -37.6726900 Eh     change       -0.9946362E-04 Eh
   gradient norm :     0.0027853 Eh/α   predicted    -0.7127599E-04 ( -28.34%)
   displ. norm   :     0.1620331 α      lambda       -0.1015260E-03
   maximum displ.:     0.1039928 α      in ANC's #4, #1, #3, ...

........................................................................
.............................. CYCLE   24 ..............................
........................................................................
   1    -38.2900789 -0.382901E+02  0.977E-02    1.33       0.0  T
   2    -38.2900808 -0.183412E-05  0.644E-02    1.33       1.0  T
   3    -38.2900767  0.406031E-05  0.176E-02    1.32       1.0  T
   4    -38.2900822 -0.546552E-05  0.729E-03    1.32       2.5  T
   5    -38.2900822  0.206695E-08  0.361E-03    1.32       5.0  T
   6    -38.2900822 -0.419116E-07  0.153E-03    1.32      11.8  T
   7    -38.2900822 -0.190075E-07  0.799E-04    1.32      22.5  T
   8    -38.2900822 -0.285573E-08  0.354E-04    1.32      50.8  T
     SCC iter.                  ...        0 min,  0.226 sec
     gradient                   ...        0 min,  0.016 sec
 * total energy  :   -37.6727706 Eh     change       -0.8054219E-04 Eh
   gradient norm :     0.0038248 Eh/α   predicted    -0.5217516E-04 ( -35.22%)
   displ. norm   :     0.1957792 α      lambda       -0.1052796E-03
   maximum displ.:     0.1253867 α      in ANC's #4, #3, #1, ...

........................................................................
.............................. CYCLE   25 ..............................
........................................................................
   1    -38.2891796 -0.382892E+02  0.100E-01    1.33       0.0  T
   2    -38.2891816 -0.203239E-05  0.662E-02    1.33       1.0  T
   3    -38.2891791  0.254841E-05  0.150E-02    1.32       1.2  T
   4    -38.2891830 -0.394744E-05  0.761E-03    1.32       2.4  T
   5    -38.2891830 -0.272900E-07  0.355E-03    1.33       5.1  T
   6    -38.2891831 -0.818399E-07  0.148E-03    1.32      12.2  T
   7    -38.2891831 -0.155038E-07  0.769E-04    1.33      23.4  T
   8    -38.2891831 -0.526626E-09  0.554E-04    1.32      32.4  T
     SCC iter.                  ...        0 min,  0.228 sec
     gradient                   ...        0 min,  0.030 sec
 * total energy  :   -37.6728565 Eh     change       -0.8591794E-04 Eh
   gradient norm :     0.0031330 Eh/α   predicted    -0.5465770E-04 ( -36.38%)
   displ. norm   :     0.2074528 α      lambda       -0.9999422E-04
   maximum displ.:     0.1352987 α      in ANC's #4, #3, #1, ...

........................................................................
.............................. CYCLE   26 ..............................
........................................................................
   1    -38.2882112 -0.382882E+02  0.790E-02    1.33       0.0  T
   2    -38.2882128 -0.163864E-05  0.522E-02    1.33       1.0  T
   3    -38.2882112  0.161747E-05  0.134E-02    1.32       1.3  T
   4    -38.2882139 -0.267088E-05  0.655E-03    1.33       2.7  T
   5    -38.2882138  0.200569E-07  0.349E-03    1.32       5.1  T
   6    -38.2882139 -0.895809E-07  0.168E-03    1.33      10.7  T
   7    -38.2882139 -0.154288E-07  0.731E-04    1.32      24.6  T
   8    -38.2882139 -0.256274E-08  0.318E-04    1.32      56.5  T
     SCC iter.                  ...        0 min,  0.248 sec
     gradient                   ...        0 min,  0.014 sec
 * total energy  :   -37.6729383 Eh     change       -0.8177634E-04 Eh
   gradient norm :     0.0021521 Eh/α   predicted    -0.5214933E-04 ( -36.23%)
   displ. norm   :     0.1877287 α      lambda       -0.8563986E-04
   maximum displ.:     0.1255895 α      in ANC's #4, #3, #6, ...

........................................................................
.............................. CYCLE   27 ..............................
........................................................................
   1    -38.2879156 -0.382879E+02  0.445E-02    1.33       0.0  T
   2    -38.2879165 -0.856212E-06  0.294E-02    1.33       1.0  T
   3    -38.2879155  0.982651E-06  0.115E-02    1.33       1.6  T
   4    -38.2879170 -0.151149E-05  0.433E-03    1.32       4.1  T
   5    -38.2879170  0.267324E-08  0.258E-03    1.32       7.0  T
   6    -38.2879170 -0.271687E-07  0.756E-04    1.32      23.7  T
   7    -38.2879170 -0.209854E-08  0.504E-04    1.32      35.7  T
     SCC iter.                  ...        0 min,  0.191 sec
     gradient                   ...        0 min,  0.009 sec
 * total energy  :   -37.6730119 Eh     change       -0.7362497E-04 Eh
   gradient norm :     0.0025016 Eh/α   predicted    -0.4432996E-04 ( -39.79%)
   displ. norm   :     0.2082014 α      lambda       -0.9739066E-04
   maximum displ.:     0.1437507 α      in ANC's #3, #4, #6, ...

........................................................................
.............................. CYCLE   28 ..............................
........................................................................
   1    -38.2880646 -0.382881E+02  0.377E-02    1.33       0.0  T
   2    -38.2880652 -0.597558E-06  0.240E-02    1.32       1.0  T
   3    -38.2880643  0.917657E-06  0.120E-02    1.33       1.5  T
   4    -38.2880656 -0.127436E-05  0.326E-03    1.32       5.5  T
   5    -38.2880656 -0.276757E-08  0.213E-03    1.32       8.4  T
   6    -38.2880656 -0.148520E-07  0.536E-04    1.32      33.5  T
   7    -38.2880656 -0.440633E-08  0.306E-04    1.32      58.8  T
     SCC iter.                  ...        0 min,  0.175 sec
     gradient                   ...        0 min,  0.007 sec
 * total energy  :   -37.6730979 Eh     change       -0.8600406E-04 Eh
   gradient norm :     0.0032618 Eh/α   predicted    -0.5080650E-04 ( -40.93%)
   displ. norm   :     0.2775531 α      lambda       -0.1282501E-03
   maximum displ.:     0.1941021 α      in ANC's #3, #4, #8, ...

........................................................................
.............................. CYCLE   29 ..............................
........................................................................
   1    -38.2881078 -0.382881E+02  0.616E-02    1.32       0.0  T
   2    -38.2881084 -0.639642E-06  0.390E-02    1.32       1.0  T
   3    -38.2881064  0.204803E-05  0.167E-02    1.33       1.1  T
   4    -38.2881088 -0.239250E-05  0.368E-03    1.32       4.9  T
   5    -38.2881088 -0.325700E-07  0.241E-03    1.32       7.5  T
   6    -38.2881088 -0.181938E-07  0.678E-04    1.32      26.5  T
   7    -38.2881088 -0.641893E-08  0.342E-04    1.32      52.5  T
     SCC iter.                  ...        0 min,  0.193 sec
     gradient                   ...        0 min,  0.007 sec
 * total energy  :   -37.6732109 Eh     change       -0.1130594E-03 Eh
   gradient norm :     0.0036300 Eh/α   predicted    -0.6906649E-04 ( -38.91%)
   displ. norm   :     0.3669995 α      lambda       -0.1604326E-03
   maximum displ.:     0.2577133 α      in ANC's #3, #4, #1, ...

........................................................................
.............................. CYCLE   30 ..............................
........................................................................
   1    -38.2875523 -0.382876E+02  0.903E-02    1.32       0.0  T
   2    -38.2875531 -0.847041E-06  0.577E-02    1.32       1.0  T
   3    -38.2875499  0.322018E-05  0.194E-02    1.32       1.0  T
   4    -38.2875536 -0.363987E-05  0.497E-03    1.32       3.6  T
   5    -38.2875536 -0.621183E-07  0.329E-03    1.32       5.5  T
   6    -38.2875537 -0.383382E-07  0.896E-04    1.32      20.0  T
   7    -38.2875537 -0.393121E-08  0.517E-04    1.32      34.8  T
     SCC iter.                  ...        0 min,  0.190 sec
     gradient                   ...        0 min,  0.009 sec
 * total energy  :   -37.6733470 Eh     change       -0.1360097E-03 Eh
   gradient norm :     0.0036253 Eh/α   predicted    -0.9102494E-04 ( -33.07%)
   displ. norm   :     0.4538757 α      lambda       -0.1789476E-03
   maximum displ.:     0.3206899 α      in ANC's #3, #4, #1, ...

........................................................................
.............................. CYCLE   31 ..............................
........................................................................
   1    -38.2864919 -0.382865E+02  0.115E-01    1.32       0.0  T
   2    -38.2864933 -0.132432E-05  0.740E-02    1.32       1.0  T
   3    -38.2864890  0.427836E-05  0.200E-02    1.32       1.0  T
   4    -38.2864939 -0.491627E-05  0.656E-03    1.32       2.7  T
   5    -38.2864940 -0.842572E-07  0.443E-03    1.32       4.1  T
   6    -38.2864941 -0.692273E-07  0.125E-03    1.32      14.4  T
   7    -38.2864941 -0.351825E-08  0.722E-04    1.32      24.9  T
   8    -38.2864941 -0.132385E-08  0.368E-04    1.32      48.8  T
     SCC iter.                  ...        0 min,  0.191 sec
     gradient                   ...        0 min,  0.005 sec
 * total energy  :   -37.6734829 Eh     change       -0.1359288E-03 Eh
   gradient norm :     0.0037027 Eh/α   predicted    -0.1079113E-03 ( -20.61%)
   displ. norm   :     0.3754056 α      lambda       -0.1427898E-03
   maximum displ.:     0.2671797 α      in ANC's #3, #4, #1, ...

........................................................................
.............................. CYCLE   32 ..............................
........................................................................
   1    -38.2874520 -0.382875E+02  0.103E-01    1.31       0.0  T
   2    -38.2874533 -0.129069E-05  0.669E-02    1.31       1.0  T
   3    -38.2874507  0.257265E-05  0.160E-02    1.32       1.1  T
   4    -38.2874540 -0.326321E-05  0.657E-03    1.31       2.7  T
   5    -38.2874540 -0.656546E-07  0.420E-03    1.32       4.3  T
   6    -38.2874541 -0.694413E-07  0.154E-03    1.32      11.7  T
   7    -38.2874541 -0.646117E-08  0.766E-04    1.32      23.4  T
   8    -38.2874541 -0.106503E-08  0.353E-04    1.32      50.9  T
     SCC iter.                  ...        0 min,  0.203 sec
     gradient                   ...        0 min,  0.006 sec
 * total energy  :   -37.6735862 Eh     change       -0.1033186E-03 Eh
   gradient norm :     0.0026769 Eh/α   predicted    -0.8146090E-04 ( -21.16%)
   displ. norm   :     0.2502284 α      lambda       -0.9071325E-04
   maximum displ.:     0.1766713 α      in ANC's #3, #4, #1, ...

........................................................................
.............................. CYCLE   33 ..............................
........................................................................
   1    -38.2896938 -0.382897E+02  0.536E-02    1.31       0.0  T
   2    -38.2896945 -0.667485E-06  0.348E-02    1.31       1.0  T
   3    -38.2896936  0.848115E-06  0.103E-02    1.31       1.7  T
   4    -38.2896949 -0.122222E-05  0.430E-03    1.32       4.2  T
   5    -38.2896949 -0.284501E-09  0.326E-03    1.31       5.5  T
   6    -38.2896949 -0.562121E-07  0.972E-04    1.32      18.5  T
   7    -38.2896949 -0.298151E-08  0.538E-04    1.32      33.4  T
     SCC iter.                  ...        0 min,  0.186 sec
     gradient                   ...        0 min,  0.014 sec
 * total energy  :   -37.6736499 Eh     change       -0.6371426E-04 Eh
   gradient norm :     0.0014697 Eh/α   predicted    -0.4819838E-04 ( -24.35%)
   displ. norm   :     0.5393640 α      lambda       -0.6353799E-04
   maximum displ.:     0.3821589 α      in ANC's #3, #4, #56, ...

........................................................................
.............................. CYCLE   34 ..............................
........................................................................
   1    -38.2850186 -0.382850E+02  0.773E-02    1.31       0.0  T
   2    -38.2850209 -0.229545E-05  0.509E-02    1.32       1.0  T
   3    -38.2850134  0.753434E-05  0.313E-02    1.30       1.0  T
   4    -38.2850225 -0.909019E-05  0.922E-03    1.32       1.9  T
   5    -38.2850229 -0.369195E-06  0.483E-03    1.31       3.7  T
   6    -38.2850229 -0.956834E-08  0.144E-03    1.31      12.5  T
   7    -38.2850229 -0.224767E-07  0.612E-04    1.31      29.3  T
   8    -38.2850229 -0.734694E-09  0.273E-04    1.31      65.7  T
     SCC iter.                  ...        0 min,  0.217 sec
     gradient                   ...        0 min,  0.007 sec
 * total energy  :   -37.6736592 Eh     change       -0.9260448E-05 Eh
   gradient norm :     0.0048078 Eh/α   predicted    -0.3587886E-04 ( 287.44%)
   displ. norm   :     0.0914251 α      lambda       -0.9564452E-04
   maximum displ.:     0.0448674 α      in ANC's #3, #8, #4, ...

........................................................................
.............................. CYCLE   35 ..............................
........................................................................
   1    -38.2900924 -0.382901E+02  0.552E-02    1.32       0.0  T
   2    -38.2900928 -0.457832E-06  0.366E-02    1.32       1.0  T
   3    -38.2900907  0.217847E-05  0.951E-03    1.32       1.9  T
   4    -38.2900931 -0.242193E-05  0.407E-03    1.32       4.4  T
   5    -38.2900931 -0.228807E-07  0.341E-03    1.32       5.3  T
   6    -38.2900931 -0.284911E-07  0.107E-03    1.32      16.8  T
   7    -38.2900931 -0.790203E-08  0.456E-04    1.32      39.4  T
   8    -38.2900931 -0.341053E-09  0.233E-04    1.32      76.9  T
     SCC iter.                  ...        0 min,  0.216 sec
     gradient                   ...        0 min,  0.007 sec
 * total energy  :   -37.6737083 Eh     change       -0.4913003E-04 Eh
   gradient norm :     0.0017060 Eh/α   predicted    -0.4824470E-04 (  -1.80%)
   displ. norm   :     0.0363682 α      lambda       -0.1049125E-04
   maximum displ.:     0.0252229 α      in ANC's #1, #5, #6, ...

........................................................................
.............................. CYCLE   36 ..............................
........................................................................
   1    -38.2902384 -0.382902E+02  0.321E-02    1.32       0.0  T
   2    -38.2902386 -0.163641E-06  0.212E-02    1.32       1.0  T
   3    -38.2902382  0.373567E-06  0.467E-03    1.32       3.8  T
   4    -38.2902386 -0.435560E-06  0.200E-03    1.32       9.0  T
   5    -38.2902387 -0.155855E-07  0.148E-03    1.32      12.1  T
   6    -38.2902387 -0.101084E-07  0.593E-04    1.32      30.3  T
   7    -38.2902387 -0.814623E-09  0.272E-04    1.32      66.1  T
     SCC iter.                  ...        0 min,  0.188 sec
     gradient                   ...        0 min,  0.008 sec
 * total energy  :   -37.6737199 Eh     change       -0.1157159E-04 Eh
   gradient norm :     0.0008331 Eh/α   predicted    -0.5254028E-05 ( -54.60%)
   displ. norm   :     0.0844457 α      lambda       -0.1012881E-04
   maximum displ.:     0.0520819 α      in ANC's #4, #3, #1, ...

........................................................................
.............................. CYCLE   37 ..............................
........................................................................
   1    -38.2899533 -0.382900E+02  0.397E-02    1.32       0.0  T
   2    -38.2899535 -0.217807E-06  0.270E-02    1.32       1.0  T
   3    -38.2899530  0.532175E-06  0.598E-03    1.32       3.0  T
   4    -38.2899536 -0.614708E-06  0.203E-03    1.32       8.9  T
   5    -38.2899536 -0.264259E-08  0.135E-03    1.32      13.3  T
   6    -38.2899536 -0.909191E-08  0.481E-04    1.32      37.3  T
   7    -38.2899536 -0.450541E-09  0.285E-04    1.32      63.0  T
     SCC iter.                  ...        0 min,  0.203 sec
     gradient                   ...        0 min,  0.007 sec
 * total energy  :   -37.6737292 Eh     change       -0.9296613E-05 Eh
   gradient norm :     0.0006901 Eh/α   predicted    -0.5082911E-05 ( -45.33%)
   displ. norm   :     0.0920406 α      lambda       -0.5055442E-05
   maximum displ.:     0.0584966 α      in ANC's #4, #3, #6, ...

........................................................................
.............................. CYCLE   38 ..............................
........................................................................
   1    -38.2898111 -0.382898E+02  0.385E-02    1.32       0.0  T
   2    -38.2898112 -0.129366E-06  0.252E-02    1.32       1.0  T
   3    -38.2898107  0.549448E-06  0.878E-03    1.32       2.0  T
   4    -38.2898113 -0.628678E-06  0.217E-03    1.32       8.3  T
   5    -38.2898113 -0.790584E-08  0.137E-03    1.32      13.1  T
   6    -38.2898113 -0.100959E-07  0.508E-04    1.32      35.4  T
   7    -38.2898113 -0.135113E-08  0.287E-04    1.32      62.7  T
     SCC iter.                  ...        0 min,  0.191 sec
     gradient                   ...        0 min,  0.019 sec
 * total energy  :   -37.6737337 Eh     change       -0.4510445E-05 Eh
   gradient norm :     0.0007880 Eh/α   predicted    -0.2538032E-05 ( -43.73%)
   displ. norm   :     0.0704333 α      lambda       -0.3448875E-05
   maximum displ.:     0.0425259 α      in ANC's #4, #3, #6, ...

   *** GEOMETRY OPTIMIZATION CONVERGED AFTER 38 ITERATIONS ***

------------------------------------------------------------------------
 total energy gain   :        -0.0890415 Eh      -55.8744 kcal/mol
 total RMSD          :         1.3002025 a0        0.6880 Å
 total power (kW/mol):        -6.1520668 (step)  -22.4404 (real)
------------------------------------------------------------------------

 ANCopt (total)                0 d,  0 h,  0 min, 10.418 sec
 optimizer setup                ...        0 min,  0.000 sec (  0.005%)
 model hessian                  ...        0 min,  0.018 sec (  0.169%)
 ANC generation                 ...        0 min,  0.010 sec (  0.093%)
 coordinate transformation      ...        0 min,  0.001 sec (  0.005%)
 single point calculation       ...        0 min, 10.298 sec ( 98.851%)
 optimization log               ...        0 min,  0.004 sec (  0.042%)
 hessian update                 ...        0 min,  0.053 sec (  0.514%)
 rational function              ...        0 min,  0.030 sec (  0.286%)

================
 final structure:
================
31
 xtb: 6.5.1 (b24c23e)
Zr          -0.42414685919336       -0.55083144193352        0.13379343026829
C           -1.70991665469854       -2.61117440073592       -0.24961565243287
C            1.85262292678373        0.15398372712886        0.77316312868387
C            1.91651964544131       -0.39973015903065       -0.52975830273674
C            1.56203504314551       -1.77366668010935       -0.44076763210475
C            1.27808207340253       -2.06287392938027        0.92494466584422
C            1.43807448015827       -0.86469229123166        1.67082682070320
H            2.19965260851960        1.14181422041044        1.05576686201692
H            2.33293458524021        0.09097656970486       -1.40460478093236
H            1.67603037232814       -2.51084162881973       -1.22956731430038
H            1.12990965682403       -3.05396988863715        1.34012456506634
H            1.44276241439074       -0.79136244889542        2.75521081305180
C           -0.72102668180888        1.83764409173129       -0.35003494814054
C           -1.02329635012576        1.65537676626055        1.02374984742487
C           -2.16160476714522        0.81330894109061        1.11787597948616
C           -2.56939427026932        0.48037960831490       -0.20417064645283
C           -1.66188678126483        1.09849314333941       -1.11238696280246
H            0.01113593585936        2.53207543086811       -0.74879749223925
H           -0.57238964214193        2.20026823491754        1.84734862400412
H           -2.73185303133721        0.62103664466722        2.02225436039764
H           -3.50083096095508       -0.00137650604160       -0.47795447261324
H           -1.79614012446549        1.16238842662961       -2.18872122144294
H           -1.07076934131037       -3.48165567729053       -0.45894013172249
H           -2.51922363124009       -2.59556200410422       -0.99089072214751
C           -2.30674777816272       -2.75113757650250        1.16879541849155
H           -1.55488904305476       -2.48269715489399        1.95075476365621
H           -3.17246653001467       -2.08268520893506        1.27895923632762
C           -2.78055239845777       -4.18534156687572        1.44361280451270
H           -1.94545149469467       -4.88032770704791        1.38878353520932
H           -3.22879974114251       -4.26431282024475        2.43073658101686
H           -3.52218059060282       -4.47979053440433        0.70504970390081

 Bond Distances (Angstroems)
 ---------------------------
Zr1-C2=2.4587        Zr1-C3=2.4676        Zr1-C4=2.4376        Zr1-C5=2.4022        Zr1-C6=2.4103        Zr1-C7=2.4349        
Zr1-C13=2.4550       Zr1-C14=2.4532       Zr1-C15=2.4183       Zr1-C16=2.4041       Zr1-C17=2.4094       Zr1-C25=3.0752       
C2-Zr1=2.4587        C2-H23=1.1000        C2-H24=1.0976        C2-C25=1.5452        C3-Zr1=2.4676        C3-C4=1.4171         
C3-C7=1.4196         C3-H8=1.0845         C4-Zr1=2.4376        C4-C3=1.4171         C4-C5=1.4217         C4-H9=1.0861         
C5-Zr1=2.4022        C5-C4=1.4217         C5-C6=1.4246         C5-H10=1.0856        C6-Zr1=2.4103        C6-C5=1.4246         
C6-C7=1.4204         C6-H11=1.0847        C7-Zr1=2.4349        C7-C3=1.4196         C7-C6=1.4204         C7-H12=1.0869        
H8-C3=1.0845         H9-C4=1.0861         H10-C5=1.0856        H11-C6=1.0847        H12-C7=1.0869        C13-Zr1=2.4550       
C13-C14=1.4184       C13-C17=1.4187       C13-H18=1.0850       C14-Zr1=2.4532       C14-C13=1.4184       C14-C15=1.4190       
C14-H19=1.0856       C15-Zr1=2.4183       C15-C14=1.4190       C15-C16=1.4230       C15-H20=1.0863       C16-Zr1=2.4041       
C16-C15=1.4230       C16-C17=1.4250       C16-H21=1.0838       C17-Zr1=2.4094       C17-C13=1.4187       C17-C16=1.4250       
C17-H22=1.0866       H18-C13=1.0850       H19-C14=1.0856       H20-C15=1.0863       H21-C16=1.0838       H22-C17=1.0866       
H23-C2=1.1000        H24-C2=1.0976        C25-Zr1=3.0752       C25-C2=1.5452        C25-H26=1.1175       C25-H27=1.0993       
C25-C28=1.5352       H26-C25=1.1175       H27-C25=1.0993       C28-C25=1.5352       C28-H29=1.0878       C28-H30=1.0870       
C28-H31=1.0873       H29-C28=1.0878       H30-C28=1.0870       H31-C28=1.0873       
 C  H  Rav=1.0901 sigma=0.0085  Rmin=1.0838  Rmax=1.1175    17
 C  C  Rav=1.4407 sigma=0.0446  Rmin=1.4171  Rmax=1.5452    12
 Zr C  Rav=2.4855 sigma=0.1791  Rmin=2.4022  Rmax=3.0752    12

 selected bond angles (degree)
 --------------------
C3-Zr1-C2=139.66               C4-Zr1-C2=120.77               C4-Zr1-C3= 33.58               C5-Zr1-C2= 88.20               
C5-Zr1-C3= 56.25               C5-Zr1-C4= 34.16               C6-Zr1-C2= 83.96               C6-Zr1-C3= 56.12               
C6-Zr1-C4= 56.64               C6-Zr1-C5= 34.44               C7-Zr1-C2=112.98               C7-Zr1-C3= 33.66               
C7-Zr1-C4= 56.32               C7-Zr1-C5= 56.84               C7-Zr1-C6= 34.09               C13-Zr1-C2=136.16              
C13-Zr1-C3= 83.38              C13-Zr1-C4= 90.12              C13-Zr1-C5=123.24              C13-Zr1-C6=139.50              
C13-Zr1-C7=110.02              C14-Zr1-C2=133.04              C14-Zr1-C3= 82.79              C14-Zr1-C4=106.11              
C14-Zr1-C5=138.29              C14-Zr1-C6=128.14              C14-Zr1-C7= 94.23              C14-Zr1-C13= 33.59             
C15-Zr1-C2= 99.23              C15-Zr1-C3=113.35              C15-Zr1-C4=139.97              C15-Zr1-C5=168.11              
C15-Zr1-C6=136.69              C15-Zr1-C7=111.43              C15-Zr1-C13= 56.26             C15-Zr1-C14= 33.86             
C16-Zr1-C2= 82.58              C16-Zr1-C3=137.49              C16-Zr1-C4=142.37              C16-Zr1-C5=157.30              
C16-Zr1-C6=160.98              C16-Zr1-C7=145.74              C16-Zr1-C13= 56.43             C16-Zr1-C14= 56.45             
C16-Zr1-C15= 34.32             C17-Zr1-C2=102.96              C17-Zr1-C3=114.36              C17-Zr1-C4=108.06              
C17-Zr1-C5=130.50              C17-Zr1-C6=164.15              C17-Zr1-C7=143.86              C17-Zr1-C13= 33.90             
C17-Zr1-C14= 56.40             C17-Zr1-C15= 56.99             C17-Zr1-C16= 34.44             C25-Zr1-C2= 29.86              
C25-Zr1-C3=133.00              C25-Zr1-C4=136.37              C25-Zr1-C5=102.85              C25-Zr1-C6= 82.71              
C25-Zr1-C7= 99.41              C25-Zr1-C13=133.50             C25-Zr1-C14=111.83             C25-Zr1-C15= 80.03             
C25-Zr1-C16= 78.93             C25-Zr1-C17=110.45             H23-C2-Zr1=112.89              H24-C2-Zr1=118.62              
H24-C2-H23=108.13              C25-C2-Zr1= 97.74              C25-C2-H23=109.11              C25-C2-H24=109.66              
C4-C3-Zr1= 72.05               C7-C3-Zr1= 71.91               C7-C3-C4=108.31                H8-C3-Zr1=128.53               
H8-C3-C4=125.53                H8-C3-C7=125.61                C3-C4-Zr1= 74.37               C5-C4-Zr1= 71.56               
C5-C4-C3=107.99                H9-C4-Zr1=127.98               H9-C4-C3=125.55                H9-C4-C5=125.64                
C4-C5-Zr1= 74.29               C6-C5-Zr1= 73.10               C6-C5-C4=107.81                H10-C5-Zr1=127.32              
H10-C5-C4=125.77               H10-C5-C6=125.42               C5-C6-Zr1= 72.47               C7-C6-Zr1= 73.90               
C7-C6-C5=108.04                H11-C6-Zr1=127.04              H11-C6-C5=125.43               H11-C6-C7=125.81               
C3-C7-Zr1= 74.44               C6-C7-Zr1= 72.01               C6-C7-C3=107.83                H12-C7-Zr1=128.64              
H12-C7-C3=125.54               H12-C7-C6=125.54               

 selected dihedral angles (degree)
 ---------------------------------
H23-C2-Zr1-C3=339.14          H23-C2-Zr1-C4= 16.31          H23-C2-Zr1-C5=  5.54          H23-C2-Zr1-C6=331.27          
H23-C2-Zr1-C7=312.97          H23-C2-Zr1-C13=144.91         H23-C2-Zr1-C14=192.61         H23-C2-Zr1-C15=194.87         
H23-C2-Zr1-C16=164.75         H23-C2-Zr1-C17=136.80         H23-C2-Zr1-C25=245.41         H24-C2-Zr1-C3=211.18          
H24-C2-Zr1-C4=248.35          H24-C2-Zr1-C5=237.58          H24-C2-Zr1-C6=203.31          H24-C2-Zr1-C7=185.00          
H24-C2-Zr1-C13= 16.95         H24-C2-Zr1-C14= 64.65         H24-C2-Zr1-C15= 66.91         H24-C2-Zr1-C16= 36.78         
H24-C2-Zr1-C17=  8.84         H24-C2-Zr1-C25=117.45         C25-C2-Zr1-C3= 93.73          C25-C2-Zr1-C4=130.90          
C25-C2-Zr1-C5=120.12          C25-C2-Zr1-C6= 85.86          C25-C2-Zr1-C7= 67.55          C25-C2-Zr1-C13=259.49         
C25-C2-Zr1-C14=307.19         C25-C2-Zr1-C15=309.46         C25-C2-Zr1-C16=279.33         C25-C2-Zr1-C17=251.39         
C4-C3-Zr1-C2= 69.83           C4-C3-Zr1-C5= 37.53           C4-C3-Zr1-C6= 79.27           C4-C3-Zr1-C7=116.95           
C4-C3-Zr1-C13=259.71          C4-C3-Zr1-C14=225.86          C4-C3-Zr1-C15=210.94          C4-C3-Zr1-C16=241.59          
C4-C3-Zr1-C17=273.82          C4-C3-Zr1-C25=112.63          C7-C3-Zr1-C2=312.88           C7-C3-Zr1-C4=243.05           
C7-C3-Zr1-C5=280.58           C7-C3-Zr1-C6=322.32           C7-C3-Zr1-C13=142.75          C7-C3-Zr1-C14=108.91          
C7-C3-Zr1-C15= 93.99          C7-C3-Zr1-C16=124.64          C7-C3-Zr1-C17=156.87          C7-C3-Zr1-C25=355.67          
H8-C3-Zr1-C2=191.35           H8-C3-Zr1-C4=121.52           H8-C3-Zr1-C5=159.05           H8-C3-Zr1-C6=200.79           
H8-C3-Zr1-C7=238.47           H8-C3-Zr1-C13= 21.23          H8-C3-Zr1-C14=347.38          H8-C3-Zr1-C15=332.46          
H8-C3-Zr1-C16=  3.11          H8-C3-Zr1-C17= 35.34          H8-C3-Zr1-C25=234.15          C3-C4-Zr1-C2=225.01           
C3-C4-Zr1-C5=244.45           C3-C4-Zr1-C6=282.42           C3-C4-Zr1-C7=323.58           C3-C4-Zr1-C13= 77.78          
C3-C4-Zr1-C14= 47.83          C3-C4-Zr1-C15= 47.22          C3-C4-Zr1-C16=103.25          C3-C4-Zr1-C17=107.05          
C3-C4-Zr1-C25=258.06          C5-C4-Zr1-C2=340.56           C5-C4-Zr1-C3=115.55           C5-C4-Zr1-C6= 37.97           
C5-C4-Zr1-C7= 79.13           C5-C4-Zr1-C13=193.33          C5-C4-Zr1-C14=163.38          C5-C4-Zr1-C15=162.77          
C5-C4-Zr1-C16=218.80          C5-C4-Zr1-C17=222.60          C5-C4-Zr1-C25= 13.61          H9-C4-Zr1-C2=101.81           
H9-C4-Zr1-C3=236.81           H9-C4-Zr1-C5=121.26           H9-C4-Zr1-C6=159.22           H9-C4-Zr1-C7=200.39           
H9-C4-Zr1-C13=314.59          H9-C4-Zr1-C14=284.63          H9-C4-Zr1-C15=284.03          H9-C4-Zr1-C16=340.05          
H9-C4-Zr1-C17=343.85          H9-C4-Zr1-C25=134.86          Zr1-C4-C3-C7= 63.19           Zr1-C4-C3-H8=235.02           
C5-C4-C3-Zr1=295.86           C5-C4-C3-C7=359.05            C5-C4-C3-H8=170.88            H9-C4-C3-Zr1=125.84           
H9-C4-C3-C7=189.03            H9-C4-C3-H8=  0.87            C4-C5-Zr1-C2=163.37           C4-C5-Zr1-C3=323.12           
C4-C5-Zr1-C6=245.32           C4-C5-Zr1-C7=282.52           C4-C5-Zr1-C13= 16.00          C4-C5-Zr1-C14=335.60          
C4-C5-Zr1-C15=292.38          C4-C5-Zr1-C16= 97.58          C4-C5-Zr1-C17= 57.81          C4-C5-Zr1-C25=189.59          
C6-C5-Zr1-C2=278.06           C6-C5-Zr1-C3= 77.81           C6-C5-Zr1-C4=114.68           C6-C5-Zr1-C7= 37.21           
C6-C5-Zr1-C13=130.69          C6-C5-Zr1-C14= 90.29          C6-C5-Zr1-C15= 47.06          C6-C5-Zr1-C16=212.26          
C6-C5-Zr1-C17=172.49          C6-C5-Zr1-C25=304.27          H10-C5-Zr1-C2= 40.07          H10-C5-Zr1-C3=199.82          
H10-C5-Zr1-C4=236.70          H10-C5-Zr1-C6=122.01          H10-C5-Zr1-C7=159.22          H10-C5-Zr1-C13=252.70         
H10-C5-Zr1-C14=212.30         H10-C5-Zr1-C15=169.08         H10-C5-Zr1-C16=334.28         H10-C5-Zr1-C17=294.51         
H10-C5-Zr1-C25= 66.28         Zr1-C5-C4-C3= 66.00           Zr1-C5-C4-H9=236.00           C6-C5-C4-Zr1=294.06           
C6-C5-C4-C3=  0.05            C6-C5-C4-H9=170.06            H10-C5-C4-Zr1=125.00          H10-C5-C4-C3=190.99           
H10-C5-C4-H9=  1.00           C5-C6-Zr1-C2= 95.64           C5-C6-Zr1-C3=281.77           C5-C6-Zr1-C4=322.35           
C5-C6-Zr1-C7=244.58           C5-C6-Zr1-C13=282.43          C5-C6-Zr1-C14=237.78          C5-C6-Zr1-C15=192.70          
C5-C6-Zr1-C16=140.80          C5-C6-Zr1-C17=338.68          C5-C6-Zr1-C25=125.68          C7-C6-Zr1-C2=211.06           
C7-C6-Zr1-C3= 37.19           C7-C6-Zr1-C4= 77.77           C7-C6-Zr1-C5=115.42           C7-C6-Zr1-C13= 37.85          
C7-C6-Zr1-C14=353.19          C7-C6-Zr1-C15=308.12          C7-C6-Zr1-C16=256.21          C7-C6-Zr1-C17= 94.10          
C7-C6-Zr1-C25=241.10          H11-C6-Zr1-C2=334.10          H11-C6-Zr1-C3=160.22          H11-C6-Zr1-C4=200.81          
H11-C6-Zr1-C5=238.46          H11-C6-Zr1-C7=123.04          H11-C6-Zr1-C13=160.88         H11-C6-Zr1-C14=116.23         
H11-C6-Zr1-C15= 71.16         H11-C6-Zr1-C16= 19.25         H11-C6-Zr1-C17=217.13         H11-C6-Zr1-C25=  4.14         
Zr1-C6-C5-C4= 66.74           Zr1-C6-C5-H10=235.85          C7-C6-C5-Zr1=294.12           C7-C6-C5-C4=  0.86            
C7-C6-C5-H10=169.97           H11-C6-C5-Zr1=123.40          H11-C6-C5-C4=190.14           H11-C6-C5-H10=359.24          
C3-C7-Zr1-C2=148.99           C3-C7-Zr1-C4= 36.33           C3-C7-Zr1-C5= 77.53           C3-C7-Zr1-C6=115.13           
C3-C7-Zr1-C13=320.22          C3-C7-Zr1-C14=289.76          C3-C7-Zr1-C15=259.70          C3-C7-Zr1-C16=260.91          
C3-C7-Zr1-C17=322.64          C3-C7-Zr1-C25=176.80          C6-C7-Zr1-C2= 33.87           C6-C7-Zr1-C3=244.87           
C6-C7-Zr1-C4=281.21           C6-C7-Zr1-C5=322.40           C6-C7-Zr1-C13=205.09          C6-C7-Zr1-C14=174.64          
C6-C7-Zr1-C15=144.57          C6-C7-Zr1-C16=145.79          C6-C7-Zr1-C17=207.51          C6-C7-Zr1-C25= 61.67          
H12-C7-Zr1-C2=272.34          H12-C7-Zr1-C3=123.35          H12-C7-Zr1-C4=159.68          H12-C7-Zr1-C5=200.88          
H12-C7-Zr1-C6=238.48          H12-C7-Zr1-C13= 83.57         H12-C7-Zr1-C14= 53.11         H12-C7-Zr1-C15= 23.05         
H12-C7-Zr1-C16= 24.26         H12-C7-Zr1-C17= 85.99         H12-C7-Zr1-C25=300.15         Zr1-C7-C3-C4=296.72           
Zr1-C7-C3-H8=124.90           C6-C7-C3-Zr1= 64.76           C6-C7-C3-C4=  1.48            C6-C7-C3-H8=189.66            
H12-C7-C3-Zr1=233.30          H12-C7-C3-C4=170.02           H12-C7-C3-H8=358.20           Zr1-C7-C6-C5= 64.93           
Zr1-C7-C6-H11=235.61          C3-C7-C6-Zr1=293.63           C3-C7-C6-C5=358.56            C3-C7-C6-H11=169.23           
H12-C7-C6-Zr1=125.09          H12-C7-C6-C5=190.01           H12-C7-C6-H11=  0.69          
           -------------------------------------------------
          |                Final Singlepoint                |
           -------------------------------------------------

          ...................................................
          :                      SETUP                      :
          :.................................................:
          :  # basis functions                  79          :
          :  # atomic orbitals                  78          :
          :  # shells                           46          :
          :  # electrons                        72          :
          :  max. iterations                   250          :
          :  Hamiltonian                  GFN2-xTB          :
          :  restarted?                      false          :
          :  GBSA solvation                  false          :
          :  PC potential                    false          :
          :  electronic temp.          300.0000000     K    :
          :  accuracy                    1.0000000          :
          :  -> integral cutoff          0.2500000E+02      :
          :  -> integral neglect         0.1000000E-07      :
          :  -> SCF convergence          0.1000000E-05 Eh   :
          :  -> wf. convergence          0.1000000E-03 e    :
          :  Broyden damping             0.4000000          :
          ...................................................

 iter      E             dE          RMSdq      gap      omega  full diag
   1    -38.2898113 -0.382898E+02  0.181E-04    1.32       0.0  T
   2    -38.2898113 -0.126128E-09  0.136E-04    1.32     132.5  T
   3    -38.2898113 -0.191605E-09  0.100E-04    1.32     179.2  T

   *** convergence criteria satisfied after 3 iterations ***

         #    Occupation            Energy/Eh            Energy/eV
      -------------------------------------------------------------
         1        2.0000           -0.8730546             -23.7570
       ...           ...                  ...                  ...
        30        2.0000           -0.5504409             -14.9783
        31        2.0000           -0.5428341             -14.7713
        32        2.0000           -0.5363919             -14.5960
        33        2.0000           -0.5311403             -14.4531
        34        2.0000           -0.5227414             -14.2245
        35        2.0000           -0.5183259             -14.1044
        36        2.0000           -0.4806567             -13.0793 (HOMO)
        37                         -0.4321905             -11.7605 (LUMO)
        38                         -0.4314191             -11.7395
        39                         -0.4167467             -11.3403
        40                         -0.4078630             -11.0985
        41                         -0.3966816             -10.7943
       ...                                ...                  ...
        78                          2.5306294              68.8619
      -------------------------------------------------------------
                  HL-Gap            0.0484662 Eh            1.3188 eV
             Fermi-level           -0.4565961 Eh          -12.4246 eV

 SCC (total)                   0 d,  0 h,  0 min,  0.117 sec
 SCC setup                      ...        0 min,  0.005 sec (  3.942%)
 Dispersion                     ...        0 min,  0.003 sec (  2.788%)
 classical contributions        ...        0 min,  0.000 sec (  0.062%)
 integral evaluation            ...        0 min,  0.016 sec ( 13.840%)
 iterations                     ...        0 min,  0.081 sec ( 69.022%)
 molecular gradient             ...        0 min,  0.012 sec ( 10.168%)
 printout                       ...        0 min,  0.000 sec (  0.157%)

         :::::::::::::::::::::::::::::::::::::::::::::::::::::
         ::                     SUMMARY                     ::
         :::::::::::::::::::::::::::::::::::::::::::::::::::::
         :: total energy             -37.673733686135 Eh    ::
         :: gradient norm              0.000788668788 Eh/a0 ::
         :: HOMO-LUMO gap              1.318831305893 eV    ::
         ::.................................................::
         :: SCC energy               -38.289811328410 Eh    ::
         :: -> isotropic ES            0.086596273653 Eh    ::
         :: -> anisotropic ES         -0.010337887522 Eh    ::
         :: -> anisotropic XC          0.014972361930 Eh    ::
         :: -> dispersion             -0.025323185528 Eh    ::
         :: repulsion energy           0.614767775433 Eh    ::
         :: add. restraining           0.000809845558 Eh    ::
         :: total charge               0.999999999993 e     ::
         :::::::::::::::::::::::::::::::::::::::::::::::::::::

           -------------------------------------------------
          |                Property Printout                |
           -------------------------------------------------

    * Orbital Energies and Occupations

         #    Occupation            Energy/Eh            Energy/eV
      -------------------------------------------------------------
         1        2.0000           -0.8730546             -23.7570
       ...           ...                  ...                  ...
        24        2.0000           -0.6006011             -16.3432
        25        2.0000           -0.5994604             -16.3121
        26        2.0000           -0.5993858             -16.3101
        27        2.0000           -0.5988877             -16.2966
        28        2.0000           -0.5868903             -15.9701
        29        2.0000           -0.5657595             -15.3951
        30        2.0000           -0.5504409             -14.9783
        31        2.0000           -0.5428341             -14.7713
        32        2.0000           -0.5363919             -14.5960
        33        2.0000           -0.5311403             -14.4531
        34        2.0000           -0.5227414             -14.2245
        35        2.0000           -0.5183259             -14.1044
        36        2.0000           -0.4806567             -13.0793 (HOMO)
        37                         -0.4321905             -11.7605 (LUMO)
        38                         -0.4314191             -11.7395
        39                         -0.4167467             -11.3403
        40                         -0.4078630             -11.0985
        41                         -0.3966816             -10.7943
        42                         -0.3191116              -8.6835
        43                         -0.3177400              -8.6461
        44                         -0.3161303              -8.6023
        45                         -0.3151631              -8.5760
        46                         -0.0580399              -1.5793
        47                         -0.0324952              -0.8842
       ...                                ...                  ...
        78                          2.5306294              68.8619
      -------------------------------------------------------------
                  HL-Gap            0.0484662 Eh            1.3188 eV
             Fermi-level           -0.4565961 Eh          -12.4246 eV

     #   Z          covCN         q      C6AA      α(0)
     1  40 Zr       8.572     0.924   139.544    17.750
     2   6 C        3.576    -0.247    26.410     7.468
     3   6 C        3.750    -0.078    22.051     6.697
     4   6 C        3.757    -0.083    22.143     6.709
     5   6 C        3.769    -0.083    22.119     6.702
     6   6 C        3.769    -0.081    22.092     6.698
     7   6 C        3.756    -0.087    22.211     6.720
     8   1 H        0.925     0.094     1.844     2.124
     9   1 H        0.925     0.085     1.926     2.170
    10   1 H        0.925     0.095     1.833     2.117
    11   1 H        0.925     0.102     1.771     2.081
    12   1 H        0.925     0.083     1.951     2.184
    13   6 C        3.753    -0.079    22.070     6.699
    14   6 C        3.753    -0.081    22.110     6.705
    15   6 C        3.763    -0.087    22.206     6.717
    16   6 C        3.770    -0.080    22.062     6.694
    17   6 C        3.765    -0.086    22.181     6.713
    18   1 H        0.925     0.091     1.866     2.136
    19   1 H        0.925     0.089     1.890     2.150
    20   1 H        0.925     0.088     1.898     2.154
    21   1 H        0.925     0.105     1.742     2.064
    22   1 H        0.925     0.085     1.927     2.171
    23   1 H        0.923     0.067     2.123     2.278
    24   1 H        0.924     0.063     2.163     2.300
    25   6 C        3.957    -0.052    21.433     6.578
    26   1 H        0.922     0.046     2.366     2.405
    27   1 H        0.923     0.060     2.200     2.319
    28   6 C        3.750    -0.113    22.727     6.799
    29   1 H        0.925     0.052     2.301     2.372
    30   1 H        0.925     0.050     2.320     2.382
    31   1 H        0.925     0.060     2.194     2.316

 Mol. C6AA /au·bohr⁶  :       9485.660735
 Mol. C8AA /au·bohr⁸  :     321062.532790
 Mol. α(0) /au        :        143.374695


Wiberg/Mayer (AO) data.
largest (>0.10) Wiberg bond orders for each atom

 ---------------------------------------------------------------------------
     #   Z sym  total        # sym  WBO       # sym  WBO       # sym  WBO
 ---------------------------------------------------------------------------
     1  40 Zr   4.259 --     2 C    0.870     5 C    0.286    17 C    0.278
                            16 C    0.278     6 C    0.272    15 C    0.269
                             7 C    0.259     4 C    0.250    14 C    0.244
                             3 C    0.234    13 C    0.233    25 C    0.128
     2   6 C    3.876 --    25 C    0.991    24 H    0.926    23 H    0.921
                             1 Zr   0.870
     3   6 C    3.980 --     4 C    1.312     7 C    1.301     8 H    0.923
                             1 Zr   0.234
     4   6 C    3.980 --     3 C    1.312     5 C    1.287     9 H    0.918
                             1 Zr   0.250
     5   6 C    3.981 --     4 C    1.287     6 C    1.276    10 H    0.916
                             1 Zr   0.286
     6   6 C    3.980 --     7 C    1.293     5 C    1.276    11 H    0.917
                             1 Zr   0.272
     7   6 C    3.979 --     3 C    1.301     6 C    1.293    12 H    0.916
                             1 Zr   0.259
     8   1 H    0.989 --     3 C    0.923
     9   1 H    0.991 --     4 C    0.918
    10   1 H    0.988 --     5 C    0.916
    11   1 H    0.987 --     6 C    0.917
    12   1 H    0.992 --     7 C    0.916
    13   6 C    3.980 --    14 C    1.308    17 C    1.303    18 H    0.921
                             1 Zr   0.233
    14   6 C    3.980 --    13 C    1.308    15 C    1.299    19 H    0.919
                             1 Zr   0.244
    15   6 C    3.980 --    14 C    1.299    16 C    1.283    20 H    0.915
                             1 Zr   0.269
    16   6 C    3.981 --    15 C    1.283    17 C    1.273    21 H    0.919
                             1 Zr   0.278
    17   6 C    3.980 --    13 C    1.303    16 C    1.273    22 H    0.916
                             1 Zr   0.278
    18   1 H    0.989 --    13 C    0.921
    19   1 H    0.990 --    14 C    0.919
    20   1 H    0.990 --    15 C    0.915
    21   1 H    0.986 --    16 C    0.919
    22   1 H    0.990 --    17 C    0.916
    23   1 H    0.993 --     2 C    0.921
    24   1 H    0.994 --     2 C    0.926
    25   6 C    3.989 --    28 C    1.001     2 C    0.991    27 H    0.944
                            26 H    0.883     1 Zr   0.128
    26   1 H    0.997 --    25 C    0.883
    27   1 H    0.995 --    25 C    0.944
    28   6 C    3.990 --    25 C    1.001    29 H    0.983    30 H    0.983
                            31 H    0.983
    29   1 H    0.997 --    28 C    0.983
    30   1 H    0.997 --    28 C    0.983
    31   1 H    0.996 --    28 C    0.983
 ---------------------------------------------------------------------------

Topologies differ in total number of bonds
Writing topology from bond orders to xtbtopo.mol

molecular dipole:
                 x           y           z       tot (Debye)
 q only:       -0.945      -1.152       0.556
   full:       -0.783      -0.914       0.497       3.309
molecular quadrupole (traceless):
                xx          xy          yy          xz          yz          zz
 q only:       -0.750       5.641       2.373      -2.596      -2.866      -1.623
  q+dip:       -3.345       9.037       2.248      -2.869      -2.084       1.097
   full:       -4.056       6.456      -0.489      -3.475      -2.600       4.545

           -------------------------------------------------
          |                Geometry Summary                 |
           -------------------------------------------------

      molecular mass/u    :      264.4982010
   center of mass at/Å    :       -0.5231318      -0.6681034       0.3192662
  moments of inertia/u·Å² :        0.6640774E+03   0.8201861E+03   0.1204336E+04
rotational constants/cm⁻¹ :        0.2538504E-01   0.2055342E-01   0.1399745E-01

 * 40 selected distances

     #   Z          #   Z                                           value/Å
     1  40 Zr       2   6 C                                       2.4587031
     1  40 Zr       3   6 C                                       2.4676385 (max)
     1  40 Zr       4   6 C                                       2.4375917
     3   6 C        4   6 C                                       1.4171402
     1  40 Zr       5   6 C                                       2.4021586
     4   6 C        5   6 C                                       1.4217175
     1  40 Zr       6   6 C                                       2.4103479
     5   6 C        6   6 C                                       1.4245844
     1  40 Zr       7   6 C                                       2.4349229
     3   6 C        7   6 C                                       1.4196308
     6   6 C        7   6 C                                       1.4204145
     3   6 C        8   1 H                                       1.0844832
     4   6 C        9   1 H                                       1.0860714
     5   6 C       10   1 H                                       1.0856459
     6   6 C       11   1 H                                       1.0847123
     7   6 C       12   1 H                                       1.0868708
     1  40 Zr      13   6 C                                       2.4550039
     1  40 Zr      14   6 C                                       2.4532343
    13   6 C       14   6 C                                       1.4184052
     1  40 Zr      15   6 C                                       2.4182759
    14   6 C       15   6 C                                       1.4190435
     1  40 Zr      16   6 C                                       2.4041014
    15   6 C       16   6 C                                       1.4230045
     1  40 Zr      17   6 C                                       2.4094062
    13   6 C       17   6 C                                       1.4187117
    16   6 C       17   6 C                                       1.4249531
    13   6 C       18   1 H                                       1.0850386
    14   6 C       19   1 H                                       1.0856052
    15   6 C       20   1 H                                       1.0863021
    16   6 C       21   1 H                                       1.0837994 (min)
    17   6 C       22   1 H                                       1.0865552
     2   6 C       23   1 H                                       1.1000290
     2   6 C       24   1 H                                       1.0975930
     2   6 C       25   6 C                                       1.5452144
    25   6 C       26   1 H                                       1.1175028
    25   6 C       27   1 H                                       1.0992879
    25   6 C       28   6 C                                       1.5352384
    28   6 C       29   1 H                                       1.0878445
    28   6 C       30   1 H                                       1.0870031
    28   6 C       31   1 H                                       1.0872848

 * 3 distinct bonds (by element types)

   Z      Z             #   av. dist./Å        max./Å        min./Å
   1 H    6 C          17     1.0900958     1.1175028     1.0837994
   6 C    6 C          12     1.4406715     1.5452144     1.4171402
   6 C   40 Zr         11     2.4319440     2.4676385     2.4021586


optimized geometry written to: xtbopt.xyz


           -------------------------------------------------
          | TOTAL ENERGY              -37.673733686135 Eh   |
          | GRADIENT NORM               0.000788668788 Eh/α |
          | HOMO-LUMO GAP               1.318831305893 eV   |
           -------------------------------------------------

------------------------------------------------------------------------
 * finished run on 2026/07/21 at 14:48:16.356     
------------------------------------------------------------------------
 total:
 * wall-time:     0 d,  0 h,  0 min, 11.105 sec
 *  cpu-time:     0 d,  0 h,  1 min, 25.149 sec
 * ratio c/w:     7.667 speedup
 SCF:
 * wall-time:     0 d,  0 h,  0 min,  0.519 sec
 *  cpu-time:     0 d,  0 h,  0 min,  3.934 sec
 * ratio c/w:     7.572 speedup
 ANC optimizer:
 * wall-time:     0 d,  0 h,  0 min, 10.541 sec
 *  cpu-time:     0 d,  0 h,  1 min, 20.877 sec
 * ratio c/w:     7.673 speedup

