31
 energy: -37.636610235025 gnorm: 0.000913312838 xtb: 6.5.1 (b24c23e)
Zr          -1.32846494758974       -0.18319197898684        0.64126192067177
C           -1.06994800515956        1.32633806426786       -1.57548958890177
C            0.37791212897270       -1.94463609070506        0.62193272332127
C            0.07748962825462       -1.65505636639629       -0.73125223539432
C           -1.27015626305002       -2.01977802703343       -0.96945798935733
C           -1.80685162422023       -2.53410453634535        0.24110740746834
C           -0.78647749826414       -2.48919655345911        1.22365905747392
H            1.36588247124704       -1.91176495187539        1.06865481412874
H            0.79953616468471       -1.37204109470359       -1.48983699336453
H           -1.75808013659283       -2.04537350238258       -1.93675270612304
H           -2.75882292995505       -3.04314471478886        0.34708383169214
H           -0.83933554327614       -2.94754524957859        2.20558515079052
C           -0.33165482096748        0.10624780695556        2.85698657602925
C           -1.71754892939425        0.37943476443667        2.97612426633061
C           -1.98831164587835        1.56565940512516        2.24251085116628
C           -0.78269017153915        1.99867251245831        1.64431095609080
C            0.24231636944121        1.08864473636792        2.01143759311435
H            0.21790137909254       -0.63232176477347        3.42932822628234
H           -2.40262739319622       -0.11167640195864        3.66070651208427
H           -2.91073584828734        2.13265209579074        2.27696720415699
H           -0.63668842020160        2.94502289026422        1.13612979306554
H            1.30493661042398        1.22770426767755        1.83578079664111
H           -0.13685297773493        1.19680462680614       -0.98178182300274
H           -1.05672709783330        0.71157211533743       -2.47070993583560
H           -1.19636974116330        2.36886448600203       -1.83516031392273
C           -3.57044050704668        0.03454273898817       -0.01357925745469
C           -3.12548509262636        1.07696174909263       -0.84557887612245
H           -3.21134368727499        2.09283933954688       -0.45789434436094
H           -3.39589209282537        1.01574034869111       -1.89699314191164
H           -4.07462295455160        0.31593916209353        0.91707054298846
H           -4.01492678349050       -0.82427492690241       -0.51906669769412
