31
Properties=species:S:1:pos:R:3 pbc="F F F"
Zr      -1.51900000       0.14080000       0.14070000
C       -3.99400000       0.14080000       0.14070000
C       -0.10488398      -1.98439677       1.22326159
C        0.45868400      -1.78517252      -0.11909603
C       -0.57089337      -2.14913354      -1.10245525
C       -1.77070466      -2.57327314      -0.36781600
C       -1.48270112      -2.47146238       1.06960569
H        0.40608400      -1.80376690       2.16205899
H        1.45843775      -1.43175430      -0.34442690
H       -0.46399338      -2.11134383      -2.18055412
H       -2.70439232      -2.90333665      -0.80876754
H       -2.16663518      -2.71323667       1.87518958
C       -0.10489729       0.26594184       2.52245944
C       -1.48271955       0.64254055       2.86742666
C       -1.77073135       1.93827205       2.23685418
C       -0.57092006       2.36241165       1.50221492
C        0.45866558       1.32883041       1.67872494
H        0.40607710      -0.63738351       2.83545223
H       -2.16665162       0.06578010       3.47961152
H       -2.70442420       2.48517232       2.30220397
H       -0.46402526       3.27716513       0.93041739
H        1.45842131       1.34726246       1.25999504
C       -1.68143557      -0.00009118      -1.27557246
C       -2.31070714       1.11236566      -0.89011780
H       -3.33301561       1.32116687      -1.18685250
H       -1.82597295       1.85391438      -0.26409679
H       -2.16616976      -0.74163990      -1.90159347
H       -0.65912709      -0.20889238      -0.97883776
H       -4.35068162      -0.86805289       0.14070000
H       -4.35068162       0.64525335       1.01437670
H       -4.35060919       0.64519955      -0.73297670
