31
 energy: -37.642489865166 gnorm: 0.000886444569 xtb: 6.5.1 (b24c23e)
Zr          -1.46852966853460       -0.06061702813170        0.44895064916689
C           -3.92277092454047        0.03883731997724        0.61965996477789
C           -0.74975195945118       -2.27620844320629        1.21716005130096
C            0.21935600968957       -1.83178282657726        0.28138403875455
C           -0.40626141671903       -1.73164689332187       -0.98440771573297
C           -1.76229075932062       -2.12613872700646       -0.83369403398492
C           -1.97131851786364       -2.46237120426195        0.52609241399352
H           -0.55212764610264       -2.58136905349065        2.23941854247266
H            1.28497966203992       -1.74472197112652        0.46340607865538
H            0.10933136727196       -1.57467315031353       -1.92591726770407
H           -2.46890125246051       -2.29388904335271       -1.63801561318720
H           -2.85841660799398       -2.93727268693140        0.92935021179867
C            0.11978415416266        0.53573543109982        2.22320342681166
C           -1.18362689541963        0.77605218166426        2.72171650145698
C           -1.74375803525565        1.84663984507057        1.97590601169082
C           -0.79549608025841        2.24690074289045        1.00579460141813
C            0.35052716101374        1.42138622736109        1.14090691817999
H            0.86177052443319       -0.10599223667767        2.68408648911153
H           -1.60332417099278        0.35005624232893        3.62777990111896
H           -2.66068775757356        2.37032582780575        2.21794370310390
H           -0.86453308983526        3.13713486088747        0.39132485519762
H            1.30270276925971        1.57207795103588        0.64133914391619
C           -1.78718875724987        0.92934290271466       -1.73242841282352
C           -2.99482270226771        1.18920818610278       -1.18852237526789
H           -3.87414303153905        0.76823504152988       -1.66327703953156
H           -3.16531416731001        2.14423614671351       -0.69272131868319
H           -1.70984187958935        0.21065074680184       -2.54650953930709
H           -0.94468222155969        1.62148590721914       -1.62558961205729
H           -3.77606074163943       -0.39419782615867        1.63720368591435
H           -4.55968732496382        0.91170329687772        0.74171701153898
H           -4.45839821942612       -0.69901731751832        0.01774303789850
