31
Approximate cationic zirconocene n-propyl complex; charge +1; idealized 3D structure from mechanism.png
Zr     0.000000     0.000000     0.000000
C     -1.963932     1.506806    -0.370820
C     -0.930000     1.990000    -1.200000
C      0.103932     2.473194    -0.370820
C     -0.290995     2.288631     0.970820
C     -1.569005     1.691369     0.970820
C      0.103932    -2.473194     0.370820
C     -0.290995    -2.288631    -0.970820
C     -1.569005    -1.691369    -0.970820
C     -1.963932    -1.506806     0.370820
C     -0.930000    -1.990000     1.200000
H     -2.894471     1.071931    -0.704559
H     -0.930000     1.990000    -2.280000
H      1.034471     2.908069    -0.704559
H      0.284110     2.557398     1.844559
H     -2.144110     1.422602     1.844559
H      1.034471    -2.908069     0.704559
H      0.284110    -2.557398    -1.844559
H     -2.144110    -1.422602    -1.844559
H     -2.894471    -1.071931     0.704559
H     -0.930000    -1.990000     2.280000
C      2.200000     0.550000     0.200000
C      2.450899     2.028686    -0.102388
C      3.580361     2.605150     0.753711
H      2.925775    -0.164415    -0.188539
H      2.743529     0.117773     1.040153
H      1.574109     2.658340    -0.253634
H      2.419339     2.331842    -1.148906
H      4.315740     1.826696     0.956999
H      4.058525     3.426091     0.219375
H      3.171418     2.973322     1.694623
