31
Approximate cationic zirconocene methyl-ethylene complex; charge +1; idealized 3D structure from mechanism.png
Zr     0.000000     0.000000     0.000000
C     -1.963932     1.506806    -0.370820
C     -0.930000     1.990000    -1.200000
C      0.103932     2.473194    -0.370820
C     -0.290995     2.288631     0.970820
C     -1.569005     1.691369     0.970820
C      0.103932    -2.473194     0.370820
C     -0.290995    -2.288631    -0.970820
C     -1.569005    -1.691369    -0.970820
C     -1.963932    -1.506806     0.370820
C     -0.930000    -1.990000     1.200000
H     -2.894471     1.071931    -0.704559
H     -0.930000     1.990000    -2.280000
H      1.034471     2.908069    -0.704559
H      0.284110     2.557398     1.844559
H     -2.144110     1.422602     1.844559
H      1.034471    -2.908069     0.704559
H      0.284110    -2.557398    -1.844559
H     -2.144110    -1.422602    -1.844559
H     -2.894471    -1.071931     0.704559
H     -0.930000    -1.990000     2.280000
C      1.750000    -1.300000    -1.000000
C      2.200000     0.600000     0.250000
C      2.850000     1.650000    -0.100000
H      1.402263    -2.321877    -1.151478
H      2.023625    -0.863166    -1.960419
H      2.619373    -1.305722    -0.342537
H      1.145775     0.519119     0.029844
H      2.707304    -0.202606     0.764652
H      2.342696     2.452606    -0.614652
H      3.904225     1.730881     0.120156
