31
Approximate TS-like four-center migratory-insertion arrangement; charge +1; not an optimized transition state
Zr     0.000000     0.000000     0.000000
C     -1.963932     1.506806    -0.370820
C     -0.930000     1.990000    -1.200000
C      0.103932     2.473194    -0.370820
C     -0.290995     2.288631     0.970820
C     -1.569005     1.691369     0.970820
C      0.103932    -2.473194     0.370820
C     -0.290995    -2.288631    -0.970820
C     -1.569005    -1.691369    -0.970820
C     -1.963932    -1.506806     0.370820
C     -0.930000    -1.990000     1.200000
H     -2.894471     1.071931    -0.704559
H     -0.930000     1.990000    -2.280000
H      1.034471     2.908069    -0.704559
H      0.284110     2.557398     1.844559
H     -2.144110     1.422602     1.844559
H      1.034471    -2.908069     0.704559
H      0.284110    -2.557398    -1.844559
H     -2.144110    -1.422602    -1.844559
H     -2.894471    -1.071931     0.704559
H     -0.930000    -1.990000     2.280000
C      2.350000    -0.750000    -0.200000
C      2.100000     0.600000     0.200000
C      3.250000     1.250000    -0.200000
H      1.610057    -1.550026    -0.223324
H      2.946975    -0.780512    -1.111476
H      3.000274    -0.881595     0.664828
H      2.524935    -0.307807     0.628271
H      2.167379     0.726207     1.280570
H      4.098926     1.780869     0.230816
H      3.569932     2.018916    -0.903215
