15
Properties=species:S:1:pos:R:3 pbc="F F F"
Fe       0.14050000      -0.22310000       0.00000000
O        3.18590000      -0.22310000       0.00000000
O        0.14050000      -0.22310000       3.04540000
O        0.14050000      -0.22310000      -3.04540000
O       -2.90490000      -0.22310000       0.00000000
C        0.14050000      -0.22310000       1.93000000
C        2.07050000      -0.22310000       0.00000000
C        0.14050000      -0.22310000      -1.93000000
C       -1.78950000      -0.22310000       0.00000000
O        0.14050000      -2.40110000      -0.00000000
H        0.14050000      -2.72113461       0.90507848
H       -0.64336285      -2.72113461      -0.45246666
O        0.14050000       1.95490000      -0.00000000
H        0.14050000       2.27493461       0.90507848
H        0.92436285       2.27493461      -0.45246666
