      -----------------------------------------------------------      
     |                   =====================                   |     
     |                           x T B                           |     
     |                   =====================                   |     
     |                         S. Grimme                         |     
     |          Mulliken Center for Theoretical Chemistry        |     
     |                    University of Bonn                     |     
      -----------------------------------------------------------      

   * xtb version 6.5.1 (b24c23e) compiled by 'conda@728c89f4b128' on 2022-07-12

   xtb is free software: you can redistribute it and/or modify it under
   the terms of the GNU Lesser General Public License as published by
   the Free Software Foundation, either version 3 of the License, or
   (at your option) any later version.
   
   xtb is distributed in the hope that it will be useful,
   but WITHOUT ANY WARRANTY; without even the implied warranty of
   MERCHANTABILITY or FITNESS FOR A PARTICULAR PURPOSE.  See the
   GNU Lesser General Public License for more details.
   
   Cite this work as:
   * C. Bannwarth, E. Caldeweyher, S. Ehlert, A. Hansen, P. Pracht,
     J. Seibert, S. Spicher, S. Grimme, WIREs Comput. Mol. Sci., 2020, 11,
     e01493. DOI: 10.1002/wcms.1493
   
   for GFN2-xTB:
   * C. Bannwarth, S. Ehlert and S. Grimme., J. Chem. Theory Comput., 2019,
     15, 1652-1671. DOI: 10.1021/acs.jctc.8b01176
   for GFN1-xTB:
   * S. Grimme, C. Bannwarth, P. Shushkov, J. Chem. Theory Comput., 2017,
     13, 1989-2009. DOI: 10.1021/acs.jctc.7b00118
   for GFN0-xTB:
   * P. Pracht, E. Caldeweyher, S. Ehlert, S. Grimme, ChemRxiv, 2019, preprint.
     DOI: 10.26434/chemrxiv.8326202.v1
   for GFN-FF:
   * S. Spicher and S. Grimme, Angew. Chem. Int. Ed., 2020, 59, 15665-15673.
     DOI: 10.1002/anie.202004239
   
   for ALPB and GBSA implicit solvation:
   * S. Ehlert, M. Stahn, S. Spicher, S. Grimme, J. Chem. Theory Comput.,
     2021, 17, 4250-4261. DOI: 10.1021/acs.jctc.1c00471
   
   for DFT-D4:
   * E. Caldeweyher, C. Bannwarth and S. Grimme, J. Chem. Phys., 2017,
     147, 034112. DOI: 10.1063/1.4993215
   * E. Caldeweyher, S. Ehlert, A. Hansen, H. Neugebauer, S. Spicher,
     C. Bannwarth and S. Grimme, J. Chem. Phys., 2019, 150, 154122.
     DOI: 10.1063/1.5090222
   * E. Caldeweyher, J.-M. Mewes, S. Ehlert and S. Grimme, Phys. Chem. Chem. Phys.
     2020, 22, 8499-8512. DOI: 10.1039/D0CP00502A
   
   for sTDA-xTB:
   * S. Grimme and C. Bannwarth, J. Chem. Phys., 2016, 145, 054103.
     DOI: 10.1063/1.4959605
   
   in the mass-spec context:
   * V. Asgeirsson, C. Bauer and S. Grimme, Chem. Sci., 2017, 8, 4879.
     DOI: 10.1039/c7sc00601b
   * J. Koopman and S. Grimme, ACS Omega 2019, 4, 12, 15120-15133.
     DOI: 10.1021/acsomega.9b02011
   
   for metadynamics refer to:
   * S. Grimme, J. Chem. Theory Comput., 2019, 155, 2847-2862
     DOI: 10.1021/acs.jctc.9b00143
   
   for SPH calculations refer to:
   * S. Spicher and S. Grimme, J. Chem. Theory Comput., 2021, 17, 1701-1714
     DOI: 10.1021/acs.jctc.0c01306
   
   with help from (in alphabetical order)
   P. Atkinson, C. Bannwarth, F. Bohle, G. Brandenburg, E. Caldeweyher
   M. Checinski, S. Dohm, S. Ehlert, S. Ehrlich, I. Gerasimov, C. Hölzer
   A. Katbashev, J. Koopman, C. Lavigne, S. Lehtola, F. März, M. Müller,
   F. Musil, H. Neugebauer, J. Pisarek, C. Plett, P. Pracht, F. Pultar,
   J. Seibert, P. Shushkov, S. Spicher, M. Stahn, M. Steiner, T. Strunk,
   J. Stückrath, T. Rose, and J. Unsleber
   
 * started run on 2026/07/21 at 14:37:18.542     

           -------------------------------------------------
          |                Calculation Setup                |
           -------------------------------------------------

          program call               : /h/332/chchoi/miniconda3/envs/el-agente/bin/xtb reactant_init.xyz --opt --gfn 2 -P 4 --chrg 1 --uhf 0 --input detailed_input.inp
          coordinate file            : reactant_init.xyz
          omp threads                :                     4

   ID    Z sym.   atoms
    1   40 Zr     1
    2    6 C      2-7, 13-17, 26, 27
    3    1 H      8-12, 18-25, 28-31
constraining bond 1 26 to    2.5500000 Å, actual value:    2.5634266 Å
constraining bond 1 27 to    2.5500000 Å, actual value:    2.5634266 Å

molecular fragmentation (1/2 indicates fragments):
1111111111111111111111111222222
# atoms in fragment 1/2:    25     6
 fragment masses (1/2) :      236.44       28.05
CMA distance (Bohr)    :   5.713
constraining FC (au)   :  0.5000

           -------------------------------------------------
          |                 G F N 2 - x T B                 |
           -------------------------------------------------

        Reference                      10.1021/acs.jctc.8b01176
      * Hamiltonian:
        H0-scaling (s, p, d)           1.850000    2.230000    2.230000
        zeta-weighting                 0.500000
      * Dispersion:
        s8                             2.700000
        a1                             0.520000
        a2                             5.000000
        s9                             5.000000
      * Repulsion:
        kExp                           1.500000    1.000000
        rExp                           1.000000
      * Coulomb:
        alpha                          2.000000
        third order                    shell-resolved
        anisotropic                    true
        a3                             3.000000
        a5                             4.000000
        cn-shift                       1.200000
        cn-exp                         4.000000
        max-rad                        5.000000


          ...................................................
          :                      SETUP                      :
          :.................................................:
          :  # basis functions                  79          :
          :  # atomic orbitals                  78          :
          :  # shells                           46          :
          :  # electrons                        72          :
          :  max. iterations                   250          :
          :  Hamiltonian                  GFN2-xTB          :
          :  restarted?                      false          :
          :  GBSA solvation                  false          :
          :  PC potential                    false          :
          :  electronic temp.          300.0000000     K    :
          :  accuracy                    1.0000000          :
          :  -> integral cutoff          0.2500000E+02      :
          :  -> integral neglect         0.1000000E-07      :
          :  -> SCF convergence          0.1000000E-05 Eh   :
          :  -> wf. convergence          0.1000000E-03 e    :
          :  Broyden damping             0.4000000          :
          ...................................................

 iter      E             dE          RMSdq      gap      omega  full diag
   1    -37.9358315 -0.379358E+02  0.428E+00    0.51       0.0  T
   2    -38.0423316 -0.106500E+00  0.369E+00    1.54       1.0  T
   3    -38.0982795 -0.559479E-01  0.295E+00    0.88       1.0  T
   4    -38.0959865  0.229300E-02  0.138E+00    0.94       1.0  T
   5    -38.0918736  0.411285E-02  0.808E-01    0.68       1.0  T
   6    -38.0992658 -0.739216E-02  0.397E-01    0.91       1.0  T
   7    -38.1004409 -0.117516E-02  0.248E-01    0.84       1.0  T
   8    -38.1004833 -0.423793E-04  0.144E-01    0.83       1.0  T
   9    -38.1004655  0.178148E-04  0.680E-02    0.87       1.0  T
  10    -38.1005093 -0.437925E-04  0.358E-02    0.86       1.0  T
  11    -38.1005263 -0.169736E-04  0.151E-02    0.85       1.2  T
  12    -38.1005272 -0.933394E-06  0.398E-03    0.85       4.5  T
  13    -38.1005273 -0.681398E-07  0.181E-03    0.85       9.9  T
  14    -38.1005273 -0.262446E-07  0.122E-03    0.85      14.8  T
  15    -38.1005273 -0.145466E-07  0.493E-04    0.85      36.4  T
  16    -38.1005273 -0.624922E-10  0.227E-04    0.85      79.0  T

   *** convergence criteria satisfied after 16 iterations ***

         #    Occupation            Energy/Eh            Energy/eV
      -------------------------------------------------------------
         1        2.0000           -0.8628382             -23.4790
       ...           ...                  ...                  ...
        30        2.0000           -0.5740484             -15.6207
        31        2.0000           -0.5511875             -14.9986
        32        2.0000           -0.5101738             -13.8825
        33        2.0000           -0.5045726             -13.7301
        34        2.0000           -0.4941790             -13.4473
        35        2.0000           -0.4918471             -13.3838
        36        2.0000           -0.4836941             -13.1620 (HOMO)
        37        0.0000           -0.4525088             -12.3134 (LUMO)
        38                         -0.4374614             -11.9039
        39                         -0.4348634             -11.8332
        40                         -0.4310524             -11.7295
        41                         -0.4230109             -11.5107
       ...                                ...                  ...
        78                          1.3654739              37.1564
      -------------------------------------------------------------
                  HL-Gap            0.0311853 Eh            0.8486 eV
             Fermi-level           -0.4681013 Eh          -12.7377 eV

 SCC (total)                   0 d,  0 h,  0 min,  0.758 sec
 SCC setup                      ...        0 min,  0.010 sec (  1.373%)
 Dispersion                     ...        0 min,  0.001 sec (  0.069%)
 classical contributions        ...        0 min,  0.003 sec (  0.455%)
 integral evaluation            ...        0 min,  0.003 sec (  0.360%)
 iterations                     ...        0 min,  0.652 sec ( 86.055%)
 molecular gradient             ...        0 min,  0.088 sec ( 11.642%)
 printout                       ...        0 min,  0.000 sec (  0.039%)

         :::::::::::::::::::::::::::::::::::::::::::::::::::::
         ::                     SUMMARY                     ::
         :::::::::::::::::::::::::::::::::::::::::::::::::::::
         :: total energy             -37.537711249023 Eh    ::
         :: gradient norm              0.194768971823 Eh/a0 ::
         :: HOMO-LUMO gap              0.848595247981 eV    ::
         ::.................................................::
         :: SCC energy               -38.100527322913 Eh    ::
         :: -> isotropic ES            0.097833142149 Eh    ::
         :: -> anisotropic ES         -0.000863661912 Eh    ::
         :: -> anisotropic XC          0.021668513651 Eh    ::
         :: -> dispersion             -0.027679947800 Eh    ::
         :: repulsion energy           0.561366578861 Eh    ::
         :: add. restraining           0.000643765483 Eh    ::
         :: total charge               1.000000000030 e     ::
         :::::::::::::::::::::::::::::::::::::::::::::::::::::

      ----------------------------------------------------------- 
     |                   =====================                   |
     |                        A N C O P T                        |
     |                   =====================                   |
     |               Approximate Normal Coordinate               |
     |                Rational Function Optimizer                |
      ----------------------------------------------------------- 

          ...................................................
          :                      SETUP                      :
          :.................................................:
          :   optimization level            normal          :
          :   max. optcycles                   200          :
          :   ANC micro-cycles                  20          :
          :   degrees of freedom                87          :
          :.................................................:
          :   RF solver                   davidson          :
          :   write xtbopt.log                true          :
          :   linear?                        false          :
          :   energy convergence         0.5000000E-05 Eh   :
          :   grad. convergence          0.1000000E-02 Eh/α :
          :   maximium RF displ.         1.0000000          :
          :   Hlow (freq-cutoff)         0.1000000E-01      :
          :   Hmax (freq-cutoff)         5.0000000          :
          :   S6 in model hess.         20.0000000          :
          ...................................................

generating ANC from model Hessian ...
Using Lindh-Hessian (1995)
 Shifting diagonal of input Hessian by    1.1174341194883190E-002
 Lowest  eigenvalues of input Hessian
    0.010000    0.000000    0.000000    0.000000    0.000000    0.000000
    0.000000    0.011365    0.011551    0.011608    0.011855    0.011901
    0.011978    0.012008    0.012304    0.012455    0.012588    0.013019
 Highest eigenvalues
    1.492999    1.493134    1.493210    1.493394    1.786654    3.046370


........................................................................
.............................. CYCLE    1 ..............................
........................................................................
   1    -38.1005273 -0.381005E+02  0.131E-04    0.85       0.0  T
   2    -38.1005273  0.686384E-11  0.133E-04    0.85     134.9  T
   3    -38.1005273 -0.170388E-09  0.612E-05    0.85     293.7  T
     SCC iter.                  ...        0 min,  0.129 sec
     gradient                   ...        0 min,  0.099 sec
 * total energy  :   -37.5377112 Eh     change       -0.3488410E-09 Eh
   gradient norm :     0.1947684 Eh/α   predicted     0.0000000E+00 (-100.00%)
   displ. norm   :     0.6918920 α      lambda       -0.9271736E-01
   maximum displ.:     0.4671141 α      in ANC's #24, #57, #22, ...

........................................................................
.............................. CYCLE    2 ..............................
........................................................................
   1    -38.2102683 -0.382103E+02  0.615E-01    1.11       0.0  T
   2    -38.2109353 -0.667003E-03  0.445E-01    1.12       1.0  T
   3    -38.2114604 -0.525040E-03  0.292E-01    1.15       1.0  T
   4    -38.2115214 -0.610476E-04  0.780E-02    1.11       1.0  T
   5    -38.2115502 -0.287892E-04  0.876E-02    1.15       1.0  T
   6    -38.2115999 -0.496988E-04  0.369E-02    1.13       1.0  T
   7    -38.2116090 -0.910659E-05  0.101E-02    1.13       1.8  T
   8    -38.2116092 -0.216621E-06  0.595E-03    1.12       3.0  T
   9    -38.2116093 -0.398845E-07  0.366E-03    1.12       4.9  T
  10    -38.2116094 -0.945599E-07  0.189E-03    1.12       9.5  T
  11    -38.2116094 -0.138865E-07  0.504E-04    1.12      35.6  T
  12    -38.2116094 -0.299609E-08  0.216E-04    1.12      83.1  T
     SCC iter.                  ...        0 min,  0.436 sec
     gradient                   ...        0 min,  0.098 sec
 * total energy  :   -37.6059777 Eh     change       -0.6826644E-01 Eh
   gradient norm :     0.0786902 Eh/α   predicted    -0.6857724E-01 (   0.46%)
   displ. norm   :     0.7578824 α      lambda       -0.4785912E-01
   maximum displ.:     0.4352206 α      in ANC's #27, #24, #11, ...

........................................................................
.............................. CYCLE    3 ..............................
........................................................................
   1    -38.2629553 -0.382630E+02  0.875E-01    1.29       0.0  T
   2    -38.2639097 -0.954428E-03  0.611E-01    1.35       1.0  T
   3    -38.2639371 -0.273848E-04  0.386E-01    1.40       1.0  T
   4    -38.2642618 -0.324671E-03  0.134E-01    1.38       1.0  T
   5    -38.2643197 -0.578473E-04  0.116E-01    1.40       1.0  T
   6    -38.2644005 -0.808366E-04  0.544E-02    1.39       1.0  T
   7    -38.2644143 -0.138010E-04  0.201E-02    1.38       1.0  T
   8    -38.2644156 -0.126504E-05  0.858E-03    1.38       2.1  T
   9    -38.2644159 -0.365069E-06  0.365E-03    1.38       4.9  T
  10    -38.2644160 -0.652947E-07  0.191E-03    1.38       9.4  T
  11    -38.2644160 -0.130966E-07  0.507E-04    1.38      35.4  T
  12    -38.2644160 -0.262451E-08  0.262E-04    1.38      68.7  T
     SCC iter.                  ...        0 min,  0.322 sec
     gradient                   ...        0 min,  0.067 sec
 * total energy  :   -37.6262092 Eh     change       -0.2023153E-01 Eh
   gradient norm :     0.0804643 Eh/α   predicted    -0.3767436E-01 (  86.22%)
   displ. norm   :     0.5524021 α      lambda       -0.1800217E-01
   maximum displ.:     0.2747464 α      in ANC's #15, #5, #13, ...

........................................................................
.............................. CYCLE    4 ..............................
........................................................................
   1    -38.2725990 -0.382726E+02  0.280E-01    1.45       0.0  T
   2    -38.2726918 -0.927815E-04  0.183E-01    1.50       1.0  T
   3    -38.2726634  0.283790E-04  0.979E-02    1.47       1.0  T
   4    -38.2727238 -0.604099E-04  0.281E-02    1.49       1.0  T
   5    -38.2727327 -0.894162E-05  0.181E-02    1.48       1.0  T
   6    -38.2727334 -0.626804E-06  0.117E-02    1.48       1.5  T
   7    -38.2727338 -0.395306E-06  0.554E-03    1.49       3.2  T
   8    -38.2727339 -0.124058E-06  0.263E-03    1.49       6.8  T
   9    -38.2727339 -0.246137E-07  0.161E-03    1.49      11.2  T
  10    -38.2727339 -0.126129E-07  0.506E-04    1.49      35.5  T
  11    -38.2727339 -0.209830E-09  0.187E-04    1.49      96.0  T
     SCC iter.                  ...        0 min,  0.359 sec
     gradient                   ...        0 min,  0.069 sec
 * total energy  :   -37.6378540 Eh     change       -0.1164481E-01 Eh
   gradient norm :     0.0234891 Eh/α   predicted    -0.1174776E-01 (   0.88%)
   displ. norm   :     0.5847659 α      lambda       -0.7790618E-02
   maximum displ.:     0.3012613 α      in ANC's #15, #13, #5, ...

........................................................................
.............................. CYCLE    5 ..............................
........................................................................
   1    -38.2911909 -0.382912E+02  0.332E-01    1.45       0.0  T
   2    -38.2913892 -0.198286E-03  0.278E-01    1.44       1.0  T
   3    -38.2914143 -0.250878E-04  0.171E-01    1.45       1.0  T
   4    -38.2913411  0.731876E-04  0.964E-02    1.46       1.0  T
   5    -38.2914696 -0.128555E-03  0.547E-02    1.45       1.0  T
   6    -38.2914758 -0.612646E-05  0.235E-02    1.46       1.0  T
   7    -38.2914771 -0.135339E-05  0.909E-03    1.46       2.0  T
   8    -38.2914772 -0.650834E-07  0.497E-03    1.46       3.6  T
   9    -38.2914773 -0.139815E-06  0.231E-03    1.46       7.8  T
  10    -38.2914773 -0.604279E-08  0.116E-03    1.46      15.4  T
  11    -38.2914773 -0.589710E-08  0.320E-04    1.46      56.2  T
  12    -38.2914773 -0.664485E-09  0.151E-04    1.46     119.1  T
     SCC iter.                  ...        0 min,  0.372 sec
     gradient                   ...        0 min,  0.007 sec
 * total energy  :   -37.6402910 Eh     change       -0.2436928E-02 Eh
   gradient norm :     0.0571511 Eh/α   predicted    -0.5227315E-02 ( 114.50%)
   displ. norm   :     0.5868682 α      lambda       -0.1113524E-01
   maximum displ.:     0.3126584 α      in ANC's #15, #1, #13, ...

........................................................................
.............................. CYCLE    6 ..............................
........................................................................
   1    -38.3091775 -0.383092E+02  0.471E-01    1.48       0.0  T
   2    -38.3095835 -0.405933E-03  0.439E-01    1.48       1.0  T
   3    -38.3096607 -0.772080E-04  0.283E-01    1.48       1.0  T
   4    -38.3096736 -0.129296E-04  0.110E-01    1.48       1.0  T
   5    -38.3097163 -0.426932E-04  0.605E-02    1.48       1.0  T
   6    -38.3097218 -0.554347E-05  0.176E-02    1.49       1.0  T
   7    -38.3097219 -0.323002E-07  0.837E-03    1.49       2.1  T
   8    -38.3097225 -0.614093E-06  0.458E-03    1.49       3.9  T
   9    -38.3097225 -0.796748E-08  0.250E-03    1.49       7.2  T
  10    -38.3097225 -0.261041E-07  0.768E-04    1.49      23.4  T
  11    -38.3097225 -0.413136E-08  0.205E-04    1.49      87.8  T
     SCC iter.                  ...        0 min,  0.284 sec
     gradient                   ...        0 min,  0.016 sec
 * total energy  :   -37.6412565 Eh     change       -0.9655484E-03 Eh
   gradient norm :     0.0638187 Eh/α   predicted    -0.7485182E-02 ( 675.23%)
   displ. norm   :     0.3056314 α      lambda       -0.8884521E-02
   maximum displ.:     0.1482328 α      in ANC's #28, #11, #1, ...

........................................................................
.............................. CYCLE    7 ..............................
........................................................................
   1    -38.3001824 -0.383002E+02  0.408E-01    1.57       0.0  T
   2    -38.3003456 -0.163193E-03  0.339E-01    1.55       1.0  T
   3    -38.3003125  0.331405E-04  0.154E-01    1.57       1.0  T
   4    -38.3003558 -0.433625E-04  0.666E-02    1.56       1.0  T
   5    -38.3004154 -0.596110E-04  0.485E-02    1.56       1.0  T
   6    -38.3004193 -0.386429E-05  0.156E-02    1.56       1.1  T
   7    -38.3004194 -0.149352E-06  0.926E-03    1.56       1.9  T
   8    -38.3004200 -0.540009E-06  0.413E-03    1.56       4.3  T
   9    -38.3004201 -0.869839E-07  0.241E-03    1.56       7.5  T
  10    -38.3004201 -0.158641E-07  0.816E-04    1.56      22.0  T
  11    -38.3004201 -0.200602E-08  0.341E-04    1.56      52.7  T
     SCC iter.                  ...        0 min,  0.287 sec
     gradient                   ...        0 min,  0.007 sec
 * total energy  :   -37.6427339 Eh     change       -0.1477391E-02 Eh
   gradient norm :     0.0573136 Eh/α   predicted    -0.4857221E-02 ( 228.77%)
   displ. norm   :     0.2553941 α      lambda       -0.7492350E-02
   maximum displ.:     0.1650092 α      in ANC's #28, #26, #57, ...

........................................................................
.............................. CYCLE    8 ..............................
........................................................................
   1    -38.2774271 -0.382774E+02  0.384E-01    1.47       0.0  T
   2    -38.2776665 -0.239439E-03  0.331E-01    1.45       1.0  T
   3    -38.2776793 -0.128111E-04  0.212E-01    1.42       1.0  T
   4    -38.2776258  0.535719E-04  0.924E-02    1.45       1.0  T
   5    -38.2777663 -0.140591E-03  0.501E-02    1.43       1.0  T
   6    -38.2777687 -0.239528E-05  0.219E-02    1.44       1.0  T
   7    -38.2777708 -0.205268E-05  0.926E-03    1.44       1.9  T
   8    -38.2777709 -0.928301E-07  0.536E-03    1.44       3.3  T
   9    -38.2777711 -0.182948E-06  0.218E-03    1.44       8.3  T
  10    -38.2777711 -0.199958E-07  0.919E-04    1.44      19.5  T
  11    -38.2777711 -0.165425E-08  0.272E-04    1.44      66.1  T
     SCC iter.                  ...        0 min,  0.283 sec
     gradient                   ...        0 min,  0.076 sec
 * total energy  :   -37.6438107 Eh     change       -0.1076815E-02 Eh
   gradient norm :     0.0370953 Eh/α   predicted    -0.3990526E-02 ( 270.59%)
   displ. norm   :     0.1801248 α      lambda       -0.3581323E-02
   maximum displ.:     0.0852408 α      in ANC's #24, #15, #26, ...

........................................................................
.............................. CYCLE    9 ..............................
........................................................................
   1    -38.2973556 -0.382974E+02  0.212E-01    1.50       0.0  T
   2    -38.2974182 -0.625999E-04  0.176E-01    1.49       1.0  T
   3    -38.2974108  0.736463E-05  0.912E-02    1.51       1.0  T
   4    -38.2974321 -0.212568E-04  0.314E-02    1.49       1.0  T
   5    -38.2974430 -0.108717E-04  0.230E-02    1.50       1.0  T
   6    -38.2974437 -0.767325E-06  0.911E-03    1.50       2.0  T
   7    -38.2974442 -0.490669E-06  0.406E-03    1.50       4.4  T
   8    -38.2974442  0.524381E-11  0.254E-03    1.50       7.1  T
   9    -38.2974443 -0.279563E-07  0.117E-03    1.50      15.3  T
  10    -38.2974443 -0.117074E-07  0.690E-04    1.50      26.0  T
  11    -38.2974443 -0.629960E-09  0.105E-04    1.50     171.3  T
     SCC iter.                  ...        0 min,  0.296 sec
     gradient                   ...        0 min,  0.065 sec
 * total energy  :   -37.6454775 Eh     change       -0.1666732E-02 Eh
   gradient norm :     0.0164794 Eh/α   predicted    -0.1848769E-02 (  10.92%)
   displ. norm   :     0.1573501 α      lambda       -0.6386057E-03
   maximum displ.:     0.0843447 α      in ANC's #13, #5, #9, ...

........................................................................
.............................. CYCLE   10 ..............................
........................................................................
   1    -38.2963007 -0.382963E+02  0.128E-01    1.54       0.0  T
   2    -38.2963077 -0.708174E-05  0.824E-02    1.53       1.0  T
   3    -38.2962936  0.141821E-04  0.494E-02    1.55       1.0  T
   4    -38.2963119 -0.183239E-04  0.100E-02    1.54       1.8  T
   5    -38.2963121 -0.232549E-06  0.810E-03    1.54       2.2  T
   6    -38.2963127 -0.558843E-06  0.308E-03    1.54       5.8  T
   7    -38.2963127 -0.605783E-07  0.124E-03    1.54      14.5  T
   8    -38.2963127 -0.373900E-08  0.677E-04    1.54      26.5  T
   9    -38.2963127 -0.212335E-08  0.418E-04    1.54      43.0  T
     SCC iter.                  ...        0 min,  0.211 sec
     gradient                   ...        0 min,  0.006 sec
 * total energy  :   -37.6457558 Eh     change       -0.2783378E-03 Eh
   gradient norm :     0.0083956 Eh/α   predicted    -0.3272103E-03 (  17.56%)
   displ. norm   :     0.1568607 α      lambda       -0.3283792E-03
   maximum displ.:     0.0732260 α      in ANC's #9, #13, #15, ...

........................................................................
.............................. CYCLE   11 ..............................
........................................................................
   1    -38.2955948 -0.382956E+02  0.136E-01    1.54       0.0  T
   2    -38.2955977 -0.297186E-05  0.870E-02    1.54       1.0  T
   3    -38.2955886  0.914236E-05  0.263E-02    1.54       1.0  T
   4    -38.2955987 -0.100665E-04  0.949E-03    1.54       1.9  T
   5    -38.2955996 -0.898206E-06  0.583E-03    1.54       3.1  T
   6    -38.2955996 -0.225423E-07  0.280E-03    1.54       6.4  T
   7    -38.2955997 -0.789901E-07  0.129E-03    1.54      14.0  T
   8    -38.2955997 -0.291976E-09  0.760E-04    1.54      23.6  T
   9    -38.2955997 -0.422789E-08  0.334E-04    1.54      53.7  T
     SCC iter.                  ...        0 min,  0.246 sec
     gradient                   ...        0 min,  0.045 sec
 * total energy  :   -37.6460162 Eh     change       -0.2604502E-03 Eh
   gradient norm :     0.0073681 Eh/α   predicted    -0.1682312E-03 ( -35.41%)
   displ. norm   :     0.4697974 α      lambda       -0.7805052E-03
   maximum displ.:     0.2730336 α      in ANC's #9, #13, #8, ...

........................................................................
.............................. CYCLE   12 ..............................
........................................................................
   1    -38.2921642 -0.382922E+02  0.341E-01    1.54       0.0  T
   2    -38.2921784 -0.142526E-04  0.222E-01    1.53       1.0  T
   3    -38.2921459  0.325374E-04  0.457E-02    1.53       1.0  T
   4    -38.2921830 -0.371173E-04  0.201E-02    1.53       1.0  T
   5    -38.2921856 -0.255300E-05  0.121E-02    1.53       1.5  T
   6    -38.2921861 -0.502927E-06  0.545E-03    1.53       3.3  T
   7    -38.2921862 -0.178700E-06  0.305E-03    1.53       5.9  T
   8    -38.2921863 -0.100676E-07  0.188E-03    1.53       9.6  T
   9    -38.2921863 -0.167249E-07  0.902E-04    1.53      19.9  T
  10    -38.2921863 -0.206707E-08  0.293E-04    1.53      61.3  T
     SCC iter.                  ...        0 min,  0.243 sec
     gradient                   ...        0 min,  0.079 sec
 * total energy  :   -37.6465278 Eh     change       -0.5115550E-03 Eh
   gradient norm :     0.0129748 Eh/α   predicted    -0.4763880E-03 (  -6.87%)
   displ. norm   :     0.4216781 α      lambda       -0.5953097E-03
   maximum displ.:     0.2511103 α      in ANC's #9, #8, #13, ...

........................................................................
.............................. CYCLE   13 ..............................
........................................................................
   1    -38.2891481 -0.382891E+02  0.262E-01    1.53       0.0  T
   2    -38.2891558 -0.761910E-05  0.166E-01    1.53       1.0  T
   3    -38.2891155  0.402459E-04  0.475E-02    1.53       1.0  T
   4    -38.2891613 -0.457691E-04  0.156E-02    1.53       1.1  T
   5    -38.2891613 -0.289036E-07  0.877E-03    1.53       2.0  T
   6    -38.2891616 -0.264541E-06  0.281E-03    1.53       6.4  T
   7    -38.2891616 -0.870985E-08  0.233E-03    1.53       7.7  T
   8    -38.2891616 -0.455116E-07  0.117E-03    1.53      15.3  T
   9    -38.2891616 -0.944453E-09  0.498E-04    1.53      36.1  T
  10    -38.2891616 -0.130453E-08  0.201E-04    1.53      89.2  T
     SCC iter.                  ...        0 min,  0.257 sec
     gradient                   ...        0 min,  0.020 sec
 * total energy  :   -37.6469204 Eh     change       -0.3926112E-03 Eh
   gradient norm :     0.0198268 Eh/α   predicted    -0.3505856E-03 ( -10.70%)
   displ. norm   :     0.3498073 α      lambda       -0.9556573E-03
   maximum displ.:     0.1842126 α      in ANC's #8, #9, #7, ...

........................................................................
.............................. CYCLE   14 ..............................
........................................................................
   1    -38.2917999 -0.382918E+02  0.182E-01    1.55       0.0  T
   2    -38.2918073 -0.735464E-05  0.114E-01    1.53       1.0  T
   3    -38.2917803  0.269892E-04  0.597E-02    1.55       1.0  T
   4    -38.2918127 -0.323542E-04  0.101E-02    1.54       1.8  T
   5    -38.2918130 -0.291992E-06  0.798E-03    1.54       2.2  T
   6    -38.2918133 -0.380758E-06  0.183E-03    1.54       9.8  T
   7    -38.2918134 -0.880842E-08  0.108E-03    1.54      16.6  T
   8    -38.2918134 -0.626279E-08  0.718E-04    1.54      25.0  T
   9    -38.2918134 -0.921027E-09  0.321E-04    1.54      55.9  T
     SCC iter.                  ...        0 min,  0.249 sec
     gradient                   ...        0 min,  0.023 sec
 * total energy  :   -37.6476970 Eh     change       -0.7766426E-03 Eh
   gradient norm :     0.0164071 Eh/α   predicted    -0.5363024E-03 ( -30.95%)
   displ. norm   :     0.5673506 α      lambda       -0.1784878E-02
   maximum displ.:     0.2911267 α      in ANC's #8, #9, #7, ...

........................................................................
.............................. CYCLE   15 ..............................
........................................................................
   1    -38.2953175 -0.382953E+02  0.153E-01    1.56       0.0  T
   2    -38.2953269 -0.938192E-05  0.947E-02    1.57       1.0  T
   3    -38.2952893  0.375341E-04  0.444E-02    1.57       1.0  T
   4    -38.2953341 -0.447753E-04  0.873E-03    1.57       2.1  T
   5    -38.2953343 -0.217760E-06  0.665E-03    1.57       2.7  T
   6    -38.2953345 -0.187824E-06  0.334E-03    1.57       5.4  T
   7    -38.2953345 -0.432690E-07  0.141E-03    1.57      12.7  T
   8    -38.2953346 -0.102772E-07  0.713E-04    1.57      25.2  T
   9    -38.2953346 -0.968811E-09  0.644E-04    1.57      27.9  T
     SCC iter.                  ...        0 min,  0.242 sec
     gradient                   ...        0 min,  0.015 sec
 * total energy  :   -37.6490758 Eh     change       -0.1378762E-02 Eh
   gradient norm :     0.0149305 Eh/α   predicted    -0.1179706E-02 ( -14.44%)
   displ. norm   :     0.5047299 α      lambda       -0.1828322E-02
   maximum displ.:     0.2578607 α      in ANC's #8, #7, #9, ...

........................................................................
.............................. CYCLE   16 ..............................
........................................................................
   1    -38.3034483 -0.383034E+02  0.164E-01    1.58       0.0  T
   2    -38.3034656 -0.172830E-04  0.984E-02    1.59       1.0  T
   3    -38.3034395  0.260862E-04  0.501E-02    1.59       1.0  T
   4    -38.3034734 -0.338236E-04  0.145E-02    1.59       1.2  T
   5    -38.3034743 -0.964439E-06  0.845E-03    1.59       2.1  T
   6    -38.3034743  0.607978E-07  0.323E-03    1.59       5.6  T
   7    -38.3034744 -0.976783E-07  0.154E-03    1.59      11.6  T
   8    -38.3034744 -0.260112E-07  0.642E-04    1.59      28.0  T
   9    -38.3034744 -0.952987E-09  0.350E-04    1.59      51.3  T
     SCC iter.                  ...        0 min,  0.252 sec
     gradient                   ...        0 min,  0.012 sec
 * total energy  :   -37.6501999 Eh     change       -0.1124050E-02 Eh
   gradient norm :     0.0212574 Eh/α   predicted    -0.1147051E-02 (   2.05%)
   displ. norm   :     0.8163761 α      lambda       -0.2285487E-02
   maximum displ.:     0.4579687 α      in ANC's #9, #8, #10, ...

........................................................................
.............................. CYCLE   17 ..............................
........................................................................
   1    -38.2832392 -0.382832E+02  0.365E-01    1.56       0.0  T
   2    -38.2833096 -0.704531E-04  0.204E-01    1.61       1.0  T
   3    -38.2832898  0.198084E-04  0.134E-01    1.57       1.0  T
   4    -38.2833342 -0.443812E-04  0.335E-02    1.59       1.0  T
   5    -38.2833341  0.586928E-07  0.261E-02    1.59       1.0  T
   6    -38.2833367 -0.255230E-05  0.756E-03    1.60       2.4  T
   7    -38.2833372 -0.475766E-06  0.443E-03    1.60       4.1  T
   8    -38.2833372 -0.258966E-07  0.280E-03    1.60       6.4  T
   9    -38.2833372 -0.259786E-08  0.111E-03    1.60      16.2  T
  10    -38.2833372 -0.121779E-07  0.576E-04    1.60      31.2  T
  11    -38.2833372 -0.157235E-08  0.191E-04    1.60      94.0  T
     SCC iter.                  ...        0 min,  0.290 sec
     gradient                   ...        0 min,  0.009 sec
 * total energy  :   -37.6504685 Eh     change       -0.2685994E-03 Eh
   gradient norm :     0.0335385 Eh/α   predicted    -0.1904360E-02 ( 609.00%)
   displ. norm   :     0.2112068 α      lambda       -0.2677615E-02
   maximum displ.:     0.1378078 α      in ANC's #9, #8, #3, ...

........................................................................
.............................. CYCLE   18 ..............................
........................................................................
   1    -38.2987666 -0.382988E+02  0.228E-01    1.68       0.0  T
   2    -38.2988229 -0.563046E-04  0.118E-01    1.63       1.0  T
   3    -38.2988296 -0.668900E-05  0.914E-02    1.65       1.0  T
   4    -38.2988388 -0.917512E-05  0.254E-02    1.64       1.0  T
   5    -38.2988410 -0.218416E-05  0.202E-02    1.65       1.0  T
   6    -38.2988414 -0.399985E-06  0.757E-03    1.64       2.4  T
   7    -38.2988418 -0.423913E-06  0.189E-03    1.64       9.5  T
   8    -38.2988418 -0.223537E-07  0.994E-04    1.64      18.1  T
   9    -38.2988418 -0.581420E-08  0.613E-04    1.64      29.3  T
     SCC iter.                  ...        0 min,  0.235 sec
     gradient                   ...        0 min,  0.072 sec
 * total energy  :   -37.6517210 Eh     change       -0.1252515E-02 Eh
   gradient norm :     0.0188296 Eh/α   predicted    -0.1398529E-02 (  11.66%)
   displ. norm   :     0.2948445 α      lambda       -0.1119174E-02
   maximum displ.:     0.1321858 α      in ANC's #10, #8, #3, ...

........................................................................
.............................. CYCLE   19 ..............................
........................................................................
   1    -38.2993209 -0.382993E+02  0.132E-01    1.65       0.0  T
   2    -38.2993254 -0.452105E-05  0.836E-02    1.64       1.0  T
   3    -38.2993023  0.230690E-04  0.359E-02    1.65       1.0  T
   4    -38.2993292 -0.268287E-04  0.108E-02    1.65       1.7  T
   5    -38.2993291  0.926789E-07  0.615E-03    1.65       2.9  T
   6    -38.2993293 -0.168434E-06  0.239E-03    1.65       7.5  T
   7    -38.2993293 -0.957166E-07  0.103E-03    1.65      17.4  T
   8    -38.2993294 -0.341750E-08  0.610E-04    1.65      29.4  T
   9    -38.2993294 -0.786621E-09  0.410E-04    1.65      43.8  T
     SCC iter.                  ...        0 min,  0.236 sec
     gradient                   ...        0 min,  0.066 sec
 * total energy  :   -37.6522024 Eh     change       -0.4813901E-03 Eh
   gradient norm :     0.0235859 Eh/α   predicted    -0.6082340E-03 (  26.35%)
   displ. norm   :     0.4397919 α      lambda       -0.1036834E-02
   maximum displ.:     0.2038644 α      in ANC's #10, #9, #8, ...

........................................................................
.............................. CYCLE   20 ..............................
........................................................................
   1    -38.2981275 -0.382981E+02  0.173E-01    1.65       0.0  T
   2    -38.2981376 -0.101091E-04  0.103E-01    1.67       1.0  T
   3    -38.2981278  0.975484E-05  0.482E-02    1.66       1.0  T
   4    -38.2981408 -0.129964E-04  0.132E-02    1.67       1.4  T
   5    -38.2981409 -0.105111E-06  0.101E-02    1.67       1.8  T
   6    -38.2981410 -0.744160E-07  0.375E-03    1.67       4.8  T
   7    -38.2981412 -0.187371E-06  0.148E-03    1.67      12.1  T
   8    -38.2981412  0.219934E-08  0.106E-03    1.67      17.0  T
   9    -38.2981412 -0.824834E-08  0.468E-04    1.67      38.3  T
  10    -38.2981412 -0.610932E-09  0.241E-04    1.67      74.7  T
     SCC iter.                  ...        0 min,  0.191 sec
     gradient                   ...        0 min,  0.029 sec
 * total energy  :   -37.6529237 Eh     change       -0.7213332E-03 Eh
   gradient norm :     0.0181875 Eh/α   predicted    -0.6186917E-03 ( -14.23%)
   displ. norm   :     0.6398409 α      lambda       -0.1176896E-02
   maximum displ.:     0.3422140 α      in ANC's #8, #10, #7, ...
 * RMSD in coord.:     0.9554583 α      energy gain  -0.1152124E+00 Eh

generating ANC from model Hessian ...
Using Lindh-Hessian (1995)
 Shifting diagonal of input Hessian by    9.6987472920816633E-003
 Lowest  eigenvalues of input Hessian
    0.000000    0.000000    0.000000    0.000000    0.000000    0.000000
    0.010000    0.010102    0.010622    0.010776    0.010862    0.011252
    0.011555    0.012137    0.012188    0.013909    0.016735    0.016948
 Highest eigenvalues
    1.679203    1.728489    1.732307    1.735530    1.739369    3.096365


........................................................................
.............................. CYCLE   21 ..............................
........................................................................
   1    -38.2853036 -0.382853E+02  0.261E-01    1.65       0.0  T
   2    -38.2853177 -0.140881E-04  0.171E-01    1.65       1.0  T
   3    -38.2852803  0.373862E-04  0.646E-02    1.66       1.0  T
   4    -38.2853236 -0.433140E-04  0.298E-02    1.66       1.0  T
   5    -38.2853233  0.260223E-06  0.208E-02    1.66       1.0  T
   6    -38.2853270 -0.362082E-05  0.591E-03    1.66       3.0  T
   7    -38.2853272 -0.279967E-06  0.294E-03    1.66       6.1  T
   8    -38.2853273 -0.462453E-08  0.147E-03    1.66      12.2  T
   9    -38.2853273 -0.601940E-08  0.747E-04    1.66      24.0  T
  10    -38.2853273 -0.316793E-08  0.220E-04    1.66      81.7  T
     SCC iter.                  ...        0 min,  0.276 sec
     gradient                   ...        0 min,  0.010 sec
 * total energy  :   -37.6526727 Eh     change        0.2510181E-03 Eh
   gradient norm :     0.0341000 Eh/α   predicted     0.0000000E+00 (-100.00%)
   displ. norm   :     0.1763139 α      lambda       -0.2093312E-02
   maximum displ.:     0.0760991 α      in ANC's #16, #2, #6, ...

........................................................................
.............................. CYCLE   22 ..............................
........................................................................
   1    -38.3007322 -0.383007E+02  0.138E-01    1.70       0.0  T
   2    -38.3007381 -0.587584E-05  0.959E-02    1.69       1.0  T
   3    -38.3007285  0.954735E-05  0.362E-02    1.70       1.0  T
   4    -38.3007394 -0.108742E-04  0.206E-02    1.69       1.0  T
   5    -38.3007410 -0.161279E-05  0.123E-02    1.69       1.5  T
   6    -38.3007420 -0.101092E-05  0.313E-03    1.69       5.7  T
   7    -38.3007420 -0.132717E-07  0.175E-03    1.69      10.3  T
   8    -38.3007420 -0.114534E-07  0.117E-03    1.69      15.4  T
   9    -38.3007421 -0.996320E-08  0.467E-04    1.69      38.5  T
  10    -38.3007421 -0.295991E-09  0.222E-04    1.69      81.0  T
     SCC iter.                  ...        0 min,  0.252 sec
     gradient                   ...        0 min,  0.005 sec
 * total energy  :   -37.6539400 Eh     change       -0.1267330E-02 Eh
   gradient norm :     0.0059340 Eh/α   predicted    -0.1079875E-02 ( -14.79%)
   displ. norm   :     0.1899861 α      lambda       -0.4441441E-03
   maximum displ.:     0.1039003 α      in ANC's #2, #6, #3, ...

........................................................................
.............................. CYCLE   23 ..............................
........................................................................
   1    -38.3054521 -0.383055E+02  0.914E-02    1.71       0.0  T
   2    -38.3054549 -0.282587E-05  0.605E-02    1.71       1.0  T
   3    -38.3054541  0.797416E-06  0.229E-02    1.71       1.0  T
   4    -38.3054559 -0.178357E-05  0.829E-03    1.71       2.2  T
   5    -38.3054557  0.256097E-06  0.716E-03    1.71       2.5  T
   6    -38.3054561 -0.445016E-06  0.234E-03    1.71       7.7  T
   7    -38.3054561 -0.204479E-07  0.110E-03    1.71      16.3  T
   8    -38.3054561 -0.978481E-09  0.493E-04    1.71      36.4  T
   9    -38.3054561 -0.215699E-08  0.219E-04    1.71      82.0  T
     SCC iter.                  ...        0 min,  0.223 sec
     gradient                   ...        0 min,  0.014 sec
 * total energy  :   -37.6542438 Eh     change       -0.3038149E-03 Eh
   gradient norm :     0.0039809 Eh/α   predicted    -0.2309566E-03 ( -23.98%)
   displ. norm   :     0.2856475 α      lambda       -0.3919474E-03
   maximum displ.:     0.1655537 α      in ANC's #2, #6, #3, ...

........................................................................
.............................. CYCLE   24 ..............................
........................................................................
   1    -38.3067893 -0.383068E+02  0.725E-02    1.71       0.0  T
   2    -38.3067912 -0.182953E-05  0.442E-02    1.71       1.0  T
   3    -38.3067898  0.142093E-05  0.195E-02    1.71       1.0  T
   4    -38.3067918 -0.203733E-05  0.407E-03    1.71       4.4  T
   5    -38.3067918 -0.236643E-07  0.357E-03    1.71       5.0  T
   6    -38.3067918 -0.286750E-07  0.149E-03    1.71      12.0  T
   7    -38.3067919 -0.226736E-07  0.511E-04    1.71      35.1  T
   8    -38.3067919 -0.581537E-09  0.352E-04    1.71      51.0  T
     SCC iter.                  ...        0 min,  0.323 sec
     gradient                   ...        0 min,  0.078 sec
 * total energy  :   -37.6545636 Eh     change       -0.3197670E-03 Eh
   gradient norm :     0.0069469 Eh/α   predicted    -0.2119886E-03 ( -33.71%)
   displ. norm   :     0.4153196 α      lambda       -0.5165861E-03
   maximum displ.:     0.2514362 α      in ANC's #2, #6, #1, ...

........................................................................
.............................. CYCLE   25 ..............................
........................................................................
   1    -38.3038831 -0.383039E+02  0.106E-01    1.71       0.0  T
   2    -38.3038863 -0.322043E-05  0.693E-02    1.72       1.0  T
   3    -38.3038821  0.421700E-05  0.259E-02    1.71       1.0  T
   4    -38.3038875 -0.540506E-05  0.619E-03    1.71       2.9  T
   5    -38.3038879 -0.341748E-06  0.347E-03    1.71       5.2  T
   6    -38.3038879 -0.289450E-07  0.143E-03    1.71      12.6  T
   7    -38.3038879 -0.220931E-07  0.704E-04    1.71      25.5  T
   8    -38.3038879  0.283478E-09  0.464E-04    1.71      38.7  T
     SCC iter.                  ...        0 min,  0.182 sec
     gradient                   ...        0 min,  0.005 sec
 * total energy  :   -37.6549819 Eh     change       -0.4183087E-03 Eh
   gradient norm :     0.0091278 Eh/α   predicted    -0.3028464E-03 ( -27.60%)
   displ. norm   :     0.4061853 α      lambda       -0.5434435E-03
   maximum displ.:     0.2763607 α      in ANC's #2, #1, #6, ...

........................................................................
.............................. CYCLE   26 ..............................
........................................................................
   1    -38.3008636 -0.383009E+02  0.106E-01    1.70       0.0  T
   2    -38.3008657 -0.211231E-05  0.669E-02    1.70       1.0  T
   3    -38.3008560  0.966561E-05  0.241E-02    1.70       1.0  T
   4    -38.3008671 -0.111013E-04  0.953E-03    1.70       1.9  T
   5    -38.3008672 -0.489123E-07  0.494E-03    1.70       3.6  T
   6    -38.3008672  0.696102E-08  0.134E-03    1.70      13.4  T
   7    -38.3008672 -0.343482E-07  0.654E-04    1.70      27.5  T
   8    -38.3008672 -0.633413E-09  0.405E-04    1.70      44.4  T
     SCC iter.                  ...        0 min,  0.138 sec
     gradient                   ...        0 min,  0.005 sec
 * total energy  :   -37.6554188 Eh     change       -0.4369323E-03 Eh
   gradient norm :     0.0080157 Eh/α   predicted    -0.3165522E-03 ( -27.55%)
   displ. norm   :     0.3885052 α      lambda       -0.5140401E-03
   maximum displ.:     0.2849104 α      in ANC's #2, #1, #6, ...

........................................................................
.............................. CYCLE   27 ..............................
........................................................................
   1    -38.3003304 -0.383003E+02  0.903E-02    1.69       0.0  T
   2    -38.3003331 -0.263570E-05  0.539E-02    1.69       1.0  T
   3    -38.3003253  0.778582E-05  0.230E-02    1.69       1.0  T
   4    -38.3003346 -0.928449E-05  0.104E-02    1.69       1.7  T
   5    -38.3003347 -0.110334E-06  0.768E-03    1.69       2.3  T
   6    -38.3003347  0.509930E-08  0.132E-03    1.69      13.6  T
   7    -38.3003347 -0.311731E-07  0.414E-04    1.69      43.4  T
   8    -38.3003347 -0.852708E-09  0.237E-04    1.69      75.8  T
     SCC iter.                  ...        0 min,  0.240 sec
     gradient                   ...        0 min,  0.077 sec
 * total energy  :   -37.6558258 Eh     change       -0.4070028E-03 Eh
   gradient norm :     0.0058929 Eh/α   predicted    -0.2958154E-03 ( -27.32%)
   displ. norm   :     0.4491862 α      lambda       -0.4564613E-03
   maximum displ.:     0.3292219 α      in ANC's #2, #1, #6, ...

........................................................................
.............................. CYCLE   28 ..............................
........................................................................
   1    -38.3001565 -0.383002E+02  0.775E-02    1.68       0.0  T
   2    -38.3001593 -0.280346E-05  0.524E-02    1.68       1.0  T
   3    -38.3001479  0.114592E-04  0.232E-02    1.67       1.0  T
   4    -38.3001622 -0.142851E-04  0.588E-03    1.68       3.1  T
   5    -38.3001623 -0.135892E-06  0.352E-03    1.68       5.1  T
   6    -38.3001623 -0.114577E-07  0.121E-03    1.68      14.9  T
   7    -38.3001623 -0.230702E-07  0.524E-04    1.68      34.3  T
   8    -38.3001623 -0.930477E-09  0.337E-04    1.68      53.2  T
     SCC iter.                  ...        0 min,  0.235 sec
     gradient                   ...        0 min,  0.076 sec
 * total energy  :   -37.6561807 Eh     change       -0.3549165E-03 Eh
   gradient norm :     0.0059543 Eh/α   predicted    -0.2742813E-03 ( -22.72%)
   displ. norm   :     0.4170418 α      lambda       -0.4745125E-03
   maximum displ.:     0.3339371 α      in ANC's #2, #1, #57, ...

........................................................................
.............................. CYCLE   29 ..............................
........................................................................
   1    -38.3066106 -0.383066E+02  0.116E-01    1.69       0.0  T
   2    -38.3066197 -0.907844E-05  0.629E-02    1.68       1.0  T
   3    -38.3066186  0.115630E-05  0.417E-02    1.68       1.0  T
   4    -38.3066224 -0.384174E-05  0.115E-02    1.68       1.6  T
   5    -38.3066225 -0.819926E-07  0.799E-03    1.68       2.2  T
   6    -38.3066225 -0.530340E-07  0.321E-03    1.68       5.6  T
   7    -38.3066226 -0.804945E-07  0.910E-04    1.68      19.7  T
   8    -38.3066226  0.115443E-08  0.613E-04    1.68      29.3  T
     SCC iter.                  ...        0 min,  0.196 sec
     gradient                   ...        0 min,  0.005 sec
 * total energy  :   -37.6564372 Eh     change       -0.2564112E-03 Eh
   gradient norm :     0.0086893 Eh/α   predicted    -0.2785219E-03 (   8.62%)
   displ. norm   :     0.4313147 α      lambda       -0.3453251E-03
   maximum displ.:     0.3253155 α      in ANC's #2, #1, #6, ...

........................................................................
.............................. CYCLE   30 ..............................
........................................................................
   1    -38.3034902 -0.383035E+02  0.816E-02    1.68       0.0  T
   2    -38.3034948 -0.462409E-05  0.445E-02    1.69       1.0  T
   3    -38.3034921  0.270968E-05  0.309E-02    1.68       1.0  T
   4    -38.3034973 -0.522208E-05  0.859E-03    1.68       2.1  T
   5    -38.3034974 -0.717847E-07  0.715E-03    1.68       2.5  T
   6    -38.3034974 -0.645844E-07  0.185E-03    1.68       9.7  T
   7    -38.3034975 -0.408084E-07  0.612E-04    1.68      29.3  T
   8    -38.3034975 -0.323165E-08  0.293E-04    1.68      61.3  T
     SCC iter.                  ...        0 min,  0.217 sec
     gradient                   ...        0 min,  0.064 sec
 * total energy  :   -37.6566122 Eh     change       -0.1750448E-03 Eh
   gradient norm :     0.0044762 Eh/α   predicted    -0.2047835E-03 (  16.99%)
   displ. norm   :     0.0907605 α      lambda       -0.1202608E-03
   maximum displ.:     0.0765598 α      in ANC's #2, #57, #1, ...

........................................................................
.............................. CYCLE   31 ..............................
........................................................................
   1    -38.3072085 -0.383072E+02  0.347E-02    1.68       0.0  T
   2    -38.3072089 -0.422534E-06  0.232E-02    1.68       1.0  T
   3    -38.3072077  0.118134E-05  0.112E-02    1.69       1.6  T
   4    -38.3072092 -0.148780E-05  0.285E-03    1.68       6.3  T
   5    -38.3072092 -0.695538E-08  0.188E-03    1.68       9.6  T
   6    -38.3072092 -0.627435E-08  0.670E-04    1.68      26.8  T
   7    -38.3072092 -0.424796E-08  0.366E-04    1.68      49.1  T
     SCC iter.                  ...        0 min,  0.180 sec
     gradient                   ...        0 min,  0.069 sec
 * total energy  :   -37.6566982 Eh     change       -0.8601469E-04 Eh
   gradient norm :     0.0020670 Eh/α   predicted    -0.6062617E-04 ( -29.52%)
   displ. norm   :     0.3331941 α      lambda       -0.1640579E-03
   maximum displ.:     0.2842822 α      in ANC's #2, #1, #57, ...

........................................................................
.............................. CYCLE   32 ..............................
........................................................................
   1    -38.3080066 -0.383080E+02  0.670E-02    1.68       0.0  T
   2    -38.3080080 -0.141876E-05  0.407E-02    1.68       1.0  T
   3    -38.3080047  0.333165E-05  0.209E-02    1.68       1.0  T
   4    -38.3080090 -0.432202E-05  0.487E-03    1.68       3.7  T
   5    -38.3080090  0.810558E-07  0.374E-03    1.68       4.8  T
   6    -38.3080091 -0.111755E-06  0.121E-03    1.68      14.8  T
   7    -38.3080091 -0.854892E-08  0.591E-04    1.68      30.4  T
   8    -38.3080091 -0.483666E-09  0.336E-04    1.68      53.4  T
     SCC iter.                  ...        0 min,  0.202 sec
     gradient                   ...        0 min,  0.058 sec
 * total energy  :   -37.6567963 Eh     change       -0.9809563E-04 Eh
   gradient norm :     0.0055119 Eh/α   predicted    -0.9113644E-04 (  -7.09%)
   displ. norm   :     0.1717872 α      lambda       -0.8671868E-04
   maximum displ.:     0.1485385 α      in ANC's #2, #1, #57, ...

........................................................................
.............................. CYCLE   33 ..............................
........................................................................
   1    -38.3092799 -0.383093E+02  0.339E-02    1.67       0.0  T
   2    -38.3092807 -0.811520E-06  0.199E-02    1.67       1.0  T
   3    -38.3092790  0.167827E-05  0.107E-02    1.68       1.7  T
   4    -38.3092813 -0.230211E-05  0.305E-03    1.67       5.9  T
   5    -38.3092813 -0.224371E-07  0.160E-03    1.67      11.2  T
   6    -38.3092813  0.370193E-08  0.530E-04    1.67      33.9  T
   7    -38.3092813 -0.476232E-08  0.218E-04    1.67      82.4  T
     SCC iter.                  ...        0 min,  0.187 sec
     gradient                   ...        0 min,  0.009 sec
 * total energy  :   -37.6568613 Eh     change       -0.6494756E-04 Eh
   gradient norm :     0.0044682 Eh/α   predicted    -0.4463923E-04 ( -31.27%)
   displ. norm   :     0.2630732 α      lambda       -0.1254711E-03
   maximum displ.:     0.2199449 α      in ANC's #2, #1, #6, ...

........................................................................
.............................. CYCLE   34 ..............................
........................................................................
   1    -38.3093631 -0.383094E+02  0.563E-02    1.66       0.0  T
   2    -38.3093652 -0.215833E-05  0.318E-02    1.66       1.0  T
   3    -38.3093615  0.379194E-05  0.194E-02    1.67       1.0  T
   4    -38.3093667 -0.524924E-05  0.508E-03    1.66       3.5  T
   5    -38.3093668 -0.822645E-07  0.268E-03    1.67       6.7  T
   6    -38.3093668  0.948560E-08  0.110E-03    1.66      16.4  T
   7    -38.3093668 -0.186676E-07  0.412E-04    1.66      43.6  T
   8    -38.3093668 -0.904208E-09  0.273E-04    1.67      65.7  T
     SCC iter.                  ...        0 min,  0.230 sec
     gradient                   ...        0 min,  0.079 sec
 * total energy  :   -37.6569615 Eh     change       -0.1002100E-03 Eh
   gradient norm :     0.0043228 Eh/α   predicted    -0.6708327E-04 ( -33.06%)
   displ. norm   :     0.3859080 α      lambda       -0.2179867E-03
   maximum displ.:     0.2630658 α      in ANC's #2, #6, #4, ...

........................................................................
.............................. CYCLE   35 ..............................
........................................................................
   1    -38.3088755 -0.383089E+02  0.941E-02    1.64       0.0  T
   2    -38.3088812 -0.571604E-05  0.531E-02    1.65       1.0  T
   3    -38.3088738  0.741530E-05  0.325E-02    1.65       1.0  T
   4    -38.3088842 -0.104149E-04  0.920E-03    1.65       2.0  T
   5    -38.3088847 -0.467488E-06  0.512E-03    1.65       3.5  T
   6    -38.3088846  0.606530E-07  0.241E-03    1.65       7.5  T
   7    -38.3088847 -0.923047E-07  0.650E-04    1.65      27.6  T
   8    -38.3088847 -0.282834E-08  0.413E-04    1.65      43.5  T
     SCC iter.                  ...        0 min,  0.203 sec
     gradient                   ...        0 min,  0.070 sec
 * total energy  :   -37.6571061 Eh     change       -0.1445994E-03 Eh
   gradient norm :     0.0058457 Eh/α   predicted    -0.1252257E-03 ( -13.40%)
   displ. norm   :     0.2871873 α      lambda       -0.1345561E-03
   maximum displ.:     0.2166806 α      in ANC's #2, #6, #1, ...

........................................................................
.............................. CYCLE   36 ..............................
........................................................................
   1    -38.3048345 -0.383048E+02  0.723E-02    1.64       0.0  T
   2    -38.3048360 -0.146409E-05  0.447E-02    1.64       1.0  T
   3    -38.3048269  0.912690E-05  0.246E-02    1.64       1.0  T
   4    -38.3048374 -0.105462E-04  0.542E-03    1.64       3.3  T
   5    -38.3048375 -0.122464E-06  0.330E-03    1.64       5.4  T
   6    -38.3048376 -0.506702E-07  0.850E-04    1.64      21.1  T
   7    -38.3048376 -0.101684E-08  0.539E-04    1.64      33.3  T
     SCC iter.                  ...        0 min,  0.175 sec
     gradient                   ...        0 min,  0.014 sec
 * total energy  :   -37.6571768 Eh     change       -0.7072190E-04 Eh
   gradient norm :     0.0060860 Eh/α   predicted    -0.7282750E-04 (   2.98%)
   displ. norm   :     0.1884411 α      lambda       -0.1435742E-03
   maximum displ.:     0.1090629 α      in ANC's #2, #6, #1, ...

........................................................................
.............................. CYCLE   37 ..............................
........................................................................
   1    -38.3080236 -0.383080E+02  0.534E-02    1.65       0.0  T
   2    -38.3080259 -0.227784E-05  0.316E-02    1.65       1.0  T
   3    -38.3080215  0.437290E-05  0.196E-02    1.65       1.0  T
   4    -38.3080278 -0.631821E-05  0.523E-03    1.65       3.4  T
   5    -38.3080281 -0.239615E-06  0.268E-03    1.65       6.7  T
   6    -38.3080280  0.567815E-08  0.124E-03    1.65      14.5  T
   7    -38.3080281 -0.224188E-07  0.351E-04    1.65      51.1  T
   8    -38.3080281 -0.199833E-09  0.242E-04    1.65      74.3  T
     SCC iter.                  ...        0 min,  0.149 sec
     gradient                   ...        0 min,  0.010 sec
 * total energy  :   -37.6572579 Eh     change       -0.8113148E-04 Eh
   gradient norm :     0.0046402 Eh/α   predicted    -0.7433749E-04 (  -8.37%)
   displ. norm   :     0.0714622 α      lambda       -0.8785944E-04
   maximum displ.:     0.0412092 α      in ANC's #2, #14, #16, ...

........................................................................
.............................. CYCLE   38 ..............................
........................................................................
   1    -38.3084862 -0.383085E+02  0.486E-02    1.67       0.0  T
   2    -38.3084909 -0.466735E-05  0.187E-02    1.66       1.0  T
   3    -38.3084913 -0.351970E-06  0.165E-02    1.66       1.1  T
   4    -38.3084929 -0.160479E-05  0.837E-03    1.66       2.1  T
   5    -38.3084931 -0.201919E-06  0.447E-03    1.66       4.0  T
   6    -38.3084931  0.184200E-07  0.218E-03    1.66       8.2  T
   7    -38.3084931 -0.242218E-07  0.659E-04    1.66      27.3  T
   8    -38.3084931 -0.200146E-08  0.274E-04    1.66      65.5  T
     SCC iter.                  ...        0 min,  0.207 sec
     gradient                   ...        0 min,  0.064 sec
 * total energy  :   -37.6572738 Eh     change       -0.1590302E-04 Eh
   gradient norm :     0.0032255 Eh/α   predicted    -0.4415619E-04 ( 177.66%)
   displ. norm   :     0.1088189 α      lambda       -0.5093474E-04
   maximum displ.:     0.0680494 α      in ANC's #6, #3, #2, ...

........................................................................
.............................. CYCLE   39 ..............................
........................................................................
   1    -38.3074772 -0.383075E+02  0.347E-02    1.65       0.0  T
   2    -38.3074779 -0.704456E-06  0.172E-02    1.65       1.0  T
   3    -38.3074778  0.161873E-06  0.119E-02    1.65       1.5  T
   4    -38.3074781 -0.331122E-06  0.366E-03    1.65       4.9  T
   5    -38.3074781 -0.329697E-07  0.263E-03    1.65       6.8  T
   6    -38.3074781 -0.109957E-08  0.777E-04    1.65      23.1  T
   7    -38.3074781 -0.767252E-08  0.274E-04    1.65      65.5  T
     SCC iter.                  ...        0 min,  0.179 sec
     gradient                   ...        0 min,  0.074 sec
 * total energy  :   -37.6573039 Eh     change       -0.3004001E-04 Eh
   gradient norm :     0.0021583 Eh/α   predicted    -0.2578597E-04 ( -14.16%)
   displ. norm   :     0.0426014 α      lambda       -0.1097198E-04
   maximum displ.:     0.0271054 α      in ANC's #3, #6, #4, ...

........................................................................
.............................. CYCLE   40 ..............................
........................................................................
   1    -38.3075361 -0.383075E+02  0.163E-02    1.65       0.0  T
   2    -38.3075361 -0.769883E-07  0.958E-03    1.65       1.9  T
   3    -38.3075359  0.199206E-06  0.426E-03    1.65       4.2  T
   4    -38.3075362 -0.244408E-06  0.983E-04    1.65      18.3  T
   5    -38.3075362 -0.283208E-09  0.669E-04    1.65      26.8  T
     SCC iter.                  ...        0 min,  0.131 sec
     gradient                   ...        0 min,  0.071 sec
 * total energy  :   -37.6573117 Eh     change       -0.7793134E-05 Eh
   gradient norm :     0.0012679 Eh/α   predicted    -0.5496624E-05 ( -29.47%)
   displ. norm   :     0.0621711 α      lambda       -0.8800689E-05
   maximum displ.:     0.0397701 α      in ANC's #3, #6, #4, ...

........................................................................
.............................. CYCLE   41 ..............................
........................................................................
   1    -38.3079077 -0.383079E+02  0.217E-02    1.65       0.0  T
   2    -38.3079079 -0.292082E-06  0.126E-02    1.65       1.4  T
   3    -38.3079076  0.392410E-06  0.664E-03    1.65       2.7  T
   4    -38.3079081 -0.565703E-06  0.148E-03    1.65      12.1  T
   5    -38.3079081  0.476363E-08  0.791E-04    1.65      22.7  T
   6    -38.3079081 -0.819460E-08  0.292E-04    1.65      61.5  T
     SCC iter.                  ...        0 min,  0.153 sec
     gradient                   ...        0 min,  0.004 sec
 * total energy  :   -37.6573192 Eh     change       -0.7499955E-05 Eh
   gradient norm :     0.0008149 Eh/α   predicted    -0.4412048E-05 ( -41.17%)
   displ. norm   :     0.0377451 α      lambda       -0.2927598E-05
   maximum displ.:     0.0225981 α      in ANC's #3, #6, #4, ...

........................................................................
.............................. CYCLE   42 ..............................
........................................................................
   1    -38.3078118 -0.383078E+02  0.944E-03    1.65       0.0  T
   2    -38.3078119 -0.245030E-07  0.620E-03    1.65       2.9  T
   3    -38.3078118  0.109800E-06  0.243E-03    1.65       7.4  T
   4    -38.3078119 -0.124612E-06  0.789E-04    1.65      22.8  T
   5    -38.3078119 -0.349856E-08  0.530E-04    1.65      33.9  T
     SCC iter.                  ...        0 min,  0.125 sec
     gradient                   ...        0 min,  0.008 sec
 * total energy  :   -37.6573224 Eh     change       -0.3226171E-05 Eh
   gradient norm :     0.0004566 Eh/α   predicted    -0.1467519E-05 ( -54.51%)
   displ. norm   :     0.0554874 α      lambda       -0.4160408E-05
   maximum displ.:     0.0318083 α      in ANC's #3, #4, #1, ...

   *** GEOMETRY OPTIMIZATION CONVERGED AFTER 42 ITERATIONS ***

------------------------------------------------------------------------
 total energy gain   :        -0.1196111 Eh      -75.0571 kcal/mol
 total RMSD          :         1.2941515 a0        0.6848 Å
 total power (kW/mol):        -7.4771191 (step)  -25.0076 (real)
------------------------------------------------------------------------

 ANCopt (total)                0 d,  0 h,  0 min, 12.558 sec
 optimizer setup                ...        0 min,  0.001 sec (  0.005%)
 model hessian                  ...        0 min,  0.035 sec (  0.277%)
 ANC generation                 ...        0 min,  0.005 sec (  0.039%)
 coordinate transformation      ...        0 min,  0.001 sec (  0.004%)
 single point calculation       ...        0 min, 12.306 sec ( 97.995%)
 optimization log               ...        0 min,  0.004 sec (  0.033%)
 hessian update                 ...        0 min,  0.161 sec (  1.284%)
 rational function              ...        0 min,  0.042 sec (  0.337%)

================
 final structure:
================
31
 xtb: 6.5.1 (b24c23e)
Zr          -1.33257205180543       -0.01658171668459        0.41153356043550
C           -1.07515246725289        1.14688848484753       -1.45537461061518
C            0.25978495859560       -1.89650255798401        0.87291664513809
C            0.35147795329318       -1.56400319798762       -0.50019819019871
C           -0.87555564016628       -1.91843702804044       -1.11458612326240
C           -1.72708156889787       -2.44680162503931       -0.11379183146300
C           -1.03136720942233       -2.41119097603467        1.11900459043335
H            1.08489626726874       -1.89654115511489        1.57389505672971
H            1.25526345603217       -1.26336583510618       -1.01916080445639
H           -1.06007435040059       -1.94347189832464       -2.18138558298611
H           -2.63750746063076       -3.00187363623173       -0.29880577634066
H           -1.36104320216040       -2.87821016637449        2.04047641277260
C           -0.57810799927023        0.27167975931897        2.78047949935709
C           -1.80412811086941        0.95634780132755        2.65408059200481
C           -1.60435213354082        2.04910927004231        1.76760199851198
C           -0.25680893514598        2.02008645523188        1.33615905425624
C            0.37639921620403        0.91756083260857        1.95584971739416
H           -0.36681818257372       -0.51142062673416        3.49908286641455
H           -2.67522339016989        0.79359115919742        3.28031784666361
H           -2.28791260386792        2.87278600417926        1.60418495038250
H            0.24282673015808        2.79653150889668        0.76974961218834
H            1.44154973509545        0.71646963741419        1.93353982579863
H           -0.01100636528176        1.16489640202152       -1.74714587858595
H           -1.62424887390212        0.71624380216455       -2.30880439797866
H           -1.38926109401568        2.19939010757823       -1.38006918202774
C           -3.77714986782101       -0.48429299972787       -0.15773400291147
C           -3.74832039857118        0.79627165134232        0.24662591305889
H           -4.13510429329071        1.07309970347165        1.22407562381010
H           -3.60518648322963        1.60649653500018       -0.46752043600337
H           -4.17239859639198       -1.25762684537918        0.49967505890040
H           -3.66089739796975       -0.73759389987979       -1.21158768742398

 Bond Distances (Angstroems)
 ---------------------------
Zr1-C2=2.2148        Zr1-C3=2.5065        Zr1-C4=2.4621        Zr1-C5=2.4809        Zr1-C6=2.5175        Zr1-C7=2.5150        
Zr1-C13=2.5028       Zr1-C14=2.4896       Zr1-C15=2.4859       Zr1-C16=2.4820       Zr1-C17=2.4856       Zr1-C26=2.5532       
Zr1-C27=2.5542       C2-Zr1=2.2148        C2-H23=1.1036        C2-H24=1.1024        C2-H25=1.1010        C3-Zr1=2.5065        
C3-C4=1.4158         C3-C7=1.4116         C3-H8=1.0827         C4-Zr1=2.4621        C4-C3=1.4158         C4-C5=1.4173         
C4-H9=1.0847         C5-Zr1=2.4809        C5-C4=1.4173         C5-C6=1.4163         C5-H10=1.0829        C6-Zr1=2.5175        
C6-C5=1.4163         C6-C7=1.4160         C6-H11=1.0822        C7-Zr1=2.5150        C7-C3=1.4116         C7-C6=1.4160         
C7-H12=1.0844        H8-C3=1.0827         H9-C4=1.0847         H10-C5=1.0829        H11-C6=1.0822        H12-C7=1.0844        
C13-Zr1=2.5028       C13-C14=1.4099       C13-C17=1.4171       C13-H18=1.0836       C14-Zr1=2.4896       C14-C13=1.4099       
C14-C15=1.4212       C14-H19=1.0851       C15-Zr1=2.4859       C15-C14=1.4212       C15-C16=1.4152       C15-H20=1.0828       
C16-Zr1=2.4820       C16-C15=1.4152       C16-C17=1.4144       C16-H21=1.0832       C17-Zr1=2.4856       C17-C13=1.4171       
C17-C16=1.4144       C17-H22=1.0842       H18-C13=1.0836       H19-C14=1.0851       H20-C15=1.0828       H21-C16=1.0832       
H22-C17=1.0842       H23-C2=1.1036        H24-C2=1.1024        H25-C2=1.1010        C26-Zr1=2.5532       C26-C27=1.3432       
C26-H30=1.0892       C26-H31=1.0901       C27-Zr1=2.5542       C27-C26=1.3432       C27-H28=1.0870       C27-H29=1.0895       
H28-C27=1.0870       H29-C27=1.0895       H30-C26=1.0892       H31-C26=1.0901       
 C  H  Rav=1.0882 sigma=0.0070  Rmin=1.0822  Rmax=1.1036    17
 C  C  Rav=1.4089 sigma=0.0210  Rmin=1.3432  Rmax=1.4212    11
 Zr C  Rav=2.4808 sigma=0.0811  Rmin=2.2148  Rmax=2.5542    13

 selected bond angles (degree)
 --------------------
C3-Zr1-C2=118.38               C4-Zr1-C2= 86.48               C4-Zr1-C3= 33.10               C5-Zr1-C2= 82.11               
C5-Zr1-C3= 54.64               C5-Zr1-C4= 33.32               C6-Zr1-C2=110.45               C6-Zr1-C3= 54.12               
C6-Zr1-C4= 54.77               C6-Zr1-C5= 32.91               C7-Zr1-C2=136.33               C7-Zr1-C3= 32.65               
C7-Zr1-C4= 54.82               C7-Zr1-C5= 54.63               C7-Zr1-C6= 32.68               C13-Zr1-C2=134.61              
C13-Zr1-C3= 73.78              C13-Zr1-C4=102.52              C13-Zr1-C5=127.95              C13-Zr1-C6=110.85              
C13-Zr1-C7= 78.89              C14-Zr1-C2=125.17              C14-Zr1-C3=104.34              C14-Zr1-C4=135.13              
C14-Zr1-C5=152.70              C14-Zr1-C6=122.38              C14-Zr1-C7= 98.13              C14-Zr1-C13= 32.81             
C15-Zr1-C2= 92.06              C15-Zr1-C3=126.32              C15-Zr1-C4=143.04              C15-Zr1-C5=173.07              
C15-Zr1-C6=154.01              C15-Zr1-C7=130.60              C15-Zr1-C13= 54.62             C15-Zr1-C14= 33.19             
C16-Zr1-C2= 80.36              C16-Zr1-C3=105.75              C16-Zr1-C4=110.93              C16-Zr1-C5=141.11              
C16-Zr1-C6=159.69              C16-Zr1-C7=128.65              C16-Zr1-C13= 54.71             C16-Zr1-C14= 54.96             
C16-Zr1-C15= 33.10             C17-Zr1-C2=104.26              C17-Zr1-C3= 74.38              C17-Zr1-C4= 89.77              
C17-Zr1-C5=122.93              C17-Zr1-C6=126.88              C17-Zr1-C7= 95.78              C17-Zr1-C13= 33.01             
C17-Zr1-C14= 54.81             C17-Zr1-C15= 54.83             C17-Zr1-C16= 33.09             C26-Zr1-C2= 91.12              
C26-Zr1-C3=120.79              C26-Zr1-C4=117.21              C26-Zr1-C5= 84.19              C26-Zr1-C6= 68.07              
C26-Zr1-C7= 90.17              C26-Zr1-C13=121.38             C26-Zr1-C14= 95.23             C26-Zr1-C15= 99.74             
C26-Zr1-C16=130.42             C26-Zr1-C17=149.96             C27-Zr1-C2= 83.59              C27-Zr1-C3=148.37              
C27-Zr1-C4=145.39              C27-Zr1-C5=112.24              C27-Zr1-C6= 98.37              C27-Zr1-C7=115.75              
C27-Zr1-C13=108.03             C27-Zr1-C14= 75.80             C27-Zr1-C15= 70.57             C27-Zr1-C16= 99.95             
C27-Zr1-C17=124.81             C27-Zr1-C26= 30.50             H23-C2-Zr1=110.09              H24-C2-Zr1=112.92              
H24-C2-H23=106.38              H25-C2-Zr1=114.29              H25-C2-H23=106.12              H25-C2-H24=106.52              
C4-C3-Zr1= 71.73               C7-C3-Zr1= 74.01               C7-C3-C4=108.30                H8-C3-Zr1=127.11               
H8-C3-C4=125.35                H8-C3-C7=125.75                C3-C4-Zr1= 75.18               C5-C4-Zr1= 74.07               
C5-C4-C3=107.80                H9-C4-Zr1=124.95               H9-C4-C3=125.67                H9-C4-C5=125.68                
C4-C5-Zr1= 72.61               C6-C5-Zr1= 74.96               C6-C5-C4=107.91                H10-C5-Zr1=126.32              
H10-C5-C4=125.47               H10-C5-C6=125.81               C5-C6-Zr1= 72.13               C7-C6-Zr1= 73.56               
C7-C6-C5=108.08                H11-C6-Zr1=131.50              H11-C6-C5=125.19               H11-C6-C7=125.10               
C3-C7-Zr1= 73.34               C6-C7-Zr1= 73.75               C6-C7-C3=107.87                H12-C7-Zr1=127.78              
H12-C7-C3=125.68               H12-C7-C6=125.42               

 selected dihedral angles (degree)
 ---------------------------------
H23-C2-Zr1-C3=329.92          H23-C2-Zr1-C4=320.77          H23-C2-Zr1-C5=287.56          H23-C2-Zr1-C6=270.54          
H23-C2-Zr1-C7=295.00          H23-C2-Zr1-C13= 64.90         H23-C2-Zr1-C14=106.38         H23-C2-Zr1-C15=103.79         
H23-C2-Zr1-C16= 72.70         H23-C2-Zr1-C17= 49.64         H23-C2-Zr1-C26=203.58         H23-C2-Zr1-C27=173.97         
H24-C2-Zr1-C3= 88.64          H24-C2-Zr1-C4= 79.50          H24-C2-Zr1-C5= 46.29          H24-C2-Zr1-C6= 29.27          
H24-C2-Zr1-C7= 53.73          H24-C2-Zr1-C13=183.63         H24-C2-Zr1-C14=225.11         H24-C2-Zr1-C15=222.52         
H24-C2-Zr1-C16=191.43         H24-C2-Zr1-C17=168.36         H24-C2-Zr1-C26=322.31         H24-C2-Zr1-C27=292.70         
H25-C2-Zr1-C3=210.62          H25-C2-Zr1-C4=201.47          H25-C2-Zr1-C5=168.26          H25-C2-Zr1-C6=151.24          
H25-C2-Zr1-C7=175.70          H25-C2-Zr1-C13=305.60         H25-C2-Zr1-C14=347.08         H25-C2-Zr1-C15=344.49         
H25-C2-Zr1-C16=313.40         H25-C2-Zr1-C17=290.33         H25-C2-Zr1-C26= 84.28         H25-C2-Zr1-C27= 54.67         
C4-C3-Zr1-C2=343.11           C4-C3-Zr1-C5= 38.03           C4-C3-Zr1-C6= 78.81           C4-C3-Zr1-C7=116.01           
C4-C3-Zr1-C13=210.72          C4-C3-Zr1-C14=198.64          C4-C3-Zr1-C15=226.50          C4-C3-Zr1-C16=255.71          
C4-C3-Zr1-C17=245.08          C4-C3-Zr1-C26= 93.46          C4-C3-Zr1-C27=112.53          C7-C3-Zr1-C2=227.10           
C7-C3-Zr1-C4=243.99           C7-C3-Zr1-C5=282.02           C7-C3-Zr1-C6=322.80           C7-C3-Zr1-C13= 94.71          
C7-C3-Zr1-C14= 82.62          C7-C3-Zr1-C15=110.49          C7-C3-Zr1-C16=139.69          C7-C3-Zr1-C17=129.06          
C7-C3-Zr1-C26=337.45          C7-C3-Zr1-C27=356.52          H8-C3-Zr1-C2=104.06           H8-C3-Zr1-C4=120.95           
H8-C3-Zr1-C5=158.98           H8-C3-Zr1-C6=199.76           H8-C3-Zr1-C7=236.96           H8-C3-Zr1-C13=331.67          
H8-C3-Zr1-C14=319.58          H8-C3-Zr1-C15=347.45          H8-C3-Zr1-C16= 16.65          H8-C3-Zr1-C17=  6.02          
H8-C3-Zr1-C26=214.41          H8-C3-Zr1-C27=233.48          C3-C4-Zr1-C2=165.16           C3-C4-Zr1-C5=246.15           
C3-C4-Zr1-C6=283.33           C3-C4-Zr1-C7=323.61           C3-C4-Zr1-C13= 30.16          C3-C4-Zr1-C14= 26.03          
C3-C4-Zr1-C15= 76.41          C3-C4-Zr1-C16= 86.88          C3-C4-Zr1-C17= 60.85          C3-C4-Zr1-C26=254.61          
C3-C4-Zr1-C27=238.53          C5-C4-Zr1-C2=279.01           C5-C4-Zr1-C3=113.85           C5-C4-Zr1-C6= 37.18           
C5-C4-Zr1-C7= 77.46           C5-C4-Zr1-C13=144.01          C5-C4-Zr1-C14=139.88          C5-C4-Zr1-C15=190.26          
C5-C4-Zr1-C16=200.73          C5-C4-Zr1-C17=174.70          C5-C4-Zr1-C26=  8.46          C5-C4-Zr1-C27=352.38          
H9-C4-Zr1-C2= 41.73           H9-C4-Zr1-C3=236.57           H9-C4-Zr1-C5=122.72           H9-C4-Zr1-C6=159.90           
H9-C4-Zr1-C7=200.18           H9-C4-Zr1-C13=266.73          H9-C4-Zr1-C14=262.60          H9-C4-Zr1-C15=312.98          
H9-C4-Zr1-C16=323.45          H9-C4-Zr1-C17=297.42          H9-C4-Zr1-C26=131.18          H9-C4-Zr1-C27=115.10          
Zr1-C4-C3-C7= 65.49           Zr1-C4-C3-H8=236.99           C5-C4-C3-Zr1=292.53           C5-C4-C3-C7=358.02            
C5-C4-C3-H8=169.52            H9-C4-C3-Zr1=122.65           H9-C4-C3-C7=188.14            H9-C4-C3-H8=359.64            
C4-C5-Zr1-C2= 95.61           C4-C5-Zr1-C3=322.24           C4-C5-Zr1-C6=245.30           C4-C5-Zr1-C7=281.91           
C4-C5-Zr1-C13=313.32          C4-C5-Zr1-C14=277.70          C4-C5-Zr1-C15= 62.63          C4-C5-Zr1-C16= 31.78          
C4-C5-Zr1-C17=353.69          C4-C5-Zr1-C26=187.56          C4-C5-Zr1-C27=175.33          C6-C5-Zr1-C2=210.31           
C6-C5-Zr1-C3= 76.93           C6-C5-Zr1-C4=114.70           C6-C5-Zr1-C7= 36.60           C6-C5-Zr1-C13= 68.02          
C6-C5-Zr1-C14= 32.39          C6-C5-Zr1-C15=177.32          C6-C5-Zr1-C16=146.47          C6-C5-Zr1-C17=108.38          
C6-C5-Zr1-C26=302.25          C6-C5-Zr1-C27=290.03          H10-C5-Zr1-C2=333.97          H10-C5-Zr1-C3=200.60          
H10-C5-Zr1-C4=238.36          H10-C5-Zr1-C6=123.67          H10-C5-Zr1-C7=160.27          H10-C5-Zr1-C13=191.68         
H10-C5-Zr1-C14=156.06         H10-C5-Zr1-C15=300.99         H10-C5-Zr1-C16=270.14         H10-C5-Zr1-C17=232.05         
H10-C5-Zr1-C26= 65.92         H10-C5-Zr1-C27= 53.69         Zr1-C5-C4-C3= 68.22           Zr1-C5-C4-H9=238.10           
C6-C5-C4-Zr1=292.76           C6-C5-C4-C3=  0.98            C6-C5-C4-H9=170.86            H10-C5-C4-Zr1=122.61          
H10-C5-C4-C3=190.83           H10-C5-C4-H9=  0.71           C5-C6-Zr1-C2= 32.24           C5-C6-Zr1-C3=281.36           
C5-C6-Zr1-C4=322.34           C5-C6-Zr1-C7=244.20           C5-C6-Zr1-C13=231.48          C5-C6-Zr1-C14=196.92          
C5-C6-Zr1-C15=180.74          C5-C6-Zr1-C16=272.72          C5-C6-Zr1-C17=264.75          C5-C6-Zr1-C26=114.91          
C5-C6-Zr1-C27=118.48          C7-C6-Zr1-C2=148.04           C7-C6-Zr1-C3= 37.16           C7-C6-Zr1-C4= 78.14           
C7-C6-Zr1-C5=115.80           C7-C6-Zr1-C13=347.28          C7-C6-Zr1-C14=312.72          C7-C6-Zr1-C15=296.53          
C7-C6-Zr1-C16= 28.51          C7-C6-Zr1-C17= 20.55          C7-C6-Zr1-C26=230.71          C7-C6-Zr1-C27=234.27          
H11-C6-Zr1-C2=270.69          H11-C6-Zr1-C3=159.81          H11-C6-Zr1-C4=200.79          H11-C6-Zr1-C5=238.45          
H11-C6-Zr1-C7=122.65          H11-C6-Zr1-C13=109.93         H11-C6-Zr1-C14= 75.37         H11-C6-Zr1-C15= 59.19         
H11-C6-Zr1-C16=151.17         H11-C6-Zr1-C17=143.20         H11-C6-Zr1-C26=353.36         H11-C6-Zr1-C27=356.93         
Zr1-C6-C5-C4= 65.67           Zr1-C6-C5-H10=235.77          C7-C6-C5-Zr1=294.71           C7-C6-C5-C4=  0.38            
C7-C6-C5-H10=170.49           H11-C6-C5-Zr1=128.65          H11-C6-C5-C4=194.31           H11-C6-C5-H10=  4.42          
C3-C7-Zr1-C2= 68.96           C3-C7-Zr1-C4= 36.90           C3-C7-Zr1-C5= 78.02           C3-C7-Zr1-C6=114.88           
C3-C7-Zr1-C13=282.78          C3-C7-Zr1-C14=256.07          C3-C7-Zr1-C15=263.79          C3-C7-Zr1-C16=307.13          
C3-C7-Zr1-C17=311.27          C3-C7-Zr1-C26=160.77          C3-C7-Zr1-C27=177.97          C6-C7-Zr1-C2=314.08           
C6-C7-Zr1-C3=245.12           C6-C7-Zr1-C4=282.02           C6-C7-Zr1-C5=323.14           C6-C7-Zr1-C13=167.90          
C6-C7-Zr1-C14=141.19          C6-C7-Zr1-C15=148.91          C6-C7-Zr1-C16=192.25          C6-C7-Zr1-C17=196.39          
C6-C7-Zr1-C26= 45.88          C6-C7-Zr1-C27= 63.09          H12-C7-Zr1-C2=191.54          H12-C7-Zr1-C3=122.57          
H12-C7-Zr1-C4=159.47          H12-C7-Zr1-C5=200.59          H12-C7-Zr1-C6=237.46          H12-C7-Zr1-C13= 45.35         
H12-C7-Zr1-C14= 18.64         H12-C7-Zr1-C15= 26.36         H12-C7-Zr1-C16= 69.71         H12-C7-Zr1-C17= 73.84         
H12-C7-Zr1-C26=283.34         H12-C7-Zr1-C27=300.55         Zr1-C7-C3-C4=296.00           Zr1-C7-C3-H8=124.54           
C6-C7-C3-Zr1= 66.22           C6-C7-C3-C4=  2.21            C6-C7-C3-H8=190.76            H12-C7-C3-Zr1=235.08          
H12-C7-C3-C4=171.07           H12-C7-C3-H8=359.62           Zr1-C7-C6-C5= 64.35           Zr1-C7-C6-H11=230.42          
C3-C7-C6-Zr1=294.06           C3-C7-C6-C5=358.40            C3-C7-C6-H11=164.48           H12-C7-C6-Zr1=125.16          
H12-C7-C6-C5=189.50           H12-C7-C6-H11=355.58          

 CMA Distance (Angstroems)
 ---------------------------
R(CMA):  2.9060
           -------------------------------------------------
          |                Final Singlepoint                |
           -------------------------------------------------

          ...................................................
          :                      SETUP                      :
          :.................................................:
          :  # basis functions                  79          :
          :  # atomic orbitals                  78          :
          :  # shells                           46          :
          :  # electrons                        72          :
          :  max. iterations                   250          :
          :  Hamiltonian                  GFN2-xTB          :
          :  restarted?                      false          :
          :  GBSA solvation                  false          :
          :  PC potential                    false          :
          :  electronic temp.          300.0000000     K    :
          :  accuracy                    1.0000000          :
          :  -> integral cutoff          0.2500000E+02      :
          :  -> integral neglect         0.1000000E-07      :
          :  -> SCF convergence          0.1000000E-05 Eh   :
          :  -> wf. convergence          0.1000000E-03 e    :
          :  Broyden damping             0.4000000          :
          ...................................................

 iter      E             dE          RMSdq      gap      omega  full diag
   1    -38.3078119 -0.383078E+02  0.120E-04    1.65       0.0  T
   2    -38.3078119 -0.535394E-10  0.108E-04    1.65     166.7  T
   3    -38.3078119 -0.798082E-10  0.732E-05    1.65     245.4  T

   *** convergence criteria satisfied after 3 iterations ***

         #    Occupation            Energy/Eh            Energy/eV
      -------------------------------------------------------------
         1        2.0000           -0.8691305             -23.6502
       ...           ...                  ...                  ...
        30        2.0000           -0.5752926             -15.6545
        31        2.0000           -0.5741316             -15.6229
        32        2.0000           -0.5209813             -14.1766
        33        2.0000           -0.5148530             -14.0099
        34        2.0000           -0.5065661             -13.7844
        35        2.0000           -0.5001975             -13.6111
        36        2.0000           -0.4934539             -13.4276 (HOMO)
        37                         -0.4329355             -11.7808 (LUMO)
        38                         -0.4186771             -11.3928
        39                         -0.4055723             -11.0362
        40                         -0.4041747             -10.9982
        41                         -0.3893594             -10.5950
       ...                                ...                  ...
        78                          2.5388886              69.0867
      -------------------------------------------------------------
                  HL-Gap            0.0605184 Eh            1.6468 eV
             Fermi-level           -0.4631947 Eh          -12.6042 eV

 SCC (total)                   0 d,  0 h,  0 min,  0.175 sec
 SCC setup                      ...        0 min,  0.005 sec (  2.837%)
 Dispersion                     ...        0 min,  0.000 sec (  0.064%)
 classical contributions        ...        0 min,  0.009 sec (  4.883%)
 integral evaluation            ...        0 min,  0.001 sec (  0.751%)
 iterations                     ...        0 min,  0.087 sec ( 49.880%)
 molecular gradient             ...        0 min,  0.073 sec ( 41.488%)
 printout                       ...        0 min,  0.000 sec (  0.085%)

         :::::::::::::::::::::::::::::::::::::::::::::::::::::
         ::                     SUMMARY                     ::
         :::::::::::::::::::::::::::::::::::::::::::::::::::::
         :: total energy             -37.657322389811 Eh    ::
         :: gradient norm              0.000457989068 Eh/a0 ::
         :: HOMO-LUMO gap              1.646788201998 eV    ::
         ::.................................................::
         :: SCC energy               -38.307811882598 Eh    ::
         :: -> isotropic ES            0.092593057517 Eh    ::
         :: -> anisotropic ES         -0.013046598973 Eh    ::
         :: -> anisotropic XC          0.021779027577 Eh    ::
         :: -> dispersion             -0.028081696256 Eh    ::
         :: repulsion energy           0.649731226717 Eh    ::
         :: add. restraining           0.000049170583 Eh    ::
         :: total charge               1.000000000000 e     ::
         :::::::::::::::::::::::::::::::::::::::::::::::::::::

           -------------------------------------------------
          |                Property Printout                |
           -------------------------------------------------

    * Orbital Energies and Occupations

         #    Occupation            Energy/Eh            Energy/eV
      -------------------------------------------------------------
         1        2.0000           -0.8691305             -23.6502
       ...           ...                  ...                  ...
        24        2.0000           -0.5906244             -16.0717
        25        2.0000           -0.5894023             -16.0385
        26        2.0000           -0.5871943             -15.9784
        27        2.0000           -0.5864406             -15.9579
        28        2.0000           -0.5847862             -15.9128
        29        2.0000           -0.5838164             -15.8865
        30        2.0000           -0.5752926             -15.6545
        31        2.0000           -0.5741316             -15.6229
        32        2.0000           -0.5209813             -14.1766
        33        2.0000           -0.5148530             -14.0099
        34        2.0000           -0.5065661             -13.7844
        35        2.0000           -0.5001975             -13.6111
        36        2.0000           -0.4934539             -13.4276 (HOMO)
        37                         -0.4329355             -11.7808 (LUMO)
        38                         -0.4186771             -11.3928
        39                         -0.4055723             -11.0362
        40                         -0.4041747             -10.9982
        41                         -0.3893594             -10.5950
        42                         -0.3782407             -10.2925
        43                         -0.3038435              -8.2680
        44                         -0.3037384              -8.2651
        45                         -0.3011173              -8.1938
        46                         -0.2979489              -8.1076
        47                         -0.0601913              -1.6379
       ...                                ...                  ...
        78                          2.5388886              69.0867
      -------------------------------------------------------------
                  HL-Gap            0.0605184 Eh            1.6468 eV
             Fermi-level           -0.4631947 Eh          -12.6042 eV

     #   Z          covCN         q      C6AA      α(0)
     1  40 Zr       9.617     0.928   139.433    17.743
     2   6 C        3.574    -0.336    28.617     7.778
     3   6 C        3.742    -0.080    22.108     6.708
     4   6 C        3.758    -0.083    22.133     6.707
     5   6 C        3.750    -0.086    22.199     6.719
     6   6 C        3.735    -0.096    22.418     6.757
     7   6 C        3.731    -0.090    22.311     6.742
     8   1 H        0.925     0.083     1.952     2.185
     9   1 H        0.925     0.087     1.907     2.159
    10   1 H        0.925     0.084     1.938     2.177
    11   1 H        0.925     0.069     2.099     2.266
    12   1 H        0.925     0.073     2.052     2.240
    13   6 C        3.741    -0.083    22.160     6.716
    14   6 C        3.745    -0.095    22.387     6.750
    15   6 C        3.750    -0.096    22.389     6.748
    16   6 C        3.748    -0.079    22.076     6.701
    17   6 C        3.750    -0.085    22.182     6.717
    18   1 H        0.925     0.080     1.983     2.202
    19   1 H        0.925     0.066     2.131     2.283
    20   1 H        0.925     0.076     2.018     2.222
    21   1 H        0.925     0.091     1.866     2.136
    22   1 H        0.925     0.082     1.957     2.188
    23   1 H        0.930     0.060     2.200     2.319
    24   1 H        0.927     0.053     2.287     2.365
    25   1 H        0.926     0.054     2.265     2.353
    26   6 C        3.534    -0.093    23.548     7.124
    27   6 C        3.534    -0.094    23.562     7.126
    28   1 H        0.925     0.123     1.588     1.970
    29   1 H        0.926     0.140     1.459     1.889
    30   1 H        0.925     0.116     1.646     2.006
    31   1 H        0.926     0.130     1.534     1.937

 Mol. C6AA /au·bohr⁶  :       9507.510224
 Mol. C8AA /au·bohr⁸  :     322839.546732
 Mol. α(0) /au        :        143.935328


Wiberg/Mayer (AO) data.
largest (>0.10) Wiberg bond orders for each atom

 ---------------------------------------------------------------------------
     #   Z sym  total        # sym  WBO       # sym  WBO       # sym  WBO
 ---------------------------------------------------------------------------
     1  40 Zr   4.300 --     2 C    0.877     4 C    0.263    16 C    0.247
                            17 C    0.246     5 C    0.239    15 C    0.236
                             6 C    0.224    14 C    0.224     3 C    0.223
                             7 C    0.218    13 C    0.215    26 C    0.203
                            27 C    0.201
     2   6 C    3.808 --    25 H    0.925    24 H    0.922    23 H    0.912
                             1 Zr   0.877
     3   6 C    3.982 --     7 C    1.325     4 C    1.295     8 H    0.928
                             1 Zr   0.223
     4   6 C    3.982 --     5 C    1.295     3 C    1.295     9 H    0.919
                             1 Zr   0.263
     5   6 C    3.981 --     6 C    1.295     4 C    1.295    10 H    0.927
                             1 Zr   0.239
     6   6 C    3.979 --     7 C    1.296     5 C    1.295    11 H    0.933
                             1 Zr   0.224
     7   6 C    3.979 --     3 C    1.325     6 C    1.296    12 H    0.927
                             1 Zr   0.218
     8   1 H    0.991 --     3 C    0.928
     9   1 H    0.990 --     4 C    0.919
    10   1 H    0.990 --     5 C    0.927
    11   1 H    0.993 --     6 C    0.933
    12   1 H    0.992 --     7 C    0.927
    13   6 C    3.981 --    14 C    1.330    17 C    1.298    18 H    0.928
                             1 Zr   0.215
    14   6 C    3.978 --    13 C    1.330    15 C    1.280    19 H    0.927
                             1 Zr   0.224
    15   6 C    3.978 --    16 C    1.301    14 C    1.280    20 H    0.930
                             1 Zr   0.236
    16   6 C    3.983 --    15 C    1.301    17 C    1.300    21 H    0.923
                             1 Zr   0.247
    17   6 C    3.982 --    16 C    1.300    13 C    1.298    22 H    0.924
                             1 Zr   0.246
    18   1 H    0.993 --    13 C    0.928
    19   1 H    0.994 --    14 C    0.927
    20   1 H    0.991 --    15 C    0.930
    21   1 H    0.989 --    16 C    0.923
    22   1 H    0.991 --    17 C    0.924
    23   1 H    0.996 --     2 C    0.912
    24   1 H    0.996 --     2 C    0.922
    25   1 H    0.996 --     2 C    0.925
    26   6 C    3.988 --    27 C    1.805    30 H    0.924    31 H    0.910
                             1 Zr   0.203
    27   6 C    3.982 --    26 C    1.805    28 H    0.925    29 H    0.906
                             1 Zr   0.201
    28   1 H    0.983 --    27 C    0.925
    29   1 H    0.979 --    27 C    0.906
    30   1 H    0.986 --    26 C    0.924
    31   1 H    0.982 --    26 C    0.910
 ---------------------------------------------------------------------------

Topologies differ in total number of bonds
Writing topology from bond orders to xtbtopo.mol

molecular dipole:
                 x           y           z       tot (Debye)
 q only:       -3.917      -0.075       0.819
   full:       -4.077      -0.183       0.925      10.637
molecular quadrupole (traceless):
                xx          xy          yy          xz          yz          zz
 q only:       22.151      -0.268     -11.255      -3.054      -0.618     -10.896
  q+dip:       22.096       1.577     -13.582      -5.537      -5.240      -8.513
   full:       23.628       1.526     -13.645      -5.281      -3.445      -9.983

           -------------------------------------------------
          |                Geometry Summary                 |
           -------------------------------------------------

      molecular mass/u    :      264.4982010
   center of mass at/Å    :       -1.2581300      -0.1204039       0.5905200
  moments of inertia/u·Å² :        0.5810330E+03   0.7509565E+03   0.9031099E+03
rotational constants/cm⁻¹ :        0.2901321E-01   0.2244821E-01   0.1866620E-01

 * 41 selected distances

     #   Z          #   Z                                           value/Å
     1  40 Zr       2   6 C                                       2.2147855
     1  40 Zr       3   6 C                                       2.5065073
     1  40 Zr       4   6 C                                       2.4620710
     3   6 C        4   6 C                                       1.4157712
     1  40 Zr       5   6 C                                       2.4809192
     4   6 C        5   6 C                                       1.4172889
     1  40 Zr       6   6 C                                       2.5174540
     5   6 C        6   6 C                                       1.4162822
     1  40 Zr       7   6 C                                       2.5150337
     3   6 C        7   6 C                                       1.4115728
     6   6 C        7   6 C                                       1.4160063
     3   6 C        8   1 H                                       1.0826724
     4   6 C        9   1 H                                       1.0846813
     5   6 C       10   1 H                                       1.0829290
     6   6 C       11   1 H                                       1.0822248 (min)
     7   6 C       12   1 H                                       1.0843909
     1  40 Zr      13   6 C                                       2.5028417
     1  40 Zr      14   6 C                                       2.4895733
    13   6 C       14   6 C                                       1.4099194
     1  40 Zr      15   6 C                                       2.4859337
    14   6 C       15   6 C                                       1.4212258
     1  40 Zr      16   6 C                                       2.4819784
    15   6 C       16   6 C                                       1.4152238
     1  40 Zr      17   6 C                                       2.4855822
    13   6 C       17   6 C                                       1.4171313
    16   6 C       17   6 C                                       1.4144017
    13   6 C       18   1 H                                       1.0836423
    14   6 C       19   1 H                                       1.0851129
    15   6 C       20   1 H                                       1.0827759
    16   6 C       21   1 H                                       1.0832002
    17   6 C       22   1 H                                       1.0841961
     2   6 C       23   1 H                                       1.1035678
     2   6 C       24   1 H                                       1.1024084
     2   6 C       25   1 H                                       1.1009519
     1  40 Zr      26   6 C                                       2.5531904
     1  40 Zr      27   6 C                                       2.5541665 (max)
    26   6 C       27   6 C                                       1.3431993
    27   6 C       28   1 H                                       1.0870344
    27   6 C       29   1 H                                       1.0894755
    26   6 C       30   1 H                                       1.0892445
    26   6 C       31   1 H                                       1.0900843

 * 3 distinct bonds (by element types)

   Z      Z             #   av. dist./Å        max./Å        min./Å
   1 H    6 C          17     1.0881525     1.1035678     1.0822248
   6 C    6 C          11     1.4089111     1.4212258     1.3431993
   6 C   40 Zr         13     2.4807721     2.5541665     2.2147855


optimized geometry written to: xtbopt.xyz


           -------------------------------------------------
          | TOTAL ENERGY              -37.657322389811 Eh   |
          | GRADIENT NORM               0.000457989068 Eh/α |
          | HOMO-LUMO GAP               1.646788201998 eV   |
           -------------------------------------------------

------------------------------------------------------------------------
 * finished run on 2026/07/21 at 14:37:32.166     
------------------------------------------------------------------------
 total:
 * wall-time:     0 d,  0 h,  0 min, 13.623 sec
 *  cpu-time:     0 d,  0 h,  1 min, 44.310 sec
 * ratio c/w:     7.657 speedup
 SCF:
 * wall-time:     0 d,  0 h,  0 min,  0.758 sec
 *  cpu-time:     0 d,  0 h,  0 min,  5.734 sec
 * ratio c/w:     7.562 speedup
 ANC optimizer:
 * wall-time:     0 d,  0 h,  0 min, 12.745 sec
 *  cpu-time:     0 d,  0 h,  1 min, 37.687 sec
 * ratio c/w:     7.665 speedup

