31
 energy: -37.657322389811 gnorm: 0.000457989068 xtb: 6.5.1 (b24c23e)
Zr          -1.33257205180543       -0.01658171668459        0.41153356043550
C           -1.07515246725289        1.14688848484753       -1.45537461061518
C            0.25978495859560       -1.89650255798401        0.87291664513809
C            0.35147795329318       -1.56400319798762       -0.50019819019871
C           -0.87555564016628       -1.91843702804044       -1.11458612326240
C           -1.72708156889787       -2.44680162503931       -0.11379183146300
C           -1.03136720942233       -2.41119097603467        1.11900459043335
H            1.08489626726874       -1.89654115511489        1.57389505672971
H            1.25526345603217       -1.26336583510618       -1.01916080445639
H           -1.06007435040059       -1.94347189832464       -2.18138558298611
H           -2.63750746063076       -3.00187363623173       -0.29880577634066
H           -1.36104320216040       -2.87821016637449        2.04047641277260
C           -0.57810799927023        0.27167975931897        2.78047949935709
C           -1.80412811086941        0.95634780132755        2.65408059200481
C           -1.60435213354082        2.04910927004231        1.76760199851198
C           -0.25680893514598        2.02008645523188        1.33615905425624
C            0.37639921620403        0.91756083260857        1.95584971739416
H           -0.36681818257372       -0.51142062673416        3.49908286641455
H           -2.67522339016989        0.79359115919742        3.28031784666361
H           -2.28791260386792        2.87278600417926        1.60418495038250
H            0.24282673015808        2.79653150889668        0.76974961218834
H            1.44154973509545        0.71646963741419        1.93353982579863
H           -0.01100636528176        1.16489640202152       -1.74714587858595
H           -1.62424887390212        0.71624380216455       -2.30880439797866
H           -1.38926109401568        2.19939010757823       -1.38006918202774
C           -3.77714986782101       -0.48429299972787       -0.15773400291147
C           -3.74832039857118        0.79627165134232        0.24662591305889
H           -4.13510429329071        1.07309970347165        1.22407562381010
H           -3.60518648322963        1.60649653500018       -0.46752043600337
H           -4.17239859639198       -1.25762684537918        0.49967505890040
H           -3.66089739796975       -0.73759389987979       -1.21158768742398
