31
 energy: -37.660887772609 gnorm: 0.000368736267 xtb: 6.5.1 (b24c23e)
Zr          -1.18394974032834       -0.04730793346104        0.41181536417203
C           -1.04183896780911        1.15182380404775       -1.43649752127740
C            0.45114032985564       -1.90489530597473        0.73821529908374
C            0.36486954487923       -1.61513689633145       -0.64352676361318
C           -0.94032940044511       -1.96952640891467       -1.08216104567692
C           -1.65551475949759       -2.46368908007410        0.03787978706201
C           -0.79795645309002       -2.41413972739264        1.16164612893740
H            1.35764856137725       -1.88194597451015        1.33117603682169
H            1.19399766085750       -1.34069022736399       -1.28686098076058
H           -1.26090876602193       -2.02323941535683       -2.11590006513502
H           -2.60004671103249       -2.99311550959804       -0.00160664375457
H           -1.00399175203679       -2.86250810454913        2.12666673416839
C           -0.68054753993176        0.21672446470798        2.84024230842121
C           -1.88525239296324        0.90537551140378        2.56627042128630
C           -1.57785818853540        1.99349201862611        1.70679660253038
C           -0.18562074288271        1.95747510748031        1.43680789646000
C            0.36591585956965        0.85815400881521        2.13588032948865
H           -0.55417358678968       -0.56154703199346        3.58351541275991
H           -2.82543980003456        0.74898798631645        3.08563368616671
H           -2.23413613656363        2.81681656499203        1.45308079357833
H            0.37773232230340        2.72871441084930        0.92445312001556
H            1.42478917369656        0.65209475348568        2.24275682067255
H            0.01390937095845        1.21709104327283       -1.75479268154560
H           -1.59282539827154        0.71743697552216       -2.28605253428090
H           -1.39267703046054        2.18982406713459       -1.33186997256882
C           -3.86495307004853       -0.36467002031497       -0.05744896870393
C           -3.98088742360516        0.96252963020132        0.00974648425561
H           -4.29940833456571        1.45961453564341        0.91867910799683
H           -3.89923242951825        1.58196095912801       -0.87671444739159
H           -4.12573783675901       -0.98919860291381        0.79797706863605
H           -3.75179672228791       -0.85697065287859       -1.02272345780596
