      -----------------------------------------------------------      
     |                   =====================                   |     
     |                           x T B                           |     
     |                   =====================                   |     
     |                         S. Grimme                         |     
     |          Mulliken Center for Theoretical Chemistry        |     
     |                    University of Bonn                     |     
      -----------------------------------------------------------      

   * xtb version 6.5.1 (b24c23e) compiled by 'conda@728c89f4b128' on 2022-07-12

   xtb is free software: you can redistribute it and/or modify it under
   the terms of the GNU Lesser General Public License as published by
   the Free Software Foundation, either version 3 of the License, or
   (at your option) any later version.
   
   xtb is distributed in the hope that it will be useful,
   but WITHOUT ANY WARRANTY; without even the implied warranty of
   MERCHANTABILITY or FITNESS FOR A PARTICULAR PURPOSE.  See the
   GNU Lesser General Public License for more details.
   
   Cite this work as:
   * C. Bannwarth, E. Caldeweyher, S. Ehlert, A. Hansen, P. Pracht,
     J. Seibert, S. Spicher, S. Grimme, WIREs Comput. Mol. Sci., 2020, 11,
     e01493. DOI: 10.1002/wcms.1493
   
   for GFN2-xTB:
   * C. Bannwarth, S. Ehlert and S. Grimme., J. Chem. Theory Comput., 2019,
     15, 1652-1671. DOI: 10.1021/acs.jctc.8b01176
   for GFN1-xTB:
   * S. Grimme, C. Bannwarth, P. Shushkov, J. Chem. Theory Comput., 2017,
     13, 1989-2009. DOI: 10.1021/acs.jctc.7b00118
   for GFN0-xTB:
   * P. Pracht, E. Caldeweyher, S. Ehlert, S. Grimme, ChemRxiv, 2019, preprint.
     DOI: 10.26434/chemrxiv.8326202.v1
   for GFN-FF:
   * S. Spicher and S. Grimme, Angew. Chem. Int. Ed., 2020, 59, 15665-15673.
     DOI: 10.1002/anie.202004239
   
   for ALPB and GBSA implicit solvation:
   * S. Ehlert, M. Stahn, S. Spicher, S. Grimme, J. Chem. Theory Comput.,
     2021, 17, 4250-4261. DOI: 10.1021/acs.jctc.1c00471
   
   for DFT-D4:
   * E. Caldeweyher, C. Bannwarth and S. Grimme, J. Chem. Phys., 2017,
     147, 034112. DOI: 10.1063/1.4993215
   * E. Caldeweyher, S. Ehlert, A. Hansen, H. Neugebauer, S. Spicher,
     C. Bannwarth and S. Grimme, J. Chem. Phys., 2019, 150, 154122.
     DOI: 10.1063/1.5090222
   * E. Caldeweyher, J.-M. Mewes, S. Ehlert and S. Grimme, Phys. Chem. Chem. Phys.
     2020, 22, 8499-8512. DOI: 10.1039/D0CP00502A
   
   for sTDA-xTB:
   * S. Grimme and C. Bannwarth, J. Chem. Phys., 2016, 145, 054103.
     DOI: 10.1063/1.4959605
   
   in the mass-spec context:
   * V. Asgeirsson, C. Bauer and S. Grimme, Chem. Sci., 2017, 8, 4879.
     DOI: 10.1039/c7sc00601b
   * J. Koopman and S. Grimme, ACS Omega 2019, 4, 12, 15120-15133.
     DOI: 10.1021/acsomega.9b02011
   
   for metadynamics refer to:
   * S. Grimme, J. Chem. Theory Comput., 2019, 155, 2847-2862
     DOI: 10.1021/acs.jctc.9b00143
   
   for SPH calculations refer to:
   * S. Spicher and S. Grimme, J. Chem. Theory Comput., 2021, 17, 1701-1714
     DOI: 10.1021/acs.jctc.0c01306
   
   with help from (in alphabetical order)
   P. Atkinson, C. Bannwarth, F. Bohle, G. Brandenburg, E. Caldeweyher
   M. Checinski, S. Dohm, S. Ehlert, S. Ehrlich, I. Gerasimov, C. Hölzer
   A. Katbashev, J. Koopman, C. Lavigne, S. Lehtola, F. März, M. Müller,
   F. Musil, H. Neugebauer, J. Pisarek, C. Plett, P. Pracht, F. Pultar,
   J. Seibert, P. Shushkov, S. Spicher, M. Stahn, M. Steiner, T. Strunk,
   J. Stückrath, T. Rose, and J. Unsleber
   
 * started run on 2026/07/21 at 14:38:00.075     

           -------------------------------------------------
          |                Calculation Setup                |
           -------------------------------------------------

          program call               : /h/332/chchoi/miniconda3/envs/el-agente/bin/xtb reactant_like.xyz --opt --gfn 2 -P 4 --chrg 1 --uhf 0 --input detailed_input.inp
          coordinate file            : reactant_like.xyz
          omp threads                :                     4

   ID    Z sym.   atoms
    1   40 Zr     1
    2    6 C      2-7, 13-17, 26, 27
    3    1 H      8-12, 18-25, 28-31
constraining bond 1 2 to    2.2500000 Å, actual value:    2.2147855 Å
constraining bond 1 26 to    2.3500000 Å, actual value:    2.5531904 Å
constraining bond 2 27 to    2.2000000 Å, actual value:    3.1883486 Å
constraining bond 26 27 to    1.4200000 Å, actual value:    1.3431993 Å

           -------------------------------------------------
          |                 G F N 2 - x T B                 |
           -------------------------------------------------

        Reference                      10.1021/acs.jctc.8b01176
      * Hamiltonian:
        H0-scaling (s, p, d)           1.850000    2.230000    2.230000
        zeta-weighting                 0.500000
      * Dispersion:
        s8                             2.700000
        a1                             0.520000
        a2                             5.000000
        s9                             5.000000
      * Repulsion:
        kExp                           1.500000    1.000000
        rExp                           1.000000
      * Coulomb:
        alpha                          2.000000
        third order                    shell-resolved
        anisotropic                    true
        a3                             3.000000
        a5                             4.000000
        cn-shift                       1.200000
        cn-exp                         4.000000
        max-rad                        5.000000


          ...................................................
          :                      SETUP                      :
          :.................................................:
          :  # basis functions                  79          :
          :  # atomic orbitals                  78          :
          :  # shells                           46          :
          :  # electrons                        72          :
          :  max. iterations                   250          :
          :  Hamiltonian                  GFN2-xTB          :
          :  restarted?                      false          :
          :  GBSA solvation                  false          :
          :  PC potential                    false          :
          :  electronic temp.          300.0000000     K    :
          :  accuracy                    1.0000000          :
          :  -> integral cutoff          0.2500000E+02      :
          :  -> integral neglect         0.1000000E-07      :
          :  -> SCF convergence          0.1000000E-05 Eh   :
          :  -> wf. convergence          0.1000000E-03 e    :
          :  Broyden damping             0.4000000          :
          ...................................................

 iter      E             dE          RMSdq      gap      omega  full diag
   1    -38.1916118 -0.381916E+02  0.405E+00    1.25       0.0  T
   2    -38.2923535 -0.100742E+00  0.325E+00    1.90       1.0  T
   3    -38.3070170 -0.146635E-01  0.229E+00    1.60       1.0  T
   4    -38.3062399  0.777126E-03  0.450E-01    1.77       1.0  T
   5    -38.3074547 -0.121477E-02  0.311E-01    1.56       1.0  T
   6    -38.3077933 -0.338615E-03  0.159E-01    1.61       1.0  T
   7    -38.3077440  0.493059E-04  0.894E-02    1.62       1.0  T
   8    -38.3078094 -0.654777E-04  0.334E-02    1.64       1.0  T
   9    -38.3078112 -0.175198E-05  0.122E-02    1.65       1.5  T
  10    -38.3078115 -0.321145E-06  0.726E-03    1.65       2.5  T
  11    -38.3078119 -0.337479E-06  0.220E-03    1.65       8.2  T
  12    -38.3078119 -0.195125E-07  0.111E-03    1.65      16.1  T
  13    -38.3078119 -0.811782E-08  0.360E-04    1.65      49.9  T
  14    -38.3078119 -0.361545E-09  0.125E-04    1.65     143.5  T

   *** convergence criteria satisfied after 14 iterations ***

         #    Occupation            Energy/Eh            Energy/eV
      -------------------------------------------------------------
         1        2.0000           -0.8691307             -23.6503
       ...           ...                  ...                  ...
        30        2.0000           -0.5752917             -15.6545
        31        2.0000           -0.5741306             -15.6229
        32        2.0000           -0.5209811             -14.1766
        33        2.0000           -0.5148528             -14.0099
        34        2.0000           -0.5065660             -13.7844
        35        2.0000           -0.5001975             -13.6111
        36        2.0000           -0.4934531             -13.4275 (HOMO)
        37                         -0.4329357             -11.7808 (LUMO)
        38                         -0.4186775             -11.3928
        39                         -0.4055726             -11.0362
        40                         -0.4041751             -10.9982
        41                         -0.3893597             -10.5950
       ...                                ...                  ...
        78                          2.5388887              69.0867
      -------------------------------------------------------------
                  HL-Gap            0.0605174 Eh            1.6468 eV
             Fermi-level           -0.4631944 Eh          -12.6042 eV

 SCC (total)                   0 d,  0 h,  0 min,  0.447 sec
 SCC setup                      ...        0 min,  0.004 sec (  0.829%)
 Dispersion                     ...        0 min,  0.001 sec (  0.213%)
 classical contributions        ...        0 min,  0.003 sec (  0.693%)
 integral evaluation            ...        0 min,  0.002 sec (  0.551%)
 iterations                     ...        0 min,  0.429 sec ( 96.049%)
 molecular gradient             ...        0 min,  0.007 sec (  1.597%)
 printout                       ...        0 min,  0.000 sec (  0.060%)

         :::::::::::::::::::::::::::::::::::::::::::::::::::::
         ::                     SUMMARY                     ::
         :::::::::::::::::::::::::::::::::::::::::::::::::::::
         :: total energy             -33.996110660814 Eh    ::
         :: gradient norm              5.331443862603 Eh/a0 ::
         :: HOMO-LUMO gap              1.646761010784 eV    ::
         ::.................................................::
         :: SCC energy               -38.307811882455 Eh    ::
         :: -> isotropic ES            0.092591564756 Eh    ::
         :: -> anisotropic ES         -0.013046580044 Eh    ::
         :: -> anisotropic XC          0.021779068875 Eh    ::
         :: -> dispersion             -0.028081679539 Eh    ::
         :: repulsion energy           0.649731226717 Eh    ::
         :: add. restraining           3.661260899437 Eh    ::
         :: total charge               1.000000000000 e     ::
         :::::::::::::::::::::::::::::::::::::::::::::::::::::

      ----------------------------------------------------------- 
     |                   =====================                   |
     |                        A N C O P T                        |
     |                   =====================                   |
     |               Approximate Normal Coordinate               |
     |                Rational Function Optimizer                |
      ----------------------------------------------------------- 

          ...................................................
          :                      SETUP                      :
          :.................................................:
          :   optimization level            normal          :
          :   max. optcycles                   200          :
          :   ANC micro-cycles                  20          :
          :   degrees of freedom                87          :
          :.................................................:
          :   RF solver                   davidson          :
          :   write xtbopt.log                true          :
          :   linear?                        false          :
          :   energy convergence         0.5000000E-05 Eh   :
          :   grad. convergence          0.1000000E-02 Eh/α :
          :   maximium RF displ.         1.0000000          :
          :   Hlow (freq-cutoff)         0.1000000E-01      :
          :   Hmax (freq-cutoff)         5.0000000          :
          :   S6 in model hess.         20.0000000          :
          ...................................................

generating ANC from model Hessian ...
Using Lindh-Hessian (1995)
 Shifting diagonal of input Hessian by    6.1727653940530050E-002
 Lowest  eigenvalues of input Hessian
    0.010000    0.000000    0.000000    0.000000    0.000000    0.000000
    0.000000    0.062246    0.062393    0.062580    0.063392    0.063520
    0.065655    0.068267    0.068639    0.068897    0.069130    0.069329
 Highest eigenvalues
    1.797128    1.798423    3.505772    3.971736    5.846157    6.430108


........................................................................
.............................. CYCLE    1 ..............................
........................................................................
   1    -38.3078119 -0.383078E+02  0.597E-05    1.65       0.0  T
   2    -38.3078119 -0.258851E-10  0.353E-05    1.65     508.6  T
   3    -38.3078119 -0.234976E-10  0.168E-05    1.65    1069.5  T
     SCC iter.                  ...        0 min,  0.087 sec
     gradient                   ...        0 min,  0.035 sec
 * total energy  :   -33.9961107 Eh     change       -0.1476792E-09 Eh
   gradient norm :     5.3314439 Eh/α   predicted     0.0000000E+00 (-100.00%)
   displ. norm   :     0.6883560 α      lambda       -0.3633528E+01
   maximum displ.:     0.4669164 α      in ANC's #84, #87, #85, ...

........................................................................
.............................. CYCLE    2 ..............................
........................................................................
   1    -38.2428816 -0.382429E+02  0.786E-01    1.28       0.0  T
   2    -38.2436304 -0.748760E-03  0.548E-01    1.48       1.0  T
   3    -38.2431984  0.431989E-03  0.320E-01    1.32       1.0  T
   4    -38.2439291 -0.730697E-03  0.113E-01    1.44       1.0  T
   5    -38.2440041 -0.749778E-04  0.793E-02    1.41       1.0  T
   6    -38.2440645 -0.603918E-04  0.404E-02    1.41       1.0  T
   7    -38.2440733 -0.881821E-05  0.169E-02    1.42       1.1  T
   8    -38.2440739 -0.549605E-06  0.118E-02    1.41       1.5  T
   9    -38.2440744 -0.556544E-06  0.455E-03    1.41       4.0  T
  10    -38.2440745 -0.514935E-07  0.282E-03    1.41       6.4  T
  11    -38.2440745 -0.930725E-08  0.115E-03    1.41      15.6  T
  12    -38.2440745 -0.133185E-07  0.451E-04    1.41      39.8  T
  13    -38.2440745 -0.665786E-09  0.230E-04    1.41      78.0  T
     SCC iter.                  ...        0 min,  0.424 sec
     gradient                   ...        0 min,  0.014 sec
 * total energy  :   -36.6412615 Eh     change       -0.2645151E+01 Eh
   gradient norm :     2.4433194 Eh/α   predicted    -0.2677609E+01 (   1.23%)
   displ. norm   :     0.5255187 α      lambda       -0.1227720E+01
   maximum displ.:     0.4199672 α      in ANC's #84, #87, #65, ...

........................................................................
.............................. CYCLE    3 ..............................
........................................................................
   1    -38.1572017 -0.381572E+02  0.948E-01    1.05       0.0  T
   2    -38.1531977  0.400404E-02  0.103E+00    1.45       1.0  T
   3    -38.1679612 -0.147636E-01  0.453E-01    1.27       1.0  T
   4    -38.1665085  0.145276E-02  0.259E-01    1.24       1.0  T
   5    -38.1681561 -0.164765E-02  0.742E-02    1.25       1.0  T
   6    -38.1681987 -0.426132E-04  0.479E-02    1.25       1.0  T
   7    -38.1682012 -0.249894E-05  0.335E-02    1.26       1.0  T
   8    -38.1682082 -0.693799E-05  0.133E-02    1.25       1.3  T
   9    -38.1682090 -0.774150E-06  0.700E-03    1.26       2.6  T
  10    -38.1682093 -0.323766E-06  0.360E-03    1.25       5.0  T
  11    -38.1682094 -0.825118E-07  0.165E-03    1.26      10.9  T
  12    -38.1682094 -0.971836E-08  0.850E-04    1.26      21.1  T
  13    -38.1682094 -0.467494E-08  0.447E-04    1.25      40.2  T
     SCC iter.                  ...        0 min,  0.443 sec
     gradient                   ...        0 min,  0.026 sec
 * total energy  :   -37.4280606 Eh     change       -0.7867990E+00 Eh
   gradient norm :     0.6772893 Eh/α   predicted    -0.7834048E+00 (  -0.43%)
   displ. norm   :     0.4666659 α      lambda       -0.1799537E+00
   maximum displ.:     0.2874630 α      in ANC's #1, #84, #65, ...

........................................................................
.............................. CYCLE    4 ..............................
........................................................................
   1    -38.1500389 -0.381500E+02  0.777E-01    1.40       0.0  T
   2    -38.1467972  0.324173E-02  0.750E-01    1.53       1.0  T
   3    -38.1558880 -0.909080E-02  0.368E-01    1.45       1.0  T
   4    -38.1558367  0.512347E-04  0.122E-01    1.46       1.0  T
   5    -38.1562017 -0.364997E-03  0.427E-02    1.46       1.0  T
   6    -38.1562013  0.407216E-06  0.309E-02    1.46       1.0  T
   7    -38.1562020 -0.717637E-06  0.178E-02    1.46       1.0  T
   8    -38.1562056 -0.360199E-05  0.738E-03    1.46       2.4  T
   9    -38.1562060 -0.313412E-06  0.366E-03    1.46       4.9  T
  10    -38.1562060 -0.384146E-07  0.165E-03    1.46      10.9  T
  11    -38.1562060 -0.140475E-07  0.648E-04    1.46      27.7  T
  12    -38.1562060 -0.382559E-08  0.336E-04    1.46      53.5  T
     SCC iter.                  ...        0 min,  0.471 sec
     gradient                   ...        0 min,  0.010 sec
 * total energy  :   -37.5278106 Eh     change       -0.9974999E-01 Eh
   gradient norm :     0.1898119 Eh/α   predicted    -0.1095720E+00 (   9.85%)
   displ. norm   :     0.5302319 α      lambda       -0.4568673E-01
   maximum displ.:     0.2273201 α      in ANC's #1, #25, #24, ...

........................................................................
.............................. CYCLE    5 ..............................
........................................................................
   1    -38.1702470 -0.381702E+02  0.725E-01    1.13       0.0  T
   2    -38.1699864  0.260526E-03  0.548E-01    1.33       1.0  T
   3    -38.1727662 -0.277973E-02  0.345E-01    1.18       1.0  T
   4    -38.1731336 -0.367470E-03  0.221E-01    1.22       1.0  T
   5    -38.1740859 -0.952296E-03  0.813E-02    1.22       1.0  T
   6    -38.1741013 -0.153791E-04  0.480E-02    1.22       1.0  T
   7    -38.1741220 -0.206950E-04  0.216E-02    1.23       1.0  T
   8    -38.1741230 -0.104464E-05  0.113E-02    1.23       1.6  T
   9    -38.1741236 -0.577159E-06  0.493E-03    1.23       3.6  T
  10    -38.1741238 -0.200465E-06  0.255E-03    1.23       7.1  T
  11    -38.1741239 -0.496093E-07  0.139E-03    1.23      12.9  T
  12    -38.1741239 -0.122411E-07  0.380E-04    1.23      47.3  T
  13    -38.1741239 -0.160018E-08  0.219E-04    1.23      82.1  T
     SCC iter.                  ...        0 min,  0.361 sec
     gradient                   ...        0 min,  0.011 sec
 * total energy  :   -37.5483749 Eh     change       -0.2056431E-01 Eh
   gradient norm :     0.2698153 Eh/α   predicted    -0.2926579E-01 (  42.31%)
   displ. norm   :     0.7769773 α      lambda       -0.6604494E-01
   maximum displ.:     0.5026741 α      in ANC's #1, #24, #25, ...

........................................................................
.............................. CYCLE    6 ..............................
........................................................................
   1    -38.2165786 -0.382166E+02  0.971E-01    1.55       0.0  T
   2    -38.2160601  0.518533E-03  0.674E-01    1.55       1.0  T
   3    -38.2140745  0.198555E-02  0.512E-01    1.53       1.0  T
   4    -38.2186581 -0.458357E-02  0.149E-01    1.57       1.0  T
   5    -38.2189578 -0.299701E-03  0.680E-02    1.54       1.0  T
   6    -38.2189703 -0.124629E-04  0.349E-02    1.54       1.0  T
   7    -38.2189720 -0.173900E-05  0.179E-02    1.54       1.0  T
   8    -38.2189734 -0.140438E-05  0.748E-03    1.54       2.4  T
   9    -38.2189737 -0.266241E-06  0.456E-03    1.54       3.9  T
  10    -38.2189738 -0.108973E-06  0.240E-03    1.54       7.5  T
  11    -38.2189738 -0.561490E-08  0.541E-04    1.54      33.2  T
  12    -38.2189738 -0.352385E-08  0.264E-04    1.54      68.2  T
     SCC iter.                  ...        0 min,  0.360 sec
     gradient                   ...        0 min,  0.011 sec
 * total energy  :   -37.5905746 Eh     change       -0.4219975E-01 Eh
   gradient norm :     0.1672622 Eh/α   predicted    -0.5295804E-01 (  25.49%)
   displ. norm   :     0.4209407 α      lambda       -0.3250446E-01
   maximum displ.:     0.1620132 α      in ANC's #57, #60, #24, ...

........................................................................
.............................. CYCLE    7 ..............................
........................................................................
   1    -38.2449129 -0.382449E+02  0.650E-01    1.58       0.0  T
   2    -38.2449808 -0.678626E-04  0.396E-01    1.55       1.0  T
   3    -38.2438283  0.115249E-02  0.274E-01    1.61       1.0  T
   4    -38.2451470 -0.131874E-02  0.718E-02    1.57       1.0  T
   5    -38.2452440 -0.969623E-04  0.302E-02    1.57       1.0  T
   6    -38.2452436  0.438595E-06  0.160E-02    1.57       1.1  T
   7    -38.2452455 -0.197060E-05  0.788E-03    1.57       2.3  T
   8    -38.2452459 -0.333984E-06  0.271E-03    1.57       6.6  T
   9    -38.2452459 -0.372082E-07  0.119E-03    1.57      15.1  T
  10    -38.2452459 -0.105621E-07  0.609E-04    1.57      29.5  T
  11    -38.2452459 -0.462144E-09  0.376E-04    1.57      47.7  T
     SCC iter.                  ...        0 min,  0.321 sec
     gradient                   ...        0 min,  0.095 sec
 * total energy  :   -37.6080700 Eh     change       -0.1749536E-01 Eh
   gradient norm :     0.1073048 Eh/α   predicted    -0.1913202E-01 (   9.35%)
   displ. norm   :     0.3370273 α      lambda       -0.1014563E-01
   maximum displ.:     0.1232567 α      in ANC's #25, #4, #3, ...

........................................................................
.............................. CYCLE    8 ..............................
........................................................................
   1    -38.2517419 -0.382517E+02  0.379E-01    1.57       0.0  T
   2    -38.2516710  0.708720E-04  0.289E-01    1.59       1.0  T
   3    -38.2515726  0.983864E-04  0.175E-01    1.57       1.0  T
   4    -38.2520616 -0.488998E-03  0.465E-02    1.59       1.0  T
   5    -38.2520898 -0.281502E-04  0.201E-02    1.59       1.0  T
   6    -38.2520907 -0.950279E-06  0.110E-02    1.59       1.6  T
   7    -38.2520914 -0.708246E-06  0.519E-03    1.58       3.5  T
   8    -38.2520915 -0.913488E-07  0.184E-03    1.58       9.8  T
   9    -38.2520916 -0.420894E-07  0.978E-04    1.58      18.4  T
  10    -38.2520916 -0.597630E-08  0.582E-04    1.58      30.9  T
     SCC iter.                  ...        0 min,  0.294 sec
     gradient                   ...        0 min,  0.007 sec
 * total energy  :   -37.6147088 Eh     change       -0.6638848E-02 Eh
   gradient norm :     0.0695932 Eh/α   predicted    -0.5649022E-02 ( -14.91%)
   displ. norm   :     0.2551275 α      lambda       -0.6178704E-02
   maximum displ.:     0.1016763 α      in ANC's #3, #4, #6, ...

........................................................................
.............................. CYCLE    9 ..............................
........................................................................
   1    -38.2552562 -0.382553E+02  0.235E-01    1.60       0.0  T
   2    -38.2552804 -0.242332E-04  0.132E-01    1.59       1.0  T
   3    -38.2551910  0.894199E-04  0.881E-02    1.61       1.0  T
   4    -38.2553009 -0.109867E-03  0.264E-02    1.60       1.0  T
   5    -38.2553047 -0.379054E-05  0.135E-02    1.59       1.3  T
   6    -38.2553046  0.246542E-07  0.691E-03    1.59       2.6  T
   7    -38.2553050 -0.360980E-06  0.317E-03    1.59       5.7  T
   8    -38.2553051 -0.507922E-07  0.149E-03    1.59      12.0  T
   9    -38.2553051 -0.779560E-08  0.847E-04    1.59      21.2  T
  10    -38.2553051 -0.157328E-08  0.464E-04    1.59      38.7  T
     SCC iter.                  ...        0 min,  0.273 sec
     gradient                   ...        0 min,  0.077 sec
 * total energy  :   -37.6183721 Eh     change       -0.3663277E-02 Eh
   gradient norm :     0.0453336 Eh/α   predicted    -0.3290448E-02 ( -10.18%)
   displ. norm   :     0.1977552 α      lambda       -0.2464385E-02
   maximum displ.:     0.0859196 α      in ANC's #3, #14, #4, ...

........................................................................
.............................. CYCLE   10 ..............................
........................................................................
   1    -38.2555150 -0.382555E+02  0.139E-01    1.61       0.0  T
   2    -38.2555054  0.965898E-05  0.109E-01    1.61       1.0  T
   3    -38.2554984  0.697401E-05  0.685E-02    1.61       1.0  T
   4    -38.2555549 -0.565030E-04  0.145E-02    1.61       1.2  T
   5    -38.2555586 -0.373958E-05  0.698E-03    1.61       2.6  T
   6    -38.2555587 -0.932871E-07  0.373E-03    1.61       4.8  T
   7    -38.2555588 -0.122863E-06  0.159E-03    1.61      11.3  T
   8    -38.2555588  0.565941E-08  0.105E-03    1.61      17.2  T
   9    -38.2555588 -0.101699E-07  0.452E-04    1.61      39.7  T
  10    -38.2555588 -0.378165E-09  0.285E-04    1.61      63.1  T
     SCC iter.                  ...        0 min,  0.316 sec
     gradient                   ...        0 min,  0.007 sec
 * total energy  :   -37.6204669 Eh     change       -0.2094786E-02 Eh
   gradient norm :     0.0422694 Eh/α   predicted    -0.1280423E-02 ( -38.88%)
   displ. norm   :     0.4905256 α      lambda       -0.5223726E-02
   maximum displ.:     0.2179238 α      in ANC's #3, #9, #4, ...

........................................................................
.............................. CYCLE   11 ..............................
........................................................................
   1    -38.2552814 -0.382553E+02  0.301E-01    1.65       0.0  T
   2    -38.2552316  0.498436E-04  0.240E-01    1.66       1.0  T
   3    -38.2552796 -0.480627E-04  0.150E-01    1.65       1.0  T
   4    -38.2554938 -0.214143E-03  0.349E-02    1.66       1.0  T
   5    -38.2555145 -0.206933E-04  0.160E-02    1.66       1.1  T
   6    -38.2555150 -0.585242E-06  0.912E-03    1.66       2.0  T
   7    -38.2555157 -0.666199E-06  0.402E-03    1.66       4.5  T
   8    -38.2555157  0.165666E-07  0.255E-03    1.66       7.0  T
   9    -38.2555157 -0.470533E-07  0.105E-03    1.66      17.2  T
  10    -38.2555157 -0.163077E-08  0.620E-04    1.66      29.0  T
  11    -38.2555157 -0.645500E-09  0.206E-04    1.66      87.1  T
     SCC iter.                  ...        0 min,  0.307 sec
     gradient                   ...        0 min,  0.005 sec
 * total energy  :   -37.6243024 Eh     change       -0.3835506E-02 Eh
   gradient norm :     0.0307377 Eh/α   predicted    -0.3240332E-02 ( -15.52%)
   displ. norm   :     0.4535757 α      lambda       -0.3315037E-02
   maximum displ.:     0.2152091 α      in ANC's #3, #4, #9, ...

........................................................................
.............................. CYCLE   12 ..............................
........................................................................
   1    -38.2548051 -0.382548E+02  0.267E-01    1.71       0.0  T
   2    -38.2547456  0.594893E-04  0.223E-01    1.72       1.0  T
   3    -38.2549022 -0.156592E-03  0.132E-01    1.71       1.0  T
   4    -38.2550196 -0.117390E-03  0.288E-02    1.72       1.0  T
   5    -38.2550319 -0.122750E-04  0.143E-02    1.71       1.3  T
   6    -38.2550325 -0.612580E-06  0.805E-03    1.71       2.2  T
   7    -38.2550329 -0.427284E-06  0.373E-03    1.71       4.8  T
   8    -38.2550329  0.541417E-08  0.213E-03    1.71       8.4  T
   9    -38.2550330 -0.326870E-07  0.900E-04    1.71      19.9  T
  10    -38.2550330 -0.133178E-08  0.518E-04    1.71      34.6  T
     SCC iter.                  ...        0 min,  0.244 sec
     gradient                   ...        0 min,  0.006 sec
 * total energy  :   -37.6268795 Eh     change       -0.2577065E-02 Eh
   gradient norm :     0.0403054 Eh/α   predicted    -0.1998527E-02 ( -22.45%)
   displ. norm   :     0.4623069 α      lambda       -0.3744077E-02
   maximum displ.:     0.2190441 α      in ANC's #3, #4, #9, ...

........................................................................
.............................. CYCLE   13 ..............................
........................................................................
   1    -38.2598121 -0.382598E+02  0.221E-01    1.79       0.0  T
   2    -38.2598092  0.289549E-05  0.157E-01    1.78       1.0  T
   3    -38.2596908  0.118341E-03  0.107E-01    1.79       1.0  T
   4    -38.2598951 -0.204281E-03  0.279E-02    1.79       1.0  T
   5    -38.2599025 -0.736971E-05  0.132E-02    1.78       1.4  T
   6    -38.2599029 -0.372757E-06  0.797E-03    1.79       2.3  T
   7    -38.2599032 -0.346546E-06  0.284E-03    1.78       6.3  T
   8    -38.2599032  0.868256E-08  0.172E-03    1.78      10.4  T
   9    -38.2599032 -0.241250E-07  0.769E-04    1.78      23.3  T
  10    -38.2599032 -0.455394E-09  0.442E-04    1.78      40.7  T
     SCC iter.                  ...        0 min,  0.226 sec
     gradient                   ...        0 min,  0.019 sec
 * total energy  :   -37.6297151 Eh     change       -0.2835659E-02 Eh
   gradient norm :     0.0214990 Eh/α   predicted    -0.2272168E-02 ( -19.87%)
   displ. norm   :     0.5349624 α      lambda       -0.3600987E-02
   maximum displ.:     0.2622909 α      in ANC's #3, #4, #57, ...

........................................................................
.............................. CYCLE   14 ..............................
........................................................................
   1    -38.2603878 -0.382604E+02  0.321E-01    1.86       0.0  T
   2    -38.2603933 -0.549702E-05  0.251E-01    1.84       1.0  T
   3    -38.2603554  0.378640E-04  0.151E-01    1.85       1.0  T
   4    -38.2606007 -0.245289E-03  0.471E-02    1.85       1.0  T
   5    -38.2606279 -0.272007E-04  0.213E-02    1.84       1.0  T
   6    -38.2606291 -0.118837E-05  0.697E-03    1.85       2.6  T
   7    -38.2606294 -0.285735E-06  0.382E-03    1.85       4.7  T
   8    -38.2606294 -0.525995E-07  0.110E-03    1.85      16.3  T
   9    -38.2606294 -0.117723E-07  0.696E-04    1.85      25.8  T
  10    -38.2606294 -0.179148E-08  0.370E-04    1.85      48.5  T
     SCC iter.                  ...        0 min,  0.253 sec
     gradient                   ...        0 min,  0.022 sec
 * total energy  :   -37.6321094 Eh     change       -0.2394285E-02 Eh
   gradient norm :     0.0584610 Eh/α   predicted    -0.2315792E-02 (  -3.28%)
   displ. norm   :     0.3882857 α      lambda       -0.4109139E-02
   maximum displ.:     0.1762602 α      in ANC's #57, #8, #3, ...

........................................................................
.............................. CYCLE   15 ..............................
........................................................................
   1    -38.2735775 -0.382736E+02  0.188E-01    1.90       0.0  T
   2    -38.2736188 -0.413033E-04  0.123E-01    1.88       1.0  T
   3    -38.2736147  0.417304E-05  0.758E-02    1.90       1.0  T
   4    -38.2736464 -0.317759E-04  0.158E-02    1.89       1.1  T
   5    -38.2736498 -0.335050E-05  0.130E-02    1.89       1.4  T
   6    -38.2736515 -0.172117E-05  0.631E-03    1.89       2.8  T
   7    -38.2736516 -0.134689E-06  0.148E-03    1.89      12.2  T
   8    -38.2736517 -0.726848E-08  0.899E-04    1.89      20.0  T
   9    -38.2736517 -0.132498E-08  0.566E-04    1.89      31.7  T
     SCC iter.                  ...        0 min,  0.235 sec
     gradient                   ...        0 min,  0.015 sec
 * total energy  :   -37.6343697 Eh     change       -0.2260241E-02 Eh
   gradient norm :     0.0214512 Eh/α   predicted    -0.2364334E-02 (   4.61%)
   displ. norm   :     0.4515604 α      lambda       -0.2028976E-02
   maximum displ.:     0.2284780 α      in ANC's #4, #3, #57, ...

........................................................................
.............................. CYCLE   16 ..............................
........................................................................
   1    -38.2672999 -0.382673E+02  0.278E-01    1.92       0.0  T
   2    -38.2673103 -0.103923E-04  0.188E-01    1.92       1.0  T
   3    -38.2670588  0.251501E-03  0.101E-01    1.92       1.0  T
   4    -38.2673326 -0.273856E-03  0.283E-02    1.92       1.0  T
   5    -38.2673372 -0.457160E-05  0.147E-02    1.92       1.2  T
   6    -38.2673375 -0.235577E-06  0.564E-03    1.92       3.2  T
   7    -38.2673377 -0.233383E-06  0.207E-03    1.92       8.7  T
   8    -38.2673377 -0.943878E-09  0.953E-04    1.92      18.8  T
   9    -38.2673377 -0.788291E-08  0.512E-04    1.92      35.0  T
     SCC iter.                  ...        0 min,  0.253 sec
     gradient                   ...        0 min,  0.013 sec
 * total energy  :   -37.6355384 Eh     change       -0.1168760E-02 Eh
   gradient norm :     0.0443818 Eh/α   predicted    -0.1221386E-02 (   4.50%)
   displ. norm   :     0.2153587 α      lambda       -0.1600871E-02
   maximum displ.:     0.0888353 α      in ANC's #4, #57, #8, ...

........................................................................
.............................. CYCLE   17 ..............................
........................................................................
   1    -38.2700363 -0.382700E+02  0.118E-01    1.93       0.0  T
   2    -38.2700415 -0.529227E-05  0.789E-02    1.93       1.0  T
   3    -38.2700355  0.607972E-05  0.288E-02    1.93       1.0  T
   4    -38.2700431 -0.759679E-05  0.937E-03    1.93       1.9  T
   5    -38.2700434 -0.361441E-06  0.715E-03    1.93       2.5  T
   6    -38.2700436 -0.129372E-06  0.163E-03    1.93      11.0  T
   7    -38.2700436 -0.262271E-07  0.115E-03    1.93      15.7  T
   8    -38.2700436 -0.507635E-08  0.736E-04    1.93      24.4  T
   9    -38.2700436 -0.331017E-08  0.401E-04    1.93      44.8  T
     SCC iter.                  ...        0 min,  0.254 sec
     gradient                   ...        0 min,  0.005 sec
 * total energy  :   -37.6368527 Eh     change       -0.1314285E-02 Eh
   gradient norm :     0.0392416 Eh/α   predicted    -0.8375686E-03 ( -36.27%)
   displ. norm   :     0.3971735 α      lambda       -0.2698666E-02
   maximum displ.:     0.1470111 α      in ANC's #4, #5, #6, ...

........................................................................
.............................. CYCLE   18 ..............................
........................................................................
   1    -38.2744316 -0.382744E+02  0.234E-01    1.93       0.0  T
   2    -38.2744603 -0.286916E-04  0.151E-01    1.93       1.0  T
   3    -38.2744179  0.423946E-04  0.744E-02    1.92       1.0  T
   4    -38.2744712 -0.532784E-04  0.229E-02    1.93       1.0  T
   5    -38.2744730 -0.180376E-05  0.141E-02    1.92       1.3  T
   6    -38.2744724  0.553819E-06  0.994E-03    1.93       1.8  T
   7    -38.2744738 -0.132184E-05  0.220E-03    1.93       8.1  T
   8    -38.2744738 -0.693414E-08  0.152E-03    1.93      11.8  T
   9    -38.2744738 -0.131451E-07  0.823E-04    1.93      21.8  T
  10    -38.2744738 -0.702116E-09  0.387E-04    1.93      46.4  T
     SCC iter.                  ...        0 min,  0.283 sec
     gradient                   ...        0 min,  0.013 sec
 * total energy  :   -37.6386724 Eh     change       -0.1819653E-02 Eh
   gradient norm :     0.0345593 Eh/α   predicted    -0.1562196E-02 ( -14.15%)
   displ. norm   :     0.3904468 α      lambda       -0.1627373E-02
   maximum displ.:     0.1820670 α      in ANC's #4, #57, #5, ...

........................................................................
.............................. CYCLE   19 ..............................
........................................................................
   1    -38.2712674 -0.382713E+02  0.162E-01    1.92       0.0  T
   2    -38.2712724 -0.495903E-05  0.113E-01    1.92       1.0  T
   3    -38.2712285  0.438591E-04  0.460E-02    1.92       1.0  T
   4    -38.2712736 -0.450316E-04  0.190E-02    1.92       1.0  T
   5    -38.2712769 -0.335136E-05  0.109E-02    1.92       1.7  T
   6    -38.2712776 -0.642735E-06  0.474E-03    1.92       3.8  T
   7    -38.2712777 -0.185737E-06  0.189E-03    1.92       9.5  T
   8    -38.2712778 -0.104331E-07  0.981E-04    1.92      18.3  T
   9    -38.2712778 -0.423247E-08  0.506E-04    1.92      35.5  T
     SCC iter.                  ...        0 min,  0.252 sec
     gradient                   ...        0 min,  0.078 sec
 * total energy  :   -37.6396089 Eh     change       -0.9365394E-03 Eh
   gradient norm :     0.0282878 Eh/α   predicted    -0.9377331E-03 (   0.13%)
   displ. norm   :     0.2255133 α      lambda       -0.1175376E-02
   maximum displ.:     0.0908008 α      in ANC's #6, #4, #5, ...

........................................................................
.............................. CYCLE   20 ..............................
........................................................................
   1    -38.2754121 -0.382754E+02  0.168E-01    1.92       0.0  T
   2    -38.2754184 -0.636232E-05  0.108E-01    1.91       1.0  T
   3    -38.2753820  0.364726E-04  0.444E-02    1.91       1.0  T
   4    -38.2754206 -0.386595E-04  0.167E-02    1.91       1.1  T
   5    -38.2754229 -0.229205E-05  0.734E-03    1.91       2.4  T
   6    -38.2754229 -0.244243E-07  0.427E-03    1.91       4.2  T
   7    -38.2754231 -0.172179E-06  0.122E-03    1.91      14.7  T
   8    -38.2754231 -0.652236E-09  0.710E-04    1.91      25.3  T
   9    -38.2754231 -0.288944E-08  0.407E-04    1.91      44.1  T
     SCC iter.                  ...        0 min,  0.244 sec
     gradient                   ...        0 min,  0.010 sec
 * total energy  :   -37.6404027 Eh     change       -0.7938103E-03 Eh
   gradient norm :     0.0183921 Eh/α   predicted    -0.6175772E-03 ( -22.20%)
   displ. norm   :     0.3637849 α      lambda       -0.1198819E-02
   maximum displ.:     0.1933821 α      in ANC's #4, #57, #2, ...
 * RMSD in coord.:     0.9297301 α      energy gain  -0.3644292E+01 Eh

generating ANC from model Hessian ...
Using Lindh-Hessian (1995)
 Shifting diagonal of input Hessian by    9.6896397977882798E-003
 Lowest  eigenvalues of input Hessian
    0.000000    0.000000    0.000000    0.000000    0.000000    0.000000
    0.010000    0.010140    0.011196    0.011347    0.011798    0.011985
    0.012475    0.014483    0.015811    0.017063    0.017371    0.017431
 Highest eigenvalues
    1.741897    1.751340    3.435753    4.007570    4.883123    6.156976


........................................................................
.............................. CYCLE   21 ..............................
........................................................................
   1    -38.2750464 -0.382750E+02  0.167E-01    1.93       0.0  T
   2    -38.2750508 -0.442012E-05  0.108E-01    1.92       1.0  T
   3    -38.2750003  0.504736E-04  0.592E-02    1.93       1.0  T
   4    -38.2750553 -0.550158E-04  0.154E-02    1.92       1.2  T
   5    -38.2750551  0.244752E-06  0.129E-02    1.92       1.4  T
   6    -38.2750567 -0.159087E-05  0.361E-03    1.92       5.0  T
   7    -38.2750567 -0.541373E-07  0.168E-03    1.92      10.7  T
   8    -38.2750567 -0.137430E-07  0.793E-04    1.92      22.7  T
   9    -38.2750567 -0.266464E-08  0.507E-04    1.92      35.5  T
     SCC iter.                  ...        0 min,  0.210 sec
     gradient                   ...        0 min,  0.079 sec
 * total energy  :   -37.6409507 Eh     change       -0.5480076E-03 Eh
   gradient norm :     0.0505508 Eh/α   predicted     0.0000000E+00 (-100.00%)
   displ. norm   :     0.2745174 α      lambda       -0.2146614E-02
   maximum displ.:     0.1510094 α      in ANC's #3, #6, #8, ...

........................................................................
.............................. CYCLE   22 ..............................
........................................................................
   1    -38.2786982 -0.382787E+02  0.156E-01    1.94       0.0  T
   2    -38.2787089 -0.107725E-04  0.103E-01    1.94       1.0  T
   3    -38.2786680  0.409163E-04  0.706E-02    1.94       1.0  T
   4    -38.2787246 -0.565843E-04  0.219E-02    1.94       1.0  T
   5    -38.2787297 -0.510864E-05  0.135E-02    1.94       1.3  T
   6    -38.2787304 -0.699167E-06  0.693E-03    1.94       2.6  T
   7    -38.2787306 -0.165873E-06  0.393E-03    1.94       4.6  T
   8    -38.2787306 -0.439100E-07  0.125E-03    1.94      14.4  T
   9    -38.2787306 -0.102130E-07  0.619E-04    1.94      29.0  T
  10    -38.2787306 -0.152090E-08  0.226E-04    1.94      79.5  T
     SCC iter.                  ...        0 min,  0.260 sec
     gradient                   ...        0 min,  0.004 sec
 * total energy  :   -37.6423384 Eh     change       -0.1387679E-02 Eh
   gradient norm :     0.0085706 Eh/α   predicted    -0.1154417E-02 ( -16.81%)
   displ. norm   :     0.3135247 α      lambda       -0.9304857E-03
   maximum displ.:     0.2186130 α      in ANC's #3, #6, #7, ...

........................................................................
.............................. CYCLE   23 ..............................
........................................................................
   1    -38.2788442 -0.382788E+02  0.198E-01    1.96       0.0  T
   2    -38.2788563 -0.120570E-04  0.130E-01    1.96       1.0  T
   3    -38.2787800  0.762741E-04  0.803E-02    1.96       1.0  T
   4    -38.2788683 -0.883471E-04  0.227E-02    1.96       1.0  T
   5    -38.2788738 -0.548463E-05  0.132E-02    1.96       1.4  T
   6    -38.2788743 -0.505346E-06  0.601E-03    1.96       3.0  T
   7    -38.2788745 -0.226203E-06  0.297E-03    1.96       6.0  T
   8    -38.2788746 -0.203020E-07  0.126E-03    1.96      14.3  T
   9    -38.2788746 -0.132605E-07  0.507E-04    1.96      35.4  T
  10    -38.2788746 -0.141350E-08  0.265E-04    1.96      67.9  T
     SCC iter.                  ...        0 min,  0.227 sec
     gradient                   ...        0 min,  0.005 sec
 * total energy  :   -37.6430123 Eh     change       -0.6739476E-03 Eh
   gradient norm :     0.0068904 Eh/α   predicted    -0.5109877E-03 ( -24.18%)
   displ. norm   :     0.3184390 α      lambda       -0.5671421E-03
   maximum displ.:     0.2146934 α      in ANC's #3, #6, #7, ...

........................................................................
.............................. CYCLE   24 ..............................
........................................................................
   1    -38.2779270 -0.382779E+02  0.170E-01    1.97       0.0  T
   2    -38.2779365 -0.945124E-05  0.108E-01    1.97       1.0  T
   3    -38.2778765  0.599782E-04  0.780E-02    1.97       1.0  T
   4    -38.2779526 -0.761423E-04  0.175E-02    1.97       1.0  T
   5    -38.2779575 -0.483323E-05  0.779E-03    1.97       2.3  T
   6    -38.2779577 -0.219055E-06  0.377E-03    1.97       4.8  T
   7    -38.2779577 -0.466134E-07  0.215E-03    1.97       8.4  T
   8    -38.2779577 -0.940545E-08  0.115E-03    1.97      15.7  T
   9    -38.2779577 -0.798695E-08  0.349E-04    1.97      51.5  T
  10    -38.2779577 -0.718494E-09  0.207E-04    1.97      86.8  T
     SCC iter.                  ...        0 min,  0.255 sec
     gradient                   ...        0 min,  0.006 sec
 * total energy  :   -37.6434066 Eh     change       -0.3942617E-03 Eh
   gradient norm :     0.0198508 Eh/α   predicted    -0.3123404E-03 ( -20.78%)
   displ. norm   :     0.2867217 α      lambda       -0.4365337E-03
   maximum displ.:     0.1993093 α      in ANC's #3, #7, #6, ...

........................................................................
.............................. CYCLE   25 ..............................
........................................................................
   1    -38.2781973 -0.382782E+02  0.165E-01    1.98       0.0  T
   2    -38.2782036 -0.630674E-05  0.971E-02    1.98       1.0  T
   3    -38.2781751  0.284220E-04  0.544E-02    1.98       1.0  T
   4    -38.2782073 -0.321259E-04  0.117E-02    1.98       1.5  T
   5    -38.2782088 -0.153177E-05  0.551E-03    1.98       3.3  T
   6    -38.2782089 -0.659845E-07  0.220E-03    1.98       8.2  T
   7    -38.2782089 -0.412806E-07  0.108E-03    1.98      16.7  T
   8    -38.2782089 -0.139605E-08  0.738E-04    1.98      24.3  T
   9    -38.2782089 -0.355357E-08  0.237E-04    1.98      75.8  T
     SCC iter.                  ...        0 min,  0.234 sec
     gradient                   ...        0 min,  0.007 sec
 * total energy  :   -37.6437144 Eh     change       -0.3077643E-03 Eh
   gradient norm :     0.0165983 Eh/α   predicted    -0.2362115E-03 ( -23.25%)
   displ. norm   :     0.2552107 α      lambda       -0.3687570E-03
   maximum displ.:     0.1667623 α      in ANC's #3, #7, #6, ...

........................................................................
.............................. CYCLE   26 ..............................
........................................................................
   1    -38.2793918 -0.382794E+02  0.125E-01    1.99       0.0  T
   2    -38.2793961 -0.434539E-05  0.719E-02    1.98       1.0  T
   3    -38.2793820  0.141701E-04  0.418E-02    1.99       1.0  T
   4    -38.2793984 -0.164128E-04  0.842E-03    1.98       2.1  T
   5    -38.2793990 -0.605048E-06  0.609E-03    1.98       3.0  T
   6    -38.2793992 -0.215115E-06  0.236E-03    1.98       7.6  T
   7    -38.2793992 -0.313674E-07  0.736E-04    1.98      24.4  T
   8    -38.2793992  0.414218E-09  0.483E-04    1.98      37.2  T
     SCC iter.                  ...        0 min,  0.207 sec
     gradient                   ...        0 min,  0.016 sec
 * total energy  :   -37.6439704 Eh     change       -0.2560710E-03 Eh
   gradient norm :     0.0117697 Eh/α   predicted    -0.1963883E-03 ( -23.31%)
   displ. norm   :     0.2405328 α      lambda       -0.2346789E-03
   maximum displ.:     0.1334139 α      in ANC's #3, #7, #4, ...

........................................................................
.............................. CYCLE   27 ..............................
........................................................................
   1    -38.2799275 -0.382799E+02  0.110E-01    1.99       0.0  T
   2    -38.2799305 -0.304375E-05  0.657E-02    1.99       1.0  T
   3    -38.2799190  0.115649E-04  0.340E-02    1.99       1.0  T
   4    -38.2799322 -0.131804E-04  0.736E-03    1.99       2.4  T
   5    -38.2799325 -0.366886E-06  0.505E-03    1.99       3.6  T
   6    -38.2799327 -0.199419E-06  0.172E-03    1.99      10.5  T
   7    -38.2799327 -0.180981E-07  0.586E-04    1.99      30.7  T
   8    -38.2799327 -0.857604E-09  0.446E-04    1.99      40.2  T
     SCC iter.                  ...        0 min,  0.200 sec
     gradient                   ...        0 min,  0.006 sec
 * total energy  :   -37.6441467 Eh     change       -0.1763057E-03 Eh
   gradient norm :     0.0104679 Eh/α   predicted    -0.1241304E-03 ( -29.59%)
   displ. norm   :     0.2693661 α      lambda       -0.2725706E-03
   maximum displ.:     0.1370018 α      in ANC's #7, #2, #3, ...

........................................................................
.............................. CYCLE   28 ..............................
........................................................................
   1    -38.2813136 -0.382813E+02  0.944E-02    1.99       0.0  T
   2    -38.2813177 -0.409086E-05  0.572E-02    1.99       1.0  T
   3    -38.2813060  0.116518E-04  0.315E-02    1.99       1.0  T
   4    -38.2813200 -0.139893E-04  0.855E-03    1.99       2.1  T
   5    -38.2813205 -0.510583E-06  0.697E-03    1.99       2.6  T
   6    -38.2813208 -0.274802E-06  0.218E-03    1.99       8.2  T
   7    -38.2813208 -0.282597E-07  0.101E-03    1.99      17.7  T
   8    -38.2813208 -0.473257E-08  0.703E-04    1.99      25.6  T
   9    -38.2813208 -0.538066E-09  0.319E-04    1.99      56.3  T
     SCC iter.                  ...        0 min,  0.224 sec
     gradient                   ...        0 min,  0.007 sec
 * total energy  :   -37.6443360 Eh     change       -0.1892389E-03 Eh
   gradient norm :     0.0063402 Eh/α   predicted    -0.1461780E-03 ( -22.75%)
   displ. norm   :     0.5637125 α      lambda       -0.3907038E-03
   maximum displ.:     0.3199699 α      in ANC's #7, #3, #2, ...

........................................................................
.............................. CYCLE   29 ..............................
........................................................................
   1    -38.2752488 -0.382752E+02  0.219E-01    1.99       0.0  T
   2    -38.2752518 -0.301499E-05  0.144E-01    1.99       1.0  T
   3    -38.2750570  0.194749E-03  0.989E-02    1.99       1.0  T
   4    -38.2752763 -0.219280E-03  0.215E-02    1.99       1.0  T
   5    -38.2752782 -0.185673E-05  0.110E-02    1.99       1.6  T
   6    -38.2752784 -0.281782E-06  0.327E-03    1.99       5.5  T
   7    -38.2752785 -0.806423E-07  0.152E-03    1.99      11.8  T
   8    -38.2752785 -0.876889E-08  0.852E-04    1.99      21.1  T
   9    -38.2752785 -0.576765E-08  0.412E-04    1.99      43.6  T
     SCC iter.                  ...        0 min,  0.224 sec
     gradient                   ...        0 min,  0.068 sec
 * total energy  :   -37.6441435 Eh     change        0.1925275E-03 Eh
   gradient norm :     0.0526022 Eh/α   predicted    -0.2574318E-03 (-233.71%)
   displ. norm   :     0.2171706 α      lambda       -0.1080681E-02
   maximum displ.:     0.1361781 α      in ANC's #3, #7, #6, ...

........................................................................
.............................. CYCLE   30 ..............................
........................................................................
   1    -38.2813719 -0.382814E+02  0.131E-01    2.00       0.0  T
   2    -38.2813749 -0.296158E-05  0.806E-02    2.00       1.0  T
   3    -38.2813251  0.497519E-04  0.551E-02    2.00       1.0  T
   4    -38.2813811 -0.559524E-04  0.145E-02    2.00       1.2  T
   5    -38.2813821 -0.100076E-05  0.658E-03    2.00       2.7  T
   6    -38.2813822 -0.716803E-07  0.171E-03    2.00      10.5  T
   7    -38.2813822 -0.186023E-07  0.812E-04    2.00      22.1  T
   8    -38.2813822 -0.431683E-09  0.484E-04    2.00      37.1  T
     SCC iter.                  ...        0 min,  0.195 sec
     gradient                   ...        0 min,  0.080 sec
 * total energy  :   -37.6446347 Eh     change       -0.4912092E-03 Eh
   gradient norm :     0.0048461 Eh/α   predicted    -0.5658376E-03 (  15.19%)
   displ. norm   :     0.2042674 α      lambda       -0.1731744E-03
   maximum displ.:     0.1246746 α      in ANC's #2, #7, #1, ...

........................................................................
.............................. CYCLE   31 ..............................
........................................................................
   1    -38.2812828 -0.382813E+02  0.543E-02    2.00       0.0  T
   2    -38.2812837 -0.892314E-06  0.362E-02    2.00       1.0  T
   3    -38.2812768  0.685160E-05  0.230E-02    2.00       1.0  T
   4    -38.2812853 -0.846275E-05  0.526E-03    2.00       3.4  T
   5    -38.2812857 -0.392833E-06  0.332E-03    2.00       5.4  T
   6    -38.2812857 -0.505655E-07  0.116E-03    2.00      15.5  T
   7    -38.2812857 -0.461158E-08  0.602E-04    2.00      29.8  T
   8    -38.2812857 -0.285851E-10  0.432E-04    2.00      41.6  T
     SCC iter.                  ...        0 min,  0.182 sec
     gradient                   ...        0 min,  0.073 sec
 * total energy  :   -37.6447963 Eh     change       -0.1616122E-03 Eh
   gradient norm :     0.0040433 Eh/α   predicted    -0.9020266E-04 ( -44.19%)
   displ. norm   :     0.6247048 α      lambda       -0.4976505E-03
   maximum displ.:     0.3658026 α      in ANC's #2, #7, #1, ...

........................................................................
.............................. CYCLE   32 ..............................
........................................................................
   1    -38.2770671 -0.382771E+02  0.164E-01    2.02       0.0  T
   2    -38.2770752 -0.812311E-05  0.113E-01    2.02       1.0  T
   3    -38.2770161  0.591066E-04  0.691E-02    2.01       1.0  T
   4    -38.2770891 -0.729703E-04  0.194E-02    2.01       1.0  T
   5    -38.2770941 -0.503435E-05  0.116E-02    2.01       1.6  T
   6    -38.2770945 -0.331417E-06  0.371E-03    2.01       4.8  T
   7    -38.2770945 -0.571792E-07  0.194E-03    2.01       9.2  T
   8    -38.2770945 -0.216196E-08  0.108E-03    2.01      16.7  T
   9    -38.2770945 -0.910617E-08  0.475E-04    2.01      37.8  T
  10    -38.2770945 -0.101254E-08  0.206E-04    2.01      87.1  T
     SCC iter.                  ...        0 min,  0.216 sec
     gradient                   ...        0 min,  0.071 sec
 * total energy  :   -37.6451023 Eh     change       -0.3060595E-03 Eh
   gradient norm :     0.0249536 Eh/α   predicted    -0.3459534E-03 (  13.03%)
   displ. norm   :     0.1750083 α      lambda       -0.2648228E-03
   maximum displ.:     0.1289674 α      in ANC's #2, #1, #8, ...

........................................................................
.............................. CYCLE   33 ..............................
........................................................................
   1    -38.2792254 -0.382792E+02  0.436E-02    2.02       0.0  T
   2    -38.2792262 -0.760383E-06  0.264E-02    2.02       1.0  T
   3    -38.2792207  0.547853E-05  0.170E-02    2.02       1.1  T
   4    -38.2792271 -0.640932E-05  0.595E-03    2.02       3.0  T
   5    -38.2792273 -0.254965E-06  0.282E-03    2.02       6.4  T
   6    -38.2792273 -0.130038E-08  0.628E-04    2.02      28.6  T
   7    -38.2792273 -0.537838E-08  0.338E-04    2.02      53.2  T
     SCC iter.                  ...        0 min,  0.164 sec
     gradient                   ...        0 min,  0.005 sec
 * total energy  :   -37.6453080 Eh     change       -0.2056752E-03 Eh
   gradient norm :     0.0129747 Eh/α   predicted    -0.1364695E-03 ( -33.65%)
   displ. norm   :     0.5271991 α      lambda       -0.3891704E-03
   maximum displ.:     0.3600469 α      in ANC's #2, #1, #7, ...

........................................................................
.............................. CYCLE   34 ..............................
........................................................................
   1    -38.2774147 -0.382774E+02  0.109E-01    2.02       0.0  T
   2    -38.2774173 -0.259053E-05  0.665E-02    2.02       1.0  T
   3    -38.2773967  0.206198E-04  0.285E-02    2.02       1.0  T
   4    -38.2774192 -0.225906E-04  0.966E-03    2.02       1.9  T
   5    -38.2774200 -0.745474E-06  0.556E-03    2.02       3.2  T
   6    -38.2774200  0.590899E-08  0.149E-03    2.02      12.1  T
   7    -38.2774200 -0.169305E-07  0.673E-04    2.02      26.7  T
   8    -38.2774200 -0.182902E-08  0.440E-04    2.02      40.8  T
     SCC iter.                  ...        0 min,  0.205 sec
     gradient                   ...        0 min,  0.007 sec
 * total energy  :   -37.6455880 Eh     change       -0.2799967E-03 Eh
   gradient norm :     0.0097338 Eh/α   predicted    -0.2486520E-03 ( -11.19%)
   displ. norm   :     0.3884175 α      lambda       -0.4145462E-03
   maximum displ.:     0.2693737 α      in ANC's #2, #1, #8, ...

........................................................................
.............................. CYCLE   35 ..............................
........................................................................
   1    -38.2817967 -0.382818E+02  0.125E-01    2.01       0.0  T
   2    -38.2818003 -0.359503E-05  0.951E-02    2.01       1.0  T
   3    -38.2817624  0.379855E-04  0.504E-02    2.01       1.0  T
   4    -38.2818148 -0.524584E-04  0.152E-02    2.01       1.2  T
   5    -38.2818180 -0.318818E-05  0.683E-03    2.01       2.6  T
   6    -38.2818181 -0.893300E-07  0.208E-03    2.01       8.6  T
   7    -38.2818181 -0.230674E-07  0.844E-04    2.01      21.3  T
   8    -38.2818181 -0.959432E-09  0.511E-04    2.01      35.1  T
     SCC iter.                  ...        0 min,  0.219 sec
     gradient                   ...        0 min,  0.006 sec
 * total energy  :   -37.6458568 Eh     change       -0.2688200E-03 Eh
   gradient norm :     0.0052074 Eh/α   predicted    -0.2385354E-03 ( -11.27%)
   displ. norm   :     0.6145918 α      lambda       -0.3350865E-03
   maximum displ.:     0.4052285 α      in ANC's #2, #1, #7, ...

........................................................................
.............................. CYCLE   36 ..............................
........................................................................
   1    -38.2752168 -0.382752E+02  0.151E-01    2.00       0.0  T
   2    -38.2752219 -0.501498E-05  0.900E-02    2.00       1.0  T
   3    -38.2752113  0.106015E-04  0.359E-02    1.99       1.0  T
   4    -38.2752243 -0.130061E-04  0.118E-02    2.00       1.5  T
   5    -38.2752243 -0.286290E-08  0.474E-03    2.00       3.8  T
   6    -38.2752243 -0.786545E-07  0.142E-03    2.00      12.6  T
   7    -38.2752244 -0.354382E-07  0.846E-04    2.00      21.2  T
   8    -38.2752244 -0.375034E-08  0.524E-04    2.00      34.3  T
     SCC iter.                  ...        0 min,  0.193 sec
     gradient                   ...        0 min,  0.072 sec
 * total energy  :   -37.6458174 Eh     change        0.3945435E-04 Eh
   gradient norm :     0.0396893 Eh/α   predicted    -0.2308118E-03 (-685.01%)
   displ. norm   :     0.1590859 α      lambda       -0.5784805E-03
   maximum displ.:     0.0936529 α      in ANC's #2, #7, #1, ...

........................................................................
.............................. CYCLE   37 ..............................
........................................................................
   1    -38.2827687 -0.382828E+02  0.497E-02    2.00       0.0  T
   2    -38.2827715 -0.276692E-05  0.328E-02    2.00       1.0  T
   3    -38.2827725 -0.977656E-06  0.221E-02    2.00       1.0  T
   4    -38.2827758 -0.331994E-05  0.707E-03    2.00       2.5  T
   5    -38.2827767 -0.934591E-06  0.347E-03    2.00       5.2  T
   6    -38.2827767 -0.188494E-07  0.116E-03    2.00      15.4  T
   7    -38.2827767 -0.346741E-08  0.455E-04    2.00      39.5  T
   8    -38.2827767 -0.147639E-08  0.248E-04    2.00      72.4  T
     SCC iter.                  ...        0 min,  0.195 sec
     gradient                   ...        0 min,  0.078 sec
 * total energy  :   -37.6460158 Eh     change       -0.1984381E-03 Eh
   gradient norm :     0.0103585 Eh/α   predicted    -0.2965804E-03 (  49.46%)
   displ. norm   :     0.0513087 α      lambda       -0.1382835E-03
   maximum displ.:     0.0310425 α      in ANC's #9, #3, #2, ...

........................................................................
.............................. CYCLE   38 ..............................
........................................................................
   1    -38.2835312 -0.382835E+02  0.493E-02    2.00       0.0  T
   2    -38.2835318 -0.561713E-06  0.294E-02    2.00       1.0  T
   3    -38.2835295  0.227701E-05  0.152E-02    2.00       1.2  T
   4    -38.2835321 -0.264126E-05  0.464E-03    2.00       3.9  T
   5    -38.2835321  0.139453E-07  0.341E-03    2.00       5.3  T
   6    -38.2835322 -0.825875E-07  0.113E-03    2.00      15.9  T
   7    -38.2835322 -0.391218E-08  0.566E-04    2.00      31.7  T
   8    -38.2835322 -0.379579E-09  0.290E-04    2.00      62.0  T
     SCC iter.                  ...        0 min,  0.191 sec
     gradient                   ...        0 min,  0.004 sec
 * total energy  :   -37.6460630 Eh     change       -0.4716555E-04 Eh
   gradient norm :     0.0043009 Eh/α   predicted    -0.6932247E-04 (  46.98%)
   displ. norm   :     0.1655272 α      lambda       -0.6983046E-04
   maximum displ.:     0.1086879 α      in ANC's #2, #1, #7, ...

........................................................................
.............................. CYCLE   39 ..............................
........................................................................
   1    -38.2821179 -0.382821E+02  0.556E-02    2.00       0.0  T
   2    -38.2821183 -0.357603E-06  0.333E-02    2.00       1.0  T
   3    -38.2821101  0.815459E-05  0.235E-02    2.00       1.0  T
   4    -38.2821193 -0.919636E-05  0.497E-03    2.00       3.6  T
   5    -38.2821194 -0.108789E-06  0.268E-03    2.00       6.7  T
   6    -38.2821194 -0.381651E-08  0.858E-04    2.00      20.9  T
   7    -38.2821195 -0.531281E-08  0.434E-04    2.00      41.4  T
     SCC iter.                  ...        0 min,  0.180 sec
     gradient                   ...        0 min,  0.006 sec
 * total energy  :   -37.6461108 Eh     change       -0.4779869E-04 Eh
   gradient norm :     0.0084635 Eh/α   predicted    -0.3586495E-04 ( -24.97%)
   displ. norm   :     0.1952073 α      lambda       -0.5722629E-04
   maximum displ.:     0.1281239 α      in ANC's #2, #1, #7, ...

........................................................................
.............................. CYCLE   40 ..............................
........................................................................
   1    -38.2814110 -0.382814E+02  0.505E-02    2.00       0.0  T
   2    -38.2814116 -0.596189E-06  0.300E-02    2.00       1.0  T
   3    -38.2814095  0.205762E-05  0.123E-02    2.00       1.5  T
   4    -38.2814119 -0.240039E-05  0.374E-03    2.00       4.8  T
   5    -38.2814119 -0.362495E-08  0.266E-03    2.00       6.7  T
   6    -38.2814120 -0.218129E-07  0.121E-03    2.00      14.9  T
   7    -38.2814120 -0.170493E-07  0.405E-04    2.00      44.4  T
   8    -38.2814120 -0.199847E-09  0.305E-04    2.00      58.9  T
     SCC iter.                  ...        0 min,  0.224 sec
     gradient                   ...        0 min,  0.015 sec
 * total energy  :   -37.6461447 Eh     change       -0.3392531E-04 Eh
   gradient norm :     0.0100026 Eh/α   predicted    -0.2969817E-04 ( -12.46%)
   displ. norm   :     0.1318205 α      lambda       -0.6008831E-04
   maximum displ.:     0.0803178 α      in ANC's #2, #6, #3, ...

........................................................................
.............................. CYCLE   41 ..............................
........................................................................
   1    -38.2824573 -0.382825E+02  0.504E-02    2.00       0.0  T
   2    -38.2824575 -0.208028E-06  0.318E-02    2.00       1.0  T
   3    -38.2824485  0.897006E-05  0.227E-02    1.99       1.0  T
   4    -38.2824588 -0.102308E-04  0.372E-03    2.00       4.8  T
   5    -38.2824588 -0.722836E-07  0.225E-03    2.00       8.0  T
   6    -38.2824589 -0.294717E-07  0.886E-04    2.00      20.3  T
   7    -38.2824589 -0.458878E-08  0.477E-04    2.00      37.7  T
     SCC iter.                  ...        0 min,  0.175 sec
     gradient                   ...        0 min,  0.016 sec
 * total energy  :   -37.6461852 Eh     change       -0.4051912E-04 Eh
   gradient norm :     0.0096349 Eh/α   predicted    -0.3056585E-04 ( -24.56%)
   displ. norm   :     0.1255059 α      lambda       -0.6457748E-04
   maximum displ.:     0.0721257 α      in ANC's #2, #6, #57, ...

........................................................................
.............................. CYCLE   42 ..............................
........................................................................
   1    -38.2836932 -0.382837E+02  0.401E-02    2.00       0.0  T
   2    -38.2836937 -0.493377E-06  0.254E-02    2.00       1.0  T
   3    -38.2836917  0.202320E-05  0.104E-02    2.00       1.7  T
   4    -38.2836940 -0.230833E-05  0.304E-03    2.00       5.9  T
   5    -38.2836940 -0.293147E-07  0.232E-03    2.00       7.7  T
   6    -38.2836940 -0.459614E-07  0.909E-04    2.00      19.8  T
   7    -38.2836941 -0.559942E-08  0.458E-04    2.00      39.2  T
     SCC iter.                  ...        0 min,  0.203 sec
     gradient                   ...        0 min,  0.073 sec
 * total energy  :   -37.6462234 Eh     change       -0.3816577E-04 Eh
   gradient norm :     0.0027822 Eh/α   predicted    -0.3279581E-04 ( -14.07%)
   displ. norm   :     0.1728277 α      lambda       -0.4076315E-04
   maximum displ.:     0.1043840 α      in ANC's #2, #6, #7, ...
 * RMSD in coord.:     0.8401002 α      energy gain  -0.5820679E-02 Eh

generating ANC from model Hessian ...
Using Lindh-Hessian (1995)
 Shifting diagonal of input Hessian by    9.7501947430074856E-003
 Lowest  eigenvalues of input Hessian
    0.000000    0.000000    0.000000    0.000000    0.000000    0.000000
    0.010000    0.010223    0.010480    0.011065    0.011337    0.011665
    0.012122    0.014493    0.016712    0.016959    0.017628    0.017710
 Highest eigenvalues
    1.741506    1.745038    3.325483    4.075623    4.772784    6.303620


........................................................................
.............................. CYCLE   43 ..............................
........................................................................
   1    -38.2829297 -0.382829E+02  0.513E-02    2.00       0.0  T
   2    -38.2829304 -0.690767E-06  0.331E-02    2.00       1.0  T
   3    -38.2829245  0.594911E-05  0.164E-02    2.00       1.1  T
   4    -38.2829310 -0.656291E-05  0.431E-03    2.00       4.2  T
   5    -38.2829313 -0.228249E-06  0.224E-03    2.00       8.0  T
   6    -38.2829313 -0.812811E-09  0.107E-03    2.00      16.8  T
   7    -38.2829313 -0.866067E-08  0.417E-04    2.00      43.1  T
   8    -38.2829313 -0.436899E-09  0.294E-04    2.00      61.1  T
     SCC iter.                  ...        0 min,  0.224 sec
     gradient                   ...        0 min,  0.075 sec
 * total energy  :   -37.6462371 Eh     change       -0.1376093E-04 Eh
   gradient norm :     0.0049159 Eh/α   predicted     0.0000000E+00 (-100.00%)
   displ. norm   :     0.0593326 α      lambda        0.8971379E-05
   maximum displ.:     0.0397302 α      in ANC's #3, #2, #1, ...

........................................................................
.............................. CYCLE   44 ..............................
........................................................................
   1    -38.2831898 -0.382832E+02  0.220E-02    1.99       0.0  T
   2    -38.2831901 -0.285670E-06  0.137E-02    1.99       1.3  T
   3    -38.2831893  0.846255E-06  0.840E-03    1.99       2.1  T
   4    -38.2831903 -0.100585E-05  0.282E-03    1.99       6.4  T
   5    -38.2831904 -0.686880E-07  0.158E-03    1.99      11.4  T
   6    -38.2831904  0.129364E-08  0.606E-04    1.99      29.7  T
   7    -38.2831904 -0.353773E-08  0.181E-04    1.99      99.4  T
     SCC iter.                  ...        0 min,  0.179 sec
     gradient                   ...        0 min,  0.016 sec
 * total energy  :   -37.6462857 Eh     change       -0.4852678E-04 Eh
   gradient norm :     0.0010021 Eh/α   predicted    -0.3158101E-04 ( -34.92%)
   displ. norm   :     0.2029333 α      lambda       -0.8830488E-04
   maximum displ.:     0.1223631 α      in ANC's #3, #2, #1, ...

........................................................................
.............................. CYCLE   45 ..............................
........................................................................
   1    -38.2831608 -0.382832E+02  0.693E-02    1.99       0.0  T
   2    -38.2831615 -0.659474E-06  0.455E-02    1.99       1.0  T
   3    -38.2831423  0.191508E-04  0.323E-02    1.99       1.0  T
   4    -38.2831655 -0.231890E-04  0.673E-03    1.99       2.7  T
   5    -38.2831658 -0.321447E-06  0.374E-03    1.99       4.8  T
   6    -38.2831658  0.347362E-08  0.107E-03    1.99      16.8  T
   7    -38.2831659 -0.117885E-07  0.557E-04    1.99      32.3  T
   8    -38.2831659 -0.205043E-08  0.330E-04    1.99      54.5  T
     SCC iter.                  ...        0 min,  0.226 sec
     gradient                   ...        0 min,  0.005 sec
 * total energy  :   -37.6463820 Eh     change       -0.9637473E-04 Eh
   gradient norm :     0.0056283 Eh/α   predicted    -0.4496070E-04 ( -53.35%)
   displ. norm   :     0.2362480 α      lambda       -0.1274061E-03
   maximum displ.:     0.1416475 α      in ANC's #3, #2, #1, ...

........................................................................
.............................. CYCLE   46 ..............................
........................................................................
   1    -38.2823806 -0.382824E+02  0.551E-02    1.98       0.0  T
   2    -38.2823811 -0.420352E-06  0.341E-02    1.98       1.0  T
   3    -38.2823713  0.973869E-05  0.269E-02    1.98       1.0  T
   4    -38.2823850 -0.136956E-04  0.505E-03    1.98       3.6  T
   5    -38.2823852 -0.165323E-06  0.306E-03    1.98       5.9  T
   6    -38.2823852  0.156033E-07  0.135E-03    1.98      13.3  T
   7    -38.2823852 -0.196942E-07  0.363E-04    1.98      49.4  T
   8    -38.2823852 -0.128131E-08  0.179E-04    1.98     100.2  T
     SCC iter.                  ...        0 min,  0.232 sec
     gradient                   ...        0 min,  0.079 sec
 * total energy  :   -37.6465010 Eh     change       -0.1189493E-03 Eh
   gradient norm :     0.0064058 Eh/α   predicted    -0.6726119E-04 ( -43.45%)
   displ. norm   :     0.5140401 α      lambda       -0.2875981E-03
   maximum displ.:     0.2994166 α      in ANC's #3, #1, #2, ...

........................................................................
.............................. CYCLE   47 ..............................
........................................................................
   1    -38.2782842 -0.382783E+02  0.127E-01    1.97       0.0  T
   2    -38.2782876 -0.340978E-05  0.744E-02    1.97       1.0  T
   3    -38.2782355  0.521627E-04  0.579E-02    1.97       1.0  T
   4    -38.2782982 -0.627401E-04  0.134E-02    1.97       1.3  T
   5    -38.2782987 -0.489709E-06  0.918E-03    1.97       2.0  T
   6    -38.2782986  0.642411E-07  0.382E-03    1.97       4.7  T
   7    -38.2782988 -0.197122E-06  0.704E-04    1.97      25.5  T
   8    -38.2782988 -0.474179E-08  0.350E-04    1.97      51.3  T
     SCC iter.                  ...        0 min,  0.202 sec
     gradient                   ...        0 min,  0.077 sec
 * total energy  :   -37.6466502 Eh     change       -0.1491938E-03 Eh
   gradient norm :     0.0217599 Eh/α   predicted    -0.1817958E-03 (  21.85%)
   displ. norm   :     0.0407991 α      lambda       -0.1737515E-03
   maximum displ.:     0.0225152 α      in ANC's #7, #1, #3, ...

........................................................................
.............................. CYCLE   48 ..............................
........................................................................
   1    -38.2808493 -0.382808E+02  0.242E-02    1.98       0.0  T
   2    -38.2808497 -0.356693E-06  0.135E-02    1.98       1.3  T
   3    -38.2808493  0.339249E-06  0.923E-03    1.98       1.9  T
   4    -38.2808499 -0.545914E-06  0.287E-03    1.98       6.3  T
   5    -38.2808499  0.328786E-08  0.134E-03    1.98      13.4  T
   6    -38.2808499 -0.542026E-08  0.521E-04    1.98      34.5  T
   7    -38.2808499 -0.304689E-08  0.318E-04    1.98      56.4  T
     SCC iter.                  ...        0 min,  0.209 sec
     gradient                   ...        0 min,  0.082 sec
 * total energy  :   -37.6467737 Eh     change       -0.1235458E-03 Eh
   gradient norm :     0.0089537 Eh/α   predicted    -0.8702343E-04 ( -29.56%)
   displ. norm   :     0.3128676 α      lambda       -0.2365849E-03
   maximum displ.:     0.1830669 α      in ANC's #1, #2, #3, ...

........................................................................
.............................. CYCLE   49 ..............................
........................................................................
   1    -38.2824226 -0.382824E+02  0.858E-02    1.97       0.0  T
   2    -38.2824237 -0.115590E-05  0.520E-02    1.97       1.0  T
   3    -38.2824195  0.425222E-05  0.159E-02    1.98       1.1  T
   4    -38.2824243 -0.478892E-05  0.672E-03    1.97       2.7  T
   5    -38.2824244 -0.163554E-06  0.392E-03    1.97       4.6  T
   6    -38.2824245 -0.690594E-07  0.172E-03    1.97      10.4  T
   7    -38.2824245 -0.127218E-07  0.762E-04    1.97      23.6  T
   8    -38.2824245  0.466464E-09  0.555E-04    1.97      32.4  T
     SCC iter.                  ...        0 min,  0.184 sec
     gradient                   ...        0 min,  0.004 sec
 * total energy  :   -37.6469414 Eh     change       -0.1676579E-03 Eh
   gradient norm :     0.0074421 Eh/α   predicted    -0.1298744E-03 ( -22.54%)
   displ. norm   :     0.2784172 α      lambda       -0.1514787E-03
   maximum displ.:     0.1811259 α      in ANC's #1, #2, #3, ...

........................................................................
.............................. CYCLE   50 ..............................
........................................................................
   1    -38.2833925 -0.382834E+02  0.740E-02    1.97       0.0  T
   2    -38.2833930 -0.523889E-06  0.512E-02    1.97       1.0  T
   3    -38.2833700  0.229763E-04  0.313E-02    1.97       1.0  T
   4    -38.2833971 -0.270281E-04  0.713E-03    1.97       2.5  T
   5    -38.2833975 -0.407192E-06  0.403E-03    1.97       4.5  T
   6    -38.2833975 -0.391753E-07  0.142E-03    1.97      12.6  T
   7    -38.2833975 -0.778590E-08  0.732E-04    1.97      24.5  T
   8    -38.2833975  0.932914E-09  0.483E-04    1.97      37.2  T
     SCC iter.                  ...        0 min,  0.225 sec
     gradient                   ...        0 min,  0.075 sec
 * total energy  :   -37.6470550 Eh     change       -0.1136383E-03 Eh
   gradient norm :     0.0074860 Eh/α   predicted    -0.8161173E-04 ( -28.18%)
   displ. norm   :     0.2366240 α      lambda       -0.1210704E-03
   maximum displ.:     0.1745043 α      in ANC's #1, #2, #3, ...

........................................................................
.............................. CYCLE   51 ..............................
........................................................................
   1    -38.2841286 -0.382841E+02  0.599E-02    1.97       0.0  T
   2    -38.2841296 -0.983837E-06  0.411E-02    1.97       1.0  T
   3    -38.2841176  0.120131E-04  0.241E-02    1.97       1.0  T
   4    -38.2841321 -0.145143E-04  0.729E-03    1.97       2.5  T
   5    -38.2841327 -0.564417E-06  0.360E-03    1.97       5.0  T
   6    -38.2841327 -0.243954E-07  0.127E-03    1.97      14.1  T
   7    -38.2841327 -0.932268E-08  0.473E-04    1.97      38.0  T
   8    -38.2841327  0.235168E-09  0.295E-04    1.97      60.9  T
     SCC iter.                  ...        0 min,  0.222 sec
     gradient                   ...        0 min,  0.032 sec
 * total energy  :   -37.6471455 Eh     change       -0.9042457E-04 Eh
   gradient norm :     0.0047475 Eh/α   predicted    -0.6392664E-04 ( -29.30%)
   displ. norm   :     0.2523980 α      lambda       -0.8563523E-04
   maximum displ.:     0.1852785 α      in ANC's #1, #2, #3, ...

........................................................................
.............................. CYCLE   52 ..............................
........................................................................
   1    -38.2826098 -0.382826E+02  0.534E-02    1.96       0.0  T
   2    -38.2826107 -0.888206E-06  0.316E-02    1.97       1.0  T
   3    -38.2826090  0.171344E-05  0.146E-02    1.96       1.2  T
   4    -38.2826111 -0.213473E-05  0.348E-03    1.97       5.2  T
   5    -38.2826111  0.460622E-07  0.348E-03    1.97       5.2  T
   6    -38.2826111 -0.757516E-07  0.113E-03    1.97      15.9  T
   7    -38.2826112 -0.199690E-07  0.343E-04    1.97      52.4  T
   8    -38.2826112 -0.891788E-09  0.167E-04    1.97     107.7  T
     SCC iter.                  ...        0 min,  0.200 sec
     gradient                   ...        0 min,  0.010 sec
 * total energy  :   -37.6471999 Eh     change       -0.5445468E-04 Eh
   gradient norm :     0.0074449 Eh/α   predicted    -0.4554905E-04 ( -16.35%)
   displ. norm   :     0.1537172 α      lambda       -0.9238029E-04
   maximum displ.:     0.1418890 α      in ANC's #1, #4, #2, ...

........................................................................
.............................. CYCLE   53 ..............................
........................................................................
   1    -38.2847345 -0.382847E+02  0.358E-02    1.97       0.0  T
   2    -38.2847351 -0.633920E-06  0.216E-02    1.97       1.0  T
   3    -38.2847340  0.114237E-05  0.100E-02    1.97       1.8  T
   4    -38.2847354 -0.142802E-05  0.362E-03    1.97       5.0  T
   5    -38.2847355 -0.505540E-07  0.245E-03    1.97       7.3  T
   6    -38.2847355  0.213756E-07  0.104E-03    1.97      17.3  T
   7    -38.2847355 -0.233543E-07  0.362E-04    1.97      49.6  T
   8    -38.2847355 -0.481663E-09  0.206E-04    1.97      87.3  T
     SCC iter.                  ...        0 min,  0.202 sec
     gradient                   ...        0 min,  0.007 sec
 * total energy  :   -37.6472289 Eh     change       -0.2900240E-04 Eh
   gradient norm :     0.0065497 Eh/α   predicted    -0.4728682E-04 (  63.04%)
   displ. norm   :     0.1002653 α      lambda       -0.4226903E-04
   maximum displ.:     0.0753715 α      in ANC's #1, #3, #2, ...

........................................................................
.............................. CYCLE   54 ..............................
........................................................................
   1    -38.2835728 -0.382836E+02  0.240E-02    1.97       0.0  T
   2    -38.2835730 -0.203716E-06  0.132E-02    1.97       1.4  T
   3    -38.2835713  0.169694E-05  0.126E-02    1.97       1.4  T
   4    -38.2835738 -0.248327E-05  0.338E-03    1.97       5.3  T
   5    -38.2835738 -0.210349E-07  0.227E-03    1.97       7.9  T
   6    -38.2835738 -0.478853E-08  0.872E-04    1.97      20.6  T
   7    -38.2835738 -0.108236E-07  0.163E-04    1.97     110.2  T
     SCC iter.                  ...        0 min,  0.178 sec
     gradient                   ...        0 min,  0.020 sec
 * total energy  :   -37.6472583 Eh     change       -0.2939034E-04 Eh
   gradient norm :     0.0034580 Eh/α   predicted    -0.2134793E-04 ( -27.36%)
   displ. norm   :     0.0491775 α      lambda       -0.2318155E-04
   maximum displ.:     0.0390554 α      in ANC's #1, #2, #3, ...

........................................................................
.............................. CYCLE   55 ..............................
........................................................................
   1    -38.2837168 -0.382837E+02  0.155E-02    1.97       0.0  T
   2    -38.2837169 -0.926986E-07  0.102E-02    1.96       1.8  T
   3    -38.2837171 -0.244317E-06  0.739E-03    1.97       2.4  T
   4    -38.2837178 -0.720568E-06  0.200E-03    1.97       9.0  T
   5    -38.2837179 -0.418433E-07  0.889E-04    1.97      20.2  T
   6    -38.2837179  0.697817E-09  0.416E-04    1.97      43.2  T
     SCC iter.                  ...        0 min,  0.162 sec
     gradient                   ...        0 min,  0.022 sec
 * total energy  :   -37.6472751 Eh     change       -0.1679595E-04 Eh
   gradient norm :     0.0015151 Eh/α   predicted    -0.1162095E-04 ( -30.81%)
   displ. norm   :     0.1018466 α      lambda       -0.2184500E-04
   maximum displ.:     0.0754197 α      in ANC's #1, #2, #4, ...

........................................................................
.............................. CYCLE   56 ..............................
........................................................................
   1    -38.2838862 -0.382839E+02  0.331E-02    1.97       0.0  T
   2    -38.2838866 -0.372790E-06  0.211E-02    1.96       1.0  T
   3    -38.2838850  0.162017E-05  0.171E-02    1.97       1.0  T
   4    -38.2838891 -0.410661E-05  0.366E-03    1.97       4.9  T
   5    -38.2838892 -0.171315E-06  0.173E-03    1.97      10.4  T
   6    -38.2838892 -0.322117E-09  0.630E-04    1.97      28.5  T
   7    -38.2838893 -0.490851E-08  0.268E-04    1.97      67.0  T
     SCC iter.                  ...        0 min,  0.165 sec
     gradient                   ...        0 min,  0.006 sec
 * total energy  :   -37.6472928 Eh     change       -0.1772038E-04 Eh
   gradient norm :     0.0033293 Eh/α   predicted    -0.1097312E-04 ( -38.08%)
   displ. norm   :     0.0504827 α      lambda       -0.1630835E-04
   maximum displ.:     0.0402283 α      in ANC's #1, #2, #3, ...

........................................................................
.............................. CYCLE   57 ..............................
........................................................................
   1    -38.2843320 -0.382843E+02  0.931E-03    1.96       0.0  T
   2    -38.2843320 -0.365908E-07  0.596E-03    1.96       3.0  T
   3    -38.2843320  0.513499E-07  0.460E-03    1.96       3.9  T
   4    -38.2843322 -0.292282E-06  0.130E-03    1.96      13.8  T
   5    -38.2843323 -0.116060E-07  0.822E-04    1.96      21.8  T
   6    -38.2843323  0.916160E-09  0.418E-04    1.96      43.0  T
     SCC iter.                  ...        0 min,  0.144 sec
     gradient                   ...        0 min,  0.007 sec
 * total energy  :   -37.6473047 Eh     change       -0.1191039E-04 Eh
   gradient norm :     0.0020028 Eh/α   predicted    -0.8177631E-05 ( -31.34%)
   displ. norm   :     0.0516334 α      lambda       -0.1470298E-04
   maximum displ.:     0.0394288 α      in ANC's #1, #2, #4, ...

........................................................................
.............................. CYCLE   58 ..............................
........................................................................
   1    -38.2843988 -0.382844E+02  0.107E-02    1.96       0.0  T
   2    -38.2843989 -0.901090E-07  0.609E-03    1.96       3.0  T
   3    -38.2843988  0.124116E-06  0.395E-03    1.96       4.5  T
   4    -38.2843990 -0.183752E-06  0.788E-04    1.96      22.8  T
   5    -38.2843990 -0.662318E-09  0.537E-04    1.96      33.5  T
     SCC iter.                  ...        0 min,  0.142 sec
     gradient                   ...        0 min,  0.017 sec
 * total energy  :   -37.6473168 Eh     change       -0.1208231E-04 Eh
   gradient norm :     0.0023978 Eh/α   predicted    -0.7373786E-05 ( -38.97%)
   displ. norm   :     0.0642168 α      lambda       -0.1557432E-04
   maximum displ.:     0.0455608 α      in ANC's #1, #2, #3, ...

........................................................................
.............................. CYCLE   59 ..............................
........................................................................
   1    -38.2843989 -0.382844E+02  0.135E-02    1.96       0.0  T
   2    -38.2843991 -0.153352E-06  0.785E-03    1.96       2.3  T
   3    -38.2843988  0.285066E-06  0.550E-03    1.96       3.3  T
   4    -38.2843992 -0.393590E-06  0.140E-03    1.96      12.8  T
   5    -38.2843992 -0.138225E-07  0.693E-04    1.96      25.9  T
   6    -38.2843992 -0.410878E-09  0.297E-04    1.96      60.4  T
     SCC iter.                  ...        0 min,  0.168 sec
     gradient                   ...        0 min,  0.008 sec
 * total energy  :   -37.6473295 Eh     change       -0.1266655E-04 Eh
   gradient norm :     0.0019317 Eh/α   predicted    -0.7821627E-05 ( -38.25%)
   displ. norm   :     0.1090691 α      lambda       -0.1435150E-04
   maximum displ.:     0.0745934 α      in ANC's #2, #1, #3, ...

........................................................................
.............................. CYCLE   60 ..............................
........................................................................
   1    -38.2839600 -0.382840E+02  0.223E-02    1.96       0.0  T
   2    -38.2839603 -0.215131E-06  0.152E-02    1.96       1.2  T
   3    -38.2839585  0.173670E-05  0.967E-03    1.96       1.9  T
   4    -38.2839608 -0.222753E-05  0.279E-03    1.96       6.4  T
   5    -38.2839608 -0.945153E-07  0.974E-04    1.96      18.4  T
   6    -38.2839608  0.655980E-09  0.355E-04    1.96      50.6  T
     SCC iter.                  ...        0 min,  0.166 sec
     gradient                   ...        0 min,  0.020 sec
 * total energy  :   -37.6473459 Eh     change       -0.1646839E-04 Eh
   gradient norm :     0.0016424 Eh/α   predicted    -0.7215047E-05 ( -56.19%)
   displ. norm   :     0.1071591 α      lambda       -0.1215652E-04
   maximum displ.:     0.0766919 α      in ANC's #2, #1, #3, ...

........................................................................
.............................. CYCLE   61 ..............................
........................................................................
   1    -38.2839794 -0.382840E+02  0.242E-02    1.96       0.0  T
   2    -38.2839795 -0.854923E-07  0.170E-02    1.96       1.1  T
   3    -38.2839781  0.136943E-05  0.659E-03    1.96       2.7  T
   4    -38.2839795 -0.141776E-05  0.268E-03    1.96       6.7  T
   5    -38.2839796 -0.532258E-07  0.140E-03    1.96      12.8  T
   6    -38.2839796 -0.775403E-08  0.267E-04    1.96      67.2  T
   7    -38.2839796 -0.728264E-09  0.168E-04    1.96     107.2  T
     SCC iter.                  ...        0 min,  0.176 sec
     gradient                   ...        0 min,  0.032 sec
 * total energy  :   -37.6473604 Eh     change       -0.1447243E-04 Eh
   gradient norm :     0.0017220 Eh/α   predicted    -0.6111927E-05 ( -57.77%)
   displ. norm   :     0.1470489 α      lambda       -0.1413732E-04
   maximum displ.:     0.1033639 α      in ANC's #2, #1, #3, ...

........................................................................
.............................. CYCLE   62 ..............................
........................................................................
   1    -38.2836065 -0.382836E+02  0.343E-02    1.96       0.0  T
   2    -38.2836067 -0.138369E-06  0.256E-02    1.96       1.0  T
   3    -38.2836022  0.443068E-05  0.133E-02    1.96       1.4  T
   4    -38.2836071 -0.483912E-05  0.276E-03    1.96       6.5  T
   5    -38.2836072 -0.112045E-06  0.173E-03    1.96      10.4  T
   6    -38.2836072 -0.121013E-07  0.313E-04    1.96      57.5  T
   7    -38.2836072 -0.725507E-09  0.160E-04    1.96     112.6  T
     SCC iter.                  ...        0 min,  0.177 sec
     gradient                   ...        0 min,  0.016 sec
 * total energy  :   -37.6473754 Eh     change       -0.1495837E-04 Eh
   gradient norm :     0.0012042 Eh/α   predicted    -0.7139140E-05 ( -52.27%)
   displ. norm   :     0.1118804 α      lambda       -0.7535075E-05
   maximum displ.:     0.0788596 α      in ANC's #1, #2, #3, ...

........................................................................
.............................. CYCLE   63 ..............................
........................................................................
   1    -38.2838351 -0.382838E+02  0.331E-02    1.97       0.0  T
   2    -38.2838352 -0.116383E-06  0.234E-02    1.97       1.0  T
   3    -38.2838334  0.177301E-05  0.850E-03    1.97       2.1  T
   4    -38.2838353 -0.183815E-05  0.258E-03    1.97       7.0  T
   5    -38.2838353 -0.543184E-07  0.136E-03    1.97      13.2  T
   6    -38.2838353 -0.822777E-08  0.290E-04    1.97      62.0  T
   7    -38.2838353 -0.881101E-09  0.170E-04    1.97     105.7  T
     SCC iter.                  ...        0 min,  0.209 sec
     gradient                   ...        0 min,  0.073 sec
 * total energy  :   -37.6473831 Eh     change       -0.7744645E-05 Eh
   gradient norm :     0.0008788 Eh/α   predicted    -0.3791533E-05 ( -51.04%)
   displ. norm   :     0.0693561 α      lambda       -0.4405676E-05
   maximum displ.:     0.0555231 α      in ANC's #1, #2, #3, ...

........................................................................
.............................. CYCLE   64 ..............................
........................................................................
   1    -38.2839906 -0.382840E+02  0.177E-02    1.97       0.0  T
   2    -38.2839907 -0.728021E-07  0.119E-02    1.97       1.5  T
   3    -38.2839902  0.453851E-06  0.487E-03    1.97       3.7  T
   4    -38.2839907 -0.499570E-06  0.133E-03    1.97      13.5  T
   5    -38.2839907 -0.110853E-07  0.724E-04    1.97      24.8  T
   6    -38.2839907 -0.398887E-08  0.239E-04    1.97      75.0  T
     SCC iter.                  ...        0 min,  0.174 sec
     gradient                   ...        0 min,  0.017 sec
 * total energy  :   -37.6473875 Eh     change       -0.4352024E-05 Eh
   gradient norm :     0.0006351 Eh/α   predicted    -0.2209334E-05 ( -49.23%)
   displ. norm   :     0.0371278 α      lambda       -0.2799053E-05
   maximum displ.:     0.0343715 α      in ANC's #1, #4, #3, ...

   *** GEOMETRY OPTIMIZATION CONVERGED AFTER 64 ITERATIONS ***

------------------------------------------------------------------------
 total energy gain   :        -3.6512768 Eh    -2291.2108 kcal/mol
 total RMSD          :         1.5944813 a0        0.8438 Å
 total power (kW/mol):      -149.7879057 (step) -538.2426 (real)
------------------------------------------------------------------------

 ANCopt (total)                0 d,  0 h,  0 min, 17.811 sec
 optimizer setup                ...        0 min,  0.000 sec (  0.002%)
 model hessian                  ...        0 min,  0.050 sec (  0.283%)
 ANC generation                 ...        0 min,  0.005 sec (  0.027%)
 coordinate transformation      ...        0 min,  0.001 sec (  0.006%)
 single point calculation       ...        0 min, 17.509 sec ( 98.307%)
 optimization log               ...        0 min,  0.006 sec (  0.036%)
 hessian update                 ...        0 min,  0.183 sec (  1.029%)
 rational function              ...        0 min,  0.051 sec (  0.286%)

================
 final structure:
================
31
 xtb: 6.5.1 (b24c23e)
Zr          -1.29905264373443       -0.05780375494479        0.52656692744495
C           -1.48053040658246        1.28515406437600       -1.27130135852952
C            0.20530606372231       -1.98696316397288        0.78448593659751
C            0.41430651865926       -1.48919741267580       -0.52216096320156
C           -0.77377939325430       -1.70545601766900       -1.26534824146296
C           -1.71906070132156       -2.31424793108016       -0.41243765025485
C           -1.12569514345467       -2.46796923866588        0.86748402211793
H            0.97410793500062       -2.11975668188148        1.53642213194384
H            1.36808993670640       -1.17211470785319       -0.93190003475693
H           -0.88118724364792       -1.57338379090359       -2.33509311188191
H           -2.66243671662001       -2.74377637514344       -0.72714832675075
H           -1.54270426985909       -3.03379960974847        1.69521621369683
C           -0.46695344605441        0.12458572742366        2.83084734904724
C           -1.73123498936643        0.75931133269465        2.79180510357852
C           -1.61343858201772        1.91425204313779        1.97313331003332
C           -0.28182018849530        1.98339625379352        1.50579585462600
C            0.42558585060538        0.87191468609835        2.02228662336373
H           -0.19482970640468       -0.68828973252791        3.49489355077077
H           -2.57127098282887        0.51726077299719        3.43389628164796
H           -2.36520964257545        2.68547088152047        1.85389578795458
H            0.15899597913199        2.81981418862765        0.97506297968586
H            1.49772916150108        0.72081942867916        1.95324935791571
H           -0.38342908151971        1.11494686105031       -1.10770893810285
H           -1.67032199389838        1.09664821598881       -2.32885952280095
H           -1.69660077480433        2.34054155678147       -1.07539556373142
C           -3.64843052895723       -0.07075148905527        0.57686570397527
C           -3.43710530404666        0.43739372155628       -0.72900255687221
H           -3.84019558720239        1.41877908411239       -0.95464032739099
H           -3.47924689433502       -0.26418544537531       -1.56051828273868
H           -4.10337678190594        0.59930431864587        1.30266715647826
H           -3.86129080244229       -1.13236283599540        0.71002490759353

 Bond Distances (Angstroems)
 ---------------------------
Zr1-C2=2.2514        Zr1-C3=2.4599        Zr1-C4=2.4666        Zr1-C5=2.4903        Zr1-C6=2.4799        Zr1-C7=2.4403        
Zr1-C13=2.4567       Zr1-C14=2.4466       Zr1-C15=2.4658       Zr1-C16=2.4820       Zr1-C17=2.4649       Zr1-H23=2.2101       
Zr1-C26=2.3500       Zr1-C27=2.5284       C2-Zr1=2.2514        C2-H23=1.1222        C2-H24=1.0909        C2-H25=1.0949        
C3-Zr1=2.4599        C3-C4=1.4138         C3-C7=1.4177         C3-H8=1.0836         C4-Zr1=2.4666        C4-C3=1.4138         
C4-C5=1.4180         C4-H9=1.0854         C5-Zr1=2.4903        C5-C4=1.4180         C5-C6=1.4113         C5-H10=1.0832        
C6-Zr1=2.4799        C6-C5=1.4113         C6-C7=1.4191         C6-H11=1.0833        C7-Zr1=2.4403        C7-C3=1.4177         
C7-C6=1.4191         C7-H12=1.0859        H8-C3=1.0836         H9-C4=1.0854         H10-C5=1.0832        H11-C6=1.0833        
H12-C7=1.0859        C13-Zr1=2.4567       C13-C14=1.4152       C13-C17=1.4174       C13-H18=1.0843       C14-Zr1=2.4466       
C14-C13=1.4152       C14-C15=1.4206       C14-H19=1.0847       C15-Zr1=2.4658       C15-C14=1.4206       C15-C16=1.4129       
C15-H20=1.0836       C16-Zr1=2.4820       C16-C15=1.4129       C16-C17=1.4151       C16-H21=1.0842       C17-Zr1=2.4649       
C17-C13=1.4174       C17-C16=1.4151       C17-H22=1.0849       H18-C13=1.0843       H19-C14=1.0847       H20-C15=1.0836       
H21-C16=1.0842       H22-C17=1.0849       H23-Zr1=2.2101       H23-C2=1.1222        H24-C2=1.0909        H25-C2=1.0949        
C26-Zr1=2.3500       C26-C27=1.4171       C26-H30=1.0875       C26-H31=1.0909       C27-Zr1=2.5284       C27-C26=1.4171       
C27-H28=1.0847       C27-H29=1.0888       H28-C27=1.0847       H29-C27=1.0888       H30-C26=1.0875       H31-C26=1.0909       
 C  H  Rav=1.0884 sigma=0.0090  Rmin=1.0832  Rmax=1.1222    17
 C  C  Rav=1.4162 sigma=0.0027  Rmin=1.4113  Rmax=1.4206    11
 Zr H  Rav=2.2101 sigma=0.0000  Rmin=2.2101  Rmax=2.2101     1
 Zr C  Rav=2.4448 sigma=0.0678  Rmin=2.2514  Rmax=2.5284    13

 selected bond angles (degree)
 --------------------
C3-Zr1-C2=126.93               C4-Zr1-C2= 93.59               C4-Zr1-C3= 33.35               C5-Zr1-C2= 80.62               
C5-Zr1-C3= 55.08               C5-Zr1-C4= 33.24               C6-Zr1-C2=103.10               C6-Zr1-C3= 55.23               
C6-Zr1-C4= 55.15               C6-Zr1-C5= 32.99               C7-Zr1-C2=134.94               C7-Zr1-C3= 33.63               
C7-Zr1-C4= 55.73               C7-Zr1-C5= 55.40               C7-Zr1-C6= 33.52               C13-Zr1-C2=137.06              
C13-Zr1-C3= 75.68              C13-Zr1-C4=101.92              C13-Zr1-C5=130.74              C13-Zr1-C6=118.69              
C13-Zr1-C7= 85.31              C14-Zr1-C2=121.73              C14-Zr1-C3=105.84              C14-Zr1-C4=135.25              
C14-Zr1-C5=157.59              C14-Zr1-C6=128.65              C14-Zr1-C7=102.30              C14-Zr1-C13= 33.55             
C15-Zr1-C2= 88.92              C15-Zr1-C3=130.06              C15-Zr1-C4=143.33              C15-Zr1-C5=168.00              
C15-Zr1-C6=158.16              C15-Zr1-C7=135.80              C15-Zr1-C13= 55.50             C15-Zr1-C14= 33.61             
C16-Zr1-C2= 81.81              C16-Zr1-C3=110.67              C16-Zr1-C4=111.12              C16-Zr1-C5=137.87              
C16-Zr1-C6=165.27              C16-Zr1-C7=136.72              C16-Zr1-C13= 55.25             C16-Zr1-C14= 55.42             
C16-Zr1-C15= 33.18             C17-Zr1-C2=108.42              C17-Zr1-C3= 78.71              C17-Zr1-C4= 89.48              
C17-Zr1-C5=122.59              C17-Zr1-C6=133.75              C17-Zr1-C7=103.77              C17-Zr1-C13= 33.47             
C17-Zr1-C14= 55.65             C17-Zr1-C15= 55.36             C17-Zr1-C16= 33.24             H23-Zr1-C2= 29.12              
H23-Zr1-C3=103.90              H23-Zr1-C4= 72.89              H23-Zr1-C5= 74.43              H23-Zr1-C6=105.84              
H23-Zr1-C7=126.72              H23-Zr1-C13=120.92             H23-Zr1-C14=125.49             H23-Zr1-C15= 93.57             
H23-Zr1-C16= 71.67             H23-Zr1-C17= 87.63             C26-Zr1-C2= 86.55              C26-Zr1-C3=127.22              
C26-Zr1-C4=134.45              C26-Zr1-C5=102.86              C26-Zr1-C6= 80.43              C26-Zr1-C7= 93.59              
C26-Zr1-C13=108.60             C26-Zr1-C14= 78.78             C26-Zr1-C15= 82.21             C26-Zr1-C16=113.94             
C26-Zr1-C17=133.52             C26-Zr1-H23=115.65             C27-Zr1-C2= 54.44              C27-Zr1-C3=136.28              
C27-Zr1-C4=119.33              C27-Zr1-C5= 87.17              C27-Zr1-C6= 81.20              C27-Zr1-C7=108.84              
C27-Zr1-C13=137.53             C27-Zr1-C14=104.18             C27-Zr1-C15= 91.54             C27-Zr1-C16=112.42             
C27-Zr1-C17=144.99             C27-Zr1-H23= 83.06             C27-Zr1-C26= 33.52             H23-C2-Zr1= 73.40              
H24-C2-Zr1=133.25              H24-C2-H23=106.57              H25-C2-Zr1=116.61              H25-C2-H23=108.24              
H25-C2-H24=107.80              C4-C3-Zr1= 73.58               C7-C3-Zr1= 72.43               C7-C3-C4=108.20                
H8-C3-Zr1=127.07               H8-C3-C4=125.42                H8-C3-C7=125.73                C3-C4-Zr1= 73.06               
C5-C4-Zr1= 74.30               C5-C4-C3=107.87                H9-C4-Zr1=126.97               H9-C4-C3=125.57                
H9-C4-C5=125.66                C4-C5-Zr1= 72.46               C6-C5-Zr1= 73.10               C6-C5-C4=108.07                
H10-C5-Zr1=127.52              H10-C5-C4=125.60               H10-C5-C6=125.66               C5-C6-Zr1= 73.91               
C7-C6-Zr1= 71.71               C7-C6-C5=108.16                H11-C6-Zr1=128.19              H11-C6-C5=125.36               
H11-C6-C7=125.68               C3-C7-Zr1= 73.94               C6-C7-Zr1= 74.77               C6-C7-C3=107.64                
H12-C7-Zr1=126.43              H12-C7-C3=125.59               H12-C7-C6=125.69               

 selected dihedral angles (degree)
 ---------------------------------
H23-C2-Zr1-C3=317.02          H23-C2-Zr1-C4=315.93          H23-C2-Zr1-C5=285.22          H23-C2-Zr1-C6=260.90          
H23-C2-Zr1-C7=273.19          H23-C2-Zr1-C13= 67.73         H23-C2-Zr1-C14=107.02         H23-C2-Zr1-C15= 99.31         
H23-C2-Zr1-C16= 66.77         H23-C2-Zr1-C17= 46.58         H23-C2-Zr1-C26=181.57         H23-C2-Zr1-C27=191.98         
H24-C2-Zr1-C3= 54.38          H24-C2-Zr1-C4= 53.30          H24-C2-Zr1-C5= 22.58          H24-C2-Zr1-C6=358.27          
H24-C2-Zr1-C7= 10.56          H24-C2-Zr1-C13=165.09         H24-C2-Zr1-C14=204.39         H24-C2-Zr1-C15=196.68         
H24-C2-Zr1-C16=164.13         H24-C2-Zr1-C17=143.94         H24-C2-Zr1-H23= 97.36         H24-C2-Zr1-C26=278.93         
H24-C2-Zr1-C27=289.34         H25-C2-Zr1-C3=214.55          H25-C2-Zr1-C4=213.46          H25-C2-Zr1-C5=182.75          
H25-C2-Zr1-C6=158.43          H25-C2-Zr1-C7=170.72          H25-C2-Zr1-C13=325.25         H25-C2-Zr1-C14=  4.55         
H25-C2-Zr1-C15=356.84         H25-C2-Zr1-C16=324.30         H25-C2-Zr1-C17=304.10         H25-C2-Zr1-H23=257.53         
H25-C2-Zr1-C26= 79.09         H25-C2-Zr1-C27= 89.51         C4-C3-Zr1-C2=358.03           C4-C3-Zr1-C5= 37.38           
C4-C3-Zr1-C6= 77.86           C4-C3-Zr1-C7=115.78           C4-C3-Zr1-C13=219.15          C4-C3-Zr1-C14=204.26          
C4-C3-Zr1-C15=231.06          C4-C3-Zr1-C16=262.69          C4-C3-Zr1-C17=253.37          C4-C3-Zr1-H23=338.04          
C4-C3-Zr1-C26=116.47          C4-C3-Zr1-C27= 72.56          C7-C3-Zr1-C2=242.25           C7-C3-Zr1-C4=244.22           
C7-C3-Zr1-C5=281.60           C7-C3-Zr1-C6=322.08           C7-C3-Zr1-C13=103.37          C7-C3-Zr1-C14= 88.48          
C7-C3-Zr1-C15=115.29          C7-C3-Zr1-C16=146.91          C7-C3-Zr1-C17=137.59          C7-C3-Zr1-H23=222.26          
C7-C3-Zr1-C26=  0.69          C7-C3-Zr1-C27=316.79          H8-C3-Zr1-C2=120.35           H8-C3-Zr1-C4=122.33           
H8-C3-Zr1-C5=159.70           H8-C3-Zr1-C6=200.18           H8-C3-Zr1-C7=238.10           H8-C3-Zr1-C13=341.47          
H8-C3-Zr1-C14=326.58          H8-C3-Zr1-C15=353.39          H8-C3-Zr1-C16= 25.01          H8-C3-Zr1-C17= 15.69          
H8-C3-Zr1-H23=100.37          H8-C3-Zr1-C26=238.79          H8-C3-Zr1-C27=194.89          C3-C4-Zr1-C2=178.42           
C3-C4-Zr1-C5=245.24           C3-C4-Zr1-C6=281.90           C3-C4-Zr1-C7=322.88           C3-C4-Zr1-C13= 38.70          
C3-C4-Zr1-C14= 34.15          C3-C4-Zr1-C15= 85.40          C3-C4-Zr1-C16= 95.82          C3-C4-Zr1-C17= 70.00          
C3-C4-Zr1-H23=157.68          C3-C4-Zr1-C26=267.10          C3-C4-Zr1-C27=229.14          C5-C4-Zr1-C2=293.18           
C5-C4-Zr1-C3=114.76           C5-C4-Zr1-C6= 36.66           C5-C4-Zr1-C7= 77.64           C5-C4-Zr1-C13=153.46          
C5-C4-Zr1-C14=148.91          C5-C4-Zr1-C15=200.16          C5-C4-Zr1-C16=210.58          C5-C4-Zr1-C17=184.75          
C5-C4-Zr1-H23=272.44          C5-C4-Zr1-C26= 21.86          C5-C4-Zr1-C27=343.90          H9-C4-Zr1-C2= 56.29           
H9-C4-Zr1-C3=237.87           H9-C4-Zr1-C5=123.11           H9-C4-Zr1-C6=159.77           H9-C4-Zr1-C7=200.75           
H9-C4-Zr1-C13=276.57          H9-C4-Zr1-C14=272.03          H9-C4-Zr1-C15=323.28          H9-C4-Zr1-C16=333.69          
H9-C4-Zr1-C17=307.87          H9-C4-Zr1-H23= 35.55          H9-C4-Zr1-C26=144.98          H9-C4-Zr1-C27=107.01          
Zr1-C4-C3-C7= 64.65           Zr1-C4-C3-H8=235.84           C5-C4-C3-Zr1=293.29           C5-C4-C3-C7=357.94            
C5-C4-C3-H8=169.13            H9-C4-C3-Zr1=123.71           H9-C4-C3-C7=188.36            H9-C4-C3-H8=359.55            
C4-C5-Zr1-C2=111.58           C4-C5-Zr1-C3=322.49           C4-C5-Zr1-C6=244.15           C4-C5-Zr1-C7=281.26           
C4-C5-Zr1-C13=324.76          C4-C5-Zr1-C14=287.55          C4-C5-Zr1-C15= 81.91          C4-C5-Zr1-C16= 45.02          
C4-C5-Zr1-C17=  5.65          C4-C5-Zr1-H23= 82.41          C4-C5-Zr1-C26=195.82          C4-C5-Zr1-C27=165.99          
C6-C5-Zr1-C2=227.43           C6-C5-Zr1-C3= 78.35           C6-C5-Zr1-C4=115.85           C6-C5-Zr1-C7= 37.11           
C6-C5-Zr1-C13= 80.61          C6-C5-Zr1-C14= 43.41          C6-C5-Zr1-C15=197.77          C6-C5-Zr1-C16=160.87          
C6-C5-Zr1-C17=121.50          C6-C5-Zr1-H23=198.26          C6-C5-Zr1-C26=311.68          C6-C5-Zr1-C27=281.84          
H10-C5-Zr1-C2=349.77          H10-C5-Zr1-C3=200.69          H10-C5-Zr1-C4=238.19          H10-C5-Zr1-C6=122.34          
H10-C5-Zr1-C7=159.45          H10-C5-Zr1-C13=202.95         H10-C5-Zr1-C14=165.75         H10-C5-Zr1-C15=320.11         
H10-C5-Zr1-C16=283.21         H10-C5-Zr1-C17=243.84         H10-C5-Zr1-H23=320.60         H10-C5-Zr1-C26= 74.02         
H10-C5-Zr1-C27= 44.19         Zr1-C5-C4-C3= 65.88           Zr1-C5-C4-H9=235.45           C6-C5-C4-Zr1=295.08           
C6-C5-C4-C3=  0.96            C6-C5-C4-H9=170.53            H10-C5-C4-Zr1=124.01          H10-C5-C4-C3=189.89           
H10-C5-C4-H9=359.46           C5-C6-Zr1-C2= 48.25           C5-C6-Zr1-C3=282.14           C5-C6-Zr1-C4=323.06           
C5-C6-Zr1-C7=244.09           C5-C6-Zr1-C13=238.45          C5-C6-Zr1-C14=199.60          C5-C6-Zr1-C15=170.18          
C5-C6-Zr1-C16=300.18          C5-C6-Zr1-C17=276.04          C5-C6-Zr1-H23= 18.29          C5-C6-Zr1-C26=132.40          
C5-C6-Zr1-C27= 98.44          C7-C6-Zr1-C2=164.17           C7-C6-Zr1-C3= 38.05           C7-C6-Zr1-C4= 78.97           
C7-C6-Zr1-C5=115.91           C7-C6-Zr1-C13=354.36          C7-C6-Zr1-C14=315.52          C7-C6-Zr1-C15=286.09          
C7-C6-Zr1-C16= 56.10          C7-C6-Zr1-C17= 31.95          C7-C6-Zr1-H23=134.20          C7-C6-Zr1-C26=248.32          
C7-C6-Zr1-C27=214.36          H11-C6-Zr1-C2=285.60          H11-C6-Zr1-C3=159.49          H11-C6-Zr1-C4=200.40          
H11-C6-Zr1-C5=237.35          H11-C6-Zr1-C7=121.43          H11-C6-Zr1-C13=115.80         H11-C6-Zr1-C14= 76.95         
H11-C6-Zr1-C15= 47.53         H11-C6-Zr1-C16=177.53         H11-C6-Zr1-C17=153.39         H11-C6-Zr1-H23=255.64         
H11-C6-Zr1-C26=  9.75         H11-C6-Zr1-C27=335.79         Zr1-C6-C5-C4= 64.51           Zr1-C6-C5-H10=235.57          
C7-C6-C5-Zr1=296.00           C7-C6-C5-C4=  0.50            C7-C6-C5-H10=171.57           H11-C6-C5-Zr1=125.76          
H11-C6-C5-C4=190.26           H11-C6-C5-H10=  1.33          C3-C7-Zr1-C2= 91.85           C3-C7-Zr1-C4= 36.80           
C3-C7-Zr1-C5= 77.39           C3-C7-Zr1-C6=113.90           C3-C7-Zr1-C13=288.94          C3-C7-Zr1-C14=259.84          
C3-C7-Zr1-C15=263.06          C3-C7-Zr1-C16=311.83          C3-C7-Zr1-C17=317.08          C3-C7-Zr1-H23= 54.54          
C3-C7-Zr1-C26=180.55          C3-C7-Zr1-C27=150.00          C6-C7-Zr1-C2=337.95           C6-C7-Zr1-C3=246.10           
C6-C7-Zr1-C4=282.90           C6-C7-Zr1-C5=323.49           C6-C7-Zr1-C13=175.04          C6-C7-Zr1-C14=145.94          
C6-C7-Zr1-C15=149.16          C6-C7-Zr1-C16=197.93          C6-C7-Zr1-C17=203.18          C6-C7-Zr1-H23=300.64          
C6-C7-Zr1-C26= 66.65          C6-C7-Zr1-C27= 36.10          H12-C7-Zr1-C2=214.55          H12-C7-Zr1-C3=122.70          
H12-C7-Zr1-C4=159.50          H12-C7-Zr1-C5=200.09          H12-C7-Zr1-C6=236.60          H12-C7-Zr1-C13= 51.64         
H12-C7-Zr1-C14= 22.54         H12-C7-Zr1-C15= 25.76         H12-C7-Zr1-C16= 74.53         H12-C7-Zr1-C17= 79.78         
H12-C7-Zr1-H23=177.24         H12-C7-Zr1-C26=303.25         H12-C7-Zr1-C27=272.70         Zr1-C7-C3-C4=294.59           
Zr1-C7-C3-H8=123.44           C6-C7-C3-Zr1= 67.77           C6-C7-C3-C4=  2.36            C6-C7-C3-H8=191.21            
H12-C7-C3-Zr1=236.36          H12-C7-C3-C4=170.96           H12-C7-C3-H8=359.80           Zr1-C7-C6-C5= 65.44           
Zr1-C7-C6-H11=235.64          C3-C7-C6-Zr1=292.79           C3-C7-C6-C5=358.23            C3-C7-C6-H11=168.43           
H12-C7-C6-Zr1=124.21          H12-C7-C6-C5=189.65           H12-C7-C6-H11=359.85          
           -------------------------------------------------
          |                Final Singlepoint                |
           -------------------------------------------------

          ...................................................
          :                      SETUP                      :
          :.................................................:
          :  # basis functions                  79          :
          :  # atomic orbitals                  78          :
          :  # shells                           46          :
          :  # electrons                        72          :
          :  max. iterations                   250          :
          :  Hamiltonian                  GFN2-xTB          :
          :  restarted?                      false          :
          :  GBSA solvation                  false          :
          :  PC potential                    false          :
          :  electronic temp.          300.0000000     K    :
          :  accuracy                    1.0000000          :
          :  -> integral cutoff          0.2500000E+02      :
          :  -> integral neglect         0.1000000E-07      :
          :  -> SCF convergence          0.1000000E-05 Eh   :
          :  -> wf. convergence          0.1000000E-03 e    :
          :  Broyden damping             0.4000000          :
          ...................................................

 iter      E             dE          RMSdq      gap      omega  full diag
   1    -38.2839907 -0.382840E+02  0.115E-04    1.97       0.0  T
   2    -38.2839907 -0.354063E-10  0.785E-05    1.97     228.8  T
   3    -38.2839907 -0.196536E-10  0.606E-05    1.97     296.5  T

   *** convergence criteria satisfied after 3 iterations ***

         #    Occupation            Energy/Eh            Energy/eV
      -------------------------------------------------------------
         1        2.0000           -0.8747474             -23.8031
       ...           ...                  ...                  ...
        30        2.0000           -0.5863592             -15.9556
        31        2.0000           -0.5840803             -15.8936
        32        2.0000           -0.5195190             -14.1368
        33        2.0000           -0.5191353             -14.1264
        34        2.0000           -0.5084063             -13.8344
        35        2.0000           -0.5033531             -13.6969
        36        2.0000           -0.4969066             -13.5215 (HOMO)
        37                         -0.4246576             -11.5555 (LUMO)
        38                         -0.4085059             -11.1160
        39                         -0.4021484             -10.9430
        40                         -0.4006147             -10.9013
        41                         -0.3891855             -10.5903
       ...                                ...                  ...
        78                          2.5371002              69.0380
      -------------------------------------------------------------
                  HL-Gap            0.0722490 Eh            1.9660 eV
             Fermi-level           -0.4607821 Eh          -12.5385 eV

 SCC (total)                   0 d,  0 h,  0 min,  0.088 sec
 SCC setup                      ...        0 min,  0.001 sec (  0.983%)
 Dispersion                     ...        0 min,  0.000 sec (  0.119%)
 classical contributions        ...        0 min,  0.000 sec (  0.034%)
 integral evaluation            ...        0 min,  0.001 sec (  1.493%)
 iterations                     ...        0 min,  0.077 sec ( 87.131%)
 molecular gradient             ...        0 min,  0.009 sec ( 10.012%)
 printout                       ...        0 min,  0.000 sec (  0.208%)

         :::::::::::::::::::::::::::::::::::::::::::::::::::::
         ::                     SUMMARY                     ::
         :::::::::::::::::::::::::::::::::::::::::::::::::::::
         :: total energy             -37.647387477016 Eh    ::
         :: gradient norm              0.000636174786 Eh/a0 ::
         :: HOMO-LUMO gap              1.965995893727 eV    ::
         ::.................................................::
         :: SCC energy               -38.283990737197 Eh    ::
         :: -> isotropic ES            0.088167466283 Eh    ::
         :: -> anisotropic ES         -0.014078487669 Eh    ::
         :: -> anisotropic XC          0.021376672204 Eh    ::
         :: -> dispersion             -0.028368654877 Eh    ::
         :: repulsion energy           0.635891892925 Eh    ::
         :: add. restraining           0.000037287319 Eh    ::
         :: total charge               1.000000000000 e     ::
         :::::::::::::::::::::::::::::::::::::::::::::::::::::

           -------------------------------------------------
          |                Property Printout                |
           -------------------------------------------------

    * Orbital Energies and Occupations

         #    Occupation            Energy/Eh            Energy/eV
      -------------------------------------------------------------
         1        2.0000           -0.8747474             -23.8031
       ...           ...                  ...                  ...
        24        2.0000           -0.5931823             -16.1413
        25        2.0000           -0.5918696             -16.1056
        26        2.0000           -0.5893806             -16.0379
        27        2.0000           -0.5886825             -16.0189
        28        2.0000           -0.5885216             -16.0145
        29        2.0000           -0.5867805             -15.9671
        30        2.0000           -0.5863592             -15.9556
        31        2.0000           -0.5840803             -15.8936
        32        2.0000           -0.5195190             -14.1368
        33        2.0000           -0.5191353             -14.1264
        34        2.0000           -0.5084063             -13.8344
        35        2.0000           -0.5033531             -13.6969
        36        2.0000           -0.4969066             -13.5215 (HOMO)
        37                         -0.4246576             -11.5555 (LUMO)
        38                         -0.4085059             -11.1160
        39                         -0.4021484             -10.9430
        40                         -0.4006147             -10.9013
        41                         -0.3891855             -10.5903
        42                         -0.3758052             -10.2262
        43                         -0.3044487              -8.2845
        44                         -0.3037721              -8.2661
        45                         -0.3024657              -8.2305
        46                         -0.3014023              -8.2016
        47                         -0.0542541              -1.4763
       ...                                ...                  ...
        78                          2.5371002              69.0380
      -------------------------------------------------------------
                  HL-Gap            0.0722490 Eh            1.9660 eV
             Fermi-level           -0.4607821 Eh          -12.5385 eV

     #   Z          covCN         q      C6AA      α(0)
     1  40 Zr      10.370     0.955   138.693    17.696
     2   6 C        3.711    -0.282    26.432     7.347
     3   6 C        3.761    -0.084    22.142     6.708
     4   6 C        3.755    -0.092    22.308     6.735
     5   6 C        3.746    -0.090    22.282     6.733
     6   6 C        3.752    -0.092    22.309     6.736
     7   6 C        3.764    -0.094    22.335     6.736
     8   1 H        0.925     0.084     1.935     2.175
     9   1 H        0.925     0.073     2.050     2.239
    10   1 H        0.925     0.077     2.009     2.217
    11   1 H        0.925     0.076     2.019     2.222
    12   1 H        0.925     0.079     1.985     2.203
    13   6 C        3.760    -0.086    22.183     6.714
    14   6 C        3.763    -0.091    22.284     6.729
    15   6 C        3.756    -0.092    22.310     6.734
    16   6 C        3.749    -0.086    22.213     6.722
    17   6 C        3.756    -0.090    22.276     6.729
    18   1 H        0.925     0.085     1.933     2.174
    19   1 H        0.925     0.081     1.965     2.192
    20   1 H        0.925     0.079     1.984     2.203
    21   1 H        0.925     0.074     2.044     2.235
    22   1 H        0.925     0.078     1.997     2.210
    23   1 H        1.458     0.091     1.860     2.129
    24   1 H        0.924     0.083     1.946     2.181
    25   1 H        0.925     0.079     1.985     2.203
    26   6 C        3.616    -0.197    24.943     7.205
    27   6 C        3.691    -0.076    22.142     6.734
    28   1 H        0.925     0.125     1.577     1.964
    29   1 H        0.925     0.119     1.619     1.990
    30   1 H        0.925     0.105     1.743     2.065
    31   1 H        0.933     0.105     1.737     2.061

 Mol. C6AA /au·bohr⁶  :       9435.768890
 Mol. C8AA /au·bohr⁸  :     320647.819206
 Mol. α(0) /au        :        142.921488


Wiberg/Mayer (AO) data.
largest (>0.10) Wiberg bond orders for each atom

 ---------------------------------------------------------------------------
     #   Z sym  total        # sym  WBO       # sym  WBO       # sym  WBO
 ---------------------------------------------------------------------------
     1  40 Zr   4.329 --     2 C    0.577    26 C    0.467     7 C    0.252
                            14 C    0.247    13 C    0.238     4 C    0.238
                            17 C    0.237     3 C    0.229    15 C    0.229
                            16 C    0.226     6 C    0.225     5 C    0.222
                            27 C    0.220    23 H    0.125
     2   6 C    3.892 --    24 H    0.954    25 H    0.942    23 H    0.814
                             1 Zr   0.577    27 C    0.337    26 C    0.159
     3   6 C    3.982 --     4 C    1.315     7 C    1.300     8 H    0.925
                             1 Zr   0.229
     4   6 C    3.979 --     3 C    1.315     5 C    1.295     9 H    0.923
                             1 Zr   0.238
     5   6 C    3.979 --     6 C    1.324     4 C    1.295    10 H    0.929
                             1 Zr   0.222
     6   6 C    3.979 --     5 C    1.324     7 C    1.290    11 H    0.928
                             1 Zr   0.225
     7   6 C    3.979 --     3 C    1.300     6 C    1.290    12 H    0.919
                             1 Zr   0.252
     8   1 H    0.991 --     3 C    0.925
     9   1 H    0.993 --     4 C    0.923
    10   1 H    0.991 --     5 C    0.929
    11   1 H    0.992 --     6 C    0.928
    12   1 H    0.993 --     7 C    0.919
    13   6 C    3.980 --    17 C    1.304    14 C    1.304    18 H    0.923
                             1 Zr   0.238
    14   6 C    3.981 --    13 C    1.304    15 C    1.287    19 H    0.922
                             1 Zr   0.247
    15   6 C    3.978 --    16 C    1.318    14 C    1.287    20 H    0.927
                             1 Zr   0.229
    16   6 C    3.981 --    15 C    1.318    17 C    1.305    21 H    0.928
                             1 Zr   0.226
    17   6 C    3.979 --    16 C    1.305    13 C    1.304    22 H    0.924
                             1 Zr   0.237
    18   1 H    0.990 --    13 C    0.923
    19   1 H    0.991 --    14 C    0.922
    20   1 H    0.991 --    15 C    0.927
    21   1 H    0.992 --    16 C    0.928
    22   1 H    0.991 --    17 C    0.924
    23   1 H    0.992 --     2 C    0.814     1 Zr   0.125
    24   1 H    0.991 --     2 C    0.954
    25   1 H    0.993 --     2 C    0.942
    26   6 C    3.942 --    27 C    1.422    30 H    0.916    31 H    0.886
                             1 Zr   0.467     2 C    0.159
    27   6 C    3.976 --    26 C    1.422    28 H    0.938    29 H    0.925
                             2 C    0.337     1 Zr   0.220
    28   1 H    0.983 --    27 C    0.938
    29   1 H    0.984 --    27 C    0.925
    30   1 H    0.988 --    26 C    0.916
    31   1 H    0.988 --    26 C    0.886
 ---------------------------------------------------------------------------

Topologies differ in total number of bonds
Writing topology from bond orders to xtbtopo.mol

molecular dipole:
                 x           y           z       tot (Debye)
 q only:       -3.344       0.096       0.563
   full:       -2.960       0.171       0.487       7.637
molecular quadrupole (traceless):
                xx          xy          yy          xz          yz          zz
 q only:       14.819      -0.922      -9.470      -1.057      -3.805      -5.349
  q+dip:       13.579      -0.407      -9.576      -1.500      -7.705      -4.003
   full:       13.263       0.322      -8.801      -2.301      -6.359      -4.463

           -------------------------------------------------
          |                Geometry Summary                 |
           -------------------------------------------------

      molecular mass/u    :      264.4982010
   center of mass at/Å    :       -1.2359849      -0.1384281       0.6198312
  moments of inertia/u·Å² :        0.5661121E+03   0.7242490E+03   0.8990131E+03
rotational constants/cm⁻¹ :        0.2977790E-01   0.2327602E-01   0.1875126E-01

 * 41 selected distances

     #   Z          #   Z                                           value/Å
     1  40 Zr       2   6 C                                       2.2513998
     1  40 Zr       3   6 C                                       2.4599338
     1  40 Zr       4   6 C                                       2.4666412
     3   6 C        4   6 C                                       1.4137816
     1  40 Zr       5   6 C                                       2.4903074
     4   6 C        5   6 C                                       1.4179717
     1  40 Zr       6   6 C                                       2.4798544
     5   6 C        6   6 C                                       1.4112552
     1  40 Zr       7   6 C                                       2.4403229
     3   6 C        7   6 C                                       1.4176812
     6   6 C        7   6 C                                       1.4191240
     3   6 C        8   1 H                                       1.0835583
     4   6 C        9   1 H                                       1.0854172
     5   6 C       10   1 H                                       1.0832053 (min)
     6   6 C       11   1 H                                       1.0832802
     7   6 C       12   1 H                                       1.0859104
     1  40 Zr      13   6 C                                       2.4566979
     1  40 Zr      14   6 C                                       2.4465821
    13   6 C       14   6 C                                       1.4152064
     1  40 Zr      15   6 C                                       2.4658463
    14   6 C       15   6 C                                       1.4205590
     1  40 Zr      16   6 C                                       2.4819649
    15   6 C       16   6 C                                       1.4129378
     1  40 Zr      17   6 C                                       2.4649407
    13   6 C       17   6 C                                       1.4173559
    16   6 C       17   6 C                                       1.4151246
    13   6 C       18   1 H                                       1.0843318
    14   6 C       19   1 H                                       1.0846798
    15   6 C       20   1 H                                       1.0835848
    16   6 C       21   1 H                                       1.0842470
    17   6 C       22   1 H                                       1.0849366
     2   6 C       23   1 H                                       1.1222141
     2   6 C       24   1 H                                       1.0908642
     2   6 C       25   1 H                                       1.0949468
     1  40 Zr      26   6 C                                       2.3499521
     1  40 Zr      27   6 C                                       2.5284275 (max)
    26   6 C       27   6 C                                       1.4170964
    27   6 C       28   1 H                                       1.0846712
    27   6 C       29   1 H                                       1.0887644
    26   6 C       30   1 H                                       1.0875380
    26   6 C       31   1 H                                       1.0908986

 * 3 distinct bonds (by element types)

   Z      Z             #   av. dist./Å        max./Å        min./Å
   1 H    6 C          17     1.0884146     1.1222141     1.0832053
   6 C    6 C          11     1.4161903     1.4205590     1.4112552
   6 C   40 Zr         13     2.4448362     2.5284275     2.2513998


optimized geometry written to: xtbopt.xyz


           -------------------------------------------------
          | TOTAL ENERGY              -37.647387477016 Eh   |
          | GRADIENT NORM               0.000636174786 Eh/α |
          | HOMO-LUMO GAP               1.965995893727 eV   |
           -------------------------------------------------

------------------------------------------------------------------------
 * finished run on 2026/07/21 at 14:38:18.465     
------------------------------------------------------------------------
 total:
 * wall-time:     0 d,  0 h,  0 min, 18.390 sec
 *  cpu-time:     0 d,  0 h,  2 min, 20.418 sec
 * ratio c/w:     7.636 speedup
 SCF:
 * wall-time:     0 d,  0 h,  0 min,  0.447 sec
 *  cpu-time:     0 d,  0 h,  0 min,  3.450 sec
 * ratio c/w:     7.721 speedup
 ANC optimizer:
 * wall-time:     0 d,  0 h,  0 min, 17.905 sec
 *  cpu-time:     0 d,  0 h,  2 min, 16.694 sec
 * ratio c/w:     7.634 speedup

