31
 energy: -37.687427019385 gnorm: 0.000305677436 xtb: 6.5.1 (b24c23e)
Zr          -0.25361525279335       -0.22410668355963        0.18473596849601
C           -0.44333767686940        1.90562853658224        0.59338158477752
C            2.07608156848286        0.23156519045184       -0.31429267815431
C            1.70886428344039       -0.88701659713153       -1.10696593566382
C            1.44416771933584       -1.97065717383826       -0.23138944764870
C            1.60452120796797       -1.51634204015290        1.10023111488953
C            1.99888931914808       -0.15192287113437        1.05306348359033
H            2.48847192213717        1.16346743813872       -0.68495383632754
H            1.81375766201772       -0.95794833906884       -2.18614745182227
H            1.28803734551079       -3.00055045346639       -0.53182539689495
H            1.60260371796557       -2.14258835114091        1.98719843809862
H            2.35866758999043        0.43315676066881        1.89330400318940
C           -2.67071909495092       -0.19616968904632        0.31968477339123
C           -2.20352373316192       -1.12945181873878        1.28835053483270
C           -1.62620661104612       -2.22142283562648        0.59262725092656
C           -1.69942434640810       -1.95036729392562       -0.79659141835398
C           -2.34279463400447       -0.69812679081517       -0.96783831171429
H           -3.31063611508910        0.65375618832816        0.52464683091134
H           -2.43732524299116       -1.10428620728910        2.34875071966573
H           -1.31109991511160       -3.15889438758457        1.03814249303162
H           -1.46881465417571       -2.65295458321056       -1.59099457969782
H           -2.69155625845957       -0.29096182846818       -1.91214867332303
H            0.48646315337516        2.39859252788391        0.92657450484800
H           -1.25562324036168        2.30274655381931        1.22218059166496
C           -0.70429998388890        2.31490785921842       -0.88375236744631
H           -0.19510447444696        1.60725809152958       -1.59851082020519
H           -1.78342183914723        2.29290357992451       -1.09479416024797
C           -0.19152711839457        3.72899153675080       -1.18763003443467
H            0.88471516135697        3.78804578166617       -1.03612655368991
H           -0.40908050765559        4.01191165469273       -2.21470800079640
H           -0.67306402175468        4.44593403455378       -0.52664348588886
