      -----------------------------------------------------------      
     |                   =====================                   |     
     |                           x T B                           |     
     |                   =====================                   |     
     |                         S. Grimme                         |     
     |          Mulliken Center for Theoretical Chemistry        |     
     |                    University of Bonn                     |     
      -----------------------------------------------------------      

   * xtb version 6.5.1 (b24c23e) compiled by 'conda@728c89f4b128' on 2022-07-12

   xtb is free software: you can redistribute it and/or modify it under
   the terms of the GNU Lesser General Public License as published by
   the Free Software Foundation, either version 3 of the License, or
   (at your option) any later version.
   
   xtb is distributed in the hope that it will be useful,
   but WITHOUT ANY WARRANTY; without even the implied warranty of
   MERCHANTABILITY or FITNESS FOR A PARTICULAR PURPOSE.  See the
   GNU Lesser General Public License for more details.
   
   Cite this work as:
   * C. Bannwarth, E. Caldeweyher, S. Ehlert, A. Hansen, P. Pracht,
     J. Seibert, S. Spicher, S. Grimme, WIREs Comput. Mol. Sci., 2020, 11,
     e01493. DOI: 10.1002/wcms.1493
   
   for GFN2-xTB:
   * C. Bannwarth, S. Ehlert and S. Grimme., J. Chem. Theory Comput., 2019,
     15, 1652-1671. DOI: 10.1021/acs.jctc.8b01176
   for GFN1-xTB:
   * S. Grimme, C. Bannwarth, P. Shushkov, J. Chem. Theory Comput., 2017,
     13, 1989-2009. DOI: 10.1021/acs.jctc.7b00118
   for GFN0-xTB:
   * P. Pracht, E. Caldeweyher, S. Ehlert, S. Grimme, ChemRxiv, 2019, preprint.
     DOI: 10.26434/chemrxiv.8326202.v1
   for GFN-FF:
   * S. Spicher and S. Grimme, Angew. Chem. Int. Ed., 2020, 59, 15665-15673.
     DOI: 10.1002/anie.202004239
   
   for ALPB and GBSA implicit solvation:
   * S. Ehlert, M. Stahn, S. Spicher, S. Grimme, J. Chem. Theory Comput.,
     2021, 17, 4250-4261. DOI: 10.1021/acs.jctc.1c00471
   
   for DFT-D4:
   * E. Caldeweyher, C. Bannwarth and S. Grimme, J. Chem. Phys., 2017,
     147, 034112. DOI: 10.1063/1.4993215
   * E. Caldeweyher, S. Ehlert, A. Hansen, H. Neugebauer, S. Spicher,
     C. Bannwarth and S. Grimme, J. Chem. Phys., 2019, 150, 154122.
     DOI: 10.1063/1.5090222
   * E. Caldeweyher, J.-M. Mewes, S. Ehlert and S. Grimme, Phys. Chem. Chem. Phys.
     2020, 22, 8499-8512. DOI: 10.1039/D0CP00502A
   
   for sTDA-xTB:
   * S. Grimme and C. Bannwarth, J. Chem. Phys., 2016, 145, 054103.
     DOI: 10.1063/1.4959605
   
   in the mass-spec context:
   * V. Asgeirsson, C. Bauer and S. Grimme, Chem. Sci., 2017, 8, 4879.
     DOI: 10.1039/c7sc00601b
   * J. Koopman and S. Grimme, ACS Omega 2019, 4, 12, 15120-15133.
     DOI: 10.1021/acsomega.9b02011
   
   for metadynamics refer to:
   * S. Grimme, J. Chem. Theory Comput., 2019, 155, 2847-2862
     DOI: 10.1021/acs.jctc.9b00143
   
   for SPH calculations refer to:
   * S. Spicher and S. Grimme, J. Chem. Theory Comput., 2021, 17, 1701-1714
     DOI: 10.1021/acs.jctc.0c01306
   
   with help from (in alphabetical order)
   P. Atkinson, C. Bannwarth, F. Bohle, G. Brandenburg, E. Caldeweyher
   M. Checinski, S. Dohm, S. Ehlert, S. Ehrlich, I. Gerasimov, C. Hölzer
   A. Katbashev, J. Koopman, C. Lavigne, S. Lehtola, F. März, M. Müller,
   F. Musil, H. Neugebauer, J. Pisarek, C. Plett, P. Pracht, F. Pultar,
   J. Seibert, P. Shushkov, S. Spicher, M. Stahn, M. Steiner, T. Strunk,
   J. Stückrath, T. Rose, and J. Unsleber
   
 * started run on 2026/08/03 at 11:34:48.250     

           -------------------------------------------------
          |                Calculation Setup                |
           -------------------------------------------------

          program call               : /h/332/chchoi/miniconda3/envs/el-agente/bin/xtb product.xyz --opt --gfn 2 -P 4 --chrg 1
          coordinate file            : product.xyz
          omp threads                :                     4

   ID    Z sym.   atoms
    1   40 Zr     1
    2    6 C      2-7, 13-17, 25, 28
    3    1 H      8-12, 18-24, 26, 27, 29-31

           -------------------------------------------------
          |                 G F N 2 - x T B                 |
           -------------------------------------------------

        Reference                      10.1021/acs.jctc.8b01176
      * Hamiltonian:
        H0-scaling (s, p, d)           1.850000    2.230000    2.230000
        zeta-weighting                 0.500000
      * Dispersion:
        s8                             2.700000
        a1                             0.520000
        a2                             5.000000
        s9                             5.000000
      * Repulsion:
        kExp                           1.500000    1.000000
        rExp                           1.000000
      * Coulomb:
        alpha                          2.000000
        third order                    shell-resolved
        anisotropic                    true
        a3                             3.000000
        a5                             4.000000
        cn-shift                       1.200000
        cn-exp                         4.000000
        max-rad                        5.000000


          ...................................................
          :                      SETUP                      :
          :.................................................:
          :  # basis functions                  79          :
          :  # atomic orbitals                  78          :
          :  # shells                           46          :
          :  # electrons                        72          :
          :  max. iterations                   250          :
          :  Hamiltonian                  GFN2-xTB          :
          :  restarted?                      false          :
          :  GBSA solvation                  false          :
          :  PC potential                    false          :
          :  electronic temp.          300.0000000     K    :
          :  accuracy                    1.0000000          :
          :  -> integral cutoff          0.2500000E+02      :
          :  -> integral neglect         0.1000000E-07      :
          :  -> SCF convergence          0.1000000E-05 Eh   :
          :  -> wf. convergence          0.1000000E-03 e    :
          :  Broyden damping             0.4000000          :
          ...................................................

 iter      E             dE          RMSdq      gap      omega  full diag
   1    -37.7379971 -0.377380E+02  0.152E+01    0.42       0.0  T
   2    -37.8435495 -0.105552E+00  0.592E+00    3.03       1.0  T
   3    -37.2660795  0.577470E+00  0.115E+01    0.23       1.0  T
   4    -38.0159260 -0.749846E+00  0.196E+00    1.85       1.0  T
   5    -38.0559136 -0.399876E-01  0.171E+00    1.59       1.0  T
   6    -38.0592229 -0.330924E-02  0.157E+00    1.55       1.0  T
   7    -38.0623420 -0.311915E-02  0.133E+00    1.48       1.0  T
   8    -38.0681863 -0.584426E-02  0.522E-01    1.16       1.0  T
   9    -38.0704384 -0.225211E-02  0.234E-01    1.26       1.0  T
  10    -38.0704267  0.116996E-04  0.905E-02    1.29       1.0  T
  11    -38.0704844 -0.577579E-04  0.200E-02    1.27       1.0  T
  12    -38.0704843  0.189983E-06  0.143E-02    1.27       1.3  T
  13    -38.0704864 -0.210495E-05  0.497E-03    1.27       3.6  T
  14    -38.0704864  0.576772E-08  0.309E-03    1.27       5.8  T
  15    -38.0704864 -0.230574E-07  0.156E-03    1.27      11.5  T
  16    -38.0704864 -0.237345E-07  0.342E-04    1.27      52.5  T
  17    -38.0704864  0.298080E-09  0.196E-04    1.27      91.4  T

   *** convergence criteria satisfied after 17 iterations ***

         #    Occupation            Energy/Eh            Energy/eV
      -------------------------------------------------------------
         1        2.0000           -0.8346778             -22.7127
       ...           ...                  ...                  ...
        30        2.0000           -0.5523448             -15.0301
        31        2.0000           -0.5375903             -14.6286
        32        2.0000           -0.5126848             -13.9509
        33        2.0000           -0.5089425             -13.8490
        34        2.0000           -0.5030849             -13.6896
        35        2.0000           -0.5012168             -13.6388
        36        2.0000           -0.4917616             -13.3815 (HOMO)
        37                         -0.4451007             -12.1118 (LUMO)
        38                         -0.4441089             -12.0848
        39                         -0.4397349             -11.9658
        40                         -0.4356866             -11.8556
        41                         -0.4260988             -11.5947
       ...                                ...                  ...
        78                          2.0134451              54.7886
      -------------------------------------------------------------
                  HL-Gap            0.0466610 Eh            1.2697 eV
             Fermi-level           -0.4685745 Eh          -12.7506 eV

 SCC (total)                   0 d,  0 h,  0 min,  2.421 sec
 SCC setup                      ...        0 min,  0.023 sec (  0.969%)
 Dispersion                     ...        0 min,  0.048 sec (  1.967%)
 classical contributions        ...        0 min,  0.024 sec (  0.995%)
 integral evaluation            ...        0 min,  0.046 sec (  1.901%)
 iterations                     ...        0 min,  2.070 sec ( 85.528%)
 molecular gradient             ...        0 min,  0.209 sec (  8.631%)
 printout                       ...        0 min,  0.000 sec (  0.008%)

         :::::::::::::::::::::::::::::::::::::::::::::::::::::
         ::                     SUMMARY                     ::
         :::::::::::::::::::::::::::::::::::::::::::::::::::::
         :: total energy             -37.525261342402 Eh    ::
         :: gradient norm              0.180949850507 Eh/a0 ::
         :: HOMO-LUMO gap              1.269709499798 eV    ::
         ::.................................................::
         :: SCC energy               -38.070486401721 Eh    ::
         :: -> isotropic ES            0.087154708903 Eh    ::
         :: -> anisotropic ES         -0.003653826445 Eh    ::
         :: -> anisotropic XC          0.004568091952 Eh    ::
         :: -> dispersion             -0.025232223288 Eh    ::
         :: repulsion energy           0.544682789755 Eh    ::
         :: add. restraining           0.000000000000 Eh    ::
         :: total charge               0.999999999985 e     ::
         :::::::::::::::::::::::::::::::::::::::::::::::::::::

      ----------------------------------------------------------- 
     |                   =====================                   |
     |                        A N C O P T                        |
     |                   =====================                   |
     |               Approximate Normal Coordinate               |
     |                Rational Function Optimizer                |
      ----------------------------------------------------------- 

          ...................................................
          :                      SETUP                      :
          :.................................................:
          :   optimization level            normal          :
          :   max. optcycles                   200          :
          :   ANC micro-cycles                  20          :
          :   degrees of freedom                87          :
          :.................................................:
          :   RF solver                   davidson          :
          :   write xtbopt.log                true          :
          :   linear?                        false          :
          :   energy convergence         0.5000000E-05 Eh   :
          :   grad. convergence          0.1000000E-02 Eh/α :
          :   maximium RF displ.         1.0000000          :
          :   Hlow (freq-cutoff)         0.1000000E-01      :
          :   Hmax (freq-cutoff)         5.0000000          :
          :   S6 in model hess.         20.0000000          :
          ...................................................

generating ANC from model Hessian ...
Using Lindh-Hessian (1995)
 Shifting diagonal of input Hessian by    1.9706613659268402E-002
 Lowest  eigenvalues of input Hessian
    0.010000    0.019336    0.000000    0.000000    0.000000    0.000000
    0.000000    0.000000    0.019988    0.020014    0.020086    0.020237
    0.020282    0.020565    0.020731    0.021137    0.021389    0.021577
 Highest eigenvalues
    1.499814    1.499994    1.500881    1.501179    1.501271    1.503814


........................................................................
.............................. CYCLE    1 ..............................
........................................................................
   1    -38.0704864 -0.380705E+02  0.162E-04    1.27       0.0  T
   2    -38.0704864  0.101252E-09  0.205E-04    1.27      87.5  T
   3    -38.0704864 -0.271953E-09  0.694E-05    1.27     258.8  T
     SCC iter.                  ...        0 min,  0.308 sec
     gradient                   ...        0 min,  0.109 sec
 * total energy  :   -37.5252613 Eh     change       -0.3857465E-09 Eh
   gradient norm :     0.1809498 Eh/α   predicted     0.0000000E+00 (-100.00%)
   displ. norm   :     0.6141071 α      lambda       -0.7377167E-01
   maximum displ.:     0.2872721 α      in ANC's #24, #13, #58, ...

........................................................................
.............................. CYCLE    2 ..............................
........................................................................
   1    -38.1686376 -0.381686E+02  0.103E+00    1.64       0.0  T
   2    -38.1691374 -0.499744E-03  0.384E-01    1.41       1.0  T
   3    -38.1689818  0.155598E-03  0.609E-01    1.61       1.0  T
   4    -38.1703444 -0.136261E-02  0.125E-01    1.52       1.0  T
   5    -38.1703906 -0.462112E-04  0.757E-02    1.50       1.0  T
   6    -38.1704279 -0.372814E-04  0.233E-02    1.49       1.0  T
   7    -38.1704288 -0.973105E-06  0.103E-02    1.49       1.7  T
   8    -38.1704291 -0.233864E-06  0.766E-03    1.49       2.3  T
   9    -38.1704292 -0.133527E-06  0.409E-03    1.49       4.4  T
  10    -38.1704293 -0.433616E-07  0.145E-03    1.49      12.4  T
  11    -38.1704293 -0.148518E-08  0.648E-04    1.49      27.7  T
  12    -38.1704293 -0.104427E-08  0.208E-04    1.49      86.5  T
     SCC iter.                  ...        0 min,  1.069 sec
     gradient                   ...        0 min,  0.028 sec
 * total energy  :   -37.5794945 Eh     change       -0.5423313E-01 Eh
   gradient norm :     0.0801335 Eh/α   predicted    -0.5081663E-01 (  -6.30%)
   displ. norm   :     0.8240464 α      lambda       -0.5626668E-01
   maximum displ.:     0.5054482 α      in ANC's #22, #23, #2, ...

........................................................................
.............................. CYCLE    3 ..............................
........................................................................
   1    -38.2469430 -0.382469E+02  0.142E+00    1.77       0.0  T
   2    -38.2474022 -0.459181E-03  0.817E-01    1.65       1.0  T
   3    -38.2466785  0.723750E-03  0.476E-01    1.79       1.0  T
   4    -38.2476298 -0.951292E-03  0.624E-02    1.70       1.0  T
   5    -38.2476352 -0.539938E-05  0.349E-02    1.70       1.0  T
   6    -38.2476412 -0.606383E-05  0.107E-02    1.69       1.7  T
   7    -38.2476423 -0.111762E-05  0.943E-03    1.69       1.9  T
   8    -38.2476424 -0.342215E-07  0.708E-03    1.70       2.5  T
   9    -38.2476425 -0.131396E-06  0.240E-03    1.69       7.5  T
  10    -38.2476425 -0.159299E-07  0.110E-03    1.69      16.3  T
  11    -38.2476425 -0.140714E-08  0.379E-04    1.69      47.4  T
  12    -38.2476425 -0.419945E-09  0.123E-04    1.69     145.4  T
     SCC iter.                  ...        0 min,  1.213 sec
     gradient                   ...        0 min,  0.191 sec
 * total energy  :   -37.6073551 Eh     change       -0.2786062E-01 Eh
   gradient norm :     0.1130026 Eh/α   predicted    -0.4723736E-01 (  69.55%)
   displ. norm   :     0.5761306 α      lambda       -0.2605851E-01
   maximum displ.:     0.3093172 α      in ANC's #2, #5, #13, ...

........................................................................
.............................. CYCLE    4 ..............................
........................................................................
   1    -38.2419902 -0.382420E+02  0.943E-01    1.68       0.0  T
   2    -38.2421801 -0.189825E-03  0.577E-01    1.80       1.0  T
   3    -38.2412927  0.887403E-03  0.542E-01    1.63       1.0  T
   4    -38.2426089 -0.131626E-02  0.563E-02    1.73       1.0  T
   5    -38.2426140 -0.507133E-05  0.356E-02    1.73       1.0  T
   6    -38.2426200 -0.601778E-05  0.110E-02    1.73       1.6  T
   7    -38.2426201 -0.125407E-06  0.342E-03    1.74       5.3  T
   8    -38.2426202 -0.927913E-07  0.144E-03    1.74      12.4  T
   9    -38.2426202 -0.846055E-08  0.473E-04    1.74      37.9  T
  10    -38.2426202 -0.110679E-08  0.283E-04    1.74      63.5  T
     SCC iter.                  ...        0 min,  0.922 sec
     gradient                   ...        0 min,  0.212 sec
 * total energy  :   -37.6258188 Eh     change       -0.1846374E-01 Eh
   gradient norm :     0.0596599 Eh/α   predicted    -0.1735402E-01 (  -6.01%)
   displ. norm   :     0.7158673 α      lambda       -0.2101482E-01
   maximum displ.:     0.4787235 α      in ANC's #2, #5, #13, ...

........................................................................
.............................. CYCLE    5 ..............................
........................................................................
   1    -38.2379431 -0.382379E+02  0.917E-01    1.78       0.0  T
   2    -38.2381760 -0.232884E-03  0.632E-01    1.77       1.0  T
   3    -38.2371090  0.106694E-02  0.183E-01    1.75       1.0  T
   4    -38.2382517 -0.114268E-02  0.701E-02    1.77       1.0  T
   5    -38.2382956 -0.438452E-04  0.315E-02    1.76       1.0  T
   6    -38.2382962 -0.616139E-06  0.240E-02    1.76       1.0  T
   7    -38.2382972 -0.100392E-05  0.123E-02    1.76       1.5  T
   8    -38.2382972 -0.455697E-07  0.752E-03    1.76       2.4  T
   9    -38.2382974 -0.131503E-06  0.284E-03    1.76       6.3  T
  10    -38.2382974 -0.306946E-07  0.114E-03    1.76      15.8  T
  11    -38.2382974 -0.159098E-08  0.508E-04    1.76      35.3  T
  12    -38.2382974 -0.945036E-09  0.133E-04    1.76     135.0  T
     SCC iter.                  ...        0 min,  1.064 sec
     gradient                   ...        0 min,  0.200 sec
 * total energy  :   -37.6401458 Eh     change       -0.1432692E-01 Eh
   gradient norm :     0.0410417 Eh/α   predicted    -0.1589212E-01 (  10.92%)
   displ. norm   :     0.8148113 α      lambda       -0.1705458E-01
   maximum displ.:     0.5277188 α      in ANC's #2, #1, #5, ...

........................................................................
.............................. CYCLE    6 ..............................
........................................................................
   1    -38.2406547 -0.382407E+02  0.115E+00    1.77       0.0  T
   2    -38.2416707 -0.101591E-02  0.805E-01    1.67       1.0  T
   3    -38.2414899  0.180707E-03  0.326E-01    1.73       1.0  T
   4    -38.2420035 -0.513532E-03  0.155E-01    1.65       1.0  T
   5    -38.2420684 -0.648840E-04  0.760E-02    1.68       1.0  T
   6    -38.2420762 -0.786911E-05  0.308E-02    1.68       1.0  T
   7    -38.2420777 -0.145781E-05  0.187E-02    1.69       1.0  T
   8    -38.2420803 -0.263494E-05  0.766E-03    1.69       2.3  T
   9    -38.2420807 -0.384997E-06  0.447E-03    1.69       4.0  T
  10    -38.2420808 -0.543562E-07  0.153E-03    1.69      11.8  T
  11    -38.2420808 -0.363034E-08  0.820E-04    1.69      21.9  T
  12    -38.2420808 -0.306755E-08  0.254E-04    1.69      70.8  T
     SCC iter.                  ...        0 min,  0.879 sec
     gradient                   ...        0 min,  0.037 sec
 * total energy  :   -37.6370504 Eh     change        0.3095388E-02 Eh
   gradient norm :     0.0972065 Eh/α   predicted    -0.1418871E-01 (-558.38%)
   displ. norm   :     0.4814948 α      lambda       -0.3415407E-01
   maximum displ.:     0.3517760 α      in ANC's #1, #2, #5, ...

........................................................................
.............................. CYCLE    7 ..............................
........................................................................
   1    -38.2697755 -0.382698E+02  0.578E-01    1.75       0.0  T
   2    -38.2704496 -0.674146E-03  0.482E-01    1.72       1.0  T
   3    -38.2706004 -0.150822E-03  0.227E-01    1.74       1.0  T
   4    -38.2706115 -0.110304E-04  0.151E-01    1.70       1.0  T
   5    -38.2706891 -0.776017E-04  0.730E-02    1.73       1.0  T
   6    -38.2707011 -0.120767E-04  0.239E-02    1.73       1.0  T
   7    -38.2707033 -0.213543E-05  0.156E-02    1.73       1.2  T
   8    -38.2707039 -0.646593E-06  0.766E-03    1.73       2.3  T
   9    -38.2707042 -0.301659E-06  0.380E-03    1.73       4.7  T
  10    -38.2707043 -0.345204E-07  0.169E-03    1.73      10.6  T
  11    -38.2707043 -0.590506E-08  0.653E-04    1.73      27.5  T
  12    -38.2707043 -0.912280E-09  0.257E-04    1.73      69.8  T
     SCC iter.                  ...        0 min,  0.801 sec
     gradient                   ...        0 min,  0.016 sec
 * total energy  :   -37.6548041 Eh     change       -0.1775374E-01 Eh
   gradient norm :     0.0334835 Eh/α   predicted    -0.2103626E-01 (  18.49%)
   displ. norm   :     0.5609783 α      lambda       -0.9331815E-02
   maximum displ.:     0.3532280 α      in ANC's #2, #12, #5, ...

........................................................................
.............................. CYCLE    8 ..............................
........................................................................
   1    -38.2795345 -0.382795E+02  0.436E-01    1.78       0.0  T
   2    -38.2795754 -0.409376E-04  0.260E-01    1.76       1.0  T
   3    -38.2794068  0.168611E-03  0.130E-01    1.80       1.0  T
   4    -38.2796064 -0.199590E-03  0.376E-02    1.77       1.0  T
   5    -38.2796099 -0.352813E-05  0.233E-02    1.77       1.0  T
   6    -38.2796108 -0.830939E-06  0.114E-02    1.77       1.6  T
   7    -38.2796109 -0.859944E-07  0.700E-03    1.77       2.6  T
   8    -38.2796110 -0.149645E-06  0.431E-03    1.77       4.2  T
   9    -38.2796110 -0.358921E-07  0.232E-03    1.77       7.7  T
  10    -38.2796110 -0.604911E-08  0.851E-04    1.77      21.1  T
  11    -38.2796110 -0.394930E-08  0.284E-04    1.77      63.2  T
     SCC iter.                  ...        0 min,  0.743 sec
     gradient                   ...        0 min,  0.015 sec
 * total energy  :   -37.6623962 Eh     change       -0.7592050E-02 Eh
   gradient norm :     0.0320612 Eh/α   predicted    -0.6134252E-02 ( -19.20%)
   displ. norm   :     0.7957023 α      lambda       -0.1009873E-01
   maximum displ.:     0.5111573 α      in ANC's #2, #12, #5, ...

........................................................................
.............................. CYCLE    9 ..............................
........................................................................
   1    -38.2893504 -0.382894E+02  0.567E-01    1.84       0.0  T
   2    -38.2894029 -0.524481E-04  0.357E-01    1.80       1.0  T
   3    -38.2889540  0.448864E-03  0.185E-01    1.87       1.0  T
   4    -38.2894800 -0.525966E-03  0.330E-02    1.82       1.0  T
   5    -38.2894801 -0.149582E-06  0.208E-02    1.82       1.0  T
   6    -38.2894816 -0.145755E-05  0.106E-02    1.81       1.7  T
   7    -38.2894817 -0.158576E-06  0.670E-03    1.81       2.7  T
   8    -38.2894818 -0.365504E-07  0.405E-03    1.81       4.4  T
   9    -38.2894818 -0.135717E-07  0.201E-03    1.81       8.9  T
  10    -38.2894818 -0.637454E-08  0.470E-04    1.81      38.2  T
  11    -38.2894818 -0.191270E-08  0.178E-04    1.81     100.9  T
     SCC iter.                  ...        0 min,  0.799 sec
     gradient                   ...        0 min,  0.140 sec
 * total energy  :   -37.6709929 Eh     change       -0.8596744E-02 Eh
   gradient norm :     0.0252188 Eh/α   predicted    -0.8246338E-02 (  -4.08%)
   displ. norm   :     0.8058358 α      lambda       -0.8307291E-02
   maximum displ.:     0.5139639 α      in ANC's #2, #12, #5, ...

........................................................................
.............................. CYCLE   10 ..............................
........................................................................
   1    -38.2949956 -0.382950E+02  0.582E-01    1.85       0.0  T
   2    -38.2950325 -0.368824E-04  0.379E-01    1.81       1.0  T
   3    -38.2946955  0.337005E-03  0.158E-01    1.87       1.0  T
   4    -38.2950795 -0.383998E-03  0.301E-02    1.82       1.0  T
   5    -38.2950802 -0.698023E-06  0.174E-02    1.82       1.0  T
   6    -38.2950822 -0.204963E-05  0.914E-03    1.82       2.0  T
   7    -38.2950823 -0.517393E-07  0.575E-03    1.82       3.1  T
   8    -38.2950823 -0.562193E-07  0.303E-03    1.82       5.9  T
   9    -38.2950823 -0.772207E-08  0.130E-03    1.82      13.8  T
  10    -38.2950823 -0.199801E-08  0.507E-04    1.82      35.5  T
  11    -38.2950823 -0.918526E-09  0.210E-04    1.82      85.4  T
     SCC iter.                  ...        0 min,  0.968 sec
     gradient                   ...        0 min,  0.183 sec
 * total energy  :   -37.6773303 Eh     change       -0.6337423E-02 Eh
   gradient norm :     0.0257451 Eh/α   predicted    -0.6850900E-02 (   8.10%)
   displ. norm   :     0.7346501 α      lambda       -0.5635563E-02
   maximum displ.:     0.4639308 α      in ANC's #2, #12, #5, ...

........................................................................
.............................. CYCLE   11 ..............................
........................................................................
   1    -38.2932269 -0.382932E+02  0.475E-01    1.82       0.0  T
   2    -38.2932466 -0.197447E-04  0.312E-01    1.79       1.0  T
   3    -38.2931703  0.762867E-04  0.834E-02    1.82       1.0  T
   4    -38.2932612 -0.908235E-04  0.301E-02    1.79       1.0  T
   5    -38.2932621 -0.955281E-06  0.155E-02    1.79       1.2  T
   6    -38.2932639 -0.178225E-05  0.814E-03    1.79       2.2  T
   7    -38.2932639 -0.347080E-07  0.563E-03    1.79       3.2  T
   8    -38.2932640 -0.562074E-07  0.258E-03    1.79       7.0  T
   9    -38.2932640 -0.348081E-07  0.129E-03    1.79      13.9  T
  10    -38.2932640 -0.352293E-08  0.550E-04    1.79      32.6  T
  11    -38.2932640 -0.697412E-09  0.176E-04    1.79     101.9  T
     SCC iter.                  ...        0 min,  0.556 sec
     gradient                   ...        0 min,  0.024 sec
 * total energy  :   -37.6812385 Eh     change       -0.3908195E-02 Eh
   gradient norm :     0.0235911 Eh/α   predicted    -0.4338568E-02 (  11.01%)
   displ. norm   :     0.5849468 α      lambda       -0.3664655E-02
   maximum displ.:     0.3644631 α      in ANC's #2, #12, #5, ...

........................................................................
.............................. CYCLE   12 ..............................
........................................................................
   1    -38.3008987 -0.383009E+02  0.341E-01    1.82       0.0  T
   2    -38.3009526 -0.539435E-04  0.193E-01    1.80       1.0  T
   3    -38.3007740  0.178559E-03  0.126E-01    1.83       1.0  T
   4    -38.3010110 -0.236956E-03  0.319E-02    1.80       1.0  T
   5    -38.3010118 -0.773701E-06  0.204E-02    1.81       1.0  T
   6    -38.3010124 -0.591123E-06  0.755E-03    1.80       2.4  T
   7    -38.3010126 -0.243883E-06  0.422E-03    1.80       4.3  T
   8    -38.3010126 -0.186890E-07  0.320E-03    1.80       5.6  T
   9    -38.3010126 -0.101822E-07  0.207E-03    1.80       8.7  T
  10    -38.3010126 -0.407343E-08  0.768E-04    1.80      23.4  T
  11    -38.3010126 -0.277127E-08  0.209E-04    1.80      85.9  T
     SCC iter.                  ...        0 min,  0.467 sec
     gradient                   ...        0 min,  0.098 sec
 * total energy  :   -37.6834795 Eh     change       -0.2240985E-02 Eh
   gradient norm :     0.0220915 Eh/α   predicted    -0.2459289E-02 (   9.74%)
   displ. norm   :     0.4840688 α      lambda       -0.2483420E-02
   maximum displ.:     0.3149976 α      in ANC's #2, #12, #5, ...

........................................................................
.............................. CYCLE   13 ..............................
........................................................................
   1    -38.3080788 -0.383081E+02  0.339E-01    1.81       0.0  T
   2    -38.3081073 -0.285651E-04  0.228E-01    1.79       1.0  T
   3    -38.3080615  0.457811E-04  0.715E-02    1.81       1.0  T
   4    -38.3081181 -0.565500E-04  0.220E-02    1.79       1.0  T
   5    -38.3081196 -0.151627E-05  0.141E-02    1.78       1.3  T
   6    -38.3081206 -0.992746E-06  0.508E-03    1.79       3.5  T
   7    -38.3081207 -0.132577E-06  0.324E-03    1.79       5.5  T
   8    -38.3081207 -0.471069E-09  0.195E-03    1.79       9.2  T
   9    -38.3081207 -0.152667E-07  0.932E-04    1.79      19.3  T
  10    -38.3081207 -0.146609E-08  0.350E-04    1.79      51.4  T
     SCC iter.                  ...        0 min,  0.454 sec
     gradient                   ...        0 min,  0.179 sec
 * total energy  :   -37.6842499 Eh     change       -0.7704074E-03 Eh
   gradient norm :     0.0216400 Eh/α   predicted    -0.1532672E-02 (  98.94%)
   displ. norm   :     0.1434506 α      lambda       -0.9448248E-03
   maximum displ.:     0.0713430 α      in ANC's #12, #5, #2, ...

........................................................................
.............................. CYCLE   14 ..............................
........................................................................
   1    -38.3069167 -0.383069E+02  0.105E-01    1.78       0.0  T
   2    -38.3069228 -0.611324E-05  0.673E-02    1.79       1.0  T
   3    -38.3069151  0.774710E-05  0.251E-02    1.79       1.0  T
   4    -38.3069252 -0.101795E-04  0.708E-03    1.79       2.5  T
   5    -38.3069253 -0.601342E-07  0.456E-03    1.79       3.9  T
   6    -38.3069254 -0.105693E-06  0.206E-03    1.79       8.7  T
   7    -38.3069254 -0.205883E-07  0.860E-04    1.79      20.9  T
   8    -38.3069254 -0.221980E-08  0.702E-04    1.79      25.6  T
     SCC iter.                  ...        0 min,  0.661 sec
     gradient                   ...        0 min,  0.200 sec
 * total energy  :   -37.6846788 Eh     change       -0.4289183E-03 Eh
   gradient norm :     0.0094890 Eh/α   predicted    -0.4821368E-03 (  12.41%)
   displ. norm   :     0.0959856 α      lambda       -0.3569130E-03
   maximum displ.:     0.0436422 α      in ANC's #9, #18, #2, ...

........................................................................
.............................. CYCLE   15 ..............................
........................................................................
   1    -38.3067236 -0.383067E+02  0.103E-01    1.79       0.0  T
   2    -38.3067328 -0.921585E-05  0.796E-02    1.80       1.0  T
   3    -38.3067213  0.115476E-04  0.415E-02    1.80       1.0  T
   4    -38.3067381 -0.168194E-04  0.111E-02    1.80       1.6  T
   5    -38.3067408 -0.273926E-05  0.789E-03    1.80       2.3  T
   6    -38.3067409 -0.109948E-06  0.218E-03    1.80       8.2  T
   7    -38.3067409 -0.243581E-09  0.753E-04    1.80      23.8  T
   8    -38.3067409 -0.442721E-08  0.412E-04    1.80      43.5  T
     SCC iter.                  ...        0 min,  0.773 sec
     gradient                   ...        0 min,  0.196 sec
 * total energy  :   -37.6846979 Eh     change       -0.1911725E-04 Eh
   gradient norm :     0.0125467 Eh/α   predicted    -0.1801016E-03 ( 842.09%)
   displ. norm   :     0.0635261 α      lambda       -0.3209996E-03
   maximum displ.:     0.0359221 α      in ANC's #9, #6, #13, ...

........................................................................
.............................. CYCLE   16 ..............................
........................................................................
   1    -38.3072530 -0.383073E+02  0.679E-02    1.80       0.0  T
   2    -38.3072574 -0.442056E-05  0.483E-02    1.79       1.0  T
   3    -38.3072534  0.397482E-05  0.258E-02    1.79       1.0  T
   4    -38.3072594 -0.599349E-05  0.764E-03    1.79       2.4  T
   5    -38.3072607 -0.130382E-05  0.501E-03    1.79       3.6  T
   6    -38.3072608 -0.561123E-07  0.181E-03    1.79       9.9  T
   7    -38.3072608 -0.109285E-08  0.679E-04    1.79      26.5  T
   8    -38.3072608 -0.198634E-08  0.398E-04    1.79      45.2  T
     SCC iter.                  ...        0 min,  0.531 sec
     gradient                   ...        0 min,  0.161 sec
 * total energy  :   -37.6848929 Eh     change       -0.1949939E-03 Eh
   gradient norm :     0.0060478 Eh/α   predicted    -0.1611507E-03 ( -17.36%)
   displ. norm   :     0.1325550 α      lambda       -0.2767199E-03
   maximum displ.:     0.0896918 α      in ANC's #9, #6, #13, ...

........................................................................
.............................. CYCLE   17 ..............................
........................................................................
   1    -38.3082675 -0.383083E+02  0.610E-02    1.79       0.0  T
   2    -38.3082721 -0.458171E-05  0.411E-02    1.79       1.0  T
   3    -38.3082692  0.295024E-05  0.255E-02    1.78       1.0  T
   4    -38.3082765 -0.731241E-05  0.535E-03    1.79       3.4  T
   5    -38.3082770 -0.464316E-06  0.372E-03    1.79       4.8  T
   6    -38.3082770 -0.206185E-07  0.531E-04    1.79      33.8  T
   7    -38.3082770 -0.922938E-09  0.240E-04    1.79      74.9  T
     SCC iter.                  ...        0 min,  0.400 sec
     gradient                   ...        0 min,  0.083 sec
 * total energy  :   -37.6850129 Eh     change       -0.1199371E-03 Eh
   gradient norm :     0.0073734 Eh/α   predicted    -0.1407946E-03 (  17.39%)
   displ. norm   :     0.1967378 α      lambda       -0.2853018E-03
   maximum displ.:     0.1383948 α      in ANC's #9, #6, #13, ...

........................................................................
.............................. CYCLE   18 ..............................
........................................................................
   1    -38.3068624 -0.383069E+02  0.756E-02    1.79       0.0  T
   2    -38.3068640 -0.164167E-05  0.483E-02    1.79       1.0  T
   3    -38.3068600  0.408968E-05  0.162E-02    1.79       1.1  T
   4    -38.3068649 -0.493128E-05  0.530E-03    1.79       3.4  T
   5    -38.3068650 -0.104053E-06  0.342E-03    1.79       5.2  T
   6    -38.3068650 -0.512004E-07  0.985E-04    1.79      18.2  T
   7    -38.3068650 -0.463084E-08  0.597E-04    1.79      30.1  T
     SCC iter.                  ...        0 min,  0.520 sec
     gradient                   ...        0 min,  0.018 sec
 * total energy  :   -37.6852406 Eh     change       -0.2277443E-03 Eh
   gradient norm :     0.0078384 Eh/α   predicted    -0.1481732E-03 ( -34.94%)
   displ. norm   :     0.4859407 α      lambda       -0.6084915E-03
   maximum displ.:     0.3511601 α      in ANC's #9, #6, #13, ...

........................................................................
.............................. CYCLE   19 ..............................
........................................................................
   1    -38.3066105 -0.383066E+02  0.184E-01    1.78       0.0  T
   2    -38.3066195 -0.898966E-05  0.122E-01    1.79       1.0  T
   3    -38.3065747  0.447585E-04  0.403E-02    1.79       1.0  T
   4    -38.3066257 -0.509190E-04  0.108E-02    1.79       1.7  T
   5    -38.3066258 -0.165513E-06  0.573E-03    1.79       3.1  T
   6    -38.3066260 -0.197183E-06  0.187E-03    1.79       9.6  T
   7    -38.3066260 -0.148954E-07  0.105E-03    1.79      17.2  T
   8    -38.3066260  0.386336E-09  0.601E-04    1.79      29.9  T
   9    -38.3066260 -0.226926E-08  0.308E-04    1.79      58.3  T
     SCC iter.                  ...        0 min,  0.630 sec
     gradient                   ...        0 min,  0.191 sec
 * total energy  :   -37.6856261 Eh     change       -0.3855080E-03 Eh
   gradient norm :     0.0091583 Eh/α   predicted    -0.3760939E-03 (  -2.44%)
   displ. norm   :     0.3626383 α      lambda       -0.3843672E-03
   maximum displ.:     0.2675912 α      in ANC's #9, #6, #8, ...

........................................................................
.............................. CYCLE   20 ..............................
........................................................................
   1    -38.3058776 -0.383059E+02  0.120E-01    1.79       0.0  T
   2    -38.3058821 -0.448035E-05  0.807E-02    1.80       1.0  T
   3    -38.3058615  0.205884E-04  0.303E-02    1.80       1.0  T
   4    -38.3058850 -0.235143E-04  0.904E-03    1.80       2.0  T
   5    -38.3058855 -0.535684E-06  0.636E-03    1.80       2.8  T
   6    -38.3058856 -0.949977E-07  0.172E-03    1.80      10.5  T
   7    -38.3058856 -0.189631E-07  0.907E-04    1.80      19.8  T
   8    -38.3058856  0.796234E-10  0.412E-04    1.80      43.6  T
     SCC iter.                  ...        0 min,  0.584 sec
     gradient                   ...        0 min,  0.119 sec
 * total energy  :   -37.6858506 Eh     change       -0.2244309E-03 Eh
   gradient norm :     0.0089618 Eh/α   predicted    -0.2174588E-03 (  -3.11%)
   displ. norm   :     0.2897131 α      lambda       -0.3263418E-03
   maximum displ.:     0.2072163 α      in ANC's #9, #6, #4, ...
 * RMSD in coord.:     1.2915461 α      energy gain  -0.1605892E+00 Eh

generating ANC from model Hessian ...
Using Lindh-Hessian (1995)
 Shifting diagonal of input Hessian by    9.7048793110524733E-003
 Lowest  eigenvalues of input Hessian
    0.000000    0.000000    0.000000    0.000000    0.000000    0.000000
    0.010000    0.010082    0.010314    0.010695    0.010915    0.011039
    0.011596    0.012179    0.017479    0.017657    0.018032    0.018511
 Highest eigenvalues
    1.661392    1.666775    1.711499    1.715880    1.722647    1.724671


........................................................................
.............................. CYCLE   21 ..............................
........................................................................
   1    -38.3078279 -0.383078E+02  0.107E-01    1.80       0.0  T
   2    -38.3078340 -0.614394E-05  0.676E-02    1.79       1.0  T
   3    -38.3078232  0.108456E-04  0.319E-02    1.80       1.0  T
   4    -38.3078371 -0.139598E-04  0.702E-03    1.80       2.6  T
   5    -38.3078371 -0.131330E-08  0.466E-03    1.80       3.9  T
   6    -38.3078373 -0.198315E-06  0.109E-03    1.80      16.4  T
   7    -38.3078374 -0.691033E-08  0.549E-04    1.80      32.7  T
   8    -38.3078374 -0.936559E-09  0.306E-04    1.80      58.8  T
     SCC iter.                  ...        0 min,  0.518 sec
     gradient                   ...        0 min,  0.187 sec
 * total energy  :   -37.6860215 Eh     change       -0.1709679E-03 Eh
   gradient norm :     0.0082884 Eh/α   predicted     0.0000000E+00 (-100.00%)
   displ. norm   :     0.0864014 α      lambda       -0.2566521E-03
   maximum displ.:     0.0364329 α      in ANC's #18, #3, #17, ...

........................................................................
.............................. CYCLE   22 ..............................
........................................................................
   1    -38.3089964 -0.383090E+02  0.621E-02    1.79       0.0  T
   2    -38.3089985 -0.202575E-05  0.417E-02    1.79       1.0  T
   3    -38.3089956  0.283274E-05  0.156E-02    1.79       1.1  T
   4    -38.3089993 -0.367035E-05  0.425E-03    1.79       4.2  T
   5    -38.3089994 -0.109421E-06  0.307E-03    1.79       5.9  T
   6    -38.3089994 -0.405083E-07  0.546E-04    1.79      32.9  T
   7    -38.3089994 -0.303361E-08  0.320E-04    1.79      56.2  T
     SCC iter.                  ...        0 min,  0.604 sec
     gradient                   ...        0 min,  0.192 sec
 * total energy  :   -37.6861929 Eh     change       -0.1713714E-03 Eh
   gradient norm :     0.0032890 Eh/α   predicted    -0.1301432E-03 ( -24.06%)
   displ. norm   :     0.0984735 α      lambda       -0.1087462E-03
   maximum displ.:     0.0595514 α      in ANC's #3, #1, #10, ...

........................................................................
.............................. CYCLE   23 ..............................
........................................................................
   1    -38.3098380 -0.383098E+02  0.565E-02    1.79       0.0  T
   2    -38.3098395 -0.148045E-05  0.349E-02    1.79       1.0  T
   3    -38.3098370  0.248329E-05  0.148E-02    1.79       1.2  T
   4    -38.3098402 -0.319301E-05  0.324E-03    1.79       5.5  T
   5    -38.3098402 -0.206903E-07  0.201E-03    1.79       8.9  T
   6    -38.3098402 -0.105031E-07  0.539E-04    1.79      33.3  T
   7    -38.3098402 -0.163692E-08  0.328E-04    1.79      54.8  T
     SCC iter.                  ...        0 min,  0.521 sec
     gradient                   ...        0 min,  0.004 sec
 * total energy  :   -37.6862619 Eh     change       -0.6904113E-04 Eh
   gradient norm :     0.0016554 Eh/α   predicted    -0.5496088E-04 ( -20.39%)
   displ. norm   :     0.1187733 α      lambda       -0.3798864E-04
   maximum displ.:     0.0803600 α      in ANC's #3, #1, #10, ...

........................................................................
.............................. CYCLE   24 ..............................
........................................................................
   1    -38.3099079 -0.383099E+02  0.526E-02    1.79       0.0  T
   2    -38.3099091 -0.119437E-05  0.328E-02    1.79       1.0  T
   3    -38.3099066  0.241477E-05  0.147E-02    1.79       1.2  T
   4    -38.3099097 -0.302890E-05  0.237E-03    1.79       7.6  T
   5    -38.3099097 -0.498598E-08  0.150E-03    1.79      12.0  T
   6    -38.3099097 -0.874044E-08  0.378E-04    1.79      47.5  T
   7    -38.3099097 -0.662148E-09  0.226E-04    1.79      79.3  T
     SCC iter.                  ...        0 min,  0.435 sec
     gradient                   ...        0 min,  0.065 sec
 * total energy  :   -37.6863051 Eh     change       -0.4317460E-04 Eh
   gradient norm :     0.0020660 Eh/α   predicted    -0.1911780E-04 ( -55.72%)
   displ. norm   :     0.0802555 α      lambda       -0.3649592E-04
   maximum displ.:     0.0550567 α      in ANC's #1, #3, #2, ...

........................................................................
.............................. CYCLE   25 ..............................
........................................................................
   1    -38.3097414 -0.383097E+02  0.296E-02    1.79       0.0  T
   2    -38.3097416 -0.170624E-06  0.186E-02    1.79       1.0  T
   3    -38.3097410  0.535343E-06  0.708E-03    1.79       2.5  T
   4    -38.3097417 -0.639366E-06  0.130E-03    1.79      13.8  T
   5    -38.3097417  0.233948E-08  0.681E-04    1.79      26.4  T
   6    -38.3097417 -0.500440E-08  0.246E-04    1.79      72.9  T
     SCC iter.                  ...        0 min,  0.378 sec
     gradient                   ...        0 min,  0.022 sec
 * total energy  :   -37.6863377 Eh     change       -0.3263196E-04 Eh
   gradient norm :     0.0014128 Eh/α   predicted    -0.1836595E-04 ( -43.72%)
   displ. norm   :     0.1958036 α      lambda       -0.5173177E-04
   maximum displ.:     0.1361030 α      in ANC's #1, #3, #2, ...

........................................................................
.............................. CYCLE   26 ..............................
........................................................................
   1    -38.3092764 -0.383093E+02  0.635E-02    1.79       0.0  T
   2    -38.3092768 -0.360529E-06  0.402E-02    1.79       1.0  T
   3    -38.3092758  0.940521E-06  0.974E-03    1.79       1.8  T
   4    -38.3092770 -0.116028E-05  0.294E-03    1.79       6.1  T
   5    -38.3092770 -0.280387E-08  0.105E-03    1.79      17.1  T
   6    -38.3092770 -0.951972E-08  0.493E-04    1.79      36.4  T
   7    -38.3092770 -0.666638E-09  0.344E-04    1.79      52.2  T
     SCC iter.                  ...        0 min,  0.488 sec
     gradient                   ...        0 min,  0.143 sec
 * total energy  :   -37.6863988 Eh     change       -0.6109779E-04 Eh
   gradient norm :     0.0018495 Eh/α   predicted    -0.2631003E-04 ( -56.94%)
   displ. norm   :     0.2086210 α      lambda       -0.4108884E-04
   maximum displ.:     0.1470199 α      in ANC's #1, #3, #2, ...

........................................................................
.............................. CYCLE   27 ..............................
........................................................................
   1    -38.3090695 -0.383091E+02  0.590E-02    1.79       0.0  T
   2    -38.3090700 -0.462908E-06  0.382E-02    1.79       1.0  T
   3    -38.3090690  0.100825E-05  0.929E-03    1.79       1.9  T
   4    -38.3090702 -0.121767E-05  0.285E-03    1.79       6.3  T
   5    -38.3090702 -0.296529E-08  0.129E-03    1.79      14.0  T
   6    -38.3090702 -0.120716E-07  0.478E-04    1.79      37.6  T
   7    -38.3090702 -0.227745E-08  0.280E-04    1.79      64.2  T
     SCC iter.                  ...        0 min,  0.567 sec
     gradient                   ...        0 min,  0.146 sec
 * total energy  :   -37.6864493 Eh     change       -0.5042716E-04 Eh
   gradient norm :     0.0017969 Eh/α   predicted    -0.2094338E-04 ( -58.47%)
   displ. norm   :     0.1901399 α      lambda       -0.3283245E-04
   maximum displ.:     0.1372801 α      in ANC's #1, #3, #2, ...

........................................................................
.............................. CYCLE   28 ..............................
........................................................................
   1    -38.3093940 -0.383094E+02  0.435E-02    1.79       0.0  T
   2    -38.3093946 -0.584943E-06  0.294E-02    1.79       1.0  T
   3    -38.3093932  0.133201E-05  0.101E-02    1.79       1.8  T
   4    -38.3093949 -0.161447E-05  0.256E-03    1.79       7.0  T
   5    -38.3093949 -0.966672E-09  0.110E-03    1.79      16.3  T
   6    -38.3093949 -0.113544E-07  0.317E-04    1.79      56.7  T
   7    -38.3093949 -0.732257E-09  0.191E-04    1.79      94.0  T
     SCC iter.                  ...        0 min,  0.564 sec
     gradient                   ...        0 min,  0.165 sec
 * total energy  :   -37.6864892 Eh     change       -0.3990075E-04 Eh
   gradient norm :     0.0010718 Eh/α   predicted    -0.1668012E-04 ( -58.20%)
   displ. norm   :     0.1550116 α      lambda       -0.2376320E-04
   maximum displ.:     0.1158936 α      in ANC's #1, #3, #2, ...

........................................................................
.............................. CYCLE   29 ..............................
........................................................................
   1    -38.3097001 -0.383097E+02  0.323E-02    1.79       0.0  T
   2    -38.3097006 -0.487571E-06  0.212E-02    1.79       1.0  T
   3    -38.3096996  0.994430E-06  0.900E-03    1.79       2.0  T
   4    -38.3097008 -0.125578E-05  0.190E-03    1.79       9.5  T
   5    -38.3097008 -0.416159E-08  0.957E-04    1.79      18.8  T
   6    -38.3097008 -0.660560E-08  0.231E-04    1.79      77.6  T
     SCC iter.                  ...        0 min,  0.435 sec
     gradient                   ...        0 min,  0.168 sec
 * total energy  :   -37.6865185 Eh     change       -0.2928205E-04 Eh
   gradient norm :     0.0006941 Eh/α   predicted    -0.1200870E-04 ( -58.99%)
   displ. norm   :     0.1360866 α      lambda       -0.2044549E-04
   maximum displ.:     0.1027028 α      in ANC's #1, #2, #3, ...

........................................................................
.............................. CYCLE   30 ..............................
........................................................................
   1    -38.3100692 -0.383101E+02  0.232E-02    1.79       0.0  T
   2    -38.3100695 -0.366955E-06  0.147E-02    1.79       1.2  T
   3    -38.3100689  0.599892E-06  0.795E-03    1.79       2.3  T
   4    -38.3100698 -0.838757E-06  0.169E-03    1.79      10.6  T
   5    -38.3100698  0.276401E-10  0.101E-03    1.79      17.8  T
   6    -38.3100698 -0.761337E-08  0.286E-04    1.79      62.9  T
   7    -38.3100698 -0.987562E-09  0.130E-04    1.79     138.1  T
     SCC iter.                  ...        0 min,  0.520 sec
     gradient                   ...        0 min,  0.092 sec
 * total energy  :   -37.6865449 Eh     change       -0.2643616E-04 Eh
   gradient norm :     0.0007950 Eh/α   predicted    -0.1030824E-04 ( -61.01%)
   displ. norm   :     0.1513499 α      lambda       -0.2392631E-04
   maximum displ.:     0.1106403 α      in ANC's #1, #2, #8, ...

........................................................................
.............................. CYCLE   31 ..............................
........................................................................
   1    -38.3102648 -0.383103E+02  0.294E-02    1.79       0.0  T
   2    -38.3102652 -0.354393E-06  0.181E-02    1.79       1.0  T
   3    -38.3102642  0.906140E-06  0.887E-03    1.79       2.0  T
   4    -38.3102654 -0.112101E-05  0.192E-03    1.79       9.4  T
   5    -38.3102654  0.305898E-08  0.106E-03    1.79      16.9  T
   6    -38.3102654 -0.116175E-07  0.292E-04    1.79      61.5  T
   7    -38.3102654 -0.479318E-09  0.165E-04    1.79     109.2  T
     SCC iter.                  ...        0 min,  0.521 sec
     gradient                   ...        0 min,  0.073 sec
 * total energy  :   -37.6865781 Eh     change       -0.3319271E-04 Eh
   gradient norm :     0.0010075 Eh/α   predicted    -0.1208711E-04 ( -63.59%)
   displ. norm   :     0.2347396 α      lambda       -0.3881731E-04
   maximum displ.:     0.1646470 α      in ANC's #1, #2, #8, ...

........................................................................
.............................. CYCLE   32 ..............................
........................................................................
   1    -38.3100070 -0.383100E+02  0.473E-02    1.79       0.0  T
   2    -38.3100074 -0.467553E-06  0.306E-02    1.79       1.0  T
   3    -38.3100057  0.176829E-05  0.104E-02    1.79       1.7  T
   4    -38.3100077 -0.202440E-05  0.282E-03    1.79       6.4  T
   5    -38.3100077 -0.659693E-08  0.156E-03    1.79      11.5  T
   6    -38.3100077 -0.223041E-07  0.369E-04    1.79      48.7  T
   7    -38.3100077 -0.104108E-08  0.179E-04    1.79     100.6  T
     SCC iter.                  ...        0 min,  0.461 sec
     gradient                   ...        0 min,  0.116 sec
 * total energy  :   -37.6866332 Eh     change       -0.5514966E-04 Eh
   gradient norm :     0.0011580 Eh/α   predicted    -0.1988528E-04 ( -63.94%)
   displ. norm   :     0.4554417 α      lambda       -0.7675076E-04
   maximum displ.:     0.3141510 α      in ANC's #1, #2, #5, ...

........................................................................
.............................. CYCLE   33 ..............................
........................................................................
   1    -38.3084400 -0.383084E+02  0.987E-02    1.79       0.0  T
   2    -38.3084416 -0.153890E-05  0.647E-02    1.79       1.0  T
   3    -38.3084363  0.524329E-05  0.175E-02    1.79       1.0  T
   4    -38.3084423 -0.592121E-05  0.541E-03    1.79       3.3  T
   5    -38.3084423 -0.779900E-08  0.293E-03    1.79       6.1  T
   6    -38.3084424 -0.110046E-06  0.660E-04    1.79      27.2  T
   7    -38.3084424 -0.328522E-08  0.262E-04    1.79      68.5  T
     SCC iter.                  ...        0 min,  0.670 sec
     gradient                   ...        0 min,  0.186 sec
 * total energy  :   -37.6867331 Eh     change       -0.9991059E-04 Eh
   gradient norm :     0.0023898 Eh/α   predicted    -0.4191769E-04 ( -58.04%)
   displ. norm   :     0.5604009 α      lambda       -0.1282917E-03
   maximum displ.:     0.3794517 α      in ANC's #1, #2, #5, ...

........................................................................
.............................. CYCLE   34 ..............................
........................................................................
   1    -38.3051967 -0.383052E+02  0.133E-01    1.79       0.0  T
   2    -38.3051990 -0.230852E-05  0.881E-02    1.79       1.0  T
   3    -38.3051924  0.656316E-05  0.204E-02    1.79       1.0  T
   4    -38.3051998 -0.741508E-05  0.682E-03    1.79       2.6  T
   5    -38.3051998 -0.180249E-07  0.345E-03    1.79       5.2  T
   6    -38.3052000 -0.150832E-06  0.967E-04    1.79      18.6  T
   7    -38.3052000 -0.108383E-07  0.320E-04    1.79      56.1  T
     SCC iter.                  ...        0 min,  0.613 sec
     gradient                   ...        0 min,  0.210 sec
 * total energy  :   -37.6868075 Eh     change       -0.7436308E-04 Eh
   gradient norm :     0.0054712 Eh/α   predicted    -0.8429243E-04 (  13.35%)
   displ. norm   :     0.1311866 α      lambda       -0.8908934E-04
   maximum displ.:     0.0764214 α      in ANC's #2, #1, #3, ...

........................................................................
.............................. CYCLE   35 ..............................
........................................................................
   1    -38.3074102 -0.383074E+02  0.442E-02    1.79       0.0  T
   2    -38.3074105 -0.241572E-06  0.294E-02    1.79       1.0  T
   3    -38.3074099  0.536184E-06  0.581E-03    1.79       3.1  T
   4    -38.3074105 -0.621486E-06  0.269E-03    1.79       6.7  T
   5    -38.3074106 -0.186675E-07  0.132E-03    1.79      13.6  T
   6    -38.3074106  0.760906E-09  0.418E-04    1.79      43.0  T
   7    -38.3074106 -0.353437E-08  0.188E-04    1.79      95.7  T
     SCC iter.                  ...        0 min,  0.616 sec
     gradient                   ...        0 min,  0.004 sec
 * total energy  :   -37.6868792 Eh     change       -0.7169087E-04 Eh
   gradient norm :     0.0032954 Eh/α   predicted    -0.4531548E-04 ( -36.79%)
   displ. norm   :     0.4262488 α      lambda       -0.1318952E-03
   maximum displ.:     0.2726628 α      in ANC's #2, #1, #5, ...

........................................................................
.............................. CYCLE   36 ..............................
........................................................................
   1    -38.3081256 -0.383081E+02  0.127E-01    1.79       0.0  T
   2    -38.3081273 -0.165476E-05  0.844E-02    1.79       1.0  T
   3    -38.3081232  0.411616E-05  0.155E-02    1.79       1.2  T
   4    -38.3081280 -0.480391E-05  0.599E-03    1.79       3.0  T
   5    -38.3081280 -0.474424E-07  0.197E-03    1.79       9.1  T
   6    -38.3081280 -0.282215E-07  0.703E-04    1.79      25.5  T
   7    -38.3081280 -0.305332E-08  0.403E-04    1.79      44.5  T
     SCC iter.                  ...        0 min,  0.599 sec
     gradient                   ...        0 min,  0.201 sec
 * total energy  :   -37.6869785 Eh     change       -0.9925233E-04 Eh
   gradient norm :     0.0027118 Eh/α   predicted    -0.7793193E-04 ( -21.48%)
   displ. norm   :     0.3245283 α      lambda       -0.1037354E-03
   maximum displ.:     0.2116316 α      in ANC's #2, #1, #5, ...

........................................................................
.............................. CYCLE   37 ..............................
........................................................................
   1    -38.3100168 -0.383100E+02  0.111E-01    1.79       0.0  T
   2    -38.3100185 -0.166966E-05  0.725E-02    1.79       1.0  T
   3    -38.3100144  0.411704E-05  0.187E-02    1.80       1.0  T
   4    -38.3100193 -0.490340E-05  0.526E-03    1.79       3.4  T
   5    -38.3100192  0.603000E-07  0.287E-03    1.79       6.2  T
   6    -38.3100193 -0.106287E-06  0.793E-04    1.79      22.6  T
   7    -38.3100193 -0.254600E-08  0.478E-04    1.79      37.6  T
     SCC iter.                  ...        0 min,  0.671 sec
     gradient                   ...        0 min,  0.241 sec
 * total energy  :   -37.6870519 Eh     change       -0.7341640E-04 Eh
   gradient norm :     0.0017892 Eh/α   predicted    -0.5733190E-04 ( -21.91%)
   displ. norm   :     0.8061560 α      lambda       -0.8637503E-04
   maximum displ.:     0.5428165 α      in ANC's #2, #1, #5, ...

........................................................................
.............................. CYCLE   38 ..............................
........................................................................
   1    -38.2999634 -0.383000E+02  0.230E-01    1.79       0.0  T
   2    -38.2999720 -0.863715E-05  0.151E-01    1.80       1.0  T
   3    -38.2999552  0.168434E-04  0.361E-02    1.79       1.0  T
   4    -38.2999750 -0.197916E-04  0.122E-02    1.79       1.5  T
   5    -38.2999751 -0.112322E-06  0.621E-03    1.79       2.9  T
   6    -38.2999751 -0.395382E-07  0.213E-03    1.79       8.4  T
   7    -38.2999752 -0.771109E-07  0.107E-03    1.79      16.8  T
   8    -38.2999752 -0.486146E-09  0.635E-04    1.79      28.3  T
   9    -38.2999752 -0.891809E-09  0.288E-04    1.79      62.3  T
     SCC iter.                  ...        0 min,  1.070 sec
     gradient                   ...        0 min,  0.189 sec
 * total energy  :   -37.6869176 Eh     change        0.1342553E-03 Eh
   gradient norm :     0.0105921 Eh/α   predicted    -0.5566205E-04 (-141.46%)
   displ. norm   :     0.2133471 α      lambda       -0.3593307E-03
   maximum displ.:     0.1472656 α      in ANC's #1, #2, #3, ...

........................................................................
.............................. CYCLE   39 ..............................
........................................................................
   1    -38.3085106 -0.383085E+02  0.655E-02    1.80       0.0  T
   2    -38.3085128 -0.224606E-05  0.422E-02    1.79       1.0  T
   3    -38.3085114  0.138488E-05  0.180E-02    1.80       1.0  T
   4    -38.3085133 -0.190975E-05  0.483E-03    1.79       3.7  T
   5    -38.3085134 -0.376176E-07  0.275E-03    1.79       6.5  T
   6    -38.3085134  0.222505E-07  0.127E-03    1.79      14.1  T
   7    -38.3085134 -0.382024E-07  0.387E-04    1.79      46.4  T
   8    -38.3085134 -0.430376E-09  0.238E-04    1.79      75.3  T
     SCC iter.                  ...        0 min,  0.952 sec
     gradient                   ...        0 min,  0.243 sec
 * total energy  :   -37.6871229 Eh     change       -0.2052458E-03 Eh
   gradient norm :     0.0030348 Eh/α   predicted    -0.1878439E-03 (  -8.48%)
   displ. norm   :     0.0412768 α      lambda       -0.3644144E-04
   maximum displ.:     0.0331213 α      in ANC's #3, #1, #4, ...

........................................................................
.............................. CYCLE   40 ..............................
........................................................................
   1    -38.3102519 -0.383103E+02  0.160E-02    1.80       0.0  T
   2    -38.3102521 -0.161001E-06  0.104E-02    1.79       1.7  T
   3    -38.3102519  0.157142E-06  0.371E-03    1.80       4.8  T
   4    -38.3102521 -0.197444E-06  0.131E-03    1.79      13.7  T
   5    -38.3102521 -0.601097E-08  0.774E-04    1.79      23.2  T
   6    -38.3102521  0.354142E-09  0.230E-04    1.79      78.3  T
     SCC iter.                  ...        0 min,  0.489 sec
     gradient                   ...        0 min,  0.208 sec
 * total energy  :   -37.6871504 Eh     change       -0.2753342E-04 Eh
   gradient norm :     0.0013459 Eh/α   predicted    -0.1825613E-04 ( -33.69%)
   displ. norm   :     0.1422256 α      lambda       -0.3802172E-04
   maximum displ.:     0.0921565 α      in ANC's #2, #3, #8, ...

........................................................................
.............................. CYCLE   41 ..............................
........................................................................
   1    -38.3118111 -0.383118E+02  0.332E-02    1.80       0.0  T
   2    -38.3118117 -0.578146E-06  0.196E-02    1.80       1.0  T
   3    -38.3118107  0.970350E-06  0.963E-03    1.80       1.9  T
   4    -38.3118120 -0.128053E-05  0.270E-03    1.80       6.7  T
   5    -38.3118120 -0.653431E-08  0.182E-03    1.80       9.9  T
   6    -38.3118120  0.321907E-08  0.547E-04    1.80      32.8  T
   7    -38.3118120 -0.588548E-08  0.229E-04    1.80      78.6  T
     SCC iter.                  ...        0 min,  0.723 sec
     gradient                   ...        0 min,  0.234 sec
 * total energy  :   -37.6871871 Eh     change       -0.3674643E-04 Eh
   gradient norm :     0.0020225 Eh/α   predicted    -0.1918238E-04 ( -47.80%)
   displ. norm   :     0.1608907 α      lambda       -0.3065318E-04
   maximum displ.:     0.1198992 α      in ANC's #2, #1, #3, ...

........................................................................
.............................. CYCLE   42 ..............................
........................................................................
   1    -38.3112034 -0.383112E+02  0.249E-02    1.80       0.0  T
   2    -38.3112037 -0.235652E-06  0.155E-02    1.80       1.2  T
   3    -38.3112031  0.547307E-06  0.651E-03    1.80       2.8  T
   4    -38.3112038 -0.676170E-06  0.167E-03    1.80      10.7  T
   5    -38.3112038  0.407388E-08  0.962E-04    1.80      18.7  T
   6    -38.3112038 -0.101126E-07  0.242E-04    1.80      74.2  T
     SCC iter.                  ...        0 min,  0.499 sec
     gradient                   ...        0 min,  0.252 sec
 * total energy  :   -37.6872141 Eh     change       -0.2693470E-04 Eh
   gradient norm :     0.0016999 Eh/α   predicted    -0.1572631E-04 ( -41.61%)
   displ. norm   :     0.6125132 α      lambda       -0.6125264E-04
   maximum displ.:     0.4610499 α      in ANC's #2, #1, #5, ...
 * RMSD in coord.:     0.7955548 α      energy gain  -0.1363512E-02 Eh

generating ANC from model Hessian ...
Using Lindh-Hessian (1995)
 Shifting diagonal of input Hessian by    9.7061534286492623E-003
 Lowest  eigenvalues of input Hessian
    0.000000    0.000000    0.000000    0.000000    0.000000    0.000000
    0.010000    0.010116    0.010316    0.010494    0.010890    0.010936
    0.011447    0.012174    0.017613    0.017763    0.018130    0.018523
 Highest eigenvalues
    1.659413    1.663406    1.704384    1.712793    1.713735    1.720380


........................................................................
.............................. CYCLE   43 ..............................
........................................................................
   1    -38.3055688 -0.383056E+02  0.102E-01    1.80       0.0  T
   2    -38.3055726 -0.381946E-05  0.643E-02    1.80       1.0  T
   3    -38.3055663  0.627774E-05  0.237E-02    1.80       1.0  T
   4    -38.3055741 -0.777540E-05  0.664E-03    1.80       2.7  T
   5    -38.3055742 -0.409379E-07  0.389E-03    1.80       4.6  T
   6    -38.3055743 -0.100961E-06  0.123E-03    1.80      14.6  T
   7    -38.3055743 -0.184867E-07  0.474E-04    1.80      37.9  T
   8    -38.3055743 -0.496314E-09  0.269E-04    1.80      66.7  T
     SCC iter.                  ...        0 min,  0.517 sec
     gradient                   ...        0 min,  0.152 sec
 * total energy  :   -37.6872152 Eh     change       -0.1093175E-05 Eh
   gradient norm :     0.0046020 Eh/α   predicted     0.0000000E+00 (-100.00%)
   displ. norm   :     0.0323642 α      lambda       -0.7747170E-04
   maximum displ.:     0.0138247 α      in ANC's #13, #57, #4, ...

........................................................................
.............................. CYCLE   44 ..............................
........................................................................
   1    -38.3097020 -0.383097E+02  0.207E-02    1.80       0.0  T
   2    -38.3097024 -0.405353E-06  0.126E-02    1.80       1.4  T
   3    -38.3097023  0.822946E-07  0.652E-03    1.80       2.8  T
   4    -38.3097025 -0.185777E-06  0.176E-03    1.80      10.2  T
   5    -38.3097025 -0.495741E-08  0.104E-03    1.80      17.2  T
   6    -38.3097025  0.326516E-08  0.412E-04    1.80      43.6  T
   7    -38.3097025 -0.389880E-08  0.159E-04    1.80     113.3  T
     SCC iter.                  ...        0 min,  0.572 sec
     gradient                   ...        0 min,  0.151 sec
 * total energy  :   -37.6872649 Eh     change       -0.4974821E-04 Eh
   gradient norm :     0.0011607 Eh/α   predicted    -0.3916398E-04 ( -21.28%)
   displ. norm   :     0.0559499 α      lambda       -0.1883237E-04
   maximum displ.:     0.0306084 α      in ANC's #13, #4, #1, ...

........................................................................
.............................. CYCLE   45 ..............................
........................................................................
   1    -38.3120428 -0.383120E+02  0.191E-02    1.80       0.0  T
   2    -38.3120430 -0.171320E-06  0.112E-02    1.80       1.6  T
   3    -38.3120427  0.282210E-06  0.521E-03    1.80       3.4  T
   4    -38.3120430 -0.364297E-06  0.114E-03    1.80      15.7  T
   5    -38.3120430 -0.239955E-08  0.728E-04    1.80      24.7  T
   6    -38.3120430  0.845546E-12  0.303E-04    1.80      59.2  T
     SCC iter.                  ...        0 min,  0.405 sec
     gradient                   ...        0 min,  0.155 sec
 * total energy  :   -37.6872808 Eh     change       -0.1588196E-04 Eh
   gradient norm :     0.0013446 Eh/α   predicted    -0.9442014E-05 ( -40.55%)
   displ. norm   :     0.0609974 α      lambda       -0.1169687E-04
   maximum displ.:     0.0318129 α      in ANC's #13, #1, #4, ...

........................................................................
.............................. CYCLE   46 ..............................
........................................................................
   1    -38.3117743 -0.383118E+02  0.189E-02    1.80       0.0  T
   2    -38.3117743 -0.843362E-07  0.117E-02    1.80       1.5  T
   3    -38.3117741  0.231321E-06  0.417E-03    1.80       4.3  T
   4    -38.3117744 -0.273357E-06  0.108E-03    1.80      16.7  T
   5    -38.3117744  0.924913E-10  0.564E-04    1.80      31.8  T
   6    -38.3117744 -0.103935E-08  0.189E-04    1.80      95.1  T
     SCC iter.                  ...        0 min,  0.341 sec
     gradient                   ...        0 min,  0.112 sec
 * total energy  :   -37.6872953 Eh     change       -0.1452215E-04 Eh
   gradient norm :     0.0011305 Eh/α   predicted    -0.5859142E-05 ( -59.65%)
   displ. norm   :     0.1396767 α      lambda       -0.2120368E-04
   maximum displ.:     0.0662418 α      in ANC's #13, #1, #3, ...

........................................................................
.............................. CYCLE   47 ..............................
........................................................................
   1    -38.3102793 -0.383103E+02  0.432E-02    1.79       0.0  T
   2    -38.3102798 -0.467174E-06  0.302E-02    1.80       1.0  T
   3    -38.3102787  0.111979E-05  0.769E-03    1.79       2.3  T
   4    -38.3102799 -0.122661E-05  0.308E-03    1.80       5.8  T
   5    -38.3102800 -0.631274E-07  0.151E-03    1.80      11.9  T
   6    -38.3102800 -0.343726E-08  0.525E-04    1.80      34.2  T
   7    -38.3102800 -0.313572E-08  0.206E-04    1.80      87.1  T
     SCC iter.                  ...        0 min,  0.612 sec
     gradient                   ...        0 min,  0.166 sec
 * total energy  :   -37.6873137 Eh     change       -0.1835388E-04 Eh
   gradient norm :     0.0008610 Eh/α   predicted    -0.1069580E-04 ( -41.72%)
   displ. norm   :     0.0660707 α      lambda       -0.6665258E-05
   maximum displ.:     0.0368670 α      in ANC's #3, #1, #4, ...

........................................................................
.............................. CYCLE   48 ..............................
........................................................................
   1    -38.3102426 -0.383102E+02  0.234E-02    1.80       0.0  T
   2    -38.3102427 -0.672094E-07  0.147E-02    1.80       1.2  T
   3    -38.3102426  0.104429E-06  0.488E-03    1.80       3.7  T
   4    -38.3102427 -0.128905E-06  0.174E-03    1.80      10.3  T
   5    -38.3102427  0.424427E-08  0.608E-04    1.80      29.5  T
   6    -38.3102427 -0.522402E-08  0.182E-04    1.80      98.4  T
     SCC iter.                  ...        0 min,  0.420 sec
     gradient                   ...        0 min,  0.171 sec
 * total energy  :   -37.6873211 Eh     change       -0.7387083E-05 Eh
   gradient norm :     0.0005983 Eh/α   predicted    -0.3343273E-05 ( -54.74%)
   displ. norm   :     0.0706568 α      lambda       -0.7316227E-05
   maximum displ.:     0.0421924 α      in ANC's #3, #1, #8, ...

........................................................................
.............................. CYCLE   49 ..............................
........................................................................
   1    -38.3104724 -0.383105E+02  0.217E-02    1.80       0.0  T
   2    -38.3104726 -0.112238E-06  0.143E-02    1.80       1.3  T
   3    -38.3104722  0.332698E-06  0.422E-03    1.80       4.3  T
   4    -38.3104726 -0.381233E-06  0.133E-03    1.80      13.5  T
   5    -38.3104726 -0.575842E-08  0.640E-04    1.80      28.0  T
   6    -38.3104726 -0.288501E-08  0.232E-04    1.80      77.6  T
     SCC iter.                  ...        0 min,  0.462 sec
     gradient                   ...        0 min,  0.144 sec
 * total energy  :   -37.6873308 Eh     change       -0.9753034E-05 Eh
   gradient norm :     0.0007385 Eh/α   predicted    -0.3696266E-05 ( -62.10%)
   displ. norm   :     0.1327630 α      lambda       -0.1324113E-04
   maximum displ.:     0.0791383 α      in ANC's #3, #1, #8, ...

........................................................................
.............................. CYCLE   50 ..............................
........................................................................
   1    -38.3107320 -0.383107E+02  0.373E-02    1.80       0.0  T
   2    -38.3107323 -0.341089E-06  0.244E-02    1.80       1.0  T
   3    -38.3107314  0.934021E-06  0.690E-03    1.80       2.6  T
   4    -38.3107324 -0.106379E-05  0.219E-03    1.80       8.2  T
   5    -38.3107325 -0.273318E-07  0.104E-03    1.80      17.2  T
   6    -38.3107325 -0.545550E-08  0.458E-04    1.80      39.3  T
   7    -38.3107325 -0.155840E-08  0.167E-04    1.80     107.7  T
     SCC iter.                  ...        0 min,  0.407 sec
     gradient                   ...        0 min,  0.145 sec
 * total energy  :   -37.6873478 Eh     change       -0.1694387E-04 Eh
   gradient norm :     0.0007975 Eh/α   predicted    -0.6675441E-05 ( -60.60%)
   displ. norm   :     0.2166646 α      lambda       -0.1767844E-04
   maximum displ.:     0.1273044 α      in ANC's #3, #1, #8, ...

........................................................................
.............................. CYCLE   51 ..............................
........................................................................
   1    -38.3105435 -0.383105E+02  0.535E-02    1.80       0.0  T
   2    -38.3105440 -0.589847E-06  0.357E-02    1.80       1.0  T
   3    -38.3105424  0.159813E-05  0.836E-03    1.80       2.1  T
   4    -38.3105442 -0.174522E-05  0.353E-03    1.80       5.1  T
   5    -38.3105443 -0.914778E-07  0.155E-03    1.80      11.6  T
   6    -38.3105443 -0.690194E-08  0.612E-04    1.80      29.3  T
   7    -38.3105443 -0.356469E-08  0.201E-04    1.80      89.4  T
     SCC iter.                  ...        0 min,  0.280 sec
     gradient                   ...        0 min,  0.022 sec
 * total energy  :   -37.6873697 Eh     change       -0.2190384E-04 Eh
   gradient norm :     0.0009204 Eh/α   predicted    -0.9023833E-05 ( -58.80%)
   displ. norm   :     0.3102598 α      lambda       -0.2083071E-04
   maximum displ.:     0.1805705 α      in ANC's #3, #1, #8, ...

........................................................................
.............................. CYCLE   52 ..............................
........................................................................
   1    -38.3098705 -0.383099E+02  0.763E-02    1.80       0.0  T
   2    -38.3098716 -0.115229E-05  0.505E-02    1.80       1.0  T
   3    -38.3098696  0.200554E-05  0.888E-03    1.80       2.0  T
   4    -38.3098717 -0.205837E-05  0.607E-03    1.80       3.0  T
   5    -38.3098719 -0.272352E-06  0.262E-03    1.80       6.9  T
   6    -38.3098719 -0.726078E-08  0.967E-04    1.80      18.6  T
   7    -38.3098720 -0.866370E-08  0.412E-04    1.80      43.5  T
     SCC iter.                  ...        0 min,  0.308 sec
     gradient                   ...        0 min,  0.029 sec
 * total energy  :   -37.6873920 Eh     change       -0.2236014E-04 Eh
   gradient norm :     0.0014832 Eh/α   predicted    -0.1086388E-04 ( -51.41%)
   displ. norm   :     0.2883694 α      lambda       -0.1724670E-04
   maximum displ.:     0.1676765 α      in ANC's #3, #1, #6, ...

........................................................................
.............................. CYCLE   53 ..............................
........................................................................
   1    -38.3094880 -0.383095E+02  0.660E-02    1.80       0.0  T
   2    -38.3094890 -0.981177E-06  0.440E-02    1.80       1.0  T
   3    -38.3094866  0.246354E-05  0.102E-02    1.80       1.8  T
   4    -38.3094892 -0.265789E-05  0.510E-03    1.80       3.5  T
   5    -38.3094894 -0.191791E-06  0.241E-03    1.80       7.5  T
   6    -38.3094894 -0.104054E-07  0.808E-04    1.80      22.2  T
   7    -38.3094894 -0.615749E-08  0.339E-04    1.80      53.0  T
     SCC iter.                  ...        0 min,  0.281 sec
     gradient                   ...        0 min,  0.051 sec
 * total energy  :   -37.6874085 Eh     change       -0.1652977E-04 Eh
   gradient norm :     0.0017374 Eh/α   predicted    -0.8945008E-05 ( -45.89%)
   displ. norm   :     0.2839464 α      lambda        0.3829287E-05
   maximum displ.:     0.1651071 α      in ANC's #3, #1, #6, ...

........................................................................
.............................. CYCLE   54 ..............................
........................................................................
   1    -38.3081481 -0.383081E+02  0.658E-02    1.80       0.0  T
   2    -38.3081492 -0.115486E-05  0.442E-02    1.80       1.0  T
   3    -38.3081466  0.265106E-05  0.111E-02    1.80       1.6  T
   4    -38.3081495 -0.288777E-05  0.499E-03    1.80       3.6  T
   5    -38.3081497 -0.195402E-06  0.238E-03    1.80       7.6  T
   6    -38.3081497 -0.481256E-08  0.827E-04    1.80      21.7  T
   7    -38.3081497 -0.839448E-08  0.307E-04    1.80      58.6  T
     SCC iter.                  ...        0 min,  0.313 sec
     gradient                   ...        0 min,  0.041 sec
 * total energy  :   -37.6874013 Eh     change        0.7238476E-05 Eh
   gradient norm :     0.0033492 Eh/α   predicted     0.1981688E-05 ( -72.62%)
   displ. norm   :     0.0644637 α      lambda       -0.2768128E-04
   maximum displ.:     0.0353141 α      in ANC's #3, #1, #8, ...

........................................................................
.............................. CYCLE   55 ..............................
........................................................................
   1    -38.3098021 -0.383098E+02  0.201E-02    1.80       0.0  T
   2    -38.3098023 -0.238870E-06  0.138E-02    1.80       1.3  T
   3    -38.3098021  0.259537E-06  0.538E-03    1.80       3.3  T
   4    -38.3098024 -0.347612E-06  0.147E-03    1.80      12.2  T
   5    -38.3098024 -0.681088E-08  0.969E-04    1.80      18.5  T
   6    -38.3098024  0.213821E-08  0.455E-04    1.80      39.4  T
     SCC iter.                  ...        0 min,  0.360 sec
     gradient                   ...        0 min,  0.005 sec
 * total energy  :   -37.6874189 Eh     change       -0.1759516E-04 Eh
   gradient norm :     0.0012864 Eh/α   predicted    -0.1389953E-04 ( -21.00%)
   displ. norm   :     0.0329681 α      lambda       -0.8124410E-05
   maximum displ.:     0.0224050 α      in ANC's #13, #10, #5, ...

........................................................................
.............................. CYCLE   56 ..............................
........................................................................
   1    -38.3110576 -0.383111E+02  0.134E-02    1.80       0.0  T
   2    -38.3110577 -0.161231E-06  0.873E-03    1.80       2.1  T
   3    -38.3110576  0.125853E-06  0.433E-03    1.80       4.1  T
   4    -38.3110578 -0.204183E-06  0.126E-03    1.80      14.2  T
   5    -38.3110578  0.525425E-09  0.774E-04    1.80      23.2  T
   6    -38.3110578 -0.223842E-08  0.252E-04    1.80      71.3  T
     SCC iter.                  ...        0 min,  0.349 sec
     gradient                   ...        0 min,  0.115 sec
 * total energy  :   -37.6874243 Eh     change       -0.5433859E-05 Eh
   gradient norm :     0.0006928 Eh/α   predicted    -0.4066400E-05 ( -25.17%)
   displ. norm   :     0.0557191 α      lambda       -0.2240063E-05
   maximum displ.:     0.0299961 α      in ANC's #3, #1, #8, ...

........................................................................
.............................. CYCLE   57 ..............................
........................................................................
   1    -38.3108930 -0.383109E+02  0.169E-02    1.80       0.0  T
   2    -38.3108931 -0.767335E-07  0.117E-02    1.80       1.5  T
   3    -38.3108930  0.878355E-07  0.273E-03    1.80       6.6  T
   4    -38.3108931 -0.107282E-06  0.183E-03    1.80       9.8  T
   5    -38.3108931 -0.107357E-07  0.883E-04    1.80      20.3  T
   6    -38.3108931 -0.203612E-08  0.284E-04    1.80      63.1  T
     SCC iter.                  ...        0 min,  0.295 sec
     gradient                   ...        0 min,  0.114 sec
 * total energy  :   -37.6874270 Eh     change       -0.2678213E-05 Eh
   gradient norm :     0.0003061 Eh/α   predicted    -0.1121810E-05 ( -58.11%)
   displ. norm   :     0.1822471 α      lambda       -0.4442579E-05
   maximum displ.:     0.1003973 α      in ANC's #3, #1, #8, ...

   *** GEOMETRY OPTIMIZATION CONVERGED AFTER 57 ITERATIONS ***

------------------------------------------------------------------------
 total energy gain   :        -0.1621657 Eh     -101.7605 kcal/mol
 total RMSD          :         1.6038493 a0        0.8487 Å
 total power (kW/mol):        -7.4695776 (step)   -9.0433 (real)
------------------------------------------------------------------------

 ANCopt (total)                0 d,  0 h,  0 min, 47.081 sec
 optimizer setup                ...        0 min,  0.000 sec (  0.001%)
 model hessian                  ...        0 min,  0.117 sec (  0.249%)
 ANC generation                 ...        0 min,  0.042 sec (  0.089%)
 coordinate transformation      ...        0 min,  0.001 sec (  0.002%)
 single point calculation       ...        0 min, 45.988 sec ( 97.679%)
 optimization log               ...        0 min,  0.006 sec (  0.013%)
 hessian update                 ...        0 min,  0.720 sec (  1.529%)
 rational function              ...        0 min,  0.185 sec (  0.392%)

================
 final structure:
================
31
 xtb: 6.5.1 (b24c23e)
Zr          -0.25361525279335       -0.22410668355963        0.18473596849601
C           -0.44333767686940        1.90562853658224        0.59338158477752
C            2.07608156848286        0.23156519045184       -0.31429267815431
C            1.70886428344039       -0.88701659713153       -1.10696593566382
C            1.44416771933584       -1.97065717383826       -0.23138944764870
C            1.60452120796797       -1.51634204015290        1.10023111488953
C            1.99888931914808       -0.15192287113437        1.05306348359033
H            2.48847192213717        1.16346743813872       -0.68495383632754
H            1.81375766201772       -0.95794833906884       -2.18614745182227
H            1.28803734551079       -3.00055045346639       -0.53182539689495
H            1.60260371796557       -2.14258835114091        1.98719843809862
H            2.35866758999043        0.43315676066881        1.89330400318940
C           -2.67071909495092       -0.19616968904632        0.31968477339123
C           -2.20352373316192       -1.12945181873878        1.28835053483270
C           -1.62620661104612       -2.22142283562648        0.59262725092656
C           -1.69942434640810       -1.95036729392562       -0.79659141835398
C           -2.34279463400447       -0.69812679081517       -0.96783831171429
H           -3.31063611508910        0.65375618832816        0.52464683091134
H           -2.43732524299116       -1.10428620728910        2.34875071966573
H           -1.31109991511160       -3.15889438758457        1.03814249303162
H           -1.46881465417571       -2.65295458321056       -1.59099457969782
H           -2.69155625845957       -0.29096182846818       -1.91214867332303
H            0.48646315337516        2.39859252788391        0.92657450484800
H           -1.25562324036168        2.30274655381931        1.22218059166496
C           -0.70429998388890        2.31490785921842       -0.88375236744631
H           -0.19510447444696        1.60725809152958       -1.59851082020519
H           -1.78342183914723        2.29290357992451       -1.09479416024797
C           -0.19152711839457        3.72899153675080       -1.18763003443467
H            0.88471516135697        3.78804578166617       -1.03612655368991
H           -0.40908050765559        4.01191165469273       -2.21470800079640
H           -0.67306402175468        4.44593403455378       -0.52664348588886

 Bond Distances (Angstroems)
 ---------------------------
Zr1-C2=2.1769        Zr1-C3=2.4257        Zr1-C4=2.4412        Zr1-C5=2.4710        Zr1-C6=2.4414        Zr1-C7=2.4152        
Zr1-C13=2.4210       Zr1-C14=2.4166       Zr1-C15=2.4576       Zr1-C16=2.4563       Zr1-C17=2.4327       Zr1-C25=2.7913       
C2-Zr1=2.1769        C2-H23=1.1039        C2-H24=1.1013        C2-C25=1.5548        C3-Zr1=2.4257        C3-C4=1.4193         
C3-C7=1.4222         C3-H8=1.0844         C4-Zr1=2.4412        C4-C3=1.4193         C4-C5=1.4181         C4-H9=1.0866         
C5-Zr1=2.4710        C5-C4=1.4181         C5-C6=1.4161         C5-H10=1.0841        C6-Zr1=2.4414        C6-C5=1.4161         
C6-C7=1.4211         C6-H11=1.0858        C7-Zr1=2.4152        C7-C3=1.4222         C7-C6=1.4211         C7-H12=1.0852        
H8-C3=1.0844         H9-C4=1.0866         H10-C5=1.0841        H11-C6=1.0858        H12-C7=1.0852        C13-Zr1=2.4210       
C13-C14=1.4239       C13-C17=1.4203       C13-H18=1.0835       C14-Zr1=2.4166       C14-C13=1.4239       C14-C15=1.4176       
C14-H19=1.0862       C15-Zr1=2.4576       C15-C14=1.4176       C15-C16=1.4173       C15-H20=1.0847       C16-Zr1=2.4563       
C16-C15=1.4173       C16-C17=1.4182       C16-H21=1.0853       C17-Zr1=2.4327       C17-C13=1.4203       C17-C16=1.4182       
C17-H22=1.0859       H18-C13=1.0835       H19-C14=1.0862       H20-C15=1.0847       H21-C16=1.0853       H22-C17=1.0859       
H23-C2=1.1039        H24-C2=1.1013        C25-Zr1=2.7913       C25-C2=1.5548        C25-H26=1.1274       C25-H27=1.0998       
C25-C28=1.5346       H26-C25=1.1274       H27-C25=1.0998       C28-C25=1.5346       C28-H29=1.0885       C28-H30=1.0873       
C28-H31=1.0876       H29-C28=1.0885       H30-C28=1.0873       H31-C28=1.0876       
 C  H  Rav=1.0910 sigma=0.0110  Rmin=1.0835  Rmax=1.1274    17
 C  C  Rav=1.4403 sigma=0.0469  Rmin=1.4161  Rmax=1.5548    12
 Zr C  Rav=2.4456 sigma=0.1277  Rmin=2.1769  Rmax=2.7913    12

 selected bond angles (degree)
 --------------------
C3-Zr1-C2= 86.48               C4-Zr1-C2=115.79               C4-Zr1-C3= 33.91               C5-Zr1-C2=141.54               
C5-Zr1-C3= 55.82               C5-Zr1-C4= 33.55               C6-Zr1-C2=120.92               C6-Zr1-C3= 56.33               
C6-Zr1-C4= 56.14               C6-Zr1-C5= 33.50               C7-Zr1-C2= 89.11               C7-Zr1-C3= 34.17               
C7-Zr1-C4= 56.54               C7-Zr1-C5= 56.00               C7-Zr1-C6= 34.02               C13-Zr1-C2= 83.76              
C13-Zr1-C3=165.50              C13-Zr1-C4=146.64              C13-Zr1-C5=134.71              C13-Zr1-C6=138.16              
C13-Zr1-C7=155.61              C14-Zr1-C2=102.15              C14-Zr1-C3=159.93              C14-Zr1-C4=142.05              
C14-Zr1-C5=111.50              C14-Zr1-C6=104.16              C14-Zr1-C7=126.84              C14-Zr1-C13= 34.24             
C15-Zr1-C2=135.67              C15-Zr1-C3=136.32              C15-Zr1-C4=108.43              C15-Zr1-C5= 80.63              
C15-Zr1-C6= 86.14              C15-Zr1-C7=119.05              C15-Zr1-C13= 56.12             C15-Zr1-C14= 33.80             
C16-Zr1-C2=135.34              C16-Zr1-C3=127.96              C16-Zr1-C4= 94.07              C16-Zr1-C5= 80.82              
C16-Zr1-C6=103.05              C16-Zr1-C7=135.53              C16-Zr1-C13= 56.13             C16-Zr1-C14= 56.23             
C16-Zr1-C15= 33.53             C17-Zr1-C2=101.81              C17-Zr1-C3=139.81              C17-Zr1-C4=112.75              
C17-Zr1-C5=111.87              C17-Zr1-C6=136.73              C17-Zr1-C7=167.72              C17-Zr1-C13= 34.03             
C17-Zr1-C14= 56.66             C17-Zr1-C15= 55.99             C17-Zr1-C16= 33.72             C25-Zr1-C2= 33.68              
C25-Zr1-C3= 84.57              C25-Zr1-C4=100.04              C25-Zr1-C5=133.58              C25-Zr1-C6=138.41              
C25-Zr1-C7=105.13              C25-Zr1-C13= 81.35             C25-Zr1-C14=112.66             C25-Zr1-C15=135.45             
C25-Zr1-C16=113.04             C25-Zr1-C17= 81.79             H23-C2-Zr1=114.84              H24-C2-Zr1=121.62              
H24-C2-H23=106.73              C25-C2-Zr1= 95.38              C25-C2-H23=108.09              C25-C2-H24=108.89              
C4-C3-Zr1= 73.64               C7-C3-Zr1= 72.51               C7-C3-C4=108.08                H8-C3-Zr1=126.66               
H8-C3-C4=125.79                H8-C3-C7=125.52                C3-C4-Zr1= 72.45               C5-C4-Zr1= 74.38               
C5-C4-C3=107.80                H9-C4-Zr1=128.38               H9-C4-C3=125.53                H9-C4-C5=125.55                
C4-C5-Zr1= 72.07               C6-C5-Zr1= 72.10               C6-C5-C4=108.32                H10-C5-Zr1=128.26              
H10-C5-C4=125.57               H10-C5-C6=125.57               C5-C6-Zr1= 74.40               C7-C6-Zr1= 71.98               
C7-C6-C5=107.95                H11-C6-Zr1=127.61              H11-C6-C5=125.66               H11-C6-C7=125.55               
C3-C7-Zr1= 73.32               C6-C7-Zr1= 74.00               C6-C7-C3=107.81                H12-C7-Zr1=127.13              
H12-C7-C3=125.52               H12-C7-C6=125.73               

 selected dihedral angles (degree)
 ---------------------------------
H23-C2-Zr1-C3=332.71          H23-C2-Zr1-C4=315.12          H23-C2-Zr1-C5=343.50          H23-C2-Zr1-C6= 19.53          
H23-C2-Zr1-C7=  6.81          H23-C2-Zr1-C13=163.44         H23-C2-Zr1-C14=134.40         H23-C2-Zr1-C15=139.57         
H23-C2-Zr1-C16=188.17         H23-C2-Zr1-C17=192.44         H23-C2-Zr1-C25=247.21         H24-C2-Zr1-C3=201.59          
H24-C2-Zr1-C4=184.00          H24-C2-Zr1-C5=212.39          H24-C2-Zr1-C6=248.42          H24-C2-Zr1-C7=235.69          
H24-C2-Zr1-C13= 32.33         H24-C2-Zr1-C14=  3.28         H24-C2-Zr1-C15=  8.46         H24-C2-Zr1-C16= 57.06         
H24-C2-Zr1-C17= 61.32         H24-C2-Zr1-C25=116.09         C25-C2-Zr1-C3= 85.50          C25-C2-Zr1-C4= 67.91          
C25-C2-Zr1-C5= 96.30          C25-C2-Zr1-C6=132.32          C25-C2-Zr1-C7=119.60          C25-C2-Zr1-C13=276.23         
C25-C2-Zr1-C14=247.19         C25-C2-Zr1-C15=252.37         C25-C2-Zr1-C16=300.97         C25-C2-Zr1-C17=305.23         
C4-C3-Zr1-C2=209.20           C4-C3-Zr1-C5= 37.29           C4-C3-Zr1-C6= 77.93           C4-C3-Zr1-C7=115.57           
C4-C3-Zr1-C13=256.87          C4-C3-Zr1-C14= 92.71          C4-C3-Zr1-C15= 42.49          C4-C3-Zr1-C16=358.05          
C4-C3-Zr1-C17=313.38          C4-C3-Zr1-C25=242.93          C7-C3-Zr1-C2= 93.62           C7-C3-Zr1-C4=244.43           
C7-C3-Zr1-C5=281.72           C7-C3-Zr1-C6=322.36           C7-C3-Zr1-C13=141.29          C7-C3-Zr1-C14=337.14          
C7-C3-Zr1-C15=286.92          C7-C3-Zr1-C16=242.47          C7-C3-Zr1-C17=197.80          C7-C3-Zr1-C25=127.36          
H8-C3-Zr1-C2=331.97           H8-C3-Zr1-C4=122.77           H8-C3-Zr1-C5=160.06           H8-C3-Zr1-C6=200.70           
H8-C3-Zr1-C7=238.34           H8-C3-Zr1-C13= 19.64          H8-C3-Zr1-C14=215.48          H8-C3-Zr1-C15=165.26          
H8-C3-Zr1-C16=120.82          H8-C3-Zr1-C17= 76.15          H8-C3-Zr1-C25=  5.70          C3-C4-Zr1-C2= 32.73           
C3-C4-Zr1-C5=245.08           C3-C4-Zr1-C6=281.45           C3-C4-Zr1-C7=322.61           C3-C4-Zr1-C13=153.68          
C3-C4-Zr1-C14=213.88          C3-C4-Zr1-C15=209.45          C3-C4-Zr1-C16=178.46          C3-C4-Zr1-C17=149.43          
C3-C4-Zr1-C25= 64.19          C5-C4-Zr1-C2=147.65           C5-C4-Zr1-C3=114.92           C5-C4-Zr1-C6= 36.37           
C5-C4-Zr1-C7= 77.53           C5-C4-Zr1-C13=268.60          C5-C4-Zr1-C14=328.80          C5-C4-Zr1-C15=324.37          
C5-C4-Zr1-C16=293.38          C5-C4-Zr1-C17=264.35          C5-C4-Zr1-C25=179.11          H9-C4-Zr1-C2=270.93           
H9-C4-Zr1-C3=238.19           H9-C4-Zr1-C5=123.27           H9-C4-Zr1-C6=159.64           H9-C4-Zr1-C7=200.80           
H9-C4-Zr1-C13= 31.87          H9-C4-Zr1-C14= 92.07          H9-C4-Zr1-C15= 87.64          H9-C4-Zr1-C16= 56.65          
H9-C4-Zr1-C17= 27.62          H9-C4-Zr1-C25=302.38          Zr1-C4-C3-C7= 64.83           Zr1-C4-C3-H8=236.26           
C5-C4-C3-Zr1=293.46           C5-C4-C3-C7=358.29            C5-C4-C3-H8=169.72            H9-C4-C3-Zr1=125.05           
H9-C4-C3-C7=189.88            H9-C4-C3-H8=  1.31            C4-C5-Zr1-C2=309.24           C4-C5-Zr1-C3=322.30           
C4-C5-Zr1-C6=243.15           C4-C5-Zr1-C7=280.75           C4-C5-Zr1-C13=129.33          C4-C5-Zr1-C14=159.98          
C4-C5-Zr1-C15=145.94          C4-C5-Zr1-C16=111.95          C4-C5-Zr1-C17= 98.56          C4-C5-Zr1-C25=358.79          
C6-C5-Zr1-C2= 66.09           C6-C5-Zr1-C3= 79.15           C6-C5-Zr1-C4=116.85           C6-C5-Zr1-C7= 37.60           
C6-C5-Zr1-C13=246.18          C6-C5-Zr1-C14=276.83          C6-C5-Zr1-C15=262.79          C6-C5-Zr1-C16=228.80          
C6-C5-Zr1-C17=215.41          C6-C5-Zr1-C25=115.64          H10-C5-Zr1-C2=187.68          H10-C5-Zr1-C3=200.74          
H10-C5-Zr1-C4=238.44          H10-C5-Zr1-C6=121.59          H10-C5-Zr1-C7=159.18          H10-C5-Zr1-C13=  7.77         
H10-C5-Zr1-C14= 38.41         H10-C5-Zr1-C15= 24.37         H10-C5-Zr1-C16=350.39         H10-C5-Zr1-C17=336.99         
H10-C5-Zr1-C25=237.23         Zr1-C5-C4-C3= 65.25           Zr1-C5-C4-H9=233.66           C6-C5-C4-Zr1=296.58           
C6-C5-C4-C3=  1.83            C6-C5-C4-H9=170.24            H10-C5-C4-Zr1=124.66          H10-C5-C4-C3=189.91           
H10-C5-C4-H9=358.32           C5-C6-Zr1-C2=221.51           C5-C6-Zr1-C3=282.50           C5-C6-Zr1-C4=323.57           
C5-C6-Zr1-C7=244.69           C5-C6-Zr1-C13=102.90          C5-C6-Zr1-C14=107.68          C5-C6-Zr1-C15= 78.84          
C5-C6-Zr1-C16= 49.68          C5-C6-Zr1-C17= 51.67          C5-C6-Zr1-C25=259.66          C7-C6-Zr1-C2=336.82           
C7-C6-Zr1-C3= 37.81           C7-C6-Zr1-C4= 78.88           C7-C6-Zr1-C5=115.31           C7-C6-Zr1-C13=218.21          
C7-C6-Zr1-C14=222.99          C7-C6-Zr1-C15=194.14          C7-C6-Zr1-C16=164.99          C7-C6-Zr1-C17=166.97          
C7-C6-Zr1-C25= 14.97          H11-C6-Zr1-C2= 98.23          H11-C6-Zr1-C3=159.22          H11-C6-Zr1-C4=200.28          
H11-C6-Zr1-C5=236.71          H11-C6-Zr1-C7=121.41          H11-C6-Zr1-C13=339.62         H11-C6-Zr1-C14=344.39         
H11-C6-Zr1-C15=315.55         H11-C6-Zr1-C16=286.40         H11-C6-Zr1-C17=288.38         H11-C6-Zr1-C25=136.37         
Zr1-C6-C5-C4= 63.40           Zr1-C6-C5-H10=235.32          C7-C6-C5-Zr1=295.35           C7-C6-C5-C4=358.76            
C7-C6-C5-H10=170.68           H11-C6-C5-Zr1=125.41          H11-C6-C5-C4=188.81           H11-C6-C5-H10=  0.73          
C3-C7-Zr1-C2=274.97           C3-C7-Zr1-C4= 37.10           C3-C7-Zr1-C5= 77.71           C3-C7-Zr1-C6=114.71           
C3-C7-Zr1-C13=202.28          C3-C7-Zr1-C14=170.41          C3-C7-Zr1-C15=130.90          C3-C7-Zr1-C16= 93.60          
C3-C7-Zr1-C17= 68.11          C3-C7-Zr1-C25=304.94          C6-C7-Zr1-C2=160.26           C6-C7-Zr1-C3=245.29           
C6-C7-Zr1-C4=282.39           C6-C7-Zr1-C5=323.00           C6-C7-Zr1-C13= 87.57          C6-C7-Zr1-C14= 55.70          
C6-C7-Zr1-C15= 16.19          C6-C7-Zr1-C16=338.89          C6-C7-Zr1-C17=313.40          C6-C7-Zr1-C25=190.23          
H12-C7-Zr1-C2= 37.24          H12-C7-Zr1-C3=122.27          H12-C7-Zr1-C4=159.37          H12-C7-Zr1-C5=199.98          
H12-C7-Zr1-C6=236.98          H12-C7-Zr1-C13=324.55         H12-C7-Zr1-C14=292.68         H12-C7-Zr1-C15=253.18         
H12-C7-Zr1-C16=215.87         H12-C7-Zr1-C17=190.38         H12-C7-Zr1-C25= 67.21         Zr1-C7-C3-C4=294.43           
Zr1-C7-C3-H8=122.96           C6-C7-C3-Zr1= 66.52           C6-C7-C3-C4=  0.95            C6-C7-C3-H8=189.48            
H12-C7-C3-Zr1=235.92          H12-C7-C3-C4=170.34           H12-C7-C3-H8=358.88           Zr1-C7-C6-C5= 66.25           
Zr1-C7-C6-H11=236.20          C3-C7-C6-Zr1=293.93           C3-C7-C6-C5=  0.18            C3-C7-C6-H11=170.14           
H12-C7-C6-Zr1=124.57          H12-C7-C6-C5=190.81           H12-C7-C6-H11=  0.77          
           -------------------------------------------------
          |                Final Singlepoint                |
           -------------------------------------------------

          ...................................................
          :                      SETUP                      :
          :.................................................:
          :  # basis functions                  79          :
          :  # atomic orbitals                  78          :
          :  # shells                           46          :
          :  # electrons                        72          :
          :  max. iterations                   250          :
          :  Hamiltonian                  GFN2-xTB          :
          :  restarted?                      false          :
          :  GBSA solvation                  false          :
          :  PC potential                    false          :
          :  electronic temp.          300.0000000     K    :
          :  accuracy                    1.0000000          :
          :  -> integral cutoff          0.2500000E+02      :
          :  -> integral neglect         0.1000000E-07      :
          :  -> SCF convergence          0.1000000E-05 Eh   :
          :  -> wf. convergence          0.1000000E-03 e    :
          :  Broyden damping             0.4000000          :
          ...................................................

 iter      E             dE          RMSdq      gap      omega  full diag
   1    -38.3108931 -0.383109E+02  0.135E-04    1.80       0.0  T
   2    -38.3108931 -0.358398E-10  0.932E-05    1.80     192.6  T
   3    -38.3108931 -0.621725E-11  0.662E-05    1.80     271.3  T

   *** convergence criteria satisfied after 3 iterations ***

         #    Occupation            Energy/Eh            Energy/eV
      -------------------------------------------------------------
         1        2.0000           -0.8731954             -23.7609
       ...           ...                  ...                  ...
        30        2.0000           -0.5633043             -15.3283
        31        2.0000           -0.5554094             -15.1135
        32        2.0000           -0.5329551             -14.5024
        33        2.0000           -0.5278093             -14.3624
        34        2.0000           -0.5184198             -14.1069
        35        2.0000           -0.5129144             -13.9571
        36        2.0000           -0.4949808             -13.4691 (HOMO)
        37                         -0.4287392             -11.6666 (LUMO)
        38                         -0.4246527             -11.5554
        39                         -0.4138502             -11.2614
        40                         -0.4055872             -11.0366
        41                         -0.3800840             -10.3426
       ...                                ...                  ...
        78                          2.5334867              68.9397
      -------------------------------------------------------------
                  HL-Gap            0.0662416 Eh            1.8025 eV
             Fermi-level           -0.4618600 Eh          -12.5678 eV

 SCC (total)                   0 d,  0 h,  0 min,  0.371 sec
 SCC setup                      ...        0 min,  0.014 sec (  3.826%)
 Dispersion                     ...        0 min,  0.028 sec (  7.514%)
 classical contributions        ...        0 min,  0.013 sec (  3.522%)
 integral evaluation            ...        0 min,  0.022 sec (  6.056%)
 iterations                     ...        0 min,  0.195 sec ( 52.392%)
 molecular gradient             ...        0 min,  0.099 sec ( 26.626%)
 printout                       ...        0 min,  0.000 sec (  0.052%)

         :::::::::::::::::::::::::::::::::::::::::::::::::::::
         ::                     SUMMARY                     ::
         :::::::::::::::::::::::::::::::::::::::::::::::::::::
         :: total energy             -37.687427019385 Eh    ::
         :: gradient norm              0.000305677436 Eh/a0 ::
         :: HOMO-LUMO gap              1.802525369933 eV    ::
         ::.................................................::
         :: SCC energy               -38.310893147329 Eh    ::
         :: -> isotropic ES            0.086522753736 Eh    ::
         :: -> anisotropic ES         -0.011045989820 Eh    ::
         :: -> anisotropic XC          0.016310938632 Eh    ::
         :: -> dispersion             -0.026188366154 Eh    ::
         :: repulsion energy           0.622944714770 Eh    ::
         :: add. restraining           0.000000000000 Eh    ::
         :: total charge               1.000000000000 e     ::
         :::::::::::::::::::::::::::::::::::::::::::::::::::::

           -------------------------------------------------
          |                Property Printout                |
           -------------------------------------------------

    * Orbital Energies and Occupations

         #    Occupation            Energy/Eh            Energy/eV
      -------------------------------------------------------------
         1        2.0000           -0.8731954             -23.7609
       ...           ...                  ...                  ...
        24        2.0000           -0.5990398             -16.3007
        25        2.0000           -0.5969169             -16.2429
        26        2.0000           -0.5966125             -16.2347
        27        2.0000           -0.5955892             -16.2068
        28        2.0000           -0.5954251             -16.2023
        29        2.0000           -0.5760126             -15.6741
        30        2.0000           -0.5633043             -15.3283
        31        2.0000           -0.5554094             -15.1135
        32        2.0000           -0.5329551             -14.5024
        33        2.0000           -0.5278093             -14.3624
        34        2.0000           -0.5184198             -14.1069
        35        2.0000           -0.5129144             -13.9571
        36        2.0000           -0.4949808             -13.4691 (HOMO)
        37                         -0.4287392             -11.6666 (LUMO)
        38                         -0.4246527             -11.5554
        39                         -0.4138502             -11.2614
        40                         -0.4055872             -11.0366
        41                         -0.3800840             -10.3426
        42                         -0.3145754              -8.5600
        43                         -0.3132896              -8.5250
        44                         -0.3123387              -8.4992
        45                         -0.3106720              -8.4538
        46                         -0.0822578              -2.2383
        47                         -0.0380226              -1.0346
       ...                                ...                  ...
        78                          2.5334867              68.9397
      -------------------------------------------------------------
                  HL-Gap            0.0662416 Eh            1.8025 eV
             Fermi-level           -0.4618600 Eh          -12.5678 eV

     #   Z          covCN         q      C6AA      α(0)
     1  40 Zr       8.999     0.947   138.922    17.711
     2   6 C        3.626    -0.282    26.816     7.460
     3   6 C        3.767    -0.084    22.137     6.706
     4   6 C        3.757    -0.090    22.265     6.728
     5   6 C        3.751    -0.080    22.086     6.702
     6   6 C        3.758    -0.086    22.186     6.715
     7   6 C        3.767    -0.084    22.142     6.706
     8   1 H        0.925     0.094     1.839     2.121
     9   1 H        0.925     0.079     1.985     2.203
    10   1 H        0.925     0.091     1.868     2.138
    11   1 H        0.925     0.085     1.933     2.174
    12   1 H        0.925     0.092     1.863     2.135
    13   6 C        3.769    -0.082    22.100     6.700
    14   6 C        3.765    -0.088    22.212     6.718
    15   6 C        3.755    -0.081    22.103     6.704
    16   6 C        3.755    -0.084    22.163     6.713
    17   6 C        3.760    -0.090    22.259     6.726
    18   1 H        0.925     0.098     1.803     2.100
    19   1 H        0.925     0.085     1.927     2.171
    20   1 H        0.925     0.090     1.880     2.144
    21   1 H        0.925     0.086     1.914     2.164
    22   1 H        0.925     0.083     1.950     2.183
    23   1 H        0.927     0.083     1.953     2.185
    24   1 H        0.924     0.077     2.009     2.216
    25   6 C        4.268    -0.055    21.474     6.581
    26   1 H        1.003     0.056     2.234     2.335
    27   1 H        0.923     0.074     2.043     2.235
    28   6 C        3.750    -0.114    22.755     6.803
    29   1 H        0.925     0.055     2.254     2.348
    30   1 H        0.925     0.055     2.256     2.349
    31   1 H        0.925     0.068     2.106     2.269

 Mol. C6AA /au·bohr⁶  :       9466.582607
 Mol. C8AA /au·bohr⁸  :     320590.181292
 Mol. α(0) /au        :        143.141442


Wiberg/Mayer (AO) data.
largest (>0.10) Wiberg bond orders for each atom

 ---------------------------------------------------------------------------
     #   Z sym  total        # sym  WBO       # sym  WBO       # sym  WBO
 ---------------------------------------------------------------------------
     1  40 Zr   4.268 --     2 C    0.867    14 C    0.278     7 C    0.277
                            13 C    0.265    17 C    0.258     3 C    0.258
                             4 C    0.252     6 C    0.250    16 C    0.240
                            15 C    0.230     5 C    0.228    25 C    0.158
                            26 H    0.112
     2   6 C    3.835 --    25 C    0.975    24 H    0.913    23 H    0.906
                             1 Zr   0.867
     3   6 C    3.980 --     4 C    1.296     7 C    1.284     8 H    0.920
                             1 Zr   0.258
     4   6 C    3.979 --     5 C    1.304     3 C    1.296     9 H    0.917
                             1 Zr   0.252
     5   6 C    3.981 --     6 C    1.314     4 C    1.304    10 H    0.924
                             1 Zr   0.228
     6   6 C    3.979 --     5 C    1.314     7 C    1.286    11 H    0.919
                             1 Zr   0.250
     7   6 C    3.981 --     6 C    1.286     3 C    1.284    12 H    0.917
                             1 Zr   0.277
     8   1 H    0.988 --     3 C    0.920
     9   1 H    0.992 --     4 C    0.917
    10   1 H    0.989 --     5 C    0.924
    11   1 H    0.991 --     6 C    0.919
    12   1 H    0.989 --     7 C    0.917
    13   6 C    3.981 --    17 C    1.293    14 C    1.274    18 H    0.922
                             1 Zr   0.265
    14   6 C    3.980 --    15 C    1.304    13 C    1.274    19 H    0.916
                             1 Zr   0.278
    15   6 C    3.980 --    16 C    1.311    14 C    1.304    20 H    0.922
                             1 Zr   0.230
    16   6 C    3.980 --    15 C    1.311    17 C    1.301    21 H    0.920
                             1 Zr   0.240
    17   6 C    3.979 --    16 C    1.301    13 C    1.293    22 H    0.918
                             1 Zr   0.258
    18   1 H    0.987 --    13 C    0.922
    19   1 H    0.991 --    14 C    0.916
    20   1 H    0.990 --    15 C    0.922
    21   1 H    0.991 --    16 C    0.920
    22   1 H    0.991 --    17 C    0.918
    23   1 H    0.992 --     2 C    0.906
    24   1 H    0.993 --     2 C    0.913
    25   6 C    3.985 --    28 C    1.003     2 C    0.975    27 H    0.942
                            26 H    0.848     1 Zr   0.158
    26   1 H    0.996 --    25 C    0.848     1 Zr   0.112
    27   1 H    0.993 --    25 C    0.942
    28   6 C    3.988 --    25 C    1.003    30 H    0.983    31 H    0.981
                            29 H    0.979
    29   1 H    0.996 --    28 C    0.979
    30   1 H    0.997 --    28 C    0.983
    31   1 H    0.995 --    28 C    0.981
 ---------------------------------------------------------------------------

Topologies differ in total number of bonds
Writing topology from bond orders to xtbtopo.mol

molecular dipole:
                 x           y           z       tot (Debye)
 q only:       -0.524      -0.001       0.016
   full:       -0.509      -0.198      -0.044       1.391
molecular quadrupole (traceless):
                xx          xy          yy          xz          yz          zz
 q only:       -4.534      -0.737       5.271       0.345      -3.045      -0.737
  q+dip:       -9.587      -1.784       7.915       0.320      -2.763       1.672
   full:       -8.684      -1.126       4.036       0.345      -3.357       4.648

           -------------------------------------------------
          |                Geometry Summary                 |
           -------------------------------------------------

      molecular mass/u    :      264.4982010
   center of mass at/Å    :       -0.2435170      -0.1553447       0.0260481
  moments of inertia/u·Å² :        0.6589934E+03   0.7514385E+03   0.1130262E+04
rotational constants/cm⁻¹ :        0.2558088E-01   0.2243382E-01   0.1491480E-01

 * 40 selected distances

     #   Z          #   Z                                           value/Å
     1  40 Zr       2   6 C                                       2.1768690
     1  40 Zr       3   6 C                                       2.4257277
     1  40 Zr       4   6 C                                       2.4411617
     3   6 C        4   6 C                                       1.4192974
     1  40 Zr       5   6 C                                       2.4710458 (max)
     4   6 C        5   6 C                                       1.4180888
     1  40 Zr       6   6 C                                       2.4414495
     5   6 C        6   6 C                                       1.4160965
     1  40 Zr       7   6 C                                       2.4151565
     3   6 C        7   6 C                                       1.4222113
     6   6 C        7   6 C                                       1.4210528
     3   6 C        8   1 H                                       1.0843881
     4   6 C        9   1 H                                       1.0865850
     5   6 C       10   1 H                                       1.0841212
     6   6 C       11   1 H                                       1.0857713
     7   6 C       12   1 H                                       1.0852479
     1  40 Zr      13   6 C                                       2.4210295
     1  40 Zr      14   6 C                                       2.4165593
    13   6 C       14   6 C                                       1.4239385
     1  40 Zr      15   6 C                                       2.4575710
    14   6 C       15   6 C                                       1.4176484
     1  40 Zr      16   6 C                                       2.4562867
    15   6 C       16   6 C                                       1.4173076
     1  40 Zr      17   6 C                                       2.4326517
    13   6 C       17   6 C                                       1.4202857
    16   6 C       17   6 C                                       1.4182234
    13   6 C       18   1 H                                       1.0834563 (min)
    14   6 C       19   1 H                                       1.0861608
    15   6 C       20   1 H                                       1.0847254
    16   6 C       21   1 H                                       1.0853047
    17   6 C       22   1 H                                       1.0858822
     2   6 C       23   1 H                                       1.1038844
     2   6 C       24   1 H                                       1.1013169
     2   6 C       25   6 C                                       1.5548428
    25   6 C       26   1 H                                       1.1273545
    25   6 C       27   1 H                                       1.0997850
    25   6 C       28   6 C                                       1.5345718
    28   6 C       29   1 H                                       1.0884569
    28   6 C       30   1 H                                       1.0873190
    28   6 C       31   1 H                                       1.0875605

 * 3 distinct bonds (by element types)

   Z      Z             #   av. dist./Å        max./Å        min./Å
   1 H    6 C          17     1.0910188     1.1273545     1.0834563
   6 C    6 C          12     1.4402971     1.5548428     1.4160965
   6 C   40 Zr         11     2.4141371     2.4710458     2.1768690


optimized geometry written to: xtbopt.xyz


           -------------------------------------------------
          | TOTAL ENERGY              -37.687427019385 Eh   |
          | GRADIENT NORM               0.000305677436 Eh/α |
          | HOMO-LUMO GAP               1.802525369933 eV   |
           -------------------------------------------------

------------------------------------------------------------------------
 * finished run on 2026/08/03 at 11:35:38.303     
------------------------------------------------------------------------
 total:
 * wall-time:     0 d,  0 h,  0 min, 50.053 sec
 *  cpu-time:     0 d,  0 h,  2 min,  2.450 sec
 * ratio c/w:     2.446 speedup
 SCF:
 * wall-time:     0 d,  0 h,  0 min,  2.421 sec
 *  cpu-time:     0 d,  0 h,  0 min,  5.065 sec
 * ratio c/w:     2.092 speedup
 ANC optimizer:
 * wall-time:     0 d,  0 h,  0 min, 47.462 sec
 *  cpu-time:     0 d,  0 h,  1 min, 57.077 sec
 * ratio c/w:     2.467 speedup

