31
Properties=species:S:1:pos:R:3 pbc="F F F"
Zr      -0.09110000      -0.92090000       0.16140000
C       -0.09110000       1.55410000       0.16140000
C        2.38390000       0.32910000       0.16140000
C        2.38390000      -0.53460000      -1.02740000
C        2.38390000      -1.93220000      -0.57330000
C        2.38390000      -1.93220000       0.89610000
C        2.38390000      -0.53460000       1.35020000
H        2.38390000       1.41310000       0.16140000
H        2.38390000      -0.19960000      -2.05840000
H        2.38390000      -2.80920000      -1.21050000
H        2.38390000      -2.80920000       1.53330000
H        2.38390000      -0.19960000       2.38120000
C       -2.56610000       0.32910000       0.16140000
C       -2.56610000      -0.53460000       1.35020000
C       -2.56610000      -1.93220000       0.89610000
C       -2.56610000      -1.93220000      -0.57330000
C       -2.56610000      -0.53460000      -1.02740000
H       -2.56610000       1.41310000       0.16140000
H       -2.56610000      -0.19960000       2.38120000
H       -2.56610000      -2.80920000       1.53330000
H       -2.56610000      -2.80920000      -1.21050000
H       -2.56610000      -0.19960000      -2.05840000
H        0.91775289       1.91078162       0.16140000
H       -0.59549955       1.91070919       1.03507670
C       -0.81707191       2.06739311      -1.09600212
H       -0.31152305       1.71238673      -1.96966951
H       -1.82535386       1.70914114      -1.09699106
C       -0.81958150       3.60740317      -1.09445530
H        0.18862897       3.96566085      -1.09314254
H       -1.32365642       3.96404576      -1.96838748
H       -1.32542964       3.96237622      -0.22106955
