      -----------------------------------------------------------      
     |                   =====================                   |     
     |                           x T B                           |     
     |                   =====================                   |     
     |                         S. Grimme                         |     
     |          Mulliken Center for Theoretical Chemistry        |     
     |                    University of Bonn                     |     
      -----------------------------------------------------------      

   * xtb version 6.5.1 (b24c23e) compiled by 'conda@728c89f4b128' on 2022-07-12

   xtb is free software: you can redistribute it and/or modify it under
   the terms of the GNU Lesser General Public License as published by
   the Free Software Foundation, either version 3 of the License, or
   (at your option) any later version.
   
   xtb is distributed in the hope that it will be useful,
   but WITHOUT ANY WARRANTY; without even the implied warranty of
   MERCHANTABILITY or FITNESS FOR A PARTICULAR PURPOSE.  See the
   GNU Lesser General Public License for more details.
   
   Cite this work as:
   * C. Bannwarth, E. Caldeweyher, S. Ehlert, A. Hansen, P. Pracht,
     J. Seibert, S. Spicher, S. Grimme, WIREs Comput. Mol. Sci., 2020, 11,
     e01493. DOI: 10.1002/wcms.1493
   
   for GFN2-xTB:
   * C. Bannwarth, S. Ehlert and S. Grimme., J. Chem. Theory Comput., 2019,
     15, 1652-1671. DOI: 10.1021/acs.jctc.8b01176
   for GFN1-xTB:
   * S. Grimme, C. Bannwarth, P. Shushkov, J. Chem. Theory Comput., 2017,
     13, 1989-2009. DOI: 10.1021/acs.jctc.7b00118
   for GFN0-xTB:
   * P. Pracht, E. Caldeweyher, S. Ehlert, S. Grimme, ChemRxiv, 2019, preprint.
     DOI: 10.26434/chemrxiv.8326202.v1
   for GFN-FF:
   * S. Spicher and S. Grimme, Angew. Chem. Int. Ed., 2020, 59, 15665-15673.
     DOI: 10.1002/anie.202004239
   
   for ALPB and GBSA implicit solvation:
   * S. Ehlert, M. Stahn, S. Spicher, S. Grimme, J. Chem. Theory Comput.,
     2021, 17, 4250-4261. DOI: 10.1021/acs.jctc.1c00471
   
   for DFT-D4:
   * E. Caldeweyher, C. Bannwarth and S. Grimme, J. Chem. Phys., 2017,
     147, 034112. DOI: 10.1063/1.4993215
   * E. Caldeweyher, S. Ehlert, A. Hansen, H. Neugebauer, S. Spicher,
     C. Bannwarth and S. Grimme, J. Chem. Phys., 2019, 150, 154122.
     DOI: 10.1063/1.5090222
   * E. Caldeweyher, J.-M. Mewes, S. Ehlert and S. Grimme, Phys. Chem. Chem. Phys.
     2020, 22, 8499-8512. DOI: 10.1039/D0CP00502A
   
   for sTDA-xTB:
   * S. Grimme and C. Bannwarth, J. Chem. Phys., 2016, 145, 054103.
     DOI: 10.1063/1.4959605
   
   in the mass-spec context:
   * V. Asgeirsson, C. Bauer and S. Grimme, Chem. Sci., 2017, 8, 4879.
     DOI: 10.1039/c7sc00601b
   * J. Koopman and S. Grimme, ACS Omega 2019, 4, 12, 15120-15133.
     DOI: 10.1021/acsomega.9b02011
   
   for metadynamics refer to:
   * S. Grimme, J. Chem. Theory Comput., 2019, 155, 2847-2862
     DOI: 10.1021/acs.jctc.9b00143
   
   for SPH calculations refer to:
   * S. Spicher and S. Grimme, J. Chem. Theory Comput., 2021, 17, 1701-1714
     DOI: 10.1021/acs.jctc.0c01306
   
   with help from (in alphabetical order)
   P. Atkinson, C. Bannwarth, F. Bohle, G. Brandenburg, E. Caldeweyher
   M. Checinski, S. Dohm, S. Ehlert, S. Ehrlich, I. Gerasimov, C. Hölzer
   A. Katbashev, J. Koopman, C. Lavigne, S. Lehtola, F. März, M. Müller,
   F. Musil, H. Neugebauer, J. Pisarek, C. Plett, P. Pracht, F. Pultar,
   J. Seibert, P. Shushkov, S. Spicher, M. Stahn, M. Steiner, T. Strunk,
   J. Stückrath, T. Rose, and J. Unsleber
   
 * started run on 2026/08/03 at 11:33:31.101     

           -------------------------------------------------
          |                Calculation Setup                |
           -------------------------------------------------

          program call               : /h/332/chchoi/miniconda3/envs/el-agente/bin/xtb reactant.xyz --opt --gfn 2 -P 4 --chrg 1 --input detailed_input.inp
          coordinate file            : reactant.xyz
          omp threads                :                     4

   ID    Z sym.   atoms
    1   40 Zr     1
    2    6 C      2-7, 13-17, 23, 24
    3    1 H      8-12, 18-22, 25-31
constraining bond 2 23 to    2.1000000 Å, actual value:    4.2822171 Å
constraining bond 1 2 to    2.7000000 Å, actual value:    2.4750002 Å

molecular fragmentation (1/2 indicates fragments):
1111111111111111111111222222111
# atoms in fragment 1/2:    25     6
 fragment masses (1/2) :      236.44       28.05
CMA distance (Bohr)    :   5.713
constraining FC (au)   :  0.8000

           -------------------------------------------------
          |                 G F N 2 - x T B                 |
           -------------------------------------------------

        Reference                      10.1021/acs.jctc.8b01176
      * Hamiltonian:
        H0-scaling (s, p, d)           1.850000    2.230000    2.230000
        zeta-weighting                 0.500000
      * Dispersion:
        s8                             2.700000
        a1                             0.520000
        a2                             5.000000
        s9                             5.000000
      * Repulsion:
        kExp                           1.500000    1.000000
        rExp                           1.000000
      * Coulomb:
        alpha                          2.000000
        third order                    shell-resolved
        anisotropic                    true
        a3                             3.000000
        a5                             4.000000
        cn-shift                       1.200000
        cn-exp                         4.000000
        max-rad                        5.000000


          ...................................................
          :                      SETUP                      :
          :.................................................:
          :  # basis functions                  79          :
          :  # atomic orbitals                  78          :
          :  # shells                           46          :
          :  # electrons                        72          :
          :  max. iterations                   250          :
          :  Hamiltonian                  GFN2-xTB          :
          :  restarted?                      false          :
          :  GBSA solvation                  false          :
          :  PC potential                    false          :
          :  electronic temp.          300.0000000     K    :
          :  accuracy                    1.0000000          :
          :  -> integral cutoff          0.2500000E+02      :
          :  -> integral neglect         0.1000000E-07      :
          :  -> SCF convergence          0.1000000E-05 Eh   :
          :  -> wf. convergence          0.1000000E-03 e    :
          :  Broyden damping             0.4000000          :
          ...................................................

 iter      E             dE          RMSdq      gap      omega  full diag
   1    -37.9358318 -0.379358E+02  0.414E+00    0.51       0.0  T
   2    -38.0423313 -0.106499E+00  0.369E+00    1.54       1.0  T
   3    -38.0977280 -0.553967E-01  0.299E+00    0.93       1.0  T
   4    -38.0961660  0.156199E-02  0.126E+00    0.93       1.0  T
   5    -38.0936601  0.250584E-02  0.754E-01    0.68       1.0  T
   6    -38.0990493 -0.538913E-02  0.422E-01    0.93       1.0  T
   7    -38.1004232 -0.137393E-02  0.254E-01    0.84       1.0  T
   8    -38.1004701 -0.469523E-04  0.135E-01    0.82       1.0  T
   9    -38.1004593  0.108625E-04  0.683E-02    0.87       1.0  T
  10    -38.1005111 -0.518260E-04  0.379E-02    0.86       1.0  T
  11    -38.1005280 -0.168623E-04  0.185E-02    0.85       1.0  T
  12    -38.1005292 -0.120582E-05  0.483E-03    0.85       3.7  T
  13    -38.1005293 -0.831295E-07  0.183E-03    0.85       9.8  T
  14    -38.1005293 -0.220870E-07  0.137E-03    0.85      13.1  T
  15    -38.1005293 -0.130514E-07  0.575E-04    0.85      31.2  T
  16    -38.1005293 -0.168114E-10  0.240E-04    0.85      74.9  T

   *** convergence criteria satisfied after 16 iterations ***

         #    Occupation            Energy/Eh            Energy/eV
      -------------------------------------------------------------
         1        2.0000           -0.8628373             -23.4790
       ...           ...                  ...                  ...
        30        2.0000           -0.5740458             -15.6206
        31        2.0000           -0.5511859             -14.9985
        32        2.0000           -0.5101717             -13.8825
        33        2.0000           -0.5045713             -13.7301
        34        2.0000           -0.4941767             -13.4472
        35        2.0000           -0.4918436             -13.3837
        36        2.0000           -0.4836924             -13.1619 (HOMO)
        37        0.0000           -0.4525088             -12.3134 (LUMO)
        38                         -0.4374580             -11.9038
        39                         -0.4348596             -11.8331
        40                         -0.4310486             -11.7294
        41                         -0.4230072             -11.5106
       ...                                ...                  ...
        78                          1.3654571              37.1560
      -------------------------------------------------------------
                  HL-Gap            0.0311835 Eh            0.8485 eV
             Fermi-level           -0.4681005 Eh          -12.7377 eV

 SCC (total)                   0 d,  0 h,  0 min,  1.231 sec
 SCC setup                      ...        0 min,  0.017 sec (  1.384%)
 Dispersion                     ...        0 min,  0.031 sec (  2.556%)
 classical contributions        ...        0 min,  0.021 sec (  1.726%)
 integral evaluation            ...        0 min,  0.007 sec (  0.595%)
 iterations                     ...        0 min,  1.089 sec ( 88.430%)
 molecular gradient             ...        0 min,  0.064 sec (  5.220%)
 printout                       ...        0 min,  0.001 sec (  0.087%)

         :::::::::::::::::::::::::::::::::::::::::::::::::::::
         ::                     SUMMARY                     ::
         :::::::::::::::::::::::::::::::::::::::::::::::::::::
         :: total energy             -23.789198780667 Eh    ::
         :: gradient norm              9.005935220805 Eh/a0 ::
         :: HOMO-LUMO gap              0.848546932147 eV    ::
         ::.................................................::
         :: SCC energy               -38.100529293744 Eh    ::
         :: -> isotropic ES            0.097835897163 Eh    ::
         :: -> anisotropic ES         -0.000862618828 Eh    ::
         :: -> anisotropic XC          0.021666255780 Eh    ::
         :: -> dispersion             -0.027679839416 Eh    ::
         :: repulsion energy           0.561366529135 Eh    ::
         :: add. restraining          13.749158244979 Eh    ::
         :: total charge               1.000000000031 e     ::
         :::::::::::::::::::::::::::::::::::::::::::::::::::::

      ----------------------------------------------------------- 
     |                   =====================                   |
     |                        A N C O P T                        |
     |                   =====================                   |
     |               Approximate Normal Coordinate               |
     |                Rational Function Optimizer                |
      ----------------------------------------------------------- 

          ...................................................
          :                      SETUP                      :
          :.................................................:
          :   optimization level            normal          :
          :   max. optcycles                   200          :
          :   ANC micro-cycles                  20          :
          :   degrees of freedom                87          :
          :.................................................:
          :   RF solver                   davidson          :
          :   write xtbopt.log                true          :
          :   linear?                        false          :
          :   energy convergence         0.5000000E-05 Eh   :
          :   grad. convergence          0.1000000E-02 Eh/α :
          :   maximium RF displ.         1.0000000          :
          :   Hlow (freq-cutoff)         0.1000000E-01      :
          :   Hmax (freq-cutoff)         5.0000000          :
          :   S6 in model hess.         20.0000000          :
          ...................................................

generating ANC from model Hessian ...
Using Lindh-Hessian (1995)
 Shifting diagonal of input Hessian by   0.18690837643760716     
 Lowest  eigenvalues of input Hessian
    0.010000    0.035614    0.186682    0.000000    0.000000    0.000000
    0.000000    0.000000    0.000000    0.187217    0.187420    0.187579
    0.187599    0.187708    0.188033    0.188123    0.188190    0.188749
 Highest eigenvalues
    1.668944    1.669128    2.298224    2.633538    2.950273    5.162273


........................................................................
.............................. CYCLE    1 ..............................
........................................................................
   1    -38.1005293 -0.381005E+02  0.145E-04    0.85       0.0  T
   2    -38.1005293  0.305036E-10  0.129E-04    0.85     139.1  T
   3    -38.1005293 -0.275158E-09  0.406E-05    0.85     442.9  T
     SCC iter.                  ...        0 min,  0.276 sec
     gradient                   ...        0 min,  0.151 sec
 * total energy  :   -23.7891988 Eh     change       -0.4869776E-09 Eh
   gradient norm :     9.0059352 Eh/α   predicted     0.0000000E+00 (-100.00%)
   displ. norm   :     0.8149008 α      lambda       -0.7277569E+01
   maximum displ.:     0.5812618 α      in ANC's #87, #85, #86, ...

........................................................................
.............................. CYCLE    2 ..............................
........................................................................
   1    -38.0640617 -0.380641E+02  0.100E+00    0.84       0.0  T
   2    -38.0644258 -0.364059E-03  0.632E-01    0.64       1.0  T
   3    -38.0637696  0.656169E-03  0.473E-01    0.90       1.0  T
   4    -38.0663539 -0.258424E-02  0.251E-01    0.71       1.0  T
   5    -38.0668358 -0.481966E-03  0.130E-01    0.74       1.0  T
   6    -38.0667419  0.939038E-04  0.101E-01    0.72       1.0  T
   7    -38.0668424 -0.100436E-03  0.274E-02    0.74       1.0  T
   8    -38.0668489 -0.659611E-05  0.142E-02    0.74       1.3  T
   9    -38.0668489  0.948762E-07  0.668E-03    0.74       2.7  T
  10    -38.0668491 -0.212063E-06  0.185E-03    0.74       9.7  T
  11    -38.0668491 -0.493706E-09  0.122E-03    0.74      14.7  T
  12    -38.0668491 -0.146081E-07  0.679E-04    0.74      26.5  T
  13    -38.0668491 -0.182497E-08  0.297E-04    0.74      60.4  T
     SCC iter.                  ...        0 min,  1.068 sec
     gradient                   ...        0 min,  0.158 sec
 * total energy  :   -29.9340545 Eh     change       -0.6144856E+01 Eh
   gradient norm :     6.1801873 Eh/α   predicted    -0.6055167E+01 (  -1.46%)
   displ. norm   :     0.7890041 α      lambda       -0.4805079E+01
   maximum displ.:     0.4671869 α      in ANC's #87, #85, #84, ...

........................................................................
.............................. CYCLE    3 ..............................
........................................................................
   1    -37.8975661 -0.378976E+02  0.196E+00    0.29       0.0  T
   2    -37.8684819  0.290842E-01  0.201E+00    1.61       1.0  T
   3    -37.9396250 -0.711432E-01  0.703E-01    0.65       1.0  T
   4    -37.9254968  0.141283E-01  0.875E-01    0.29       1.0  T
   5    -37.9451911 -0.196943E-01  0.253E-01    0.49       1.0  T
   6    -37.9461885 -0.997416E-03  0.120E-01    0.45       1.0  T
   7    -37.9462914 -0.102956E-03  0.930E-02    0.44       1.0  T
   8    -37.9463717 -0.802161E-04  0.493E-02    0.43       1.0  T
   9    -37.9463231  0.485324E-04  0.545E-02    0.41       1.0  T
  10    -37.9463550 -0.319036E-04  0.410E-02    0.41       1.0  T
  11    -37.9463978 -0.427768E-04  0.107E-02    0.42       1.7  T
  12    -37.9463992 -0.137854E-05  0.638E-03    0.42       2.8  T
  13    -37.9463995 -0.354861E-06  0.385E-03    0.42       4.7  T
  14    -37.9463999 -0.362003E-06  0.102E-03    0.42      17.6  T
  15    -37.9463999  0.338481E-07  0.136E-03    0.42      13.2  T
  16    -37.9463999 -0.354531E-07  0.417E-04    0.42      43.1  T
  17    -37.9463999 -0.230673E-08  0.257E-04    0.42      69.9  T
     SCC iter.                  ...        0 min,  1.307 sec
     gradient                   ...        0 min,  0.189 sec
 * total energy  :   -33.8708097 Eh     change       -0.3936755E+01 Eh
   gradient norm :     3.9034806 Eh/α   predicted    -0.3898185E+01 (  -0.98%)
   displ. norm   :     0.7446116 α      lambda       -0.2833699E+01
   maximum displ.:     0.4231103 α      in ANC's #85, #87, #84, ...

........................................................................
.............................. CYCLE    4 ..............................
........................................................................
   1    -37.5914333 -0.375914E+02  0.326E+00    0.12       0.0  T
   2    -37.4889037  0.102530E+00  0.428E+00    1.66       1.0  T
   3    -37.7191616 -0.230258E+00  0.207E+00    1.48       1.0  T
   4    -37.8062881 -0.871265E-01  0.743E-01    0.28       1.0  T
   5    -37.8129882 -0.670009E-02  0.397E-01    0.27       1.0  T
   6    -37.8113879  0.160033E-02  0.358E-01    0.19       1.0  T
   7    -37.8132912 -0.190327E-02  0.275E-01    0.23       1.0  T
   8    -37.8151024 -0.181127E-02  0.125E-01    0.21       1.0  T
   9    -37.8153198 -0.217350E-03  0.485E-02    0.23       1.0  T
  10    -37.8153215 -0.169071E-05  0.399E-02    0.23       1.0  T
  11    -37.8153005  0.209415E-04  0.365E-02    0.22       1.0  T
  12    -37.8153351 -0.345909E-04  0.168E-02    0.22       1.1  T
  13    -37.8153315  0.359664E-05  0.159E-02    0.23       1.1  T
  14    -37.8153371 -0.558368E-05  0.636E-03    0.23       2.8  T
  15    -37.8153378 -0.708358E-06  0.307E-03    0.23       5.8  T
  16    -37.8153379 -0.252455E-07  0.208E-03    0.23       8.6  T
  17    -37.8153379 -0.509986E-07  0.124E-03    0.23      14.5  T
  18    -37.8153379 -0.399643E-07  0.274E-04    0.23      65.6  T
  19    -37.8153379 -0.990759E-09  0.172E-04    0.23     104.1  T
     SCC iter.                  ...        0 min,  1.445 sec
     gradient                   ...        0 min,  0.135 sec
 * total energy  :   -36.0772020 Eh     change       -0.2206392E+01 Eh
   gradient norm :     2.1257160 Eh/α   predicted    -0.2202423E+01 (  -0.18%)
   displ. norm   :     0.6807760 α      lambda       -0.1345520E+01
   maximum displ.:     0.3398581 α      in ANC's #2, #85, #84, ...

........................................................................
.............................. CYCLE    5 ..............................
........................................................................
   1    -37.1504934 -0.371505E+02  0.429E+00    0.08       0.0  T
   2    -35.6179492  0.153254E+01  0.724E+00    0.97       1.0  T
   3    -37.6436377 -0.202569E+01  0.221E+00    1.04       1.0  T
   4    -37.7141549 -0.705173E-01  0.118E+00    0.36       1.0  T
   5    -37.7129818  0.117317E-02  0.922E-01    0.70       1.0  T
   6    -37.7268688 -0.138870E-01  0.546E-01    0.36       1.0  T
   7    -37.7325194 -0.565057E-02  0.319E-01    0.45       1.0  T
   8    -37.7337928 -0.127340E-02  0.217E-01    0.41       1.0  T
   9    -37.7339209 -0.128161E-03  0.180E-01    0.39       1.0  T
  10    -37.7344991 -0.578163E-03  0.993E-02    0.32       1.0  T
  11    -37.7345699 -0.708330E-04  0.768E-02    0.30       1.0  T
  12    -37.7345651  0.485379E-05  0.694E-02    0.30       1.0  T
  13    -37.7346061 -0.409919E-04  0.286E-02    0.30       1.0  T
  14    -37.7346139 -0.782606E-05  0.913E-03    0.30       2.0  T
  15    -37.7346158 -0.190324E-05  0.609E-03    0.31       3.0  T
  16    -37.7346158  0.497202E-08  0.607E-03    0.31       3.0  T
  17    -37.7346163 -0.553667E-06  0.282E-03    0.31       6.4  T
  18    -37.7346164 -0.109382E-06  0.637E-04    0.31      28.2  T
  19    -37.7346164  0.472364E-08  0.657E-04    0.31      27.3  T
     SCC iter.                  ...        0 min,  1.357 sec
     gradient                   ...        0 min,  0.185 sec
 * total energy  :   -37.0102651 Eh     change       -0.9330631E+00 Eh
   gradient norm :     0.7942571 Eh/α   predicted    -0.9845544E+00 (   5.52%)
   displ. norm   :     0.4658430 α      lambda       -0.3000666E+00
   maximum displ.:     0.1954753 α      in ANC's #2, #85, #84, ...

........................................................................
.............................. CYCLE    6 ..............................
........................................................................
   1    -37.7316401 -0.377316E+02  0.949E-01    0.29       0.0  T
   2    -37.6589370  0.727031E-01  0.183E+00    0.91       1.0  T
   3    -37.7516470 -0.927101E-01  0.501E-01    0.72       1.0  T
   4    -37.7505543  0.109276E-02  0.336E-01    0.53       1.0  T
   5    -37.7525594 -0.200509E-02  0.264E-01    0.66       1.0  T
   6    -37.7533373 -0.777961E-03  0.705E-02    0.61       1.0  T
   7    -37.7534055 -0.682268E-04  0.461E-02    0.61       1.0  T
   8    -37.7534155 -0.991974E-05  0.272E-02    0.62       1.0  T
   9    -37.7534259 -0.104449E-04  0.122E-02    0.61       1.5  T
  10    -37.7534283 -0.236358E-05  0.540E-03    0.61       3.3  T
  11    -37.7534284 -0.165936E-06  0.377E-03    0.61       4.8  T
  12    -37.7534286 -0.119483E-06  0.163E-03    0.61      11.0  T
  13    -37.7534286 -0.685611E-08  0.103E-03    0.61      17.4  T
  14    -37.7534286 -0.752323E-08  0.494E-04    0.61      36.4  T
  15    -37.7534286 -0.163912E-08  0.264E-04    0.61      68.1  T
     SCC iter.                  ...        0 min,  1.182 sec
     gradient                   ...        0 min,  0.143 sec
 * total energy  :   -37.1918722 Eh     change       -0.1816071E+00 Eh
   gradient norm :     0.1664711 Eh/α   predicted    -0.1825920E+00 (   0.54%)
   displ. norm   :     0.5175590 α      lambda       -0.7767005E-01
   maximum displ.:     0.2292089 α      in ANC's #26, #22, #31, ...

........................................................................
.............................. CYCLE    7 ..............................
........................................................................
   1    -37.8412473 -0.378412E+02  0.416E-01    0.81       0.0  T
   2    -37.8399683  0.127905E-02  0.422E-01    0.93       1.0  T
   3    -37.8417596 -0.179130E-02  0.221E-01    0.86       1.0  T
   4    -37.8415000  0.259602E-03  0.181E-01    0.90       1.0  T
   5    -37.8421282 -0.628217E-03  0.646E-02    0.89       1.0  T
   6    -37.8421657 -0.375093E-04  0.395E-02    0.88       1.0  T
   7    -37.8421789 -0.131969E-04  0.230E-02    0.89       1.0  T
   8    -37.8421816 -0.273042E-05  0.128E-02    0.88       1.4  T
   9    -37.8421827 -0.101959E-05  0.833E-03    0.89       2.2  T
  10    -37.8421834 -0.703432E-06  0.457E-03    0.89       3.9  T
  11    -37.8421835 -0.115356E-06  0.295E-03    0.89       6.1  T
  12    -37.8421835 -0.520365E-07  0.548E-04    0.89      32.8  T
  13    -37.8421835 -0.128281E-08  0.357E-04    0.89      50.4  T
     SCC iter.                  ...        0 min,  0.943 sec
     gradient                   ...        0 min,  0.189 sec
 * total energy  :   -37.2581030 Eh     change       -0.6623081E-01 Eh
   gradient norm :     0.1684355 Eh/α   predicted    -0.4923765E-01 ( -25.66%)
   displ. norm   :     0.8311456 α      lambda       -0.1042407E+00
   maximum displ.:     0.3638344 α      in ANC's #26, #22, #31, ...

........................................................................
.............................. CYCLE    8 ..............................
........................................................................
   1    -37.9551872 -0.379552E+02  0.898E-01    0.84       0.0  T
   2    -37.9500752  0.511191E-02  0.832E-01    1.07       1.0  T
   3    -37.9585816 -0.850637E-02  0.544E-01    0.85       1.0  T
   4    -37.9572547  0.132690E-02  0.354E-01    0.92       1.0  T
   5    -37.9597521 -0.249743E-02  0.186E-01    0.90       1.0  T
   6    -37.9604557 -0.703514E-03  0.815E-02    0.90       1.0  T
   7    -37.9604791 -0.234801E-04  0.299E-02    0.92       1.0  T
   8    -37.9604842 -0.505385E-05  0.139E-02    0.92       1.3  T
   9    -37.9604840  0.202800E-06  0.109E-02    0.92       1.6  T
  10    -37.9604853 -0.132093E-05  0.822E-03    0.92       2.2  T
  11    -37.9604858 -0.437661E-06  0.274E-03    0.92       6.6  T
  12    -37.9604858 -0.597674E-07  0.139E-03    0.92      12.9  T
  13    -37.9604858 -0.703643E-08  0.290E-04    0.92      61.9  T
  14    -37.9604858 -0.401272E-09  0.150E-04    0.92     119.9  T
     SCC iter.                  ...        0 min,  1.279 sec
     gradient                   ...        0 min,  0.207 sec
 * total energy  :   -37.3355042 Eh     change       -0.7740125E-01 Eh
   gradient norm :     0.2138556 Eh/α   predicted    -0.8812532E-01 (  13.86%)
   displ. norm   :     0.7950053 α      lambda       -0.8890788E-01
   maximum displ.:     0.3090349 α      in ANC's #1, #26, #31, ...

........................................................................
.............................. CYCLE    9 ..............................
........................................................................
   1    -38.0516313 -0.380516E+02  0.105E+00    0.96       0.0  T
   2    -38.0470817  0.454960E-02  0.715E-01    0.96       1.0  T
   3    -38.0315832  0.154985E-01  0.114E+00    1.00       1.0  T
   4    -38.0523112 -0.207280E-01  0.296E-01    1.00       1.0  T
   5    -38.0534231 -0.111194E-02  0.210E-01    0.93       1.0  T
   6    -38.0538405 -0.417366E-03  0.113E-01    0.96       1.0  T
   7    -38.0538681 -0.276617E-04  0.527E-02    0.95       1.0  T
   8    -38.0538900 -0.218222E-04  0.243E-02    0.96       1.0  T
   9    -38.0538936 -0.363695E-05  0.147E-02    0.96       1.2  T
  10    -38.0538964 -0.283752E-05  0.843E-03    0.96       2.1  T
  11    -38.0538966 -0.189912E-06  0.444E-03    0.96       4.0  T
  12    -38.0538967 -0.251369E-07  0.162E-03    0.96      11.1  T
  13    -38.0538967 -0.224180E-07  0.719E-04    0.96      25.0  T
  14    -38.0538967 -0.486190E-08  0.410E-04    0.96      43.8  T
     SCC iter.                  ...        0 min,  0.684 sec
     gradient                   ...        0 min,  0.035 sec
 * total energy  :   -37.4021390 Eh     change       -0.6663474E-01 Eh
   gradient norm :     0.1816459 Eh/α   predicted    -0.7255034E-01 (   8.88%)
   displ. norm   :     0.7316036 α      lambda       -0.8756028E-01
   maximum displ.:     0.3001504 α      in ANC's #31, #26, #61, ...

........................................................................
.............................. CYCLE   10 ..............................
........................................................................
   1    -38.0901832 -0.380902E+02  0.996E-01    0.68       0.0  T
   2    -38.0887088  0.147441E-02  0.760E-01    0.77       1.0  T
   3    -38.0726285  0.160802E-01  0.854E-01    0.68       1.0  T
   4    -38.0740883 -0.145976E-02  0.901E-01    0.72       1.0  T
   5    -38.0917810 -0.176927E-01  0.134E-01    0.75       1.0  T
   6    -38.0920595 -0.278516E-03  0.772E-02    0.72       1.0  T
   7    -38.0921201 -0.605582E-04  0.488E-02    0.73       1.0  T
   8    -38.0921163  0.379545E-05  0.302E-02    0.72       1.0  T
   9    -38.0921254 -0.917363E-05  0.116E-02    0.73       1.5  T
  10    -38.0921281 -0.269682E-05  0.616E-03    0.73       2.9  T
  11    -38.0921282 -0.219751E-07  0.287E-03    0.73       6.2  T
  12    -38.0921282 -0.691433E-07  0.131E-03    0.73      13.7  T
  13    -38.0921282 -0.184152E-08  0.808E-04    0.73      22.2  T
  14    -38.0921282 -0.106557E-07  0.135E-04    0.73     132.8  T
     SCC iter.                  ...        0 min,  0.532 sec
     gradient                   ...        0 min,  0.050 sec
 * total energy  :   -37.4498255 Eh     change       -0.4768657E-01 Eh
   gradient norm :     0.1579595 Eh/α   predicted    -0.6721323E-01 (  40.95%)
   displ. norm   :     0.4709433 α      lambda       -0.3554251E-01
   maximum displ.:     0.2225910 α      in ANC's #22, #2, #26, ...

........................................................................
.............................. CYCLE   11 ..............................
........................................................................
   1    -38.1085730 -0.381086E+02  0.602E-01    0.75       0.0  T
   2    -38.0956746  0.128984E-01  0.770E-01    0.67       1.0  T
   3    -38.1045710 -0.889643E-02  0.618E-01    0.73       1.0  T
   4    -38.1088860 -0.431496E-02  0.308E-01    0.76       1.0  T
   5    -38.1106169 -0.173096E-02  0.842E-02    0.70       1.0  T
   6    -38.1106653 -0.483895E-04  0.430E-02    0.70       1.0  T
   7    -38.1106871 -0.217643E-04  0.196E-02    0.70       1.0  T
   8    -38.1106893 -0.225837E-05  0.128E-02    0.70       1.4  T
   9    -38.1106902 -0.829907E-06  0.811E-03    0.70       2.2  T
  10    -38.1106906 -0.386490E-06  0.458E-03    0.70       3.9  T
  11    -38.1106908 -0.198443E-06  0.228E-03    0.70       7.9  T
  12    -38.1106908 -0.307784E-07  0.833E-04    0.70      21.6  T
  13    -38.1106908 -0.717201E-08  0.245E-04    0.70      73.4  T
     SCC iter.                  ...        0 min,  0.525 sec
     gradient                   ...        0 min,  0.030 sec
 * total energy  :   -37.4729717 Eh     change       -0.2314614E-01 Eh
   gradient norm :     0.2357315 Eh/α   predicted    -0.2171293E-01 (  -6.19%)
   displ. norm   :     0.7832388 α      lambda       -0.7876224E-01
   maximum displ.:     0.4057648 α      in ANC's #22, #1, #71, ...

........................................................................
.............................. CYCLE   12 ..............................
........................................................................
   1    -38.1257376 -0.381257E+02  0.979E-01    0.67       0.0  T
   2    -38.0953148  0.304228E-01  0.152E+00    0.80       1.0  T
   3    -38.1304656 -0.351507E-01  0.581E-01    0.71       1.0  T
   4    -38.1275013  0.296430E-02  0.450E-01    0.65       1.0  T
   5    -38.1309646 -0.346337E-02  0.179E-01    0.71       1.0  T
   6    -38.1313446 -0.379951E-03  0.109E-01    0.69       1.0  T
   7    -38.1314481 -0.103515E-03  0.428E-02    0.70       1.0  T
   8    -38.1314514 -0.333708E-05  0.309E-02    0.70       1.0  T
   9    -38.1314568 -0.540131E-05  0.179E-02    0.70       1.0  T
  10    -38.1314604 -0.355381E-05  0.536E-03    0.70       3.3  T
  11    -38.1314605 -0.166242E-06  0.253E-03    0.70       7.1  T
  12    -38.1314606 -0.368027E-07  0.912E-04    0.70      19.7  T
  13    -38.1314606 -0.109723E-07  0.261E-04    0.70      68.8  T
     SCC iter.                  ...        0 min,  0.583 sec
     gradient                   ...        0 min,  0.046 sec
 * total energy  :   -37.5113647 Eh     change       -0.3839302E-01 Eh
   gradient norm :     0.1581398 Eh/α   predicted    -0.6354010E-01 (  65.50%)
   displ. norm   :     0.4598825 α      lambda       -0.2785082E-01
   maximum displ.:     0.2125201 α      in ANC's #22, #31, #53, ...

........................................................................
.............................. CYCLE   13 ..............................
........................................................................
   1    -38.1510230 -0.381510E+02  0.528E-01    0.72       0.0  T
   2    -38.1502589  0.764143E-03  0.368E-01    0.68       1.0  T
   3    -38.1440510  0.620781E-02  0.659E-01    0.75       1.0  T
   4    -38.1506437 -0.659261E-02  0.192E-01    0.74       1.0  T
   5    -38.1513558 -0.712137E-03  0.728E-02    0.70       1.0  T
   6    -38.1513971 -0.413568E-04  0.381E-02    0.70       1.0  T
   7    -38.1514113 -0.141808E-04  0.213E-02    0.70       1.0  T
   8    -38.1514130 -0.169382E-05  0.812E-03    0.70       2.2  T
   9    -38.1514136 -0.627607E-06  0.335E-03    0.70       5.4  T
  10    -38.1514137 -0.794415E-07  0.157E-03    0.70      11.5  T
  11    -38.1514137 -0.549571E-08  0.854E-04    0.70      21.0  T
  12    -38.1514137 -0.220985E-08  0.650E-04    0.70      27.6  T
     SCC iter.                  ...        0 min,  0.460 sec
     gradient                   ...        0 min,  0.056 sec
 * total energy  :   -37.5299941 Eh     change       -0.1862934E-01 Eh
   gradient norm :     0.0701372 Eh/α   predicted    -0.1687054E-01 (  -9.44%)
   displ. norm   :     0.3307259 α      lambda       -0.1562585E-01
   maximum displ.:     0.1287725 α      in ANC's #25, #22, #1, ...

........................................................................
.............................. CYCLE   14 ..............................
........................................................................
   1    -38.1731936 -0.381732E+02  0.483E-01    0.79       0.0  T
   2    -38.1684204  0.477311E-02  0.526E-01    0.78       1.0  T
   3    -38.1712568 -0.283633E-02  0.503E-01    0.80       1.0  T
   4    -38.1735792 -0.232238E-02  0.146E-01    0.81       1.0  T
   5    -38.1739883 -0.409166E-03  0.863E-02    0.78       1.0  T
   6    -38.1740806 -0.922924E-04  0.441E-02    0.79       1.0  T
   7    -38.1740860 -0.538987E-05  0.198E-02    0.78       1.0  T
   8    -38.1740890 -0.294937E-05  0.914E-03    0.79       2.0  T
   9    -38.1740896 -0.603332E-06  0.319E-03    0.79       5.6  T
  10    -38.1740896 -0.824226E-07  0.149E-03    0.79      12.1  T
  11    -38.1740896 -0.882963E-09  0.144E-03    0.79      12.5  T
  12    -38.1740897 -0.824966E-08  0.598E-04    0.79      30.0  T
  13    -38.1740897 -0.390974E-08  0.138E-04    0.79     130.3  T
     SCC iter.                  ...        0 min,  0.646 sec
     gradient                   ...        0 min,  0.040 sec
 * total energy  :   -37.5408956 Eh     change       -0.1090150E-01 Eh
   gradient norm :     0.0552070 Eh/α   predicted    -0.8667520E-02 ( -20.49%)
   displ. norm   :     0.4791941 α      lambda       -0.1412619E-01
   maximum displ.:     0.2390015 α      in ANC's #25, #22, #31, ...

........................................................................
.............................. CYCLE   15 ..............................
........................................................................
   1    -38.1955454 -0.381955E+02  0.470E-01    0.97       0.0  T
   2    -38.1957091 -0.163701E-03  0.395E-01    0.92       1.0  T
   3    -38.1958297 -0.120633E-03  0.247E-01    0.97       1.0  T
   4    -38.1954591  0.370579E-03  0.153E-01    0.93       1.0  T
   5    -38.1958919 -0.432730E-03  0.118E-01    0.95       1.0  T
   6    -38.1960877 -0.195824E-03  0.470E-02    0.95       1.0  T
   7    -38.1960914 -0.367590E-05  0.134E-02    0.95       1.3  T
   8    -38.1960925 -0.108004E-05  0.631E-03    0.95       2.8  T
   9    -38.1960926 -0.136103E-06  0.379E-03    0.95       4.7  T
  10    -38.1960926 -0.368266E-07  0.198E-03    0.95       9.1  T
  11    -38.1960926 -0.179787E-07  0.704E-04    0.95      25.5  T
  12    -38.1960926 -0.419107E-09  0.299E-04    0.95      60.2  T
     SCC iter.                  ...        0 min,  0.561 sec
     gradient                   ...        0 min,  0.034 sec
 * total energy  :   -37.5517839 Eh     change       -0.1088830E-01 Eh
   gradient norm :     0.0983999 Eh/α   predicted    -0.8684983E-02 ( -20.24%)
   displ. norm   :     0.5139203 α      lambda       -0.1511562E-01
   maximum displ.:     0.3076040 α      in ANC's #25, #22, #31, ...

........................................................................
.............................. CYCLE   16 ..............................
........................................................................
   1    -38.2071355 -0.382071E+02  0.526E-01    1.22       0.0  T
   2    -38.2076133 -0.477843E-03  0.457E-01    1.08       1.0  T
   3    -38.2078657 -0.252355E-03  0.290E-01    1.14       1.0  T
   4    -38.2058785  0.198720E-02  0.338E-01    1.13       1.0  T
   5    -38.2080908 -0.221227E-02  0.904E-02    1.11       1.0  T
   6    -38.2081712 -0.804032E-04  0.549E-02    1.13       1.0  T
   7    -38.2081781 -0.690837E-05  0.125E-02    1.14       1.4  T
   8    -38.2081791 -0.104099E-05  0.785E-03    1.14       2.3  T
   9    -38.2081793 -0.201115E-06  0.496E-03    1.14       3.6  T
  10    -38.2081794 -0.575545E-07  0.199E-03    1.14       9.0  T
  11    -38.2081794 -0.205468E-07  0.798E-04    1.14      22.5  T
  12    -38.2081794 -0.291801E-08  0.122E-04    1.14     147.4  T
     SCC iter.                  ...        0 min,  0.430 sec
     gradient                   ...        0 min,  0.020 sec
 * total energy  :   -37.5613779 Eh     change       -0.9594050E-02 Eh
   gradient norm :     0.0870183 Eh/α   predicted    -0.9553952E-02 (  -0.42%)
   displ. norm   :     0.3134086 α      lambda       -0.8922111E-02
   maximum displ.:     0.1802718 α      in ANC's #25, #3, #22, ...

........................................................................
.............................. CYCLE   17 ..............................
........................................................................
   1    -38.2099392 -0.382099E+02  0.261E-01    1.34       0.0  T
   2    -38.2100928 -0.153590E-03  0.169E-01    1.29       1.0  T
   3    -38.2100506  0.421985E-04  0.109E-01    1.31       1.0  T
   4    -38.2099272  0.123371E-03  0.102E-01    1.31       1.0  T
   5    -38.2101431 -0.215898E-03  0.296E-02    1.31       1.0  T
   6    -38.2101479 -0.484155E-05  0.220E-02    1.31       1.0  T
   7    -38.2101515 -0.353200E-05  0.805E-03    1.31       2.2  T
   8    -38.2101521 -0.667724E-06  0.459E-03    1.31       3.9  T
   9    -38.2101522 -0.110519E-06  0.191E-03    1.31       9.4  T
  10    -38.2101522 -0.285085E-08  0.938E-04    1.31      19.1  T
  11    -38.2101522 -0.703761E-08  0.403E-04    1.31      44.5  T
     SCC iter.                  ...        0 min,  0.339 sec
     gradient                   ...        0 min,  0.008 sec
 * total energy  :   -37.5687766 Eh     change       -0.7398696E-02 Eh
   gradient norm :     0.0792152 Eh/α   predicted    -0.4899233E-02 ( -33.78%)
   displ. norm   :     0.4999652 α      lambda       -0.1774034E-01
   maximum displ.:     0.2779365 α      in ANC's #25, #13, #3, ...

........................................................................
.............................. CYCLE   18 ..............................
........................................................................
   1    -38.2101866 -0.382102E+02  0.516E-01    1.63       0.0  T
   2    -38.2105624 -0.375841E-03  0.296E-01    1.63       1.0  T
   3    -38.2103336  0.228819E-03  0.170E-01    1.60       1.0  T
   4    -38.2107265 -0.392931E-03  0.502E-02    1.63       1.0  T
   5    -38.2107300 -0.347223E-05  0.379E-02    1.62       1.0  T
   6    -38.2107414 -0.114180E-04  0.265E-02    1.62       1.0  T
   7    -38.2107464 -0.504605E-05  0.808E-03    1.62       2.2  T
   8    -38.2107471 -0.613988E-06  0.438E-03    1.62       4.1  T
   9    -38.2107472 -0.125034E-06  0.267E-03    1.62       6.7  T
  10    -38.2107472 -0.446575E-07  0.134E-03    1.62      13.4  T
  11    -38.2107472 -0.704881E-08  0.574E-04    1.62      31.3  T
  12    -38.2107472 -0.242270E-08  0.189E-04    1.62      94.8  T
     SCC iter.                  ...        0 min,  0.327 sec
     gradient                   ...        0 min,  0.009 sec
 * total energy  :   -37.5810754 Eh     change       -0.1229883E-01 Eh
   gradient norm :     0.0631740 Eh/α   predicted    -0.1108741E-01 (  -9.85%)
   displ. norm   :     0.5855443 α      lambda       -0.1282015E-01
   maximum displ.:     0.3681363 α      in ANC's #25, #3, #10, ...

........................................................................
.............................. CYCLE   19 ..............................
........................................................................
   1    -38.2148349 -0.382148E+02  0.424E-01    1.86       0.0  T
   2    -38.2149465 -0.111597E-03  0.294E-01    1.84       1.0  T
   3    -38.2147151  0.231428E-03  0.215E-01    1.81       1.0  T
   4    -38.2151791 -0.463982E-03  0.100E-01    1.83       1.0  T
   5    -38.2153129 -0.133866E-03  0.483E-02    1.83       1.0  T
   6    -38.2153373 -0.243595E-04  0.278E-02    1.82       1.0  T
   7    -38.2153393 -0.201966E-05  0.683E-03    1.83       2.6  T
   8    -38.2153401 -0.778795E-06  0.303E-03    1.83       5.9  T
   9    -38.2153401 -0.588589E-07  0.172E-03    1.83      10.4  T
  10    -38.2153402 -0.153499E-07  0.819E-04    1.83      21.9  T
  11    -38.2153402 -0.729365E-09  0.452E-04    1.83      39.7  T
     SCC iter.                  ...        0 min,  0.278 sec
     gradient                   ...        0 min,  0.013 sec
 * total energy  :   -37.5908300 Eh     change       -0.9754542E-02 Eh
   gradient norm :     0.0920461 Eh/α   predicted    -0.8607850E-02 ( -11.76%)
   displ. norm   :     0.5034418 α      lambda       -0.1235895E-01
   maximum displ.:     0.2743972 α      in ANC's #25, #57, #10, ...

........................................................................
.............................. CYCLE   20 ..............................
........................................................................
   1    -38.2278618 -0.382279E+02  0.379E-01    1.95       0.0  T
   2    -38.2278855 -0.236784E-04  0.263E-01    1.99       1.0  T
   3    -38.2277877  0.977419E-04  0.183E-01    1.95       1.0  T
   4    -38.2282400 -0.452323E-03  0.637E-02    1.96       1.0  T
   5    -38.2283212 -0.811300E-04  0.245E-02    1.97       1.0  T
   6    -38.2283217 -0.556033E-06  0.126E-02    1.97       1.4  T
   7    -38.2283221 -0.338272E-06  0.435E-03    1.97       4.1  T
   8    -38.2283222 -0.171391E-06  0.186E-03    1.97       9.7  T
   9    -38.2283222 -0.184566E-07  0.675E-04    1.97      26.6  T
  10    -38.2283223 -0.500224E-08  0.463E-04    1.97      38.8  T
     SCC iter.                  ...        0 min,  0.252 sec
     gradient                   ...        0 min,  0.014 sec
 * total energy  :   -37.6002532 Eh     change       -0.9423261E-02 Eh
   gradient norm :     0.0867939 Eh/α   predicted    -0.7745695E-02 ( -17.80%)
   displ. norm   :     0.4467545 α      lambda       -0.1170502E-01
   maximum displ.:     0.1986626 α      in ANC's #25, #57, #56, ...
 * RMSD in coord.:     1.2583449 α      energy gain  -0.1381105E+02 Eh

generating ANC from model Hessian ...
Using Lindh-Hessian (1995)
 Shifting diagonal of input Hessian by    1.7690053728950578E-002
 Lowest  eigenvalues of input Hessian
    0.010000    0.012872    0.016214    0.017471    0.000000    0.000000
    0.000000    0.000000    0.000000    0.000000    0.018021    0.018327
    0.018578    0.019220    0.019597    0.019945    0.020517    0.021083
 Highest eigenvalues
    1.747281    1.759914    1.764354    1.872867    2.938625    4.324574


........................................................................
.............................. CYCLE   21 ..............................
........................................................................
   1    -38.2542556 -0.382543E+02  0.371E-01    1.99       0.0  T
   2    -38.2542510  0.456953E-05  0.245E-01    2.00       1.0  T
   3    -38.2538589  0.392042E-03  0.191E-01    1.98       1.0  T
   4    -38.2544789 -0.619953E-03  0.467E-02    1.98       1.0  T
   5    -38.2545067 -0.277660E-04  0.284E-02    1.99       1.0  T
   6    -38.2545108 -0.417623E-05  0.121E-02    1.99       1.5  T
   7    -38.2545115 -0.627652E-06  0.559E-03    1.99       3.2  T
   8    -38.2545117 -0.257939E-06  0.221E-03    1.99       8.1  T
   9    -38.2545118 -0.285196E-07  0.863E-04    1.99      20.8  T
  10    -38.2545118 -0.428668E-08  0.513E-04    1.99      35.0  T
     SCC iter.                  ...        0 min,  0.252 sec
     gradient                   ...        0 min,  0.017 sec
 * total energy  :   -37.6089691 Eh     change       -0.8715836E-02 Eh
   gradient norm :     0.0768186 Eh/α   predicted     0.0000000E+00 (-100.00%)
   displ. norm   :     0.5658413 α      lambda       -0.1650466E-01
   maximum displ.:     0.3824487 α      in ANC's #2, #10, #27, ...

........................................................................
.............................. CYCLE   22 ..............................
........................................................................
   1    -38.2593807 -0.382594E+02  0.492E-01    2.01       0.0  T
   2    -38.2593640  0.166639E-04  0.286E-01    1.99       1.0  T
   3    -38.2583756  0.988425E-03  0.302E-01    1.99       1.0  T
   4    -38.2597944 -0.141879E-02  0.693E-02    2.00       1.0  T
   5    -38.2598560 -0.616384E-04  0.389E-02    1.99       1.0  T
   6    -38.2598628 -0.684571E-05  0.218E-02    1.99       1.0  T
   7    -38.2598652 -0.238484E-05  0.104E-02    1.99       1.7  T
   8    -38.2598654 -0.137411E-06  0.791E-03    1.99       2.3  T
   9    -38.2598655 -0.191095E-06  0.359E-03    1.99       5.0  T
  10    -38.2598656 -0.226592E-07  0.102E-03    1.99      17.6  T
  11    -38.2598656 -0.760601E-08  0.510E-04    1.99      35.2  T
  12    -38.2598656 -0.234822E-08  0.120E-04    1.99     149.5  T
     SCC iter.                  ...        0 min,  0.336 sec
     gradient                   ...        0 min,  0.013 sec
 * total energy  :   -37.6188517 Eh     change       -0.9882583E-02 Eh
   gradient norm :     0.0444572 Eh/α   predicted    -0.1089501E-01 (  10.24%)
   displ. norm   :     0.6010247 α      lambda       -0.9944104E-02
   maximum displ.:     0.3776521 α      in ANC's #10, #1, #6, ...

........................................................................
.............................. CYCLE   23 ..............................
........................................................................
   1    -38.2645833 -0.382646E+02  0.516E-01    1.87       0.0  T
   2    -38.2645916 -0.831058E-05  0.317E-01    1.85       1.0  T
   3    -38.2634074  0.118413E-02  0.241E-01    1.84       1.0  T
   4    -38.2647915 -0.138405E-02  0.467E-02    1.84       1.0  T
   5    -38.2648258 -0.342692E-04  0.261E-02    1.84       1.0  T
   6    -38.2648328 -0.699144E-05  0.117E-02    1.84       1.5  T
   7    -38.2648331 -0.377340E-06  0.537E-03    1.84       3.3  T
   8    -38.2648332 -0.955794E-07  0.369E-03    1.84       4.9  T
   9    -38.2648333 -0.449834E-07  0.200E-03    1.84       9.0  T
  10    -38.2648333 -0.744011E-08  0.855E-04    1.84      21.0  T
  11    -38.2648333 -0.627594E-09  0.347E-04    1.84      51.8  T
     SCC iter.                  ...        0 min,  0.300 sec
     gradient                   ...        0 min,  0.016 sec
 * total energy  :   -37.6239217 Eh     change       -0.5070042E-02 Eh
   gradient norm :     0.0599033 Eh/α   predicted    -0.6768114E-02 (  33.49%)
   displ. norm   :     0.4094135 α      lambda       -0.5521363E-02
   maximum displ.:     0.2686208 α      in ANC's #2, #10, #6, ...

........................................................................
.............................. CYCLE   24 ..............................
........................................................................
   1    -38.2691430 -0.382691E+02  0.267E-01    1.87       0.0  T
   2    -38.2691597 -0.167320E-04  0.175E-01    1.88       1.0  T
   3    -38.2691006  0.591028E-04  0.634E-02    1.88       1.0  T
   4    -38.2691670 -0.663310E-04  0.286E-02    1.89       1.0  T
   5    -38.2691652  0.175549E-05  0.177E-02    1.89       1.0  T
   6    -38.2691716 -0.635308E-05  0.461E-03    1.89       3.9  T
   7    -38.2691717 -0.143379E-06  0.199E-03    1.89       9.0  T
   8    -38.2691717 -0.282117E-07  0.120E-03    1.89      15.0  T
   9    -38.2691717 -0.375532E-08  0.658E-04    1.89      27.3  T
  10    -38.2691717 -0.110956E-08  0.423E-04    1.89      42.4  T
     SCC iter.                  ...        0 min,  0.266 sec
     gradient                   ...        0 min,  0.005 sec
 * total energy  :   -37.6273388 Eh     change       -0.3417121E-02 Eh
   gradient norm :     0.0351341 Eh/α   predicted    -0.3223436E-02 (  -5.67%)
   displ. norm   :     0.4644585 α      lambda       -0.4620865E-02
   maximum displ.:     0.2796045 α      in ANC's #2, #6, #24, ...

........................................................................
.............................. CYCLE   25 ..............................
........................................................................
   1    -38.2734466 -0.382734E+02  0.296E-01    1.92       0.0  T
   2    -38.2734623 -0.157418E-04  0.186E-01    1.92       1.0  T
   3    -38.2732734  0.188929E-03  0.103E-01    1.94       1.0  T
   4    -38.2734787 -0.205248E-03  0.393E-02    1.93       1.0  T
   5    -38.2734731  0.554404E-05  0.238E-02    1.93       1.0  T
   6    -38.2734861 -0.130018E-04  0.914E-03    1.93       2.0  T
   7    -38.2734865 -0.328704E-06  0.275E-03    1.93       6.5  T
   8    -38.2734865 -0.163323E-08  0.240E-03    1.93       7.5  T
   9    -38.2734865 -0.223673E-07  0.991E-04    1.93      18.1  T
  10    -38.2734865 -0.951722E-09  0.473E-04    1.93      37.9  T
     SCC iter.                  ...        0 min,  0.271 sec
     gradient                   ...        0 min,  0.005 sec
 * total energy  :   -37.6295085 Eh     change       -0.2169715E-02 Eh
   gradient norm :     0.0362213 Eh/α   predicted    -0.2808844E-02 (  29.46%)
   displ. norm   :     0.3564830 α      lambda       -0.2486636E-02
   maximum displ.:     0.1929374 α      in ANC's #10, #2, #6, ...

........................................................................
.............................. CYCLE   26 ..............................
........................................................................
   1    -38.2742448 -0.382742E+02  0.237E-01    1.87       0.0  T
   2    -38.2742384  0.642761E-05  0.144E-01    1.86       1.0  T
   3    -38.2740019  0.236492E-03  0.131E-01    1.86       1.0  T
   4    -38.2743251 -0.323261E-03  0.290E-02    1.87       1.0  T
   5    -38.2743281 -0.296948E-05  0.198E-02    1.87       1.0  T
   6    -38.2743277  0.378448E-06  0.853E-03    1.87       2.1  T
   7    -38.2743291 -0.136740E-05  0.249E-03    1.87       7.2  T
   8    -38.2743291 -0.475212E-08  0.180E-03    1.87      10.0  T
   9    -38.2743291 -0.552153E-08  0.808E-04    1.87      22.2  T
  10    -38.2743291 -0.150637E-08  0.363E-04    1.87      49.5  T
     SCC iter.                  ...        0 min,  0.269 sec
     gradient                   ...        0 min,  0.010 sec
 * total energy  :   -37.6311755 Eh     change       -0.1666941E-02 Eh
   gradient norm :     0.0155145 Eh/α   predicted    -0.1401325E-02 ( -15.93%)
   displ. norm   :     0.3316284 α      lambda       -0.1209436E-02
   maximum displ.:     0.1664632 α      in ANC's #2, #3, #6, ...

........................................................................
.............................. CYCLE   27 ..............................
........................................................................
   1    -38.2756502 -0.382757E+02  0.162E-01    1.84       0.0  T
   2    -38.2756540 -0.385424E-05  0.102E-01    1.83       1.0  T
   3    -38.2755578  0.961708E-04  0.819E-02    1.83       1.0  T
   4    -38.2756833 -0.125495E-03  0.214E-02    1.83       1.0  T
   5    -38.2756866 -0.329645E-05  0.140E-02    1.83       1.3  T
   6    -38.2756867 -0.475655E-07  0.544E-03    1.83       3.3  T
   7    -38.2756872 -0.513047E-06  0.197E-03    1.83       9.1  T
   8    -38.2756872  0.666098E-09  0.138E-03    1.83      13.0  T
   9    -38.2756872 -0.634216E-08  0.635E-04    1.83      28.3  T
  10    -38.2756872 -0.232602E-08  0.335E-04    1.83      53.7  T
     SCC iter.                  ...        0 min,  0.277 sec
     gradient                   ...        0 min,  0.079 sec
 * total energy  :   -37.6320389 Eh     change       -0.8633714E-03 Eh
   gradient norm :     0.0120266 Eh/α   predicted    -0.6712264E-03 ( -22.26%)
   displ. norm   :     0.4052702 α      lambda       -0.1147022E-02
   maximum displ.:     0.2022479 α      in ANC's #3, #10, #13, ...

........................................................................
.............................. CYCLE   28 ..............................
........................................................................
   1    -38.2744841 -0.382745E+02  0.199E-01    1.81       0.0  T
   2    -38.2744938 -0.962924E-05  0.119E-01    1.81       1.0  T
   3    -38.2743681  0.125654E-03  0.891E-02    1.81       1.0  T
   4    -38.2745162 -0.148082E-03  0.221E-02    1.81       1.0  T
   5    -38.2745207 -0.447502E-05  0.148E-02    1.81       1.2  T
   6    -38.2745210 -0.302984E-06  0.589E-03    1.81       3.1  T
   7    -38.2745213 -0.307882E-06  0.177E-03    1.81      10.1  T
   8    -38.2745213 -0.240014E-07  0.117E-03    1.81      15.3  T
   9    -38.2745213 -0.399146E-08  0.588E-04    1.81      30.6  T
  10    -38.2745213 -0.242210E-08  0.290E-04    1.81      61.9  T
     SCC iter.                  ...        0 min,  0.279 sec
     gradient                   ...        0 min,  0.056 sec
 * total energy  :   -37.6327852 Eh     change       -0.7463629E-03 Eh
   gradient norm :     0.0228116 Eh/α   predicted    -0.6677086E-03 ( -10.54%)
   displ. norm   :     0.4135674 α      lambda       -0.1448245E-02
   maximum displ.:     0.2017558 α      in ANC's #3, #13, #2, ...

........................................................................
.............................. CYCLE   29 ..............................
........................................................................
   1    -38.2792838 -0.382793E+02  0.134E-01    1.82       0.0  T
   2    -38.2792980 -0.141890E-04  0.800E-02    1.82       1.0  T
   3    -38.2792621  0.359612E-04  0.533E-02    1.82       1.0  T
   4    -38.2793095 -0.474529E-04  0.190E-02    1.82       1.0  T
   5    -38.2793135 -0.395326E-05  0.111E-02    1.82       1.6  T
   6    -38.2793135  0.790462E-08  0.449E-03    1.82       4.0  T
   7    -38.2793137 -0.216468E-06  0.177E-03    1.82      10.2  T
   8    -38.2793137 -0.673995E-08  0.936E-04    1.82      19.2  T
   9    -38.2793137 -0.246155E-08  0.499E-04    1.82      36.0  T
     SCC iter.                  ...        0 min,  0.219 sec
     gradient                   ...        0 min,  0.005 sec
 * total energy  :   -37.6336115 Eh     change       -0.8262449E-03 Eh
   gradient norm :     0.0207697 Eh/α   predicted    -0.8479776E-03 (   2.63%)
   displ. norm   :     0.2622243 α      lambda       -0.1280174E-02
   maximum displ.:     0.1042410 α      in ANC's #7, #4, #3, ...

........................................................................
.............................. CYCLE   30 ..............................
........................................................................
   1    -38.2850813 -0.382851E+02  0.135E-01    1.84       0.0  T
   2    -38.2850695  0.118550E-04  0.799E-02    1.84       1.0  T
   3    -38.2850381  0.313283E-04  0.810E-02    1.84       1.0  T
   4    -38.2851345 -0.963263E-04  0.206E-02    1.84       1.0  T
   5    -38.2851377 -0.326206E-05  0.118E-02    1.84       1.5  T
   6    -38.2851381 -0.380512E-06  0.318E-03    1.84       5.7  T
   7    -38.2851382 -0.147858E-06  0.121E-03    1.84      14.9  T
   8    -38.2851382 -0.274988E-08  0.910E-04    1.84      19.7  T
   9    -38.2851383 -0.108931E-08  0.486E-04    1.84      37.0  T
     SCC iter.                  ...        0 min,  0.242 sec
     gradient                   ...        0 min,  0.006 sec
 * total energy  :   -37.6344408 Eh     change       -0.8292948E-03 Eh
   gradient norm :     0.0183800 Eh/α   predicted    -0.6841026E-03 ( -17.51%)
   displ. norm   :     0.5768002 α      lambda       -0.1700193E-02
   maximum displ.:     0.3241040 α      in ANC's #3, #2, #7, ...

........................................................................
.............................. CYCLE   31 ..............................
........................................................................
   1    -38.2744851 -0.382745E+02  0.245E-01    1.87       0.0  T
   2    -38.2745141 -0.290072E-04  0.146E-01    1.86       1.0  T
   3    -38.2744670  0.471281E-04  0.614E-02    1.86       1.0  T
   4    -38.2745257 -0.586987E-04  0.218E-02    1.86       1.0  T
   5    -38.2745255  0.207907E-06  0.164E-02    1.86       1.1  T
   6    -38.2745244  0.106436E-05  0.969E-03    1.86       1.9  T
   7    -38.2745260 -0.159024E-05  0.271E-03    1.86       6.6  T
   8    -38.2745262 -0.150252E-06  0.137E-03    1.86      13.1  T
   9    -38.2745262 -0.451508E-08  0.835E-04    1.86      21.5  T
  10    -38.2745262 -0.277840E-08  0.354E-04    1.86      50.8  T
     SCC iter.                  ...        0 min,  0.303 sec
     gradient                   ...        0 min,  0.004 sec
 * total energy  :   -37.6348990 Eh     change       -0.4582833E-03 Eh
   gradient norm :     0.0251567 Eh/α   predicted    -0.1132924E-02 ( 147.21%)
   displ. norm   :     0.1843816 α      lambda       -0.1725865E-02
   maximum displ.:     0.1048776 α      in ANC's #6, #7, #3, ...

........................................................................
.............................. CYCLE   32 ..............................
........................................................................
   1    -38.2838568 -0.382839E+02  0.132E-01    1.86       0.0  T
   2    -38.2838679 -0.111037E-04  0.713E-02    1.87       1.0  T
   3    -38.2838272  0.406817E-04  0.767E-02    1.86       1.0  T
   4    -38.2838920 -0.647928E-04  0.296E-02    1.86       1.0  T
   5    -38.2838946 -0.254395E-05  0.227E-02    1.86       1.0  T
   6    -38.2838959 -0.130066E-05  0.644E-03    1.86       2.8  T
   7    -38.2838963 -0.486491E-06  0.215E-03    1.86       8.3  T
   8    -38.2838964 -0.696416E-07  0.130E-03    1.86      13.8  T
   9    -38.2838964 -0.393936E-08  0.760E-04    1.86      23.6  T
  10    -38.2838964 -0.297147E-08  0.316E-04    1.86      56.8  T
     SCC iter.                  ...        0 min,  0.270 sec
     gradient                   ...        0 min,  0.024 sec
 * total energy  :   -37.6357399 Eh     change       -0.8408901E-03 Eh
   gradient norm :     0.0181490 Eh/α   predicted    -0.8922760E-03 (   6.11%)
   displ. norm   :     0.2850688 α      lambda       -0.1122960E-02
   maximum displ.:     0.1520482 α      in ANC's #7, #4, #3, ...

........................................................................
.............................. CYCLE   33 ..............................
........................................................................
   1    -38.2876470 -0.382876E+02  0.103E-01    1.88       0.0  T
   2    -38.2876565 -0.945734E-05  0.627E-02    1.88       1.0  T
   3    -38.2876458  0.106304E-04  0.367E-02    1.88       1.0  T
   4    -38.2876636 -0.178033E-04  0.799E-03    1.87       2.2  T
   5    -38.2876635  0.109070E-06  0.701E-03    1.87       2.6  T
   6    -38.2876639 -0.341203E-06  0.335E-03    1.87       5.4  T
   7    -38.2876640 -0.809542E-07  0.196E-03    1.87       9.2  T
   8    -38.2876640 -0.200374E-07  0.605E-04    1.87      29.7  T
   9    -38.2876640 -0.399938E-08  0.261E-04    1.87      68.7  T
     SCC iter.                  ...        0 min,  0.030 sec
     gradient                   ...        0 min,  0.004 sec
 * total energy  :   -37.6360586 Eh     change       -0.3187065E-03 Eh
   gradient norm :     0.0293498 Eh/α   predicted    -0.6071074E-03 (  90.49%)
   displ. norm   :     0.3015487 α      lambda       -0.1258076E-02
   maximum displ.:     0.1415446 α      in ANC's #4, #7, #2, ...

........................................................................
.............................. CYCLE   34 ..............................
........................................................................
   1    -38.2823429 -0.382823E+02  0.120E-01    1.89       0.0  T
   2    -38.2823485 -0.563712E-05  0.729E-02    1.89       1.0  T
   3    -38.2823358  0.127733E-04  0.343E-02    1.89       1.0  T
   4    -38.2823519 -0.161761E-04  0.150E-02    1.89       1.2  T
   5    -38.2823520 -0.104880E-06  0.121E-02    1.89       1.5  T
   6    -38.2823531 -0.106962E-05  0.297E-03    1.88       6.0  T
   7    -38.2823532 -0.726662E-07  0.237E-03    1.89       7.6  T
   8    -38.2823532 -0.181161E-07  0.116E-03    1.89      15.5  T
   9    -38.2823532 -0.159690E-08  0.487E-04    1.89      36.9  T
  10    -38.2823532 -0.180560E-08  0.211E-04    1.89      85.2  T
     SCC iter.                  ...        0 min,  0.036 sec
     gradient                   ...        0 min,  0.011 sec
 * total energy  :   -37.6366965 Eh     change       -0.6378213E-03 Eh
   gradient norm :     0.0220859 Eh/α   predicted    -0.6862464E-03 (   7.59%)
   displ. norm   :     0.3052493 α      lambda       -0.1058959E-02
   maximum displ.:     0.1784787 α      in ANC's #7, #3, #4, ...

........................................................................
.............................. CYCLE   35 ..............................
........................................................................
   1    -38.2796019 -0.382796E+02  0.148E-01    1.89       0.0  T
   2    -38.2796020 -0.763030E-07  0.900E-02    1.89       1.0  T
   3    -38.2794908  0.111182E-03  0.814E-02    1.88       1.0  T
   4    -38.2796243 -0.133564E-03  0.125E-02    1.89       1.4  T
   5    -38.2796262 -0.182313E-05  0.694E-03    1.89       2.6  T
   6    -38.2796263 -0.123716E-06  0.310E-03    1.89       5.8  T
   7    -38.2796263 -0.435668E-07  0.146E-03    1.89      12.3  T
   8    -38.2796263 -0.768895E-08  0.888E-04    1.89      20.2  T
   9    -38.2796263  0.743420E-09  0.466E-04    1.89      38.5  T
     SCC iter.                  ...        0 min,  0.043 sec
     gradient                   ...        0 min,  0.004 sec
 * total energy  :   -37.6370697 Eh     change       -0.3732100E-03 Eh
   gradient norm :     0.0183984 Eh/α   predicted    -0.5788171E-03 (  55.09%)
   displ. norm   :     0.1312355 α      lambda       -0.7474848E-03
   maximum displ.:     0.0562862 α      in ANC's #7, #1, #16, ...

........................................................................
.............................. CYCLE   36 ..............................
........................................................................
   1    -38.2845998 -0.382846E+02  0.721E-02    1.88       0.0  T
   2    -38.2846038 -0.404947E-05  0.432E-02    1.88       1.0  T
   3    -38.2845891  0.147065E-04  0.313E-02    1.88       1.0  T
   4    -38.2846075 -0.183635E-04  0.101E-02    1.88       1.8  T
   5    -38.2846091 -0.155628E-05  0.487E-03    1.88       3.7  T
   6    -38.2846091  0.431111E-08  0.284E-03    1.88       6.3  T
   7    -38.2846091 -0.221084E-07  0.101E-03    1.88      17.9  T
   8    -38.2846091 -0.163100E-07  0.435E-04    1.88      41.3  T
   9    -38.2846091 -0.615138E-09  0.244E-04    1.88      73.5  T
     SCC iter.                  ...        0 min,  0.183 sec
     gradient                   ...        0 min,  0.006 sec
 * total energy  :   -37.6374979 Eh     change       -0.4282547E-03 Eh
   gradient norm :     0.0099469 Eh/α   predicted    -0.3801819E-03 ( -11.23%)
   displ. norm   :     0.3860970 α      lambda       -0.7515022E-03
   maximum displ.:     0.2152140 α      in ANC's #7, #4, #13, ...

........................................................................
.............................. CYCLE   37 ..............................
........................................................................
   1    -38.2823189 -0.382823E+02  0.137E-01    1.88       0.0  T
   2    -38.2823207 -0.174560E-05  0.819E-02    1.88       1.0  T
   3    -38.2822318  0.888336E-04  0.828E-02    1.88       1.0  T
   4    -38.2823384 -0.106592E-03  0.211E-02    1.88       1.0  T
   5    -38.2823400 -0.157701E-05  0.140E-02    1.88       1.3  T
   6    -38.2823412 -0.124179E-05  0.397E-03    1.88       4.5  T
   7    -38.2823414 -0.153381E-06  0.144E-03    1.88      12.5  T
   8    -38.2823414 -0.486526E-08  0.698E-04    1.88      25.7  T
   9    -38.2823414 -0.187264E-08  0.422E-04    1.88      42.5  T
     SCC iter.                  ...        0 min,  0.208 sec
     gradient                   ...        0 min,  0.005 sec
 * total energy  :   -37.6378013 Eh     change       -0.3033882E-03 Eh
   gradient norm :     0.0140193 Eh/α   predicted    -0.4317681E-03 (  42.32%)
   displ. norm   :     0.1911851 α      lambda       -0.4997584E-03
   maximum displ.:     0.0870207 α      in ANC's #7, #4, #1, ...

........................................................................
.............................. CYCLE   38 ..............................
........................................................................
   1    -38.2849121 -0.382849E+02  0.872E-02    1.88       0.0  T
   2    -38.2849151 -0.301683E-05  0.533E-02    1.88       1.0  T
   3    -38.2849056  0.948650E-05  0.249E-02    1.88       1.0  T
   4    -38.2849170 -0.114120E-04  0.817E-03    1.88       2.2  T
   5    -38.2849169  0.999454E-07  0.593E-03    1.88       3.0  T
   6    -38.2849172 -0.252225E-06  0.180E-03    1.88      10.0  T
   7    -38.2849172 -0.508091E-07  0.664E-04    1.88      27.1  T
   8    -38.2849172 -0.622666E-08  0.366E-04    1.88      49.1  T
     SCC iter.                  ...        0 min,  0.234 sec
     gradient                   ...        0 min,  0.078 sec
 * total energy  :   -37.6380307 Eh     change       -0.2293511E-03 Eh
   gradient norm :     0.0108733 Eh/α   predicted    -0.2590157E-03 (  12.93%)
   displ. norm   :     0.1826130 α      lambda       -0.3621604E-03
   maximum displ.:     0.0916230 α      in ANC's #7, #4, #6, ...

........................................................................
.............................. CYCLE   39 ..............................
........................................................................
   1    -38.2849583 -0.382850E+02  0.749E-02    1.88       0.0  T
   2    -38.2849578  0.500545E-06  0.454E-02    1.88       1.0  T
   3    -38.2849302  0.276312E-04  0.444E-02    1.88       1.0  T
   4    -38.2849646 -0.344868E-04  0.732E-03    1.88       2.5  T
   5    -38.2849652 -0.509173E-06  0.384E-03    1.88       4.7  T
   6    -38.2849652 -0.677013E-07  0.149E-03    1.88      12.0  T
   7    -38.2849652 -0.708086E-08  0.591E-04    1.88      30.4  T
   8    -38.2849652 -0.495920E-08  0.360E-04    1.88      49.8  T
     SCC iter.                  ...        0 min,  0.197 sec
     gradient                   ...        0 min,  0.004 sec
 * total energy  :   -37.6382263 Eh     change       -0.1956490E-03 Eh
   gradient norm :     0.0057479 Eh/α   predicted    -0.1871227E-03 (  -4.36%)
   displ. norm   :     0.1594412 α      lambda       -0.1821121E-03
   maximum displ.:     0.0635294 α      in ANC's #13, #4, #7, ...

........................................................................
.............................. CYCLE   40 ..............................
........................................................................
   1    -38.2854238 -0.382854E+02  0.482E-02    1.88       0.0  T
   2    -38.2854258 -0.203772E-05  0.295E-02    1.88       1.0  T
   3    -38.2854222  0.364864E-05  0.189E-02    1.88       1.0  T
   4    -38.2854279 -0.571258E-05  0.361E-03    1.88       5.0  T
   5    -38.2854280 -0.120867E-06  0.214E-03    1.88       8.4  T
   6    -38.2854280 -0.857772E-08  0.121E-03    1.88      14.9  T
   7    -38.2854280 -0.220107E-07  0.338E-04    1.88      53.2  T
   8    -38.2854280 -0.256534E-09  0.221E-04    1.88      81.2  T
     SCC iter.                  ...        0 min,  0.213 sec
     gradient                   ...        0 min,  0.005 sec
 * total energy  :   -37.6383520 Eh     change       -0.1257190E-03 Eh
   gradient norm :     0.0069112 Eh/α   predicted    -0.9337250E-04 ( -25.73%)
   displ. norm   :     0.3350433 α      lambda       -0.2438263E-03
   maximum displ.:     0.1542943 α      in ANC's #4, #13, #7, ...

........................................................................
.............................. CYCLE   41 ..............................
........................................................................
   1    -38.2833649 -0.382834E+02  0.971E-02    1.88       0.0  T
   2    -38.2833709 -0.603733E-05  0.646E-02    1.88       1.0  T
   3    -38.2833525  0.184372E-04  0.357E-02    1.88       1.0  T
   4    -38.2833758 -0.233502E-04  0.108E-02    1.88       1.7  T
   5    -38.2833763 -0.421836E-06  0.683E-03    1.88       2.6  T
   6    -38.2833765 -0.240155E-06  0.287E-03    1.88       6.3  T
   7    -38.2833766 -0.143497E-06  0.120E-03    1.88      14.9  T
   8    -38.2833767 -0.695904E-08  0.704E-04    1.88      25.5  T
   9    -38.2833767 -0.229919E-08  0.436E-04    1.88      41.2  T
     SCC iter.                  ...        0 min,  0.239 sec
     gradient                   ...        0 min,  0.005 sec
 * total energy  :   -37.6384498 Eh     change       -0.9774622E-04 Eh
   gradient norm :     0.0102539 Eh/α   predicted    -0.1356023E-03 (  38.73%)
   displ. norm   :     0.1184531 α      lambda       -0.1951599E-03
   maximum displ.:     0.0579417 α      in ANC's #6, #14, #13, ...

........................................................................
.............................. CYCLE   42 ..............................
........................................................................
   1    -38.2872845 -0.382873E+02  0.678E-02    1.88       0.0  T
   2    -38.2872870 -0.249587E-05  0.377E-02    1.87       1.0  T
   3    -38.2872759  0.111142E-04  0.388E-02    1.88       1.0  T
   4    -38.2872957 -0.198284E-04  0.108E-02    1.87       1.7  T
   5    -38.2872971 -0.133708E-05  0.668E-03    1.87       2.7  T
   6    -38.2872973 -0.196768E-06  0.264E-03    1.87       6.8  T
   7    -38.2872973 -0.431980E-07  0.787E-04    1.87      22.8  T
   8    -38.2872973 -0.112703E-08  0.485E-04    1.87      37.0  T
     SCC iter.                  ...        0 min,  0.215 sec
     gradient                   ...        0 min,  0.006 sec
 * total energy  :   -37.6385225 Eh     change       -0.7270302E-04 Eh
   gradient norm :     0.0054732 Eh/α   predicted    -0.9895316E-04 (  36.11%)
   displ. norm   :     0.1262833 α      lambda       -0.1079599E-03
   maximum displ.:     0.0531490 α      in ANC's #6, #7, #4, ...
 * RMSD in coord.:     0.8283211 α      energy gain  -0.3826923E-01 Eh

generating ANC from model Hessian ...
Using Lindh-Hessian (1995)
 Shifting diagonal of input Hessian by    1.5671984352310455E-002
 Lowest  eigenvalues of input Hessian
    0.010000    0.012183    0.000000    0.000000    0.000000    0.000000
    0.000000    0.000000    0.016062    0.016431    0.016996    0.017021
    0.017477    0.017863    0.018142    0.018416    0.018725    0.019425
 Highest eigenvalues
    1.752391    1.755396    1.756080    1.820499    3.071070    4.276597


........................................................................
.............................. CYCLE   43 ..............................
........................................................................
   1    -38.2858848 -0.382859E+02  0.480E-02    1.87       0.0  T
   2    -38.2858847  0.364167E-07  0.278E-02    1.87       1.0  T
   3    -38.2858769  0.779054E-05  0.286E-02    1.87       1.0  T
   4    -38.2858892 -0.122663E-04  0.615E-03    1.87       2.9  T
   5    -38.2858896 -0.440893E-06  0.306E-03    1.87       5.9  T
   6    -38.2858897 -0.191155E-07  0.106E-03    1.87      16.9  T
   7    -38.2858897 -0.528075E-08  0.400E-04    1.87      44.9  T
   8    -38.2858897 -0.142416E-08  0.160E-04    1.87     112.5  T
     SCC iter.                  ...        0 min,  0.204 sec
     gradient                   ...        0 min,  0.007 sec
 * total energy  :   -37.6385821 Eh     change       -0.5963643E-04 Eh
   gradient norm :     0.0069822 Eh/α   predicted     0.0000000E+00 (-100.00%)
   displ. norm   :     0.0485574 α      lambda        0.5478481E-04
   maximum displ.:     0.0259314 α      in ANC's #1, #9, #5, ...

........................................................................
.............................. CYCLE   44 ..............................
........................................................................
   1    -38.2864449 -0.382864E+02  0.311E-02    1.87       0.0  T
   2    -38.2864450 -0.135765E-06  0.193E-02    1.87       1.0  T
   3    -38.2864429  0.209400E-05  0.972E-03    1.87       1.8  T
   4    -38.2864452 -0.225342E-05  0.227E-03    1.87       7.9  T
   5    -38.2864453 -0.617357E-07  0.150E-03    1.87      12.0  T
   6    -38.2864453 -0.152149E-07  0.760E-04    1.87      23.6  T
   7    -38.2864453 -0.290130E-08  0.324E-04    1.87      55.4  T
     SCC iter.                  ...        0 min,  0.283 sec
     gradient                   ...        0 min,  0.115 sec
 * total energy  :   -37.6386258 Eh     change       -0.4369350E-04 Eh
   gradient norm :     0.0014970 Eh/α   predicted    -0.3325220E-04 ( -23.90%)
   displ. norm   :     0.1345898 α      lambda       -0.6856627E-04
   maximum displ.:     0.0568924 α      in ANC's #1, #9, #5, ...

........................................................................
.............................. CYCLE   45 ..............................
........................................................................
   1    -38.2873442 -0.382873E+02  0.809E-02    1.87       0.0  T
   2    -38.2873454 -0.116369E-05  0.504E-02    1.87       1.0  T
   3    -38.2873410  0.436141E-05  0.163E-02    1.87       1.1  T
   4    -38.2873460 -0.497395E-05  0.628E-03    1.87       2.9  T
   5    -38.2873458  0.173546E-06  0.474E-03    1.87       3.8  T
   6    -38.2873462 -0.315567E-06  0.148E-03    1.87      12.2  T
   7    -38.2873462 -0.217208E-07  0.559E-04    1.87      32.1  T
   8    -38.2873462 -0.208589E-08  0.394E-04    1.87      45.6  T
     SCC iter.                  ...        0 min,  0.362 sec
     gradient                   ...        0 min,  0.007 sec
 * total energy  :   -37.6386501 Eh     change       -0.2430124E-04 Eh
   gradient norm :     0.0088669 Eh/α   predicted    -0.3456107E-04 (  42.22%)
   displ. norm   :     0.0485457 α      lambda       -0.4982729E-04
   maximum displ.:     0.0284263 α      in ANC's #1, #4, #9, ...

........................................................................
.............................. CYCLE   46 ..............................
........................................................................
   1    -38.2870471 -0.382870E+02  0.336E-02    1.86       0.0  T
   2    -38.2870472 -0.142233E-06  0.218E-02    1.86       1.0  T
   3    -38.2870448  0.238129E-05  0.945E-03    1.86       1.9  T
   4    -38.2870473 -0.248097E-05  0.310E-03    1.86       5.8  T
   5    -38.2870474 -0.106243E-06  0.161E-03    1.86      11.2  T
   6    -38.2870474 -0.431991E-08  0.670E-04    1.86      26.8  T
   7    -38.2870474  0.869136E-10  0.352E-04    1.86      51.0  T
     SCC iter.                  ...        0 min,  0.338 sec
     gradient                   ...        0 min,  0.004 sec
 * total energy  :   -37.6386828 Eh     change       -0.3265577E-04 Eh
   gradient norm :     0.0053041 Eh/α   predicted    -0.2497649E-04 ( -23.52%)
   displ. norm   :     0.0800383 α      lambda       -0.6080655E-04
   maximum displ.:     0.0474700 α      in ANC's #1, #11, #2, ...

........................................................................
.............................. CYCLE   47 ..............................
........................................................................
   1    -38.2863191 -0.382863E+02  0.385E-02    1.88       0.0  T
   2    -38.2863193 -0.194841E-06  0.249E-02    1.88       1.0  T
   3    -38.2863160  0.331437E-05  0.124E-02    1.88       1.4  T
   4    -38.2863194 -0.334012E-05  0.466E-03    1.88       3.9  T
   5    -38.2863197 -0.296493E-06  0.266E-03    1.88       6.7  T
   6    -38.2863197 -0.428734E-07  0.450E-04    1.88      39.9  T
   7    -38.2863197 -0.109875E-08  0.289E-04    1.88      62.2  T
     SCC iter.                  ...        0 min,  0.419 sec
     gradient                   ...        0 min,  0.004 sec
 * total energy  :   -37.6387063 Eh     change       -0.2354048E-04 Eh
   gradient norm :     0.0038907 Eh/α   predicted    -0.3060132E-04 (  29.99%)
   displ. norm   :     0.0653220 α      lambda       -0.3775869E-04
   maximum displ.:     0.0319334 α      in ANC's #4, #1, #11, ...

........................................................................
.............................. CYCLE   48 ..............................
........................................................................
   1    -38.2861970 -0.382862E+02  0.333E-02    1.87       0.0  T
   2    -38.2861969  0.931885E-07  0.214E-02    1.87       1.0  T
   3    -38.2861908  0.608705E-05  0.164E-02    1.87       1.1  T
   4    -38.2861977 -0.688307E-05  0.327E-03    1.87       5.5  T
   5    -38.2861978 -0.372030E-07  0.184E-03    1.87       9.8  T
   6    -38.2861978 -0.848055E-08  0.675E-04    1.87      26.6  T
   7    -38.2861978 -0.219978E-08  0.348E-04    1.87      51.6  T
     SCC iter.                  ...        0 min,  0.336 sec
     gradient                   ...        0 min,  0.013 sec
 * total energy  :   -37.6387315 Eh     change       -0.2522006E-04 Eh
   gradient norm :     0.0041844 Eh/α   predicted    -0.1896423E-04 ( -24.80%)
   displ. norm   :     0.1427286 α      lambda       -0.4843465E-04
   maximum displ.:     0.0889381 α      in ANC's #1, #4, #7, ...

........................................................................
.............................. CYCLE   49 ..............................
........................................................................
   1    -38.2860549 -0.382861E+02  0.551E-02    1.87       0.0  T
   2    -38.2860552 -0.316092E-06  0.354E-02    1.87       1.0  T
   3    -38.2860461  0.907773E-05  0.192E-02    1.87       1.0  T
   4    -38.2860557 -0.960074E-05  0.471E-03    1.87       3.8  T
   5    -38.2860560 -0.288991E-06  0.231E-03    1.87       7.8  T
   6    -38.2860560  0.224696E-08  0.958E-04    1.87      18.7  T
   7    -38.2860560 -0.768993E-08  0.357E-04    1.87      50.3  T
     SCC iter.                  ...        0 min,  0.453 sec
     gradient                   ...        0 min,  0.106 sec
 * total energy  :   -37.6387614 Eh     change       -0.2991223E-04 Eh
   gradient norm :     0.0017642 Eh/α   predicted    -0.2471101E-04 ( -17.39%)
   displ. norm   :     0.3078813 α      lambda       -0.5033431E-04
   maximum displ.:     0.1643626 α      in ANC's #1, #4, #11, ...

........................................................................
.............................. CYCLE   50 ..............................
........................................................................
   1    -38.2854843 -0.382855E+02  0.120E-01    1.87       0.0  T
   2    -38.2854858 -0.152369E-05  0.776E-02    1.87       1.0  T
   3    -38.2854521  0.336612E-04  0.371E-02    1.87       1.0  T
   4    -38.2854873 -0.351393E-04  0.977E-03    1.87       1.8  T
   5    -38.2854886 -0.133281E-05  0.568E-03    1.87       3.2  T
   6    -38.2854887 -0.110633E-06  0.199E-03    1.87       9.0  T
   7    -38.2854888 -0.306968E-07  0.842E-04    1.87      21.3  T
   8    -38.2854888 -0.836316E-09  0.648E-04    1.87      27.7  T
     SCC iter.                  ...        0 min,  0.480 sec
     gradient                   ...        0 min,  0.096 sec
 * total energy  :   -37.6387892 Eh     change       -0.2777780E-04 Eh
   gradient norm :     0.0043032 Eh/α   predicted    -0.2623009E-04 (  -5.57%)
   displ. norm   :     0.0464625 α      lambda       -0.2907865E-04
   maximum displ.:     0.0308037 α      in ANC's #1, #4, #3, ...

........................................................................
.............................. CYCLE   51 ..............................
........................................................................
   1    -38.2862886 -0.382863E+02  0.268E-02    1.88       0.0  T
   2    -38.2862886  0.525515E-08  0.181E-02    1.88       1.0  T
   3    -38.2862846  0.402582E-05  0.128E-02    1.88       1.4  T
   4    -38.2862889 -0.437849E-05  0.212E-03    1.88       8.5  T
   5    -38.2862890 -0.465125E-07  0.125E-03    1.88      14.4  T
   6    -38.2862890 -0.433157E-08  0.539E-04    1.88      33.3  T
   7    -38.2862890 -0.876938E-09  0.313E-04    1.88      57.3  T
     SCC iter.                  ...        0 min,  0.514 sec
     gradient                   ...        0 min,  0.064 sec
 * total energy  :   -37.6388083 Eh     change       -0.1909535E-04 Eh
   gradient norm :     0.0028113 Eh/α   predicted    -0.1457242E-04 ( -23.69%)
   displ. norm   :     0.0398997 α      lambda       -0.1865366E-04
   maximum displ.:     0.0211622 α      in ANC's #4, #3, #13, ...

........................................................................
.............................. CYCLE   52 ..............................
........................................................................
   1    -38.2872318 -0.382872E+02  0.188E-02    1.88       0.0  T
   2    -38.2872320 -0.128052E-06  0.123E-02    1.88       1.5  T
   3    -38.2872306  0.134302E-05  0.837E-03    1.88       2.1  T
   4    -38.2872322 -0.154834E-05  0.247E-03    1.88       7.3  T
   5    -38.2872323 -0.898374E-07  0.119E-03    1.88      15.1  T
   6    -38.2872323 -0.171276E-09  0.478E-04    1.88      37.6  T
   7    -38.2872323 -0.203867E-08  0.226E-04    1.88      79.6  T
     SCC iter.                  ...        0 min,  0.333 sec
     gradient                   ...        0 min,  0.041 sec
 * total energy  :   -37.6388194 Eh     change       -0.1105967E-04 Eh
   gradient norm :     0.0009302 Eh/α   predicted    -0.9343813E-05 ( -15.51%)
   displ. norm   :     0.1017394 α      lambda       -0.9882474E-05
   maximum displ.:     0.0628240 α      in ANC's #4, #1, #3, ...

........................................................................
.............................. CYCLE   53 ..............................
........................................................................
   1    -38.2870748 -0.382871E+02  0.268E-02    1.88       0.0  T
   2    -38.2870752 -0.427619E-06  0.163E-02    1.88       1.1  T
   3    -38.2870741  0.114388E-05  0.991E-03    1.88       1.8  T
   4    -38.2870756 -0.151611E-05  0.191E-03    1.88       9.4  T
   5    -38.2870756  0.106826E-07  0.150E-03    1.88      12.0  T
   6    -38.2870756 -0.210909E-07  0.598E-04    1.88      30.0  T
   7    -38.2870756 -0.469451E-08  0.327E-04    1.88      54.9  T
     SCC iter.                  ...        0 min,  0.368 sec
     gradient                   ...        0 min,  0.107 sec
 * total energy  :   -37.6388297 Eh     change       -0.1028467E-04 Eh
   gradient norm :     0.0015755 Eh/α   predicted    -0.4965831E-05 ( -51.72%)
   displ. norm   :     0.1250311 α      lambda       -0.1266654E-04
   maximum displ.:     0.0782034 α      in ANC's #4, #3, #2, ...

........................................................................
.............................. CYCLE   54 ..............................
........................................................................
   1    -38.2867459 -0.382867E+02  0.353E-02    1.88       0.0  T
   2    -38.2867464 -0.526828E-06  0.211E-02    1.88       1.0  T
   3    -38.2867432  0.324162E-05  0.160E-02    1.88       1.1  T
   4    -38.2867470 -0.382912E-05  0.357E-03    1.88       5.0  T
   5    -38.2867473 -0.254275E-06  0.179E-03    1.88      10.1  T
   6    -38.2867473 -0.812424E-08  0.648E-04    1.88      27.7  T
   7    -38.2867473 -0.574984E-08  0.222E-04    1.88      81.0  T
     SCC iter.                  ...        0 min,  0.338 sec
     gradient                   ...        0 min,  0.097 sec
 * total energy  :   -37.6388422 Eh     change       -0.1252262E-04 Eh
   gradient norm :     0.0014473 Eh/α   predicted    -0.6378710E-05 ( -49.06%)
   displ. norm   :     0.0825025 α      lambda       -0.7445731E-05
   maximum displ.:     0.0477928 α      in ANC's #4, #3, #2, ...

........................................................................
.............................. CYCLE   55 ..............................
........................................................................
   1    -38.2865594 -0.382866E+02  0.218E-02    1.88       0.0  T
   2    -38.2865596 -0.204689E-06  0.131E-02    1.88       1.4  T
   3    -38.2865591  0.566375E-06  0.693E-03    1.88       2.6  T
   4    -38.2865598 -0.699028E-06  0.174E-03    1.88      10.3  T
   5    -38.2865598 -0.135918E-08  0.146E-03    1.88      12.3  T
   6    -38.2865598 -0.186953E-07  0.470E-04    1.88      38.2  T
   7    -38.2865598 -0.320316E-08  0.268E-04    1.88      67.1  T
     SCC iter.                  ...        0 min,  0.413 sec
     gradient                   ...        0 min,  0.113 sec
 * total energy  :   -37.6388500 Eh     change       -0.7792523E-05 Eh
   gradient norm :     0.0004998 Eh/α   predicted    -0.3735270E-05 ( -52.07%)
   displ. norm   :     0.0862982 α      lambda       -0.7059922E-05
   maximum displ.:     0.0427018 α      in ANC's #4, #3, #2, ...

........................................................................
.............................. CYCLE   56 ..............................
........................................................................
   1    -38.2866308 -0.382866E+02  0.346E-02    1.88       0.0  T
   2    -38.2866309 -0.149424E-06  0.222E-02    1.88       1.0  T
   3    -38.2866298  0.111973E-05  0.742E-03    1.88       2.4  T
   4    -38.2866309 -0.115048E-05  0.239E-03    1.88       7.5  T
   5    -38.2866310 -0.807801E-07  0.144E-03    1.88      12.5  T
   6    -38.2866310 -0.111360E-07  0.570E-04    1.88      31.5  T
   7    -38.2866310 -0.148346E-08  0.281E-04    1.88      63.8  T
     SCC iter.                  ...        0 min,  0.619 sec
     gradient                   ...        0 min,  0.141 sec
 * total energy  :   -37.6388571 Eh     change       -0.7166496E-05 Eh
   gradient norm :     0.0004672 Eh/α   predicted    -0.3542959E-05 ( -50.56%)
   displ. norm   :     0.0909059 α      lambda       -0.6800776E-05
   maximum displ.:     0.0481315 α      in ANC's #3, #4, #2, ...

........................................................................
.............................. CYCLE   57 ..............................
........................................................................
   1    -38.2866031 -0.382866E+02  0.265E-02    1.88       0.0  T
   2    -38.2866033 -0.211170E-06  0.167E-02    1.88       1.1  T
   3    -38.2866020  0.130799E-05  0.897E-03    1.88       2.0  T
   4    -38.2866034 -0.136699E-05  0.293E-03    1.88       6.1  T
   5    -38.2866036 -0.154479E-06  0.144E-03    1.88      12.4  T
   6    -38.2866036 -0.792358E-08  0.613E-04    1.88      29.3  T
   7    -38.2866036 -0.243181E-08  0.253E-04    1.88      71.1  T
     SCC iter.                  ...        0 min,  0.454 sec
     gradient                   ...        0 min,  0.135 sec
 * total energy  :   -37.6388647 Eh     change       -0.7518842E-05 Eh
   gradient norm :     0.0009794 Eh/α   predicted    -0.3414000E-05 ( -54.59%)
   displ. norm   :     0.1498896 α      lambda       -0.1016441E-04
   maximum displ.:     0.0886823 α      in ANC's #3, #4, #2, ...

........................................................................
.............................. CYCLE   58 ..............................
........................................................................
   1    -38.2864922 -0.382865E+02  0.344E-02    1.88       0.0  T
   2    -38.2864929 -0.651775E-06  0.227E-02    1.88       1.0  T
   3    -38.2864915  0.140762E-05  0.104E-02    1.88       1.7  T
   4    -38.2864931 -0.161577E-05  0.337E-03    1.88       5.3  T
   5    -38.2864933 -0.190965E-06  0.176E-03    1.88      10.2  T
   6    -38.2864933 -0.151330E-07  0.677E-04    1.88      26.5  T
   7    -38.2864933 -0.443870E-08  0.295E-04    1.88      60.9  T
     SCC iter.                  ...        0 min,  0.445 sec
     gradient                   ...        0 min,  0.145 sec
 * total energy  :   -37.6388759 Eh     change       -0.1122976E-04 Eh
   gradient norm :     0.0012289 Eh/α   predicted    -0.5137896E-05 ( -54.25%)
   displ. norm   :     0.1926849 α      lambda       -0.1320973E-04
   maximum displ.:     0.1211057 α      in ANC's #3, #4, #2, ...

........................................................................
.............................. CYCLE   59 ..............................
........................................................................
   1    -38.2867709 -0.382868E+02  0.395E-02    1.89       0.0  T
   2    -38.2867718 -0.908778E-06  0.263E-02    1.89       1.0  T
   3    -38.2867682  0.360825E-05  0.172E-02    1.89       1.0  T
   4    -38.2867725 -0.432731E-05  0.548E-03    1.89       3.3  T
   5    -38.2867733 -0.760977E-06  0.213E-03    1.89       8.4  T
   6    -38.2867733 -0.173312E-07  0.966E-04    1.89      18.6  T
   7    -38.2867733 -0.839314E-08  0.284E-04    1.89      63.3  T
     SCC iter.                  ...        0 min,  0.477 sec
     gradient                   ...        0 min,  0.141 sec
 * total energy  :   -37.6388902 Eh     change       -0.1431475E-04 Eh
   gradient norm :     0.0006709 Eh/α   predicted    -0.6716414E-05 ( -53.08%)
   displ. norm   :     0.2764968 α      lambda       -0.1563365E-04
   maximum displ.:     0.1877585 α      in ANC's #3, #4, #2, ...

........................................................................
.............................. CYCLE   60 ..............................
........................................................................
   1    -38.2857042 -0.382857E+02  0.499E-02    1.89       0.0  T
   2    -38.2857064 -0.220799E-05  0.331E-02    1.89       1.0  T
   3    -38.2857031  0.338224E-05  0.185E-02    1.89       1.0  T
   4    -38.2857073 -0.420579E-05  0.649E-03    1.89       2.8  T
   5    -38.2857083 -0.102556E-05  0.263E-03    1.89       6.8  T
   6    -38.2857083 -0.253438E-07  0.113E-03    1.89      15.9  T
   7    -38.2857083 -0.110814E-07  0.359E-04    1.89      50.1  T
   8    -38.2857083 -0.144734E-08  0.161E-04    1.89     111.5  T
     SCC iter.                  ...        0 min,  0.547 sec
     gradient                   ...        0 min,  0.130 sec
 * total energy  :   -37.6389055 Eh     change       -0.1528163E-04 Eh
   gradient norm :     0.0016906 Eh/α   predicted    -0.8083181E-05 ( -47.11%)
   displ. norm   :     0.1610157 α      lambda       -0.2260482E-04
   maximum displ.:     0.1016835 α      in ANC's #3, #12, #1, ...

........................................................................
.............................. CYCLE   61 ..............................
........................................................................
   1    -38.2870935 -0.382871E+02  0.352E-02    1.89       0.0  T
   2    -38.2870940 -0.583927E-06  0.219E-02    1.89       1.0  T
   3    -38.2870905  0.355946E-05  0.161E-02    1.89       1.1  T
   4    -38.2870951 -0.466520E-05  0.428E-03    1.89       4.2  T
   5    -38.2870955 -0.353703E-06  0.195E-03    1.89       9.2  T
   6    -38.2870955  0.700035E-08  0.869E-04    1.89      20.7  T
   7    -38.2870955 -0.147763E-07  0.232E-04    1.89      77.3  T
     SCC iter.                  ...        0 min,  0.422 sec
     gradient                   ...        0 min,  0.119 sec
 * total energy  :   -37.6389231 Eh     change       -0.1764072E-04 Eh
   gradient norm :     0.0020643 Eh/α   predicted    -0.1143324E-04 ( -35.19%)
   displ. norm   :     0.1747494 α      lambda       -0.2359299E-04
   maximum displ.:     0.1352946 α      in ANC's #3, #4, #2, ...

........................................................................
.............................. CYCLE   62 ..............................
........................................................................
   1    -38.2867540 -0.382868E+02  0.283E-02    1.89       0.0  T
   2    -38.2867549 -0.902986E-06  0.172E-02    1.89       1.0  T
   3    -38.2867537  0.117476E-05  0.124E-02    1.89       1.5  T
   4    -38.2867556 -0.188322E-05  0.434E-03    1.89       4.1  T
   5    -38.2867561 -0.457276E-06  0.134E-03    1.89      13.5  T
   6    -38.2867561  0.680487E-10  0.689E-04    1.89      26.1  T
   7    -38.2867561 -0.378846E-08  0.191E-04    1.89      93.9  T
     SCC iter.                  ...        0 min,  0.311 sec
     gradient                   ...        0 min,  0.047 sec
 * total energy  :   -37.6389451 Eh     change       -0.2196999E-04 Eh
   gradient norm :     0.0020060 Eh/α   predicted    -0.1215808E-04 ( -44.66%)
   displ. norm   :     0.0861956 α      lambda       -0.2477352E-04
   maximum displ.:     0.0728932 α      in ANC's #3, #4, #2, ...

........................................................................
.............................. CYCLE   63 ..............................
........................................................................
   1    -38.2868631 -0.382869E+02  0.202E-02    1.89       0.0  T
   2    -38.2868634 -0.315700E-06  0.113E-02    1.89       1.6  T
   3    -38.2868627  0.686661E-06  0.836E-03    1.89       2.1  T
   4    -38.2868636 -0.939576E-06  0.183E-03    1.89       9.8  T
   5    -38.2868637 -0.425703E-07  0.103E-03    1.89      17.4  T
   6    -38.2868637 -0.310239E-08  0.511E-04    1.89      35.1  T
   7    -38.2868637 -0.285844E-08  0.179E-04    1.89     100.2  T
     SCC iter.                  ...        0 min,  0.304 sec
     gradient                   ...        0 min,  0.022 sec
 * total energy  :   -37.6389662 Eh     change       -0.2114163E-04 Eh
   gradient norm :     0.0009616 Eh/α   predicted    -0.1248199E-04 ( -40.96%)
   displ. norm   :     0.1228196 α      lambda       -0.2365532E-04
   maximum displ.:     0.1045852 α      in ANC's #3, #5, #12, ...

........................................................................
.............................. CYCLE   64 ..............................
........................................................................
   1    -38.2867327 -0.382867E+02  0.326E-02    1.89       0.0  T
   2    -38.2867332 -0.528850E-06  0.193E-02    1.89       1.0  T
   3    -38.2867311  0.213673E-05  0.130E-02    1.89       1.4  T
   4    -38.2867336 -0.255716E-05  0.323E-03    1.89       5.6  T
   5    -38.2867337 -0.135189E-06  0.189E-03    1.89       9.5  T
   6    -38.2867338 -0.123977E-07  0.801E-04    1.89      22.4  T
   7    -38.2867338 -0.933343E-08  0.348E-04    1.89      51.6  T
     SCC iter.                  ...        0 min,  0.325 sec
     gradient                   ...        0 min,  0.030 sec
 * total energy  :   -37.6389940 Eh     change       -0.2777886E-04 Eh
   gradient norm :     0.0011961 Eh/α   predicted    -0.1191036E-04 ( -57.12%)
   displ. norm   :     0.1118157 α      lambda       -0.1718537E-04
   maximum displ.:     0.0919715 α      in ANC's #3, #12, #4, ...

........................................................................
.............................. CYCLE   65 ..............................
........................................................................
   1    -38.2864893 -0.382865E+02  0.213E-02    1.89       0.0  T
   2    -38.2864896 -0.299447E-06  0.132E-02    1.89       1.4  T
   3    -38.2864889  0.701421E-06  0.795E-03    1.89       2.3  T
   4    -38.2864898 -0.855875E-06  0.221E-03    1.89       8.1  T
   5    -38.2864899 -0.833126E-07  0.131E-03    1.89      13.7  T
   6    -38.2864899 -0.732248E-08  0.463E-04    1.89      38.8  T
   7    -38.2864899 -0.214521E-08  0.200E-04    1.89      89.8  T
     SCC iter.                  ...        0 min,  0.292 sec
     gradient                   ...        0 min,  0.034 sec
 * total energy  :   -37.6390173 Eh     change       -0.2331491E-04 Eh
   gradient norm :     0.0012383 Eh/α   predicted    -0.8643510E-05 ( -62.93%)
   displ. norm   :     0.1279830 α      lambda       -0.2131844E-04
   maximum displ.:     0.1039549 α      in ANC's #3, #12, #4, ...

........................................................................
.............................. CYCLE   66 ..............................
........................................................................
   1    -38.2863969 -0.382864E+02  0.223E-02    1.89       0.0  T
   2    -38.2863972 -0.364568E-06  0.137E-02    1.89       1.3  T
   3    -38.2863965  0.692933E-06  0.814E-03    1.89       2.2  T
   4    -38.2863974 -0.850622E-06  0.232E-03    1.89       7.7  T
   5    -38.2863975 -0.119026E-06  0.114E-03    1.89      15.7  T
   6    -38.2863975 -0.332100E-08  0.379E-04    1.89      47.4  T
   7    -38.2863975 -0.168587E-08  0.163E-04    1.89     110.2  T
     SCC iter.                  ...        0 min,  0.419 sec
     gradient                   ...        0 min,  0.048 sec
 * total energy  :   -37.6390474 Eh     change       -0.3008426E-04 Eh
   gradient norm :     0.0009550 Eh/α   predicted    -0.1073970E-04 ( -64.30%)
   displ. norm   :     0.1698663 α      lambda       -0.3098782E-04
   maximum displ.:     0.1384866 α      in ANC's #3, #4, #12, ...
 * RMSD in coord.:     0.3634370 α      energy gain  -0.5249342E-03 Eh

generating ANC from model Hessian ...
Using Lindh-Hessian (1995)
 Shifting diagonal of input Hessian by    1.5425167129697742E-002
 Lowest  eigenvalues of input Hessian
    0.010000    0.011983    0.000000    0.000000    0.000000    0.000000
    0.000000    0.000000    0.015836    0.016144    0.016693    0.016741
    0.017189    0.017553    0.017846    0.018176    0.018400    0.018944
 Highest eigenvalues
    1.751114    1.753044    1.754179    1.821999    3.080837    4.269263


........................................................................
.............................. CYCLE   67 ..............................
........................................................................
   1    -38.2863257 -0.382863E+02  0.326E-02    1.89       0.0  T
   2    -38.2863264 -0.677373E-06  0.199E-02    1.89       1.0  T
   3    -38.2863254  0.929611E-06  0.960E-03    1.89       1.9  T
   4    -38.2863267 -0.127596E-05  0.211E-03    1.89       8.5  T
   5    -38.2863267 -0.165489E-07  0.159E-03    1.89      11.3  T
   6    -38.2863267 -0.223446E-07  0.590E-04    1.89      30.5  T
   7    -38.2863268 -0.402136E-08  0.265E-04    1.89      67.7  T
     SCC iter.                  ...        0 min,  0.335 sec
     gradient                   ...        0 min,  0.040 sec
 * total energy  :   -37.6390909 Eh     change       -0.4353724E-04 Eh
   gradient norm :     0.0010607 Eh/α   predicted     0.0000000E+00 (-100.00%)
   displ. norm   :     0.0387349 α      lambda       -0.1190665E-04
   maximum displ.:     0.0292107 α      in ANC's #3, #6, #8, ...

........................................................................
.............................. CYCLE   68 ..............................
........................................................................
   1    -38.2870550 -0.382871E+02  0.141E-02    1.89       0.0  T
   2    -38.2870550 -0.416354E-07  0.857E-03    1.89       2.1  T
   3    -38.2870542  0.788432E-06  0.723E-03    1.89       2.5  T
   4    -38.2870552 -0.969785E-06  0.160E-03    1.89      11.2  T
   5    -38.2870552 -0.277497E-07  0.106E-03    1.89      16.9  T
   6    -38.2870552 -0.301669E-08  0.273E-04    1.89      65.9  T
   7    -38.2870552 -0.199469E-08  0.129E-04    1.89     138.9  T
     SCC iter.                  ...        0 min,  0.299 sec
     gradient                   ...        0 min,  0.116 sec
 * total energy  :   -37.6391071 Eh     change       -0.1619462E-04 Eh
   gradient norm :     0.0005930 Eh/α   predicted    -0.6295120E-05 ( -61.13%)
   displ. norm   :     0.1510089 α      lambda       -0.3824148E-04
   maximum displ.:     0.1183798 α      in ANC's #3, #6, #8, ...

........................................................................
.............................. CYCLE   69 ..............................
........................................................................
   1    -38.2877361 -0.382877E+02  0.473E-02    1.89       0.0  T
   2    -38.2877371 -0.101179E-05  0.289E-02    1.89       1.0  T
   3    -38.2877319  0.520248E-05  0.178E-02    1.89       1.0  T
   4    -38.2877380 -0.608738E-05  0.491E-03    1.89       3.7  T
   5    -38.2877383 -0.353074E-06  0.314E-03    1.89       5.7  T
   6    -38.2877384 -0.121259E-07  0.119E-03    1.89      15.1  T
   7    -38.2877384 -0.267579E-07  0.805E-04    1.89      22.3  T
   8    -38.2877384 -0.117442E-08  0.624E-04    1.89      28.8  T
     SCC iter.                  ...        0 min,  0.361 sec
     gradient                   ...        0 min,  0.114 sec
 * total energy  :   -37.6391419 Eh     change       -0.3478953E-04 Eh
   gradient norm :     0.0015690 Eh/α   predicted    -0.1933714E-04 ( -44.42%)
   displ. norm   :     0.1301948 α      lambda       -0.3470196E-04
   maximum displ.:     0.1049483 α      in ANC's #3, #6, #2, ...

........................................................................
.............................. CYCLE   70 ..............................
........................................................................
   1    -38.2870383 -0.382870E+02  0.519E-02    1.88       0.0  T
   2    -38.2870392 -0.883767E-06  0.340E-02    1.88       1.0  T
   3    -38.2870359  0.332870E-05  0.138E-02    1.88       1.3  T
   4    -38.2870397 -0.378934E-05  0.594E-03    1.88       3.0  T
   5    -38.2870397 -0.393885E-07  0.257E-03    1.88       7.0  T
   6    -38.2870398 -0.858193E-07  0.964E-04    1.88      18.6  T
   7    -38.2870398 -0.239879E-08  0.449E-04    1.88      40.0  T
     SCC iter.                  ...        0 min,  0.304 sec
     gradient                   ...        0 min,  0.122 sec
 * total energy  :   -37.6391587 Eh     change       -0.1672665E-04 Eh
   gradient norm :     0.0019662 Eh/α   predicted    -0.1748404E-04 (   4.53%)
   displ. norm   :     0.0518510 α      lambda       -0.2432364E-04
   maximum displ.:     0.0401240 α      in ANC's #3, #2, #1, ...

........................................................................
.............................. CYCLE   71 ..............................
........................................................................
   1    -38.2869255 -0.382869E+02  0.238E-02    1.90       0.0  T
   2    -38.2869255  0.802581E-08  0.148E-02    1.90       1.2  T
   3    -38.2869231  0.238035E-05  0.121E-02    1.90       1.5  T
   4    -38.2869260 -0.291999E-05  0.326E-03    1.90       5.5  T
   5    -38.2869261 -0.337497E-07  0.163E-03    1.90      11.0  T
   6    -38.2869261 -0.350411E-07  0.685E-04    1.90      26.2  T
   7    -38.2869261 -0.118484E-08  0.235E-04    1.90      76.4  T
     SCC iter.                  ...        0 min,  0.276 sec
     gradient                   ...        0 min,  0.016 sec
 * total energy  :   -37.6391773 Eh     change       -0.1867941E-04 Eh
   gradient norm :     0.0017289 Eh/α   predicted    -0.1217811E-04 ( -34.80%)
   displ. norm   :     0.0810639 α      lambda       -0.4051340E-04
   maximum displ.:     0.0557032 α      in ANC's #3, #1, #6, ...

........................................................................
.............................. CYCLE   72 ..............................
........................................................................
   1    -38.2875555 -0.382876E+02  0.390E-02    1.90       0.0  T
   2    -38.2875557 -0.196479E-06  0.243E-02    1.90       1.0  T
   3    -38.2875498  0.590201E-05  0.158E-02    1.90       1.1  T
   4    -38.2875563 -0.650454E-05  0.291E-03    1.90       6.2  T
   5    -38.2875564 -0.870098E-07  0.221E-03    1.90       8.1  T
   6    -38.2875564 -0.247960E-07  0.626E-04    1.90      28.7  T
   7    -38.2875564 -0.364008E-08  0.324E-04    1.90      55.4  T
     SCC iter.                  ...        0 min,  0.289 sec
     gradient                   ...        0 min,  0.093 sec
 * total energy  :   -37.6391939 Eh     change       -0.1658895E-04 Eh
   gradient norm :     0.0027907 Eh/α   predicted    -0.2031705E-04 (  22.47%)
   displ. norm   :     0.0299308 α      lambda       -0.2356140E-04
   maximum displ.:     0.0241939 α      in ANC's #3, #1, #17, ...

........................................................................
.............................. CYCLE   73 ..............................
........................................................................
   1    -38.2873920 -0.382874E+02  0.150E-02    1.90       0.0  T
   2    -38.2873920 -0.325896E-07  0.885E-03    1.90       2.0  T
   3    -38.2873913  0.671872E-06  0.630E-03    1.90       2.8  T
   4    -38.2873921 -0.754004E-06  0.148E-03    1.90      12.1  T
   5    -38.2873921 -0.351317E-07  0.807E-04    1.90      22.3  T
   6    -38.2873921 -0.264341E-08  0.265E-04    1.90      67.7  T
     SCC iter.                  ...        0 min,  0.281 sec
     gradient                   ...        0 min,  0.073 sec
 * total energy  :   -37.6392115 Eh     change       -0.1759669E-04 Eh
   gradient norm :     0.0016435 Eh/α   predicted    -0.1179401E-04 ( -32.98%)
   displ. norm   :     0.0744957 α      lambda       -0.3290383E-04
   maximum displ.:     0.0662801 α      in ANC's #3, #24, #2, ...

........................................................................
.............................. CYCLE   74 ..............................
........................................................................
   1    -38.2865202 -0.382865E+02  0.278E-02    1.89       0.0  T
   2    -38.2865205 -0.253806E-06  0.162E-02    1.89       1.1  T
   3    -38.2865189  0.159785E-05  0.106E-02    1.89       1.7  T
   4    -38.2865207 -0.183699E-05  0.266E-03    1.89       6.8  T
   5    -38.2865208 -0.129338E-06  0.141E-03    1.89      12.7  T
   6    -38.2865208 -0.641768E-08  0.696E-04    1.89      25.8  T
   7    -38.2865208 -0.103739E-08  0.321E-04    1.89      56.0  T
     SCC iter.                  ...        0 min,  0.272 sec
     gradient                   ...        0 min,  0.024 sec
 * total energy  :   -37.6392274 Eh     change       -0.1591607E-04 Eh
   gradient norm :     0.0025995 Eh/α   predicted    -0.1649375E-04 (   3.63%)
   displ. norm   :     0.0286189 α      lambda       -0.1817846E-04
   maximum displ.:     0.0250167 α      in ANC's #3, #8, #6, ...

........................................................................
.............................. CYCLE   75 ..............................
........................................................................
   1    -38.2865876 -0.382866E+02  0.110E-02    1.89       0.0  T
   2    -38.2865876 -0.212820E-07  0.654E-03    1.89       2.7  T
   3    -38.2865872  0.404944E-06  0.466E-03    1.89       3.9  T
   4    -38.2865876 -0.454499E-06  0.930E-04    1.89      19.3  T
   5    -38.2865876 -0.974584E-08  0.576E-04    1.89      31.2  T
     SCC iter.                  ...        0 min,  0.232 sec
     gradient                   ...        0 min,  0.024 sec
 * total energy  :   -37.6392422 Eh     change       -0.1480609E-04 Eh
   gradient norm :     0.0017898 Eh/α   predicted    -0.9099443E-05 ( -38.54%)
   displ. norm   :     0.0732201 α      lambda       -0.2349065E-04
   maximum displ.:     0.0639594 α      in ANC's #3, #1, #6, ...

........................................................................
.............................. CYCLE   76 ..............................
........................................................................
   1    -38.2871015 -0.382871E+02  0.217E-02    1.89       0.0  T
   2    -38.2871017 -0.166922E-06  0.132E-02    1.89       1.4  T
   3    -38.2871010  0.748649E-06  0.631E-03    1.89       2.8  T
   4    -38.2871018 -0.851746E-06  0.210E-03    1.89       8.6  T
   5    -38.2871019 -0.441702E-07  0.133E-03    1.89      13.5  T
   6    -38.2871019 -0.398511E-08  0.677E-04    1.89      26.5  T
   7    -38.2871019 -0.433097E-08  0.278E-04    1.89      64.6  T
     SCC iter.                  ...        0 min,  0.356 sec
     gradient                   ...        0 min,  0.107 sec
 * total energy  :   -37.6392642 Eh     change       -0.2194549E-04 Eh
   gradient norm :     0.0012872 Eh/α   predicted    -0.1177429E-04 ( -46.35%)
   displ. norm   :     0.0562942 α      lambda       -0.1142238E-04
   maximum displ.:     0.0523451 α      in ANC's #3, #12, #1, ...

........................................................................
.............................. CYCLE   77 ..............................
........................................................................
   1    -38.2871275 -0.382871E+02  0.126E-02    1.89       0.0  T
   2    -38.2871276 -0.693137E-07  0.806E-03    1.89       2.2  T
   3    -38.2871274  0.182297E-06  0.365E-03    1.89       4.9  T
   4    -38.2871276 -0.222309E-06  0.854E-04    1.89      21.0  T
   5    -38.2871276 -0.327879E-08  0.603E-04    1.89      29.8  T
     SCC iter.                  ...        0 min,  0.226 sec
     gradient                   ...        0 min,  0.119 sec
 * total energy  :   -37.6392804 Eh     change       -0.1616404E-04 Eh
   gradient norm :     0.0011976 Eh/α   predicted    -0.5723308E-05 ( -64.59%)
   displ. norm   :     0.0657404 α      lambda       -0.1601472E-04
   maximum displ.:     0.0593550 α      in ANC's #3, #12, #1, ...

........................................................................
.............................. CYCLE   78 ..............................
........................................................................
   1    -38.2871276 -0.382871E+02  0.123E-02    1.89       0.0  T
   2    -38.2871277 -0.140641E-06  0.739E-03    1.89       2.4  T
   3    -38.2871276  0.157024E-06  0.445E-03    1.89       4.0  T
   4    -38.2871278 -0.253790E-06  0.116E-03    1.89      15.4  T
   5    -38.2871278 -0.139182E-07  0.774E-04    1.89      23.2  T
   6    -38.2871278 -0.110528E-08  0.360E-04    1.89      49.9  T
     SCC iter.                  ...        0 min,  0.276 sec
     gradient                   ...        0 min,  0.108 sec
 * total energy  :   -37.6393018 Eh     change       -0.2146444E-04 Eh
   gradient norm :     0.0004799 Eh/α   predicted    -0.8026022E-05 ( -62.61%)
   displ. norm   :     0.0863341 α      lambda       -0.1764492E-04
   maximum displ.:     0.0770988 α      in ANC's #3, #12, #9, ...

........................................................................
.............................. CYCLE   79 ..............................
........................................................................
   1    -38.2870455 -0.382870E+02  0.180E-02    1.89       0.0  T
   2    -38.2870457 -0.167880E-06  0.113E-02    1.89       1.6  T
   3    -38.2870454  0.304611E-06  0.507E-03    1.89       3.5  T
   4    -38.2870458 -0.401359E-06  0.176E-03    1.89      10.2  T
   5    -38.2870458  0.160703E-08  0.130E-03    1.89      13.8  T
   6    -38.2870458 -0.143711E-07  0.431E-04    1.89      41.7  T
   7    -38.2870458 -0.293256E-08  0.331E-04    1.89      54.3  T
     SCC iter.                  ...        0 min,  0.343 sec
     gradient                   ...        0 min,  0.112 sec
 * total energy  :   -37.6393257 Eh     change       -0.2392778E-04 Eh
   gradient norm :     0.0006485 Eh/α   predicted    -0.8854758E-05 ( -62.99%)
   displ. norm   :     0.0920513 α      lambda       -0.1724770E-04
   maximum displ.:     0.0812391 α      in ANC's #3, #12, #1, ...

........................................................................
.............................. CYCLE   80 ..............................
........................................................................
   1    -38.2869218 -0.382869E+02  0.186E-02    1.89       0.0  T
   2    -38.2869220 -0.184999E-06  0.118E-02    1.89       1.5  T
   3    -38.2869211  0.927092E-06  0.865E-03    1.89       2.1  T
   4    -38.2869222 -0.113998E-05  0.230E-03    1.89       7.8  T
   5    -38.2869224 -0.121667E-06  0.112E-03    1.89      16.0  T
   6    -38.2869224 -0.749715E-09  0.490E-04    1.89      36.7  T
   7    -38.2869224 -0.365731E-08  0.224E-04    1.89      80.2  T
     SCC iter.                  ...        0 min,  0.320 sec
     gradient                   ...        0 min,  0.099 sec
 * total energy  :   -37.6393502 Eh     change       -0.2442239E-04 Eh
   gradient norm :     0.0010258 Eh/α   predicted    -0.8658982E-05 ( -64.54%)
   displ. norm   :     0.0954369 α      lambda       -0.1788733E-04
   maximum displ.:     0.0833806 α      in ANC's #3, #12, #1, ...

........................................................................
.............................. CYCLE   81 ..............................
........................................................................
   1    -38.2869322 -0.382869E+02  0.160E-02    1.89       0.0  T
   2    -38.2869323 -0.180505E-06  0.102E-02    1.89       1.8  T
   3    -38.2869318  0.518791E-06  0.655E-03    1.89       2.7  T
   4    -38.2869325 -0.628603E-06  0.203E-03    1.89       8.8  T
   5    -38.2869325 -0.752852E-07  0.114E-03    1.89      15.7  T
   6    -38.2869325 -0.743967E-09  0.392E-04    1.89      45.8  T
   7    -38.2869325 -0.299497E-08  0.257E-04    1.89      69.9  T
     SCC iter.                  ...        0 min,  0.284 sec
     gradient                   ...        0 min,  0.034 sec
 * total energy  :   -37.6393761 Eh     change       -0.2590312E-04 Eh
   gradient norm :     0.0009723 Eh/α   predicted    -0.8984229E-05 ( -65.32%)
   displ. norm   :     0.1024032 α      lambda       -0.1915355E-04
   maximum displ.:     0.0895161 α      in ANC's #3, #12, #1, ...

........................................................................
.............................. CYCLE   82 ..............................
........................................................................
   1    -38.2869774 -0.382870E+02  0.180E-02    1.89       0.0  T
   2    -38.2869776 -0.194793E-06  0.117E-02    1.89       1.5  T
   3    -38.2869768  0.802979E-06  0.779E-03    1.89       2.3  T
   4    -38.2869778 -0.939215E-06  0.226E-03    1.89       7.9  T
   5    -38.2869779 -0.115285E-06  0.109E-03    1.89      16.6  T
   6    -38.2869779 -0.133898E-08  0.380E-04    1.89      47.3  T
   7    -38.2869779 -0.264134E-08  0.178E-04    1.89     100.8  T
     SCC iter.                  ...        0 min,  0.362 sec
     gradient                   ...        0 min,  0.139 sec
 * total energy  :   -37.6394037 Eh     change       -0.2758692E-04 Eh
   gradient norm :     0.0005525 Eh/α   predicted    -0.9623435E-05 ( -65.12%)
   displ. norm   :     0.1066661 α      lambda       -0.1913915E-04
   maximum displ.:     0.0933796 α      in ANC's #3, #12, #1, ...

........................................................................
.............................. CYCLE   83 ..............................
........................................................................
   1    -38.2870211 -0.382870E+02  0.171E-02    1.89       0.0  T
   2    -38.2870213 -0.209957E-06  0.114E-02    1.89       1.6  T
   3    -38.2870207  0.593069E-06  0.650E-03    1.89       2.8  T
   4    -38.2870214 -0.688511E-06  0.209E-03    1.89       8.6  T
   5    -38.2870215 -0.100261E-06  0.962E-04    1.89      18.7  T
   6    -38.2870215 -0.146804E-08  0.329E-04    1.89      54.5  T
     SCC iter.                  ...        0 min,  0.282 sec
     gradient                   ...        0 min,  0.051 sec
 * total energy  :   -37.6394313 Eh     change       -0.2759899E-04 Eh
   gradient norm :     0.0004302 Eh/α   predicted    -0.9619424E-05 ( -65.15%)
   displ. norm   :     0.1078081 α      lambda       -0.1867676E-04
   maximum displ.:     0.0938878 α      in ANC's #3, #12, #1, ...

........................................................................
.............................. CYCLE   84 ..............................
........................................................................
   1    -38.2871115 -0.382871E+02  0.182E-02    1.90       0.0  T
   2    -38.2871118 -0.206472E-06  0.124E-02    1.90       1.4  T
   3    -38.2871109  0.840293E-06  0.731E-03    1.90       2.5  T
   4    -38.2871119 -0.942302E-06  0.240E-03    1.90       7.5  T
   5    -38.2871120 -0.143769E-06  0.107E-03    1.90      16.8  T
   6    -38.2871120 -0.199017E-08  0.335E-04    1.90      53.7  T
   7    -38.2871120 -0.123846E-08  0.201E-04    1.90      89.4  T
     SCC iter.                  ...        0 min,  0.324 sec
     gradient                   ...        0 min,  0.114 sec
 * total energy  :   -37.6394583 Eh     change       -0.2705722E-04 Eh
   gradient norm :     0.0004791 Eh/α   predicted    -0.9387967E-05 ( -65.30%)
   displ. norm   :     0.1129580 α      lambda       -0.1918060E-04
   maximum displ.:     0.0974394 α      in ANC's #3, #12, #1, ...

........................................................................
.............................. CYCLE   85 ..............................
........................................................................
   1    -38.2871478 -0.382871E+02  0.188E-02    1.90       0.0  T
   2    -38.2871481 -0.239494E-06  0.128E-02    1.90       1.4  T
   3    -38.2871474  0.728032E-06  0.653E-03    1.90       2.7  T
   4    -38.2871482 -0.828134E-06  0.220E-03    1.90       8.2  T
   5    -38.2871483 -0.113050E-06  0.976E-04    1.90      18.4  T
   6    -38.2871483 -0.158196E-08  0.336E-04    1.90      53.4  T
     SCC iter.                  ...        0 min,  0.291 sec
     gradient                   ...        0 min,  0.128 sec
 * total energy  :   -37.6394863 Eh     change       -0.2796809E-04 Eh
   gradient norm :     0.0005836 Eh/α   predicted    -0.9646294E-05 ( -65.51%)
   displ. norm   :     0.1283622 α      lambda       -0.2143275E-04
   maximum displ.:     0.1090888 α      in ANC's #3, #4, #12, ...

........................................................................
.............................. CYCLE   86 ..............................
........................................................................
   1    -38.2871567 -0.382872E+02  0.217E-02    1.90       0.0  T
   2    -38.2871570 -0.313884E-06  0.149E-02    1.90       1.2  T
   3    -38.2871559  0.112306E-05  0.831E-03    1.90       2.2  T
   4    -38.2871572 -0.128145E-05  0.281E-03    1.90       6.4  T
   5    -38.2871574 -0.194583E-06  0.125E-03    1.90      14.3  T
   6    -38.2871574 -0.265282E-08  0.412E-04    1.90      43.6  T
   7    -38.2871574 -0.227761E-08  0.228E-04    1.90      78.7  T
     SCC iter.                  ...        0 min,  0.277 sec
     gradient                   ...        0 min,  0.020 sec
 * total energy  :   -37.6395175 Eh     change       -0.3118576E-04 Eh
   gradient norm :     0.0005531 Eh/α   predicted    -0.1079671E-04 ( -65.38%)
   displ. norm   :     0.1576962 α      lambda       -0.2547771E-04
   maximum displ.:     0.1324254 α      in ANC's #3, #4, #2, ...

........................................................................
.............................. CYCLE   87 ..............................
........................................................................
   1    -38.2870853 -0.382871E+02  0.263E-02    1.90       0.0  T
   2    -38.2870858 -0.528300E-06  0.179E-02    1.90       1.0  T
   3    -38.2870845  0.135883E-05  0.950E-03    1.90       1.9  T
   4    -38.2870861 -0.163837E-05  0.312E-03    1.90       5.8  T
   5    -38.2870864 -0.225206E-06  0.144E-03    1.90      12.4  T
   6    -38.2870864 -0.360922E-08  0.541E-04    1.90      33.2  T
   7    -38.2870864 -0.361576E-08  0.289E-04    1.90      62.1  T
     SCC iter.                  ...        0 min,  0.404 sec
     gradient                   ...        0 min,  0.208 sec
 * total energy  :   -37.6395540 Eh     change       -0.3655104E-04 Eh
   gradient norm :     0.0005747 Eh/α   predicted    -0.1288182E-04 ( -64.76%)
   displ. norm   :     0.2075872 α      lambda       -0.3130175E-04
   maximum displ.:     0.1726203 α      in ANC's #3, #4, #2, ...

........................................................................
.............................. CYCLE   88 ..............................
........................................................................
   1    -38.2868521 -0.382869E+02  0.334E-02    1.90       0.0  T
   2    -38.2868530 -0.885379E-06  0.229E-02    1.90       1.0  T
   3    -38.2868508  0.228137E-05  0.130E-02    1.90       1.4  T
   4    -38.2868536 -0.280134E-05  0.439E-03    1.90       4.1  T
   5    -38.2868540 -0.461153E-06  0.202E-03    1.90       8.9  T
   6    -38.2868540 -0.681910E-08  0.692E-04    1.90      26.0  T
   7    -38.2868540 -0.677763E-08  0.352E-04    1.90      51.0  T
     SCC iter.                  ...        0 min,  0.447 sec
     gradient                   ...        0 min,  0.157 sec
 * total energy  :   -37.6395974 Eh     change       -0.4334803E-04 Eh
   gradient norm :     0.0006216 Eh/α   predicted    -0.1595243E-04 ( -63.20%)
   displ. norm   :     0.3108068 α      lambda       -0.4114078E-04
   maximum displ.:     0.2578693 α      in ANC's #3, #4, #2, ...

........................................................................
.............................. CYCLE   89 ..............................
........................................................................
   1    -38.2862298 -0.382862E+02  0.496E-02    1.90       0.0  T
   2    -38.2862318 -0.205003E-05  0.338E-02    1.90       1.0  T
   3    -38.2862274  0.448014E-05  0.184E-02    1.90       1.0  T
   4    -38.2862331 -0.569426E-05  0.600E-03    1.90       3.0  T
   5    -38.2862339 -0.801264E-06  0.295E-03    1.90       6.1  T
   6    -38.2862339 -0.151460E-07  0.108E-03    1.90      16.6  T
   7    -38.2862339 -0.159521E-07  0.547E-04    1.90      32.9  T
   8    -38.2862339 -0.159347E-08  0.277E-04    1.90      64.8  T
     SCC iter.                  ...        0 min,  0.554 sec
     gradient                   ...        0 min,  0.207 sec
 * total energy  :   -37.6396484 Eh     change       -0.5102591E-04 Eh
   gradient norm :     0.0011734 Eh/α   predicted    -0.2145517E-04 ( -57.95%)
   displ. norm   :     0.5125312 α      lambda       -0.4929577E-04
   maximum displ.:     0.4269137 α      in ANC's #3, #4, #2, ...

........................................................................
.............................. CYCLE   90 ..............................
........................................................................
   1    -38.2840676 -0.382841E+02  0.782E-02    1.90       0.0  T
   2    -38.2840727 -0.509504E-05  0.536E-02    1.90       1.0  T
   3    -38.2840607  0.120419E-04  0.305E-02    1.91       1.0  T
   4    -38.2840759 -0.152268E-04  0.102E-02    1.90       1.8  T
   5    -38.2840782 -0.233620E-05  0.511E-03    1.90       3.5  T
   6    -38.2840783 -0.386977E-07  0.167E-03    1.90      10.8  T
   7    -38.2840783 -0.404649E-07  0.842E-04    1.90      21.3  T
   8    -38.2840783 -0.511398E-08  0.435E-04    1.90      41.3  T
     SCC iter.                  ...        0 min,  0.567 sec
     gradient                   ...        0 min,  0.157 sec
 * total energy  :   -37.6396765 Eh     change       -0.2809177E-04 Eh
   gradient norm :     0.0033637 Eh/α   predicted    -0.2752720E-04 (  -2.01%)
   displ. norm   :     0.0452222 α      lambda       -0.2565080E-04
   maximum displ.:     0.0350212 α      in ANC's #3, #4, #2, ...

........................................................................
.............................. CYCLE   91 ..............................
........................................................................
   1    -38.2862887 -0.382863E+02  0.136E-02    1.91       0.0  T
   2    -38.2862888 -0.106927E-06  0.804E-03    1.90       2.2  T
   3    -38.2862886  0.147054E-06  0.411E-03    1.90       4.4  T
   4    -38.2862888 -0.189821E-06  0.164E-03    1.90      11.0  T
   5    -38.2862888 -0.301767E-08  0.128E-03    1.90      14.0  T
   6    -38.2862888  0.841978E-08  0.598E-04    1.90      30.0  T
   7    -38.2862888 -0.958197E-08  0.112E-04    1.90     160.6  T
     SCC iter.                  ...        0 min,  0.530 sec
     gradient                   ...        0 min,  0.182 sec
 * total energy  :   -37.6396922 Eh     change       -0.1570402E-04 Eh
   gradient norm :     0.0012113 Eh/α   predicted    -0.1285292E-04 ( -18.16%)
   displ. norm   :     0.0676034 α      lambda       -0.5625137E-05
   maximum displ.:     0.0538371 α      in ANC's #3, #4, #2, ...

........................................................................
.............................. CYCLE   92 ..............................
........................................................................
   1    -38.2877143 -0.382877E+02  0.121E-02    1.91       0.0  T
   2    -38.2877144 -0.114656E-06  0.788E-03    1.90       2.3  T
   3    -38.2877141  0.328243E-06  0.516E-03    1.91       3.5  T
   4    -38.2877145 -0.412879E-06  0.172E-03    1.90      10.4  T
   5    -38.2877146 -0.666690E-07  0.720E-04    1.90      25.0  T
   6    -38.2877146 -0.521233E-09  0.316E-04    1.90      56.9  T
     SCC iter.                  ...        0 min,  0.412 sec
     gradient                   ...        0 min,  0.140 sec
 * total energy  :   -37.6396969 Eh     change       -0.4728988E-05 Eh
   gradient norm :     0.0004354 Eh/α   predicted    -0.2822567E-05 ( -40.31%)
   displ. norm   :     0.0718097 α      lambda       -0.2258088E-05
   maximum displ.:     0.0562722 α      in ANC's #3, #4, #2, ...

   *** GEOMETRY OPTIMIZATION CONVERGED AFTER 92 ITERATIONS ***

------------------------------------------------------------------------
 total energy gain   :       -13.8504981 Eh    -8691.3188 kcal/mol
 total RMSD          :         1.8126595 a0        0.9592 Å
 total power (kW/mol):      -395.2660640 (step) -734.2640 (real)
------------------------------------------------------------------------

 ANCopt (total)                0 d,  0 h,  0 min, 49.525 sec
 optimizer setup                ...        0 min,  0.000 sec (  0.001%)
 model hessian                  ...        0 min,  0.127 sec (  0.257%)
 ANC generation                 ...        0 min,  0.017 sec (  0.035%)
 coordinate transformation      ...        0 min,  0.001 sec (  0.003%)
 single point calculation       ...        0 min, 48.454 sec ( 97.838%)
 optimization log               ...        0 min,  0.009 sec (  0.017%)
 hessian update                 ...        0 min,  0.677 sec (  1.366%)
 rational function              ...        0 min,  0.223 sec (  0.451%)

================
 final structure:
================
31
 xtb: 6.5.1 (b24c23e)
Zr          -0.77731334666863       -0.08118515434427        0.25952542732227
C           -3.43595443637233        0.13962536685656       -0.17463318633315
C           -0.57297114105469       -2.29385985870268        1.42695515777090
C            0.49475677126966       -2.22909724143208        0.50251766796046
C           -0.05656941007778       -2.26556344457939       -0.80052766688067
C           -1.46263152724217       -2.30192653294674       -0.68374842818304
C           -1.78311100369522       -2.33000510952327        0.69877755327975
H           -0.47767178671539       -2.46836524522303        2.49180319860483
H            1.55065393297158       -2.29726706511475        0.74253241991670
H            0.50704373339187       -2.35404147243402       -1.72086176700722
H           -2.15245695863027       -2.48424114033192       -1.50041683828748
H           -2.75566414534296       -2.56444472791743        1.11732010683627
C            0.18357932775305        0.41980575319256        2.50541295485426
C           -1.22272733940904        0.59813950884098        2.57137466882632
C           -1.54953926224611        1.73955954806629        1.79151902912710
C           -0.35445561420811        2.24619551347314        1.23863193665728
C            0.71373378950824        1.43234220902000        1.68022171365435
H            0.77001251995864       -0.25826121454694        3.11516306195817
H           -1.88766598642523        0.09776222947035        3.26883029967100
H           -2.50955851016528        2.24432763959791        1.78745675137621
H           -0.24637970780827        3.17071263207990        0.68624488029881
H            1.76581052136611        1.62455600581204        1.50817626340019
C           -2.25244700620607        0.99019870287454       -1.65016724410922
C           -2.16348659108462        2.29843226633069       -1.65186843587935
H           -2.53956858523904        2.93781148490078       -0.86466723493609
H           -1.69800137883748        2.80525499882644       -2.49090479426654
H           -2.04561604189173        0.30414239462634       -2.46359657655132
H            0.31933101425418        0.46235635605731       -0.97126793691911
H           -3.86909407863661       -0.71770219157608       -0.67807502115791
H           -2.93250722495256       -0.09564131382586        0.76560096585793
H           -4.17142975756675        0.92909122247611       -0.06228480686156

 Bond Distances (Angstroems)
 ---------------------------
Zr1-C2=2.7029        Zr1-C3=2.5101        Zr1-C4=2.5081        Zr1-C5=2.5327        Zr1-C6=2.5082        Zr1-C7=2.5024        
Zr1-C13=2.4937       Zr1-C14=2.4504       Zr1-C15=2.5017       Zr1-C16=2.5601       Zr1-C17=2.5558       Zr1-C23=2.6402       
Zr1-H28=1.7358       Zr1-H30=2.2139       C2-Zr1=2.7029        C2-H29=1.0845        C2-H30=1.0922        C2-H31=1.0848        
C3-Zr1=2.5101        C3-C4=1.4138         C3-C7=1.4128         C3-H8=1.0833         C4-Zr1=2.5081        C4-C3=1.4138         
C4-C5=1.4154         C4-H9=1.0850         C5-Zr1=2.5327        C5-C4=1.4154         C5-C6=1.4114         C5-H10=1.0828        
C6-Zr1=2.5082        C6-C5=1.4114         C6-C7=1.4195         C6-H11=1.0845        C7-Zr1=2.5024        C7-C3=1.4128         
C7-C6=1.4195         C7-H12=1.0844        H8-C3=1.0833         H9-C4=1.0850         H10-C5=1.0828        H11-C6=1.0845        
H12-C7=1.0844        C13-Zr1=2.4937       C13-C14=1.4191       C13-C17=1.4097       C13-H18=1.0842       C14-Zr1=2.4504       
C14-C13=1.4191       C14-C15=1.4205       C14-H19=1.0858       C15-Zr1=2.5017       C15-C14=1.4205       C15-C16=1.4109       
C15-H20=1.0846       C16-Zr1=2.5601       C16-C15=1.4109       C16-C17=1.4136       C16-H21=1.0824       C17-Zr1=2.5558       
C17-C13=1.4097       C17-C16=1.4136       C17-H22=1.0832       H18-C13=1.0842       H19-C14=1.0858       H20-C15=1.0846       
H21-C16=1.0824       H22-C17=1.0832       C23-Zr1=2.6402       C23-C24=1.3113       C23-H27=1.0840       C24-C23=1.3113       
C24-H25=1.0816       C24-H26=1.0851       H25-C24=1.0816       H26-C24=1.0851       H27-C23=1.0840       H28-Zr1=1.7358       
H29-C2=1.0845        H30-Zr1=2.2139       H30-C2=1.0922        H31-C2=1.0848        
 C  H  Rav=1.0845 sigma=0.0022  Rmin=1.0816  Rmax=1.0922    16
 C  C  Rav=1.4053 sigma=0.0299  Rmin=1.3113  Rmax=1.4205    11
 Zr H  Rav=1.9748 sigma=0.2390  Rmin=1.7358  Rmax=2.2139     2
 Zr C  Rav=2.5389 sigma=0.0666  Rmin=2.4504  Rmax=2.7029    12

 selected bond angles (degree)
 --------------------
C3-Zr1-C2=103.11               C4-Zr1-C2=125.76               C4-Zr1-C3= 32.73               C5-Zr1-C2=106.45               
C5-Zr1-C3= 53.93               C5-Zr1-C4= 32.61               C6-Zr1-C2= 75.12               C6-Zr1-C3= 54.32               
C6-Zr1-C4= 54.32               C6-Zr1-C5= 32.51               C7-Zr1-C2= 72.92               C7-Zr1-C3= 32.74               
C7-Zr1-C4= 54.35               C7-Zr1-C5= 54.04               C7-Zr1-C6= 32.91               C13-Zr1-C2=120.48              
C13-Zr1-C3= 74.15              C13-Zr1-C4= 83.65              C13-Zr1-C5=116.14              C13-Zr1-C6=128.45              
C13-Zr1-C7=100.21              C14-Zr1-C2= 87.14              C14-Zr1-C3= 79.65              C14-Zr1-C4=103.78              
C14-Zr1-C5=133.29              C14-Zr1-C6=123.41              C14-Zr1-C7= 90.60              C14-Zr1-C13= 33.35             
C15-Zr1-C2= 74.65              C15-Zr1-C3=112.45              C15-Zr1-C4=136.10              C15-Zr1-C5=166.37              
C15-Zr1-C6=142.22              C15-Zr1-C7=114.99              C15-Zr1-C13= 54.63             C15-Zr1-C14= 33.32             
C16-Zr1-C2= 98.61              C16-Zr1-C3=127.59              C16-Zr1-C4=131.13              C16-Zr1-C5=153.78              
C16-Zr1-C6=173.65              C16-Zr1-C7=144.71              C16-Zr1-C13= 53.79             C16-Zr1-C14= 54.35             
C16-Zr1-C15= 32.34             C17-Zr1-C2=127.93              C17-Zr1-C3=102.47              C17-Zr1-C4= 99.06              
C17-Zr1-C5=125.27              C17-Zr1-C6=153.22              C17-Zr1-C7=132.00              C17-Zr1-C13= 32.39             
C17-Zr1-C14= 54.37             C17-Zr1-C15= 53.75             C17-Zr1-C16= 32.08             C23-Zr1-C2= 45.66              
C23-Zr1-C3=137.70              C23-Zr1-C4=134.50              C23-Zr1-C5=101.90              C23-Zr1-C6= 86.25              
C23-Zr1-C7=105.49              C23-Zr1-C13=141.74             C23-Zr1-C14=117.93             C23-Zr1-C15= 88.58             
C23-Zr1-C16= 90.00             C23-Zr1-C17=119.19             H28-Zr1-C2=118.81              H28-Zr1-C3=123.67              
H28-Zr1-C4= 90.94              H28-Zr1-C5= 78.08              H28-Zr1-C6=100.56              H28-Zr1-C7=131.29              
H28-Zr1-C13=109.41             H28-Zr1-C14=134.19             H28-Zr1-C15=113.66             H28-Zr1-C16= 83.23             
H28-Zr1-C17= 80.80             H28-Zr1-C23= 73.32             H30-Zr1-C2= 23.03              H30-Zr1-C3= 88.12              
H30-Zr1-C4=117.77              H30-Zr1-C5=111.54              H30-Zr1-C6= 79.29              H30-Zr1-C7= 64.07              
H30-Zr1-C13= 99.82             H30-Zr1-C14= 66.99             H30-Zr1-C15= 64.17             H30-Zr1-C16= 94.55             
H30-Zr1-C17=116.41             H30-Zr1-C23= 67.92             H30-Zr1-H28=141.19             H29-C2-Zr1=113.76              
H30-C2-Zr1= 52.46              H30-C2-H29=114.42              H31-C2-Zr1=135.21              H31-C2-H29=110.65              
H31-C2-H30=112.34              C4-C3-Zr1= 73.56               C7-C3-Zr1= 73.33               C7-C3-C4=108.12                
H8-C3-Zr1=127.33               H8-C3-C4=125.71                H8-C3-C7=125.30                C3-C4-Zr1= 73.71               
C5-C4-Zr1= 74.65               C5-C4-C3=107.86                H9-C4-Zr1=124.67               H9-C4-C3=125.98                
H9-C4-C5=125.53                C4-C5-Zr1= 72.74               C6-C5-Zr1= 72.79               C6-C5-C4=108.21                
H10-C5-Zr1=125.05              H10-C5-C4=125.58               H10-C5-C6=125.93               C5-C6-Zr1= 74.70               
C7-C6-Zr1= 73.32               C7-C6-C5=107.82                H11-C6-Zr1=127.29              H11-C6-C5=125.15               
H11-C6-C7=125.91               C3-C7-Zr1= 73.93               C6-C7-Zr1= 73.77               C6-C7-C3=107.95                
H12-C7-Zr1=128.50              H12-C7-C3=125.08               H12-C7-C6=125.64               

 selected dihedral angles (degree)
 ---------------------------------
H29-C2-Zr1-C3=307.27          H29-C2-Zr1-C4=333.54          H29-C2-Zr1-C5=  3.11          H29-C2-Zr1-C6=354.30          
H29-C2-Zr1-C7=320.10          H29-C2-Zr1-C13=228.13         H29-C2-Zr1-C14=228.59         H29-C2-Zr1-C15=197.23         
H29-C2-Zr1-C16=175.30         H29-C2-Zr1-C17=189.71         H29-C2-Zr1-C23= 93.80         H29-C2-Zr1-H28= 88.33         
H29-C2-Zr1-H30=256.61         H30-C2-Zr1-C3= 50.66          H30-C2-Zr1-C4= 76.92          H30-C2-Zr1-C5=106.49          
H30-C2-Zr1-C6= 97.69          H30-C2-Zr1-C7= 63.48          H30-C2-Zr1-C13=331.51         H30-C2-Zr1-C14=331.98         
H30-C2-Zr1-C15=300.61         H30-C2-Zr1-C16=278.68         H30-C2-Zr1-C17=293.10         H30-C2-Zr1-C23=197.19         
H30-C2-Zr1-H28=191.71         H31-C2-Zr1-C3=135.28          H31-C2-Zr1-C4=161.55          H31-C2-Zr1-C5=191.12          
H31-C2-Zr1-C6=182.32          H31-C2-Zr1-C7=148.11          H31-C2-Zr1-C13= 56.14         H31-C2-Zr1-C14= 56.60         
H31-C2-Zr1-C15= 25.24         H31-C2-Zr1-C16=  3.31         H31-C2-Zr1-C17= 17.72         H31-C2-Zr1-C23=281.82         
H31-C2-Zr1-H28=276.34         H31-C2-Zr1-H30= 84.63         C4-C3-Zr1-C2=138.38           C4-C3-Zr1-C5= 37.42           
C4-C3-Zr1-C6= 77.84           C4-C3-Zr1-C7=115.27           C4-C3-Zr1-C13=256.76          C4-C3-Zr1-C14=222.95          
C4-C3-Zr1-C15=216.96          C4-C3-Zr1-C16=250.29          C4-C3-Zr1-C17=272.64          C4-C3-Zr1-C23=102.50          
C4-C3-Zr1-H28=359.81          C4-C3-Zr1-H30=155.99          C7-C3-Zr1-C2= 23.10           C7-C3-Zr1-C4=244.73           
C7-C3-Zr1-C5=282.15           C7-C3-Zr1-C6=322.57           C7-C3-Zr1-C13=141.48          C7-C3-Zr1-C14=107.68          
C7-C3-Zr1-C15=101.69          C7-C3-Zr1-C16=135.02          C7-C3-Zr1-C17=157.37          C7-C3-Zr1-C23=347.23          
C7-C3-Zr1-H28=244.54          C7-C3-Zr1-H30= 40.72          H8-C3-Zr1-C2=261.08           H8-C3-Zr1-C4=122.71           
H8-C3-Zr1-C5=160.13           H8-C3-Zr1-C6=200.55           H8-C3-Zr1-C7=237.98           H8-C3-Zr1-C13= 19.46          
H8-C3-Zr1-C14=345.65          H8-C3-Zr1-C15=339.67          H8-C3-Zr1-C16= 12.99          H8-C3-Zr1-C17= 35.34          
H8-C3-Zr1-C23=225.21          H8-C3-Zr1-H28=122.51          H8-C3-Zr1-H30=278.70          C3-C4-Zr1-C2=307.13           
C3-C4-Zr1-C5=245.70           C3-C4-Zr1-C6=282.18           C3-C4-Zr1-C7=323.00           C3-C4-Zr1-C13= 70.42          
C3-C4-Zr1-C14= 43.64          C3-C4-Zr1-C15= 53.26          C3-C4-Zr1-C16= 98.01          C3-C4-Zr1-C17= 99.01          
C3-C4-Zr1-C23=247.12          C3-C4-Zr1-H28=179.84          C3-C4-Zr1-H30=332.64          C5-C4-Zr1-C2= 61.43           
C5-C4-Zr1-C3=114.30           C5-C4-Zr1-C6= 36.48           C5-C4-Zr1-C7= 77.29           C5-C4-Zr1-C13=184.72          
C5-C4-Zr1-C14=157.93          C5-C4-Zr1-C15=167.56          C5-C4-Zr1-C16=212.31          C5-C4-Zr1-C17=213.30          
C5-C4-Zr1-C23=  1.42          C5-C4-Zr1-H28=294.14          C5-C4-Zr1-H30= 86.94          H9-C4-Zr1-C2=184.31           
H9-C4-Zr1-C3=237.18           H9-C4-Zr1-C5=122.88           H9-C4-Zr1-C6=159.36           H9-C4-Zr1-C7=200.17           
H9-C4-Zr1-C13=307.60          H9-C4-Zr1-C14=280.82          H9-C4-Zr1-C15=290.44          H9-C4-Zr1-C16=335.19          
H9-C4-Zr1-C17=336.18          H9-C4-Zr1-C23=124.30          H9-C4-Zr1-H28= 57.02          H9-C4-Zr1-H30=209.82          
Zr1-C4-C3-C7= 65.71           Zr1-C4-C3-H8=235.49           C5-C4-C3-Zr1=292.57           C5-C4-C3-C7=358.28            
C5-C4-C3-H8=168.07            H9-C4-C3-Zr1=121.34           H9-C4-C3-C7=187.06            H9-C4-C3-H8=356.84            
C4-C5-Zr1-C2=227.99           C4-C5-Zr1-C3=322.44           C4-C5-Zr1-C6=243.97           C4-C5-Zr1-C7=281.65           
C4-C5-Zr1-C13=  5.22          C4-C5-Zr1-C14=329.92          C4-C5-Zr1-C15=320.64          C4-C5-Zr1-C16= 65.69          
C4-C5-Zr1-C17= 41.61          C4-C5-Zr1-C23=181.03          C4-C5-Zr1-H28=111.17          C4-C5-Zr1-H30=251.77          
C6-C5-Zr1-C2=344.03           C6-C5-Zr1-C3= 78.47           C6-C5-Zr1-C4=116.03           C6-C5-Zr1-C7= 37.68           
C6-C5-Zr1-C13=121.25          C6-C5-Zr1-C14= 85.95          C6-C5-Zr1-C15= 76.68          C6-C5-Zr1-C16=181.72          
C6-C5-Zr1-C17=157.65          C6-C5-Zr1-C23=297.07          C6-C5-Zr1-H28=227.20          C6-C5-Zr1-H30=  7.81          
H10-C5-Zr1-C2=106.24          H10-C5-Zr1-C3=200.68          H10-C5-Zr1-C4=238.24          H10-C5-Zr1-C6=122.21          
H10-C5-Zr1-C7=159.90          H10-C5-Zr1-C13=243.47         H10-C5-Zr1-C14=208.16         H10-C5-Zr1-C15=198.89         
H10-C5-Zr1-C16=303.93         H10-C5-Zr1-C17=279.86         H10-C5-Zr1-C23= 59.28         H10-C5-Zr1-H28=349.41         
H10-C5-Zr1-H30=130.02         Zr1-C5-C4-C3= 66.80           Zr1-C5-C4-H9=238.07           C6-C5-C4-Zr1=295.37           
C6-C5-C4-C3=  2.17            C6-C5-C4-H9=173.44            H10-C5-C4-Zr1=121.14          H10-C5-C4-C3=187.94           
H10-C5-C4-H9=359.22           C5-C6-Zr1-C2=164.15           C5-C6-Zr1-C3=282.82           C5-C6-Zr1-C4=323.41           
C5-C6-Zr1-C7=245.59           C5-C6-Zr1-C13=281.49          C5-C6-Zr1-C14=240.43          C5-C6-Zr1-C15=201.97          
C5-C6-Zr1-C16=173.11          C5-C6-Zr1-C17=316.43          C5-C6-Zr1-C23=119.17          C5-C6-Zr1-H28= 46.91          
C5-C6-Zr1-H30=187.39          C7-C6-Zr1-C2=278.56           C7-C6-Zr1-C3= 37.23           C7-C6-Zr1-C4= 77.82           
C7-C6-Zr1-C5=114.41           C7-C6-Zr1-C13= 35.89          C7-C6-Zr1-C14=354.84          C7-C6-Zr1-C15=316.38          
C7-C6-Zr1-C16=287.52          C7-C6-Zr1-C17= 70.84          C7-C6-Zr1-C23=233.57          C7-C6-Zr1-H28=161.31          
C7-C6-Zr1-H30=301.79          H11-C6-Zr1-C2= 41.34          H11-C6-Zr1-C3=160.01          H11-C6-Zr1-C4=200.60          
H11-C6-Zr1-C5=237.19          H11-C6-Zr1-C7=122.78          H11-C6-Zr1-C13=158.67         H11-C6-Zr1-C14=117.62         
H11-C6-Zr1-C15= 79.16         H11-C6-Zr1-C16= 50.30         H11-C6-Zr1-C17=193.62         H11-C6-Zr1-C23=356.35         
H11-C6-Zr1-H28=284.09         H11-C6-Zr1-H30= 64.57         Zr1-C6-C5-C4= 64.60           Zr1-C6-C5-H10=238.80          
C7-C6-C5-Zr1=293.61           C7-C6-C5-C4=358.22            C7-C6-C5-H10=172.41           H11-C6-C5-Zr1=125.14          
H11-C6-C5-C4=189.74           H11-C6-C5-H10=  3.94          C3-C7-Zr1-C2=203.57           C3-C7-Zr1-C4= 36.99           
C3-C7-Zr1-C5= 77.49           C3-C7-Zr1-C6=114.70           C3-C7-Zr1-C13=322.50          C3-C7-Zr1-C14=290.39          
C3-C7-Zr1-C15=266.90          C3-C7-Zr1-C16=284.17          C3-C7-Zr1-C17=329.63          C3-C7-Zr1-C23=171.12          
C3-C7-Zr1-H28= 89.92          C3-C7-Zr1-H30=226.47          C6-C7-Zr1-C2= 88.87           C6-C7-Zr1-C3=245.30           
C6-C7-Zr1-C4=282.29           C6-C7-Zr1-C5=322.79           C6-C7-Zr1-C13=207.81          C6-C7-Zr1-C14=175.69          
C6-C7-Zr1-C15=152.20          C6-C7-Zr1-C16=169.48          C6-C7-Zr1-C17=214.93          C6-C7-Zr1-C23= 56.42          
C6-C7-Zr1-H28=335.22          C6-C7-Zr1-H30=111.78          H12-C7-Zr1-C2=325.92          H12-C7-Zr1-C3=122.36          
H12-C7-Zr1-C4=159.34          H12-C7-Zr1-C5=199.84          H12-C7-Zr1-C6=237.05          H12-C7-Zr1-C13= 84.86         
H12-C7-Zr1-C14= 52.75         H12-C7-Zr1-C15= 29.26         H12-C7-Zr1-C16= 46.53         H12-C7-Zr1-C17= 91.99         
H12-C7-Zr1-C23=293.48         H12-C7-Zr1-H28=212.27         H12-C7-Zr1-H30=348.83         Zr1-C7-C3-C4=294.13           
Zr1-C7-C3-H8=124.30           C6-C7-C3-Zr1= 66.48           C6-C7-C3-C4=  0.62            C6-C7-C3-H8=190.78            
H12-C7-C3-Zr1=233.89          H12-C7-C3-C4=168.02           H12-C7-C3-H8=358.19           Zr1-C7-C6-C5= 67.31           
Zr1-C7-C6-H11=235.68          C3-C7-C6-Zr1=293.41           C3-C7-C6-C5=  0.72            C3-C7-C6-H11=169.09           
H12-C7-C6-Zr1=126.09          H12-C7-C6-C5=193.40           H12-C7-C6-H11=  1.77          

 CMA Distance (Angstroems)
 ---------------------------
R(CMA):  3.3067
           -------------------------------------------------
          |                Final Singlepoint                |
           -------------------------------------------------

          ...................................................
          :                      SETUP                      :
          :.................................................:
          :  # basis functions                  79          :
          :  # atomic orbitals                  78          :
          :  # shells                           46          :
          :  # electrons                        72          :
          :  max. iterations                   250          :
          :  Hamiltonian                  GFN2-xTB          :
          :  restarted?                      false          :
          :  GBSA solvation                  false          :
          :  PC potential                    false          :
          :  electronic temp.          300.0000000     K    :
          :  accuracy                    1.0000000          :
          :  -> integral cutoff          0.2500000E+02      :
          :  -> integral neglect         0.1000000E-07      :
          :  -> SCF convergence          0.1000000E-05 Eh   :
          :  -> wf. convergence          0.1000000E-03 e    :
          :  Broyden damping             0.4000000          :
          ...................................................

 iter      E             dE          RMSdq      gap      omega  full diag
   1    -38.2877146 -0.382877E+02  0.120E-04    1.90       0.0  T
   2    -38.2877146 -0.453184E-10  0.676E-05    1.90     265.8  T
   3    -38.2877146 -0.800284E-10  0.543E-05    1.90     330.6  T

   *** convergence criteria satisfied after 3 iterations ***

         #    Occupation            Energy/Eh            Energy/eV
      -------------------------------------------------------------
         1        2.0000           -0.8645145             -23.5246
       ...           ...                  ...                  ...
        30        2.0000           -0.5825107             -15.8509
        31        2.0000           -0.5815815             -15.8256
        32        2.0000           -0.5583195             -15.1926
        33        2.0000           -0.5160904             -14.0435
        34        2.0000           -0.5059088             -13.7665
        35        2.0000           -0.5041007             -13.7173
        36        2.0000           -0.5006963             -13.6246 (HOMO)
        37                         -0.4306955             -11.7198 (LUMO)
        38                         -0.4205293             -11.4432
        39                         -0.4142950             -11.2735
        40                         -0.4079409             -11.1006
        41                         -0.4033556             -10.9759
       ...                                ...                  ...
        78                          2.0538195              55.8873
      -------------------------------------------------------------
                  HL-Gap            0.0700008 Eh            1.9048 eV
             Fermi-level           -0.4656959 Eh          -12.6722 eV

 SCC (total)                   0 d,  0 h,  0 min,  0.476 sec
 SCC setup                      ...        0 min,  0.016 sec (  3.338%)
 Dispersion                     ...        0 min,  0.050 sec ( 10.538%)
 classical contributions        ...        0 min,  0.016 sec (  3.348%)
 integral evaluation            ...        0 min,  0.053 sec ( 11.205%)
 iterations                     ...        0 min,  0.184 sec ( 38.661%)
 molecular gradient             ...        0 min,  0.156 sec ( 32.865%)
 printout                       ...        0 min,  0.000 sec (  0.039%)

         :::::::::::::::::::::::::::::::::::::::::::::::::::::
         ::                     SUMMARY                     ::
         :::::::::::::::::::::::::::::::::::::::::::::::::::::
         :: total energy             -37.639696922410 Eh    ::
         :: gradient norm              0.000434830609 Eh/a0 ::
         :: HOMO-LUMO gap              1.904819786341 eV    ::
         ::.................................................::
         :: SCC energy               -38.287714578907 Eh    ::
         :: -> isotropic ES            0.094700092959 Eh    ::
         :: -> anisotropic ES         -0.017065819026 Eh    ::
         :: -> anisotropic XC          0.025007927377 Eh    ::
         :: -> dispersion             -0.032075868672 Eh    ::
         :: repulsion energy           0.645411280255 Eh    ::
         :: add. restraining           0.001959051646 Eh    ::
         :: total charge               1.000000000000 e     ::
         :::::::::::::::::::::::::::::::::::::::::::::::::::::

           -------------------------------------------------
          |                Property Printout                |
           -------------------------------------------------

    * Orbital Energies and Occupations

         #    Occupation            Energy/Eh            Energy/eV
      -------------------------------------------------------------
         1        2.0000           -0.8645145             -23.5246
       ...           ...                  ...                  ...
        24        2.0000           -0.5922048             -16.1147
        25        2.0000           -0.5898997             -16.0520
        26        2.0000           -0.5894300             -16.0392
        27        2.0000           -0.5849960             -15.9186
        28        2.0000           -0.5832601             -15.8713
        29        2.0000           -0.5827831             -15.8583
        30        2.0000           -0.5825107             -15.8509
        31        2.0000           -0.5815815             -15.8256
        32        2.0000           -0.5583195             -15.1926
        33        2.0000           -0.5160904             -14.0435
        34        2.0000           -0.5059088             -13.7665
        35        2.0000           -0.5041007             -13.7173
        36        2.0000           -0.5006963             -13.6246 (HOMO)
        37                         -0.4306955             -11.7198 (LUMO)
        38                         -0.4205293             -11.4432
        39                         -0.4142950             -11.2735
        40                         -0.4079409             -11.1006
        41                         -0.4033556             -10.9759
        42                         -0.3960669             -10.7775
        43                         -0.3758924             -10.2286
        44                         -0.3045628              -8.2876
        45                         -0.3023569              -8.2276
        46                         -0.2959432              -8.0530
        47                         -0.2943898              -8.0108
       ...                                ...                  ...
        78                          2.0538195              55.8873
      -------------------------------------------------------------
                  HL-Gap            0.0700008 Eh            1.9048 eV
             Fermi-level           -0.4656959 Eh          -12.6722 eV

     #   Z          covCN         q      C6AA      α(0)
     1  40 Zr       9.906     1.054   136.119    17.531
     2   6 C        3.694    -0.177    24.157     7.032
     3   6 C        3.739    -0.088    22.265     6.733
     4   6 C        3.739    -0.082    22.158     6.717
     5   6 C        3.728    -0.067    21.888     6.679
     6   6 C        3.737    -0.100    22.491     6.767
     7   6 C        3.743    -0.104    22.567     6.777
     8   1 H        0.925     0.083     1.951     2.184
     9   1 H        0.925     0.086     1.918     2.165
    10   1 H        0.925     0.084     1.936     2.176
    11   1 H        0.925     0.071     2.071     2.250
    12   1 H        0.925     0.070     2.086     2.259
    13   6 C        3.746    -0.087    22.232     6.726
    14   6 C        3.764    -0.106    22.574     6.772
    15   6 C        3.742    -0.104    22.557     6.776
    16   6 C        3.709    -0.080    22.169     6.729
    17   6 C        3.713    -0.069    21.965     6.697
    18   1 H        0.925     0.086     1.916     2.165
    19   1 H        0.925     0.074     2.047     2.237
    20   1 H        0.925     0.070     2.088     2.260
    21   1 H        0.925     0.077     2.010     2.217
    22   1 H        0.925     0.086     1.917     2.165
    23   6 C        2.885    -0.046    29.132     8.849
    24   6 C        2.857    -0.065    29.599     8.917
    25   1 H        0.925     0.118     1.626     1.994
    26   1 H        0.925     0.133     1.513     1.923
    27   1 H        0.925     0.138     1.479     1.902
    28   1 H        0.853    -0.408    54.362    11.553
    29   1 H        0.925     0.112     1.676     2.024
    30   1 H        1.457     0.129     1.535     1.934
    31   1 H        0.925     0.112     1.682     2.028

 Mol. C6AA /au·bohr⁶  :      10717.399745
 Mol. C8AA /au·bohr⁸  :     347079.832403
 Mol. α(0) /au        :        155.139294


Wiberg/Mayer (AO) data.
largest (>0.10) Wiberg bond orders for each atom

 ---------------------------------------------------------------------------
     #   Z sym  total        # sym  WBO       # sym  WBO       # sym  WBO
 ---------------------------------------------------------------------------
     1  40 Zr   4.094 --    28 H    0.654     4 C    0.257     5 C    0.249
                            14 C    0.248    17 C    0.245     6 C    0.240
                            13 C    0.240     7 C    0.237    16 C    0.234
                             3 C    0.232    15 C    0.231    23 C    0.214
                             2 C    0.186    30 H    0.109
     2   6 C    3.982 --    31 H    0.969    29 H    0.958    30 H    0.841
                            23 C    0.815     1 Zr   0.186
     3   6 C    3.979 --     7 C    1.311     4 C    1.308     8 H    0.926
                             1 Zr   0.232
     4   6 C    3.980 --     3 C    1.308     5 C    1.299     9 H    0.920
                             1 Zr   0.257
     5   6 C    3.984 --     6 C    1.318     4 C    1.299    10 H    0.928
                             1 Zr   0.249
     6   6 C    3.975 --     5 C    1.318     7 C    1.287    11 H    0.926
                             1 Zr   0.240
     7   6 C    3.975 --     3 C    1.311     6 C    1.287    12 H    0.929
                             1 Zr   0.237
     8   1 H    0.991 --     3 C    0.926
     9   1 H    0.990 --     4 C    0.920
    10   1 H    0.990 --     5 C    0.928
    11   1 H    0.992 --     6 C    0.926
    12   1 H    0.994 --     7 C    0.929
    13   6 C    3.980 --    17 C    1.323    14 C    1.292    18 H    0.922
                             1 Zr   0.240
    14   6 C    3.975 --    13 C    1.292    15 C    1.287    19 H    0.923
                             1 Zr   0.248
    15   6 C    3.975 --    16 C    1.321    14 C    1.287    20 H    0.927
                             1 Zr   0.231
    16   6 C    3.981 --    15 C    1.321    17 C    1.304    21 H    0.931
                             1 Zr   0.234
    17   6 C    3.984 --    13 C    1.323    16 C    1.304    22 H    0.927
                             1 Zr   0.245
    18   1 H    0.990 --    13 C    0.922
    19   1 H    0.994 --    14 C    0.923
    20   1 H    0.993 --    15 C    0.927
    21   1 H    0.991 --    16 C    0.931
    22   1 H    0.990 --    17 C    0.927
    23   6 C    3.977 --    24 C    1.977    27 H    0.892     2 C    0.815
                             1 Zr   0.214
    24   6 C    3.976 --    23 C    1.977    25 H    0.933    26 H    0.914
    25   1 H    0.984 --    24 C    0.933
    26   1 H    0.981 --    24 C    0.914
    27   1 H    0.979 --    23 C    0.892
    28   1 H    0.834 --     1 Zr   0.654
    29   1 H    0.986 --     2 C    0.958
    30   1 H    0.983 --     2 C    0.841     1 Zr   0.109
    31   1 H    0.987 --     2 C    0.969
 ---------------------------------------------------------------------------

Topologies differ in total number of bonds
Writing topology from bond orders to xtbtopo.mol

molecular dipole:
                 x           y           z       tot (Debye)
 q only:       -3.609       0.570       0.052
   full:       -3.565       0.497       0.072       9.152
molecular quadrupole (traceless):
                xx          xy          yy          xz          yz          zz
 q only:       11.858      -6.983      -5.722       6.260      -6.106      -6.136
  q+dip:       13.102      -6.267      -8.047       4.031      -7.992      -5.055
   full:       13.585      -6.088      -8.232       4.299      -7.073      -5.353

           -------------------------------------------------
          |                Geometry Summary                 |
           -------------------------------------------------

      molecular mass/u    :      264.4982010
   center of mass at/Å    :       -0.9646425      -0.0935730       0.4460412
  moments of inertia/u·Å² :        0.6312545E+03   0.7664329E+03   0.1053518E+04
rotational constants/cm⁻¹ :        0.2670497E-01   0.2199492E-01   0.1600128E-01

 * 38 selected distances

     #   Z          #   Z                                           value/Å
     1  40 Zr       3   6 C                                       2.5100953
     1  40 Zr       4   6 C                                       2.5081338
     3   6 C        4   6 C                                       1.4137971
     1  40 Zr       5   6 C                                       2.5327246
     4   6 C        5   6 C                                       1.4153508
     1  40 Zr       6   6 C                                       2.5082105
     5   6 C        6   6 C                                       1.4113719
     1  40 Zr       7   6 C                                       2.5023516
     3   6 C        7   6 C                                       1.4127944
     6   6 C        7   6 C                                       1.4194626
     3   6 C        8   1 H                                       1.0832524
     4   6 C        9   1 H                                       1.0849761
     5   6 C       10   1 H                                       1.0828219
     6   6 C       11   1 H                                       1.0844562
     7   6 C       12   1 H                                       1.0844352
     1  40 Zr      13   6 C                                       2.4936557
     1  40 Zr      14   6 C                                       2.4504130
    13   6 C       14   6 C                                       1.4191028
     1  40 Zr      15   6 C                                       2.5016894
    14   6 C       15   6 C                                       1.4205002
     1  40 Zr      16   6 C                                       2.5601094 (max)
    15   6 C       16   6 C                                       1.4108825
     1  40 Zr      17   6 C                                       2.5558493
    13   6 C       17   6 C                                       1.4096932
    16   6 C       17   6 C                                       1.4136434
    13   6 C       18   1 H                                       1.0841928
    14   6 C       19   1 H                                       1.0858017
    15   6 C       20   1 H                                       1.0846403
    16   6 C       21   1 H                                       1.0823789
    17   6 C       22   1 H                                       1.0832412
    23   6 C       24   6 C                                       1.3112560
    24   6 C       25   1 H                                       1.0816327 (min)
    24   6 C       26   1 H                                       1.0851396
    23   6 C       27   1 H                                       1.0840294
     1  40 Zr      28   1 H                                       1.7357762
     2   6 C       29   1 H                                       1.0844696
     2   6 C       30   1 H                                       1.0921767
     2   6 C       31   1 H                                       1.0848054

 * 4 distinct bonds (by element types)

   Z      Z             #   av. dist./Å        max./Å        min./Å
   1 H    6 C          16     1.0845281     1.0921767     1.0816327
   6 C    6 C          11     1.4052595     1.4205002     1.3112560
   1 H   40 Zr          1     1.7357762     1.7357762     1.7357762
   6 C   40 Zr         10     2.5123233     2.5601094     2.4504130


optimized geometry written to: xtbopt.xyz


           -------------------------------------------------
          | TOTAL ENERGY              -37.639696922410 Eh   |
          | GRADIENT NORM               0.000434830609 Eh/α |
          | HOMO-LUMO GAP               1.904819786341 eV   |
           -------------------------------------------------

------------------------------------------------------------------------
 * finished run on 2026/08/03 at 11:34:22.477     
------------------------------------------------------------------------
 total:
 * wall-time:     0 d,  0 h,  0 min, 51.376 sec
 *  cpu-time:     0 d,  0 h,  3 min, 22.081 sec
 * ratio c/w:     3.933 speedup
 SCF:
 * wall-time:     0 d,  0 h,  0 min,  1.233 sec
 *  cpu-time:     0 d,  0 h,  0 min,  3.572 sec
 * ratio c/w:     2.897 speedup
 ANC optimizer:
 * wall-time:     0 d,  0 h,  0 min, 50.008 sec
 *  cpu-time:     0 d,  0 h,  3 min, 18.219 sec
 * ratio c/w:     3.964 speedup

