31
 energy: -37.639696922410 gnorm: 0.000434830609 xtb: 6.5.1 (b24c23e)
Zr          -0.77731334666863       -0.08118515434427        0.25952542732227
C           -3.43595443637233        0.13962536685656       -0.17463318633315
C           -0.57297114105469       -2.29385985870268        1.42695515777090
C            0.49475677126966       -2.22909724143208        0.50251766796046
C           -0.05656941007778       -2.26556344457939       -0.80052766688067
C           -1.46263152724217       -2.30192653294674       -0.68374842818304
C           -1.78311100369522       -2.33000510952327        0.69877755327975
H           -0.47767178671539       -2.46836524522303        2.49180319860483
H            1.55065393297158       -2.29726706511475        0.74253241991670
H            0.50704373339187       -2.35404147243402       -1.72086176700722
H           -2.15245695863027       -2.48424114033192       -1.50041683828748
H           -2.75566414534296       -2.56444472791743        1.11732010683627
C            0.18357932775305        0.41980575319256        2.50541295485426
C           -1.22272733940904        0.59813950884098        2.57137466882632
C           -1.54953926224611        1.73955954806629        1.79151902912710
C           -0.35445561420811        2.24619551347314        1.23863193665728
C            0.71373378950824        1.43234220902000        1.68022171365435
H            0.77001251995864       -0.25826121454694        3.11516306195817
H           -1.88766598642523        0.09776222947035        3.26883029967100
H           -2.50955851016528        2.24432763959791        1.78745675137621
H           -0.24637970780827        3.17071263207990        0.68624488029881
H            1.76581052136611        1.62455600581204        1.50817626340019
C           -2.25244700620607        0.99019870287454       -1.65016724410922
C           -2.16348659108462        2.29843226633069       -1.65186843587935
H           -2.53956858523904        2.93781148490078       -0.86466723493609
H           -1.69800137883748        2.80525499882644       -2.49090479426654
H           -2.04561604189173        0.30414239462634       -2.46359657655132
H            0.31933101425418        0.46235635605731       -0.97126793691911
H           -3.86909407863661       -0.71770219157608       -0.67807502115791
H           -2.93250722495256       -0.09564131382586        0.76560096585793
H           -4.17142975756675        0.92909122247611       -0.06228480686156
