      -----------------------------------------------------------      
     |                   =====================                   |     
     |                           x T B                           |     
     |                   =====================                   |     
     |                         S. Grimme                         |     
     |          Mulliken Center for Theoretical Chemistry        |     
     |                    University of Bonn                     |     
      -----------------------------------------------------------      

   * xtb version 6.5.1 (b24c23e) compiled by 'conda@728c89f4b128' on 2022-07-12

   xtb is free software: you can redistribute it and/or modify it under
   the terms of the GNU Lesser General Public License as published by
   the Free Software Foundation, either version 3 of the License, or
   (at your option) any later version.
   
   xtb is distributed in the hope that it will be useful,
   but WITHOUT ANY WARRANTY; without even the implied warranty of
   MERCHANTABILITY or FITNESS FOR A PARTICULAR PURPOSE.  See the
   GNU Lesser General Public License for more details.
   
   Cite this work as:
   * C. Bannwarth, E. Caldeweyher, S. Ehlert, A. Hansen, P. Pracht,
     J. Seibert, S. Spicher, S. Grimme, WIREs Comput. Mol. Sci., 2020, 11,
     e01493. DOI: 10.1002/wcms.1493
   
   for GFN2-xTB:
   * C. Bannwarth, S. Ehlert and S. Grimme., J. Chem. Theory Comput., 2019,
     15, 1652-1671. DOI: 10.1021/acs.jctc.8b01176
   for GFN1-xTB:
   * S. Grimme, C. Bannwarth, P. Shushkov, J. Chem. Theory Comput., 2017,
     13, 1989-2009. DOI: 10.1021/acs.jctc.7b00118
   for GFN0-xTB:
   * P. Pracht, E. Caldeweyher, S. Ehlert, S. Grimme, ChemRxiv, 2019, preprint.
     DOI: 10.26434/chemrxiv.8326202.v1
   for GFN-FF:
   * S. Spicher and S. Grimme, Angew. Chem. Int. Ed., 2020, 59, 15665-15673.
     DOI: 10.1002/anie.202004239
   
   for ALPB and GBSA implicit solvation:
   * S. Ehlert, M. Stahn, S. Spicher, S. Grimme, J. Chem. Theory Comput.,
     2021, 17, 4250-4261. DOI: 10.1021/acs.jctc.1c00471
   
   for DFT-D4:
   * E. Caldeweyher, C. Bannwarth and S. Grimme, J. Chem. Phys., 2017,
     147, 034112. DOI: 10.1063/1.4993215
   * E. Caldeweyher, S. Ehlert, A. Hansen, H. Neugebauer, S. Spicher,
     C. Bannwarth and S. Grimme, J. Chem. Phys., 2019, 150, 154122.
     DOI: 10.1063/1.5090222
   * E. Caldeweyher, J.-M. Mewes, S. Ehlert and S. Grimme, Phys. Chem. Chem. Phys.
     2020, 22, 8499-8512. DOI: 10.1039/D0CP00502A
   
   for sTDA-xTB:
   * S. Grimme and C. Bannwarth, J. Chem. Phys., 2016, 145, 054103.
     DOI: 10.1063/1.4959605
   
   in the mass-spec context:
   * V. Asgeirsson, C. Bauer and S. Grimme, Chem. Sci., 2017, 8, 4879.
     DOI: 10.1039/c7sc00601b
   * J. Koopman and S. Grimme, ACS Omega 2019, 4, 12, 15120-15133.
     DOI: 10.1021/acsomega.9b02011
   
   for metadynamics refer to:
   * S. Grimme, J. Chem. Theory Comput., 2019, 155, 2847-2862
     DOI: 10.1021/acs.jctc.9b00143
   
   for SPH calculations refer to:
   * S. Spicher and S. Grimme, J. Chem. Theory Comput., 2021, 17, 1701-1714
     DOI: 10.1021/acs.jctc.0c01306
   
   with help from (in alphabetical order)
   P. Atkinson, C. Bannwarth, F. Bohle, G. Brandenburg, E. Caldeweyher
   M. Checinski, S. Dohm, S. Ehlert, S. Ehrlich, I. Gerasimov, C. Hölzer
   A. Katbashev, J. Koopman, C. Lavigne, S. Lehtola, F. März, M. Müller,
   F. Musil, H. Neugebauer, J. Pisarek, C. Plett, P. Pracht, F. Pultar,
   J. Seibert, P. Shushkov, S. Spicher, M. Stahn, M. Steiner, T. Strunk,
   J. Stückrath, T. Rose, and J. Unsleber
   
 * started run on 2026/08/03 at 11:52:02.856     

           -------------------------------------------------
          |                Calculation Setup                |
           -------------------------------------------------

          program call               : /h/332/chchoi/miniconda3/envs/el-agente/bin/xtb reactant.xyz --opt --gfn 2 -P 4 --chrg 1 --input detailed_input.inp
          coordinate file            : reactant.xyz
          omp threads                :                     4

   ID    Z sym.   atoms
    1   40 Zr     1
    2    6 C      2-7, 13-17, 23, 24
    3    1 H      8-12, 18-22, 25-31
constraining bond 2 24 to    2.1000000 Å, actual value:    3.9016008 Å
constraining bond 1 2 to    2.7000000 Å, actual value:    2.4750002 Å

molecular fragmentation (1/2 indicates fragments):
1111111111111111111111222222111
# atoms in fragment 1/2:    25     6
 fragment masses (1/2) :      236.44       28.05
CMA distance (Bohr)    :   5.713
constraining FC (au)   :  0.8000

           -------------------------------------------------
          |                 G F N 2 - x T B                 |
           -------------------------------------------------

        Reference                      10.1021/acs.jctc.8b01176
      * Hamiltonian:
        H0-scaling (s, p, d)           1.850000    2.230000    2.230000
        zeta-weighting                 0.500000
      * Dispersion:
        s8                             2.700000
        a1                             0.520000
        a2                             5.000000
        s9                             5.000000
      * Repulsion:
        kExp                           1.500000    1.000000
        rExp                           1.000000
      * Coulomb:
        alpha                          2.000000
        third order                    shell-resolved
        anisotropic                    true
        a3                             3.000000
        a5                             4.000000
        cn-shift                       1.200000
        cn-exp                         4.000000
        max-rad                        5.000000


          ...................................................
          :                      SETUP                      :
          :.................................................:
          :  # basis functions                  79          :
          :  # atomic orbitals                  78          :
          :  # shells                           46          :
          :  # electrons                        72          :
          :  max. iterations                   250          :
          :  Hamiltonian                  GFN2-xTB          :
          :  restarted?                      false          :
          :  GBSA solvation                  false          :
          :  PC potential                    false          :
          :  electronic temp.          300.0000000     K    :
          :  accuracy                    1.0000000          :
          :  -> integral cutoff          0.2500000E+02      :
          :  -> integral neglect         0.1000000E-07      :
          :  -> SCF convergence          0.1000000E-05 Eh   :
          :  -> wf. convergence          0.1000000E-03 e    :
          :  Broyden damping             0.4000000          :
          ...................................................

 iter      E             dE          RMSdq      gap      omega  full diag
   1    -37.9358318 -0.379358E+02  0.414E+00    0.51       0.0  T
   2    -38.0423313 -0.106499E+00  0.369E+00    1.54       1.0  T
   3    -38.0977280 -0.553967E-01  0.299E+00    0.93       1.0  T
   4    -38.0961660  0.156199E-02  0.126E+00    0.93       1.0  T
   5    -38.0936601  0.250584E-02  0.754E-01    0.68       1.0  T
   6    -38.0990493 -0.538913E-02  0.422E-01    0.93       1.0  T
   7    -38.1004232 -0.137393E-02  0.254E-01    0.84       1.0  T
   8    -38.1004701 -0.469523E-04  0.135E-01    0.82       1.0  T
   9    -38.1004593  0.108625E-04  0.683E-02    0.87       1.0  T
  10    -38.1005111 -0.518260E-04  0.379E-02    0.86       1.0  T
  11    -38.1005280 -0.168623E-04  0.185E-02    0.85       1.0  T
  12    -38.1005292 -0.120582E-05  0.483E-03    0.85       3.7  T
  13    -38.1005293 -0.831296E-07  0.183E-03    0.85       9.8  T
  14    -38.1005293 -0.220870E-07  0.137E-03    0.85      13.1  T
  15    -38.1005293 -0.130514E-07  0.575E-04    0.85      31.2  T
  16    -38.1005293 -0.167972E-10  0.240E-04    0.85      74.9  T

   *** convergence criteria satisfied after 16 iterations ***

         #    Occupation            Energy/Eh            Energy/eV
      -------------------------------------------------------------
         1        2.0000           -0.8628373             -23.4790
       ...           ...                  ...                  ...
        30        2.0000           -0.5740458             -15.6206
        31        2.0000           -0.5511859             -14.9985
        32        2.0000           -0.5101717             -13.8825
        33        2.0000           -0.5045713             -13.7301
        34        2.0000           -0.4941767             -13.4472
        35        2.0000           -0.4918436             -13.3837
        36        2.0000           -0.4836924             -13.1619 (HOMO)
        37        0.0000           -0.4525088             -12.3134 (LUMO)
        38                         -0.4374580             -11.9038
        39                         -0.4348596             -11.8331
        40                         -0.4310486             -11.7294
        41                         -0.4230072             -11.5106
       ...                                ...                  ...
        78                          1.3654571              37.1560
      -------------------------------------------------------------
                  HL-Gap            0.0311835 Eh            0.8485 eV
             Fermi-level           -0.4681005 Eh          -12.7377 eV

 SCC (total)                   0 d,  0 h,  0 min,  0.609 sec
 SCC setup                      ...        0 min,  0.013 sec (  2.062%)
 Dispersion                     ...        0 min,  0.024 sec (  3.975%)
 classical contributions        ...        0 min,  0.012 sec (  2.011%)
 integral evaluation            ...        0 min,  0.019 sec (  3.060%)
 iterations                     ...        0 min,  0.531 sec ( 87.202%)
 molecular gradient             ...        0 min,  0.010 sec (  1.635%)
 printout                       ...        0 min,  0.000 sec (  0.048%)

         :::::::::::::::::::::::::::::::::::::::::::::::::::::
         ::                     SUMMARY                     ::
         :::::::::::::::::::::::::::::::::::::::::::::::::::::
         :: total energy             -28.121060170176 Eh    ::
         :: gradient norm              7.427320204971 Eh/a0 ::
         :: HOMO-LUMO gap              0.848546932147 eV    ::
         ::.................................................::
         :: SCC energy               -38.100529293744 Eh    ::
         :: -> isotropic ES            0.097835897163 Eh    ::
         :: -> anisotropic ES         -0.000862618828 Eh    ::
         :: -> anisotropic XC          0.021666255780 Eh    ::
         :: -> dispersion             -0.027679839416 Eh    ::
         :: repulsion energy           0.561366529135 Eh    ::
         :: add. restraining           9.417296855469 Eh    ::
         :: total charge               1.000000000031 e     ::
         :::::::::::::::::::::::::::::::::::::::::::::::::::::

      ----------------------------------------------------------- 
     |                   =====================                   |
     |                        A N C O P T                        |
     |                   =====================                   |
     |               Approximate Normal Coordinate               |
     |                Rational Function Optimizer                |
      ----------------------------------------------------------- 

          ...................................................
          :                      SETUP                      :
          :.................................................:
          :   optimization level            normal          :
          :   max. optcycles                   200          :
          :   ANC micro-cycles                  20          :
          :   degrees of freedom                87          :
          :.................................................:
          :   RF solver                   davidson          :
          :   write xtbopt.log                true          :
          :   linear?                        false          :
          :   energy convergence         0.5000000E-05 Eh   :
          :   grad. convergence          0.1000000E-02 Eh/α :
          :   maximium RF displ.         1.0000000          :
          :   Hlow (freq-cutoff)         0.1000000E-01      :
          :   Hmax (freq-cutoff)         5.0000000          :
          :   S6 in model hess.         20.0000000          :
          ...................................................

generating ANC from model Hessian ...
Using Lindh-Hessian (1995)
 Shifting diagonal of input Hessian by   0.18706824406890202     
 Lowest  eigenvalues of input Hessian
    0.010000    0.037604    0.186933    0.000000    0.000000    0.000000
    0.000000    0.000000    0.000000    0.187360    0.187471    0.187658
    0.187739    0.187823    0.188184    0.188214    0.188349    0.188901
 Highest eigenvalues
    1.669104    1.669288    2.247808    2.655790    2.898824    5.029038


........................................................................
.............................. CYCLE    1 ..............................
........................................................................
   1    -38.1005293 -0.381005E+02  0.145E-04    0.85       0.0  T
   2    -38.1005293  0.305533E-10  0.129E-04    0.85     139.1  T
   3    -38.1005293 -0.275172E-09  0.406E-05    0.85     442.9  T
     SCC iter.                  ...        0 min,  0.115 sec
     gradient                   ...        0 min,  0.012 sec
 * total energy  :   -28.1210602 Eh     change       -0.4869847E-09 Eh
   gradient norm :     7.4273202 Eh/α   predicted     0.0000000E+00 (-100.00%)
   displ. norm   :     0.7875772 α      lambda       -0.5787494E+01
   maximum displ.:     0.5164555 α      in ANC's #87, #85, #86, ...

........................................................................
.............................. CYCLE    2 ..............................
........................................................................
   1    -38.0190916 -0.380191E+02  0.160E+00    0.29       0.0  T
   2    -38.0136510  0.544066E-02  0.144E+00    1.38       1.0  T
   3    -38.0513048 -0.376538E-01  0.570E-01    0.65       1.0  T
   4    -38.0441952  0.710962E-02  0.752E-01    0.34       1.0  T
   5    -38.0531283 -0.893319E-02  0.210E-01    0.51       1.0  T
   6    -38.0535970 -0.468614E-03  0.108E-01    0.50       1.0  T
   7    -38.0535546  0.423617E-04  0.711E-02    0.52       1.0  T
   8    -38.0536622 -0.107581E-03  0.306E-02    0.50       1.0  T
   9    -38.0536648 -0.261584E-05  0.184E-02    0.49       1.0  T
  10    -38.0536670 -0.219188E-05  0.785E-03    0.49       2.3  T
  11    -38.0536676 -0.573273E-06  0.361E-03    0.49       5.0  T
  12    -38.0536676 -0.441096E-07  0.237E-03    0.49       7.6  T
  13    -38.0536676  0.198794E-07  0.156E-03    0.49      11.5  T
  14    -38.0536676 -0.215902E-07  0.834E-04    0.49      21.5  T
  15    -38.0536676 -0.185854E-07  0.262E-04    0.49      68.6  T
     SCC iter.                  ...        0 min,  0.444 sec
     gradient                   ...        0 min,  0.011 sec
 * total energy  :   -32.9045163 Eh     change       -0.4783456E+01 Eh
   gradient norm :     4.8194802 Eh/α   predicted    -0.4688676E+01 (  -1.98%)
   displ. norm   :     0.7466884 α      lambda       -0.3535992E+01
   maximum displ.:     0.3986493 α      in ANC's #87, #85, #86, ...

........................................................................
.............................. CYCLE    3 ..............................
........................................................................
   1    -37.6334450 -0.376334E+02  0.299E+00    0.17       0.0  T
   2    -37.5470270  0.864180E-01  0.438E+00    1.39       1.0  T
   3    -37.8241063 -0.277079E+00  0.219E+00    1.43       1.0  T
   4    -37.9156339 -0.915275E-01  0.931E-01    0.72       1.0  T
   5    -37.9390382 -0.234043E-01  0.610E-01    0.45       1.0  T
   6    -37.9425373 -0.349910E-02  0.573E-01    0.37       1.0  T
   7    -37.9396435  0.289374E-02  0.521E-01    0.40       1.0  T
   8    -37.9429198 -0.327625E-02  0.225E-01    0.34       1.0  T
   9    -37.9433066 -0.386829E-03  0.869E-02    0.28       1.0  T
  10    -37.9433710 -0.643425E-04  0.624E-02    0.28       1.0  T
  11    -37.9434531 -0.821103E-04  0.286E-02    0.30       1.0  T
  12    -37.9434759 -0.228694E-04  0.119E-02    0.30       1.5  T
  13    -37.9434769 -0.947917E-06  0.796E-03    0.30       2.3  T
  14    -37.9434767  0.171323E-06  0.513E-03    0.30       3.5  T
  15    -37.9434764  0.345323E-06  0.499E-03    0.30       3.6  T
  16    -37.9434771 -0.765559E-06  0.112E-03    0.30      16.0  T
  17    -37.9434772 -0.177135E-07  0.628E-04    0.30      28.6  T
  18    -37.9434772 -0.118880E-07  0.106E-04    0.30     169.6  T
     SCC iter.                  ...        0 min,  0.715 sec
     gradient                   ...        0 min,  0.101 sec
 * total energy  :   -35.6842752 Eh     change       -0.2779759E+01 Eh
   gradient norm :     2.7245802 Eh/α   predicted    -0.2753732E+01 (  -0.94%)
   displ. norm   :     0.6656194 α      lambda       -0.1745955E+01
   maximum displ.:     0.3356934 α      in ANC's #86, #85, #87, ...

........................................................................
.............................. CYCLE    4 ..............................
........................................................................
   1    -37.7035174 -0.377035E+02  0.216E+00    0.41       0.0  T
   2    -37.3671416  0.336376E+00  0.412E+00    1.26       1.0  T
   3    -37.7496182 -0.382477E+00  0.199E+00    0.65       1.0  T
   4    -37.8273388 -0.777207E-01  0.587E-01    0.27       1.0  T
   5    -37.8223962  0.494266E-02  0.708E-01    0.52       1.0  T
   6    -37.8358217 -0.134255E-01  0.327E-01    0.40       1.0  T
   7    -37.8389107 -0.308897E-02  0.638E-02    0.37       1.0  T
   8    -37.8389481 -0.374212E-04  0.629E-02    0.36       1.0  T
   9    -37.8389735 -0.254089E-04  0.408E-02    0.37       1.0  T
  10    -37.8389877 -0.141700E-04  0.304E-02    0.37       1.0  T
  11    -37.8390056 -0.178979E-04  0.885E-03    0.37       2.0  T
  12    -37.8390059 -0.340323E-06  0.521E-03    0.37       3.4  T
  13    -37.8390060 -0.941392E-07  0.412E-03    0.37       4.4  T
  14    -37.8390060 -0.183451E-07  0.255E-03    0.37       7.1  T
  15    -37.8390061 -0.672050E-07  0.122E-03    0.37      14.8  T
  16    -37.8390061 -0.114005E-07  0.723E-04    0.37      24.8  T
  17    -37.8390061 -0.949714E-08  0.421E-04    0.37      42.7  T
     SCC iter.                  ...        0 min,  0.669 sec
     gradient                   ...        0 min,  0.091 sec
 * total energy  :   -36.9400650 Eh     change       -0.1255790E+01 Eh
   gradient norm :     1.1547930 Eh/α   predicted    -0.1259762E+01 (   0.32%)
   displ. norm   :     0.5627539 α      lambda       -0.5395048E+00
   maximum displ.:     0.3490991 α      in ANC's #2, #86, #85, ...

........................................................................
.............................. CYCLE    5 ..............................
........................................................................
   1    -37.7595725 -0.377596E+02  0.146E+00    1.01       0.0  T
   2    -37.4419757  0.317597E+00  0.313E+00    1.53       1.0  T
   3    -37.8105432 -0.368567E+00  0.772E-01    1.08       1.0  T
   4    -37.8121995 -0.165637E-02  0.458E-01    0.98       1.0  T
   5    -37.8151140 -0.291448E-02  0.282E-01    1.04       1.0  T
   6    -37.8167168 -0.160277E-02  0.733E-02    1.03       1.0  T
   7    -37.8167336 -0.168651E-04  0.507E-02    1.04       1.0  T
   8    -37.8167504 -0.167331E-04  0.307E-02    1.04       1.0  T
   9    -37.8167512 -0.809437E-06  0.175E-02    1.03       1.0  T
  10    -37.8167583 -0.707037E-05  0.667E-03    1.03       2.7  T
  11    -37.8167585 -0.213672E-06  0.347E-03    1.03       5.2  T
  12    -37.8167585 -0.593723E-07  0.235E-03    1.03       7.7  T
  13    -37.8167586 -0.513821E-07  0.915E-04    1.03      19.6  T
  14    -37.8167586 -0.186559E-08  0.587E-04    1.03      30.6  T
     SCC iter.                  ...        0 min,  0.483 sec
     gradient                   ...        0 min,  0.103 sec
 * total energy  :   -37.2647467 Eh     change       -0.3246817E+00 Eh
   gradient norm :     0.2886240 Eh/α   predicted    -0.3551811E+00 (   9.39%)
   displ. norm   :     0.5082277 α      lambda       -0.9509052E-01
   maximum displ.:     0.2146871 α      in ANC's #36, #1, #22, ...

........................................................................
.............................. CYCLE    6 ..............................
........................................................................
   1    -37.8593125 -0.378593E+02  0.703E-01    0.95       0.0  T
   2    -37.7718069  0.875056E-01  0.156E+00    1.02       1.0  T
   3    -37.8675122 -0.957053E-01  0.362E-01    0.93       1.0  T
   4    -37.8693716 -0.185944E-02  0.190E-01    0.92       1.0  T
   5    -37.8695703 -0.198670E-03  0.922E-02    0.93       1.0  T
   6    -37.8696916 -0.121261E-03  0.574E-02    0.92       1.0  T
   7    -37.8697068 -0.152171E-04  0.244E-02    0.93       1.0  T
   8    -37.8697108 -0.403095E-05  0.124E-02    0.93       1.4  T
   9    -37.8697129 -0.208176E-05  0.607E-03    0.93       3.0  T
  10    -37.8697131 -0.204683E-06  0.440E-03    0.93       4.1  T
  11    -37.8697131  0.411902E-07  0.358E-03    0.93       5.0  T
  12    -37.8697132 -0.180851E-06  0.573E-04    0.93      31.3  T
  13    -37.8697132 -0.577053E-09  0.553E-04    0.93      32.5  T
     SCC iter.                  ...        0 min,  0.353 sec
     gradient                   ...        0 min,  0.018 sec
 * total energy  :   -37.3177274 Eh     change       -0.5298074E-01 Eh
   gradient norm :     0.3130589 Eh/α   predicted    -0.5982666E-01 (  12.92%)
   displ. norm   :     0.7995236 α      lambda       -0.1189851E+00
   maximum displ.:     0.4934379 α      in ANC's #2, #36, #22, ...

........................................................................
.............................. CYCLE    7 ..............................
........................................................................
   1    -37.9851784 -0.379852E+02  0.110E+00    1.16       0.0  T
   2    -37.9789469  0.623148E-02  0.892E-01    1.04       1.0  T
   3    -37.9709617  0.798528E-02  0.818E-01    1.20       1.0  T
   4    -37.9857400 -0.147783E-01  0.369E-01    1.10       1.0  T
   5    -37.9884478 -0.270784E-02  0.107E-01    1.08       1.0  T
   6    -37.9884235  0.243042E-04  0.579E-02    1.10       1.0  T
   7    -37.9884581 -0.345667E-04  0.290E-02    1.09       1.0  T
   8    -37.9884678 -0.970019E-05  0.131E-02    1.10       1.4  T
   9    -37.9884682 -0.422940E-06  0.859E-03    1.10       2.1  T
  10    -37.9884687 -0.462397E-06  0.353E-03    1.10       5.1  T
  11    -37.9884687 -0.121706E-07  0.154E-03    1.10      11.7  T
  12    -37.9884687 -0.333686E-07  0.680E-04    1.10      26.4  T
  13    -37.9884687 -0.177499E-08  0.398E-04    1.10      45.1  T
     SCC iter.                  ...        0 min,  0.461 sec
     gradient                   ...        0 min,  0.079 sec
 * total energy  :   -37.3933506 Eh     change       -0.7562314E-01 Eh
   gradient norm :     0.3330942 Eh/α   predicted    -0.9752256E-01 (  28.96%)
   displ. norm   :     0.6138711 α      lambda       -0.9069316E-01
   maximum displ.:     0.2728148 α      in ANC's #26, #22, #36, ...

........................................................................
.............................. CYCLE    8 ..............................
........................................................................
   1    -38.0870642 -0.380871E+02  0.794E-01    1.21       0.0  T
   2    -38.0872454 -0.181265E-03  0.512E-01    1.19       1.0  T
   3    -38.0844045  0.284092E-02  0.339E-01    1.29       1.0  T
   4    -38.0872038 -0.279923E-02  0.116E-01    1.23       1.0  T
   5    -38.0873547 -0.150959E-03  0.788E-02    1.21       1.0  T
   6    -38.0874642 -0.109445E-03  0.280E-02    1.22       1.0  T
   7    -38.0874657 -0.153793E-05  0.157E-02    1.21       1.1  T
   8    -38.0874675 -0.183582E-05  0.492E-03    1.22       3.6  T
   9    -38.0874676 -0.452737E-07  0.319E-03    1.22       5.6  T
  10    -38.0874676 -0.712054E-07  0.214E-03    1.22       8.4  T
  11    -38.0874677 -0.547873E-08  0.102E-03    1.22      17.7  T
  12    -38.0874677 -0.741996E-08  0.343E-04    1.22      52.4  T
  13    -38.0874677 -0.461739E-09  0.139E-04    1.22     129.0  T
     SCC iter.                  ...        0 min,  0.379 sec
     gradient                   ...        0 min,  0.009 sec
 * total energy  :   -37.4707095 Eh     change       -0.7735891E-01 Eh
   gradient norm :     0.2031140 Eh/α   predicted    -0.6243524E-01 ( -19.29%)
   displ. norm   :     0.8209170 α      lambda       -0.1046402E+00
   maximum displ.:     0.3880157 α      in ANC's #22, #26, #1, ...

........................................................................
.............................. CYCLE    9 ..............................
........................................................................
   1    -38.1819450 -0.381819E+02  0.106E+00    1.16       0.0  T
   2    -38.1805224  0.142260E-02  0.720E-01    1.05       1.0  T
   3    -38.1767974  0.372499E-02  0.689E-01    1.15       1.0  T
   4    -38.1847247 -0.792731E-02  0.228E-01    1.13       1.0  T
   5    -38.1850578 -0.333066E-03  0.113E-01    1.09       1.0  T
   6    -38.1850869 -0.290713E-04  0.773E-02    1.12       1.0  T
   7    -38.1851392 -0.523033E-04  0.315E-02    1.10       1.0  T
   8    -38.1851458 -0.656763E-05  0.131E-02    1.11       1.4  T
   9    -38.1851460 -0.266863E-06  0.937E-03    1.11       1.9  T
  10    -38.1851468 -0.768485E-06  0.513E-03    1.11       3.5  T
  11    -38.1851469 -0.748023E-07  0.216E-03    1.11       8.3  T
  12    -38.1851469 -0.987387E-08  0.706E-04    1.11      25.4  T
  13    -38.1851469 -0.272166E-08  0.365E-04    1.11      49.3  T
     SCC iter.                  ...        0 min,  0.345 sec
     gradient                   ...        0 min,  0.020 sec
 * total energy  :   -37.5332113 Eh     change       -0.6250185E-01 Eh
   gradient norm :     0.2241024 Eh/α   predicted    -0.8757917E-01 (  40.12%)
   displ. norm   :     0.8009195 α      lambda       -0.7186875E-01
   maximum displ.:     0.4664332 α      in ANC's #1, #22, #26, ...

........................................................................
.............................. CYCLE   10 ..............................
........................................................................
   1    -38.2279942 -0.382280E+02  0.130E+00    1.30       0.0  T
   2    -38.2273662  0.627989E-03  0.120E+00    1.33       1.0  T
   3    -38.2312035 -0.383729E-02  0.797E-01    1.31       1.0  T
   4    -38.2328867 -0.168323E-02  0.175E-01    1.35       1.0  T
   5    -38.2330906 -0.203874E-03  0.154E-01    1.31       1.0  T
   6    -38.2332821 -0.191498E-03  0.705E-02    1.33       1.0  T
   7    -38.2332940 -0.118508E-04  0.246E-02    1.32       1.0  T
   8    -38.2332937  0.294593E-06  0.146E-02    1.33       1.2  T
   9    -38.2332959 -0.227368E-05  0.608E-03    1.32       3.0  T
  10    -38.2332960 -0.748326E-07  0.342E-03    1.32       5.3  T
  11    -38.2332961 -0.464034E-07  0.148E-03    1.32      12.2  T
  12    -38.2332961 -0.841617E-08  0.501E-04    1.32      35.8  T
  13    -38.2332961 -0.159937E-08  0.196E-04    1.32      91.8  T
     SCC iter.                  ...        0 min,  0.360 sec
     gradient                   ...        0 min,  0.006 sec
 * total energy  :   -37.5688154 Eh     change       -0.3560411E-01 Eh
   gradient norm :     0.2023451 Eh/α   predicted    -0.5898527E-01 (  65.67%)
   displ. norm   :     0.4685043 α      lambda       -0.4568345E-01
   maximum displ.:     0.2028731 α      in ANC's #26, #22, #1, ...

........................................................................
.............................. CYCLE   11 ..............................
........................................................................
   1    -38.2401772 -0.382402E+02  0.547E-01    1.22       0.0  T
   2    -38.2403991 -0.221883E-03  0.494E-01    1.18       1.0  T
   3    -38.2411145 -0.715426E-03  0.272E-01    1.19       1.0  T
   4    -38.2411730 -0.584689E-04  0.101E-01    1.20       1.0  T
   5    -38.2412904 -0.117389E-03  0.544E-02    1.19       1.0  T
   6    -38.2413058 -0.153778E-04  0.260E-02    1.20       1.0  T
   7    -38.2413084 -0.266282E-05  0.101E-02    1.20       1.8  T
   8    -38.2413085 -0.930766E-07  0.611E-03    1.20       2.9  T
   9    -38.2413087 -0.175681E-06  0.328E-03    1.20       5.5  T
  10    -38.2413087 -0.294836E-07  0.203E-03    1.20       8.8  T
  11    -38.2413088 -0.174041E-07  0.512E-04    1.20      35.1  T
  12    -38.2413088 -0.136018E-08  0.221E-04    1.20      81.1  T
     SCC iter.                  ...        0 min,  0.296 sec
     gradient                   ...        0 min,  0.006 sec
 * total energy  :   -37.5934460 Eh     change       -0.2463056E-01 Eh
   gradient norm :     0.1447198 Eh/α   predicted    -0.2785543E-01 (  13.09%)
   displ. norm   :     0.3341238 α      lambda       -0.1685453E-01
   maximum displ.:     0.1406501 α      in ANC's #22, #26, #5, ...

........................................................................
.............................. CYCLE   12 ..............................
........................................................................
   1    -38.2423111 -0.382423E+02  0.439E-01    1.17       0.0  T
   2    -38.2423577 -0.466198E-04  0.249E-01    1.14       1.0  T
   3    -38.2417983  0.559467E-03  0.221E-01    1.18       1.0  T
   4    -38.2425214 -0.723083E-03  0.298E-02    1.16       1.0  T
   5    -38.2425304 -0.899198E-05  0.262E-02    1.16       1.0  T
   6    -38.2425320 -0.166086E-05  0.125E-02    1.16       1.4  T
   7    -38.2425329 -0.895671E-06  0.535E-03    1.16       3.4  T
   8    -38.2425331 -0.147698E-06  0.235E-03    1.16       7.6  T
   9    -38.2425331 -0.317865E-07  0.159E-03    1.16      11.3  T
  10    -38.2425331 -0.100474E-07  0.842E-04    1.16      21.3  T
  11    -38.2425331 -0.187244E-08  0.342E-04    1.16      52.5  T
     SCC iter.                  ...        0 min,  0.279 sec
     gradient                   ...        0 min,  0.021 sec
 * total energy  :   -37.6044825 Eh     change       -0.1103649E-01 Eh
   gradient norm :     0.0503364 Eh/α   predicted    -0.9368083E-02 ( -15.12%)
   displ. norm   :     0.2445925 α      lambda       -0.6575215E-02
   maximum displ.:     0.0927246 α      in ANC's #5, #8, #26, ...

........................................................................
.............................. CYCLE   13 ..............................
........................................................................
   1    -38.2353187 -0.382353E+02  0.311E-01    1.24       0.0  T
   2    -38.2353682 -0.494444E-04  0.246E-01    1.24       1.0  T
   3    -38.2351885  0.179716E-03  0.106E-01    1.26       1.0  T
   4    -38.2354066 -0.218168E-03  0.547E-02    1.25       1.0  T
   5    -38.2354439 -0.372446E-04  0.214E-02    1.25       1.0  T
   6    -38.2354448 -0.891238E-06  0.931E-03    1.25       1.9  T
   7    -38.2354457 -0.892191E-06  0.375E-03    1.25       4.8  T
   8    -38.2354457 -0.592453E-07  0.157E-03    1.25      11.4  T
   9    -38.2354457 -0.646699E-08  0.112E-03    1.25      16.0  T
  10    -38.2354457 -0.889322E-08  0.639E-04    1.25      28.1  T
  11    -38.2354457 -0.360508E-09  0.227E-04    1.25      79.3  T
     SCC iter.                  ...        0 min,  0.239 sec
     gradient                   ...        0 min,  0.004 sec
 * total energy  :   -37.6089996 Eh     change       -0.4517171E-02 Eh
   gradient norm :     0.0365597 Eh/α   predicted    -0.3484313E-02 ( -22.87%)
   displ. norm   :     0.2633552 α      lambda       -0.4522063E-02
   maximum displ.:     0.1048964 α      in ANC's #5, #8, #3, ...

........................................................................
.............................. CYCLE   14 ..............................
........................................................................
   1    -38.2314460 -0.382314E+02  0.265E-01    1.35       0.0  T
   2    -38.2315181 -0.720944E-04  0.248E-01    1.34       1.0  T
   3    -38.2316952 -0.177070E-03  0.140E-01    1.35       1.0  T
   4    -38.2316622  0.329546E-04  0.541E-02    1.35       1.0  T
   5    -38.2317126 -0.503541E-04  0.165E-02    1.35       1.1  T
   6    -38.2317131 -0.571689E-06  0.928E-03    1.35       1.9  T
   7    -38.2317133 -0.219134E-06  0.332E-03    1.35       5.4  T
   8    -38.2317134 -0.751906E-07  0.158E-03    1.35      11.4  T
   9    -38.2317134 -0.349168E-09  0.104E-03    1.35      17.2  T
  10    -38.2317134 -0.951640E-08  0.470E-04    1.35      38.2  T
  11    -38.2317134 -0.474770E-09  0.197E-04    1.35      91.2  T
     SCC iter.                  ...        0 min,  0.214 sec
     gradient                   ...        0 min,  0.016 sec
 * total energy  :   -37.6124561 Eh     change       -0.3456450E-02 Eh
   gradient norm :     0.0487298 Eh/α   predicted    -0.2417859E-02 ( -30.05%)
   displ. norm   :     0.3738866 α      lambda       -0.5369442E-02
   maximum displ.:     0.1482759 α      in ANC's #5, #8, #3, ...

........................................................................
.............................. CYCLE   15 ..............................
........................................................................
   1    -38.2304299 -0.382304E+02  0.329E-01    1.49       0.0  T
   2    -38.2305490 -0.119174E-03  0.320E-01    1.47       1.0  T
   3    -38.2309834 -0.434355E-03  0.187E-01    1.48       1.0  T
   4    -38.2309131  0.702955E-04  0.638E-02    1.48       1.0  T
   5    -38.2309919 -0.787965E-04  0.161E-02    1.48       1.1  T
   6    -38.2309925 -0.584620E-06  0.925E-03    1.48       1.9  T
   7    -38.2309926 -0.137469E-06  0.447E-03    1.48       4.0  T
   8    -38.2309928 -0.135327E-06  0.278E-03    1.48       6.5  T
   9    -38.2309928 -0.354748E-08  0.147E-03    1.48      12.2  T
  10    -38.2309928 -0.164454E-07  0.571E-04    1.48      31.4  T
  11    -38.2309928 -0.112135E-08  0.207E-04    1.48      86.9  T
     SCC iter.                  ...        0 min,  0.177 sec
     gradient                   ...        0 min,  0.004 sec
 * total energy  :   -37.6164432 Eh     change       -0.3987092E-02 Eh
   gradient norm :     0.0450971 Eh/α   predicted    -0.3060031E-02 ( -23.25%)
   displ. norm   :     0.3880999 α      lambda       -0.5031244E-02
   maximum displ.:     0.1569695 α      in ANC's #8, #5, #3, ...

........................................................................
.............................. CYCLE   16 ..............................
........................................................................
   1    -38.2354012 -0.382354E+02  0.342E-01    1.59       0.0  T
   2    -38.2355141 -0.112822E-03  0.297E-01    1.55       1.0  T
   3    -38.2356557 -0.141652E-03  0.166E-01    1.57       1.0  T
   4    -38.2356560 -0.276055E-06  0.564E-02    1.57       1.0  T
   5    -38.2357241 -0.680682E-04  0.154E-02    1.57       1.2  T
   6    -38.2357248 -0.733149E-06  0.771E-03    1.57       2.3  T
   7    -38.2357250 -0.214565E-06  0.418E-03    1.57       4.3  T
   8    -38.2357251 -0.900300E-07  0.242E-03    1.57       7.4  T
   9    -38.2357251 -0.130174E-07  0.117E-03    1.57      15.4  T
  10    -38.2357251 -0.594279E-08  0.593E-04    1.57      30.3  T
  11    -38.2357251 -0.838526E-09  0.228E-04    1.57      78.9  T
     SCC iter.                  ...        0 min,  0.214 sec
     gradient                   ...        0 min,  0.005 sec
 * total energy  :   -37.6204081 Eh     change       -0.3964896E-02 Eh
   gradient norm :     0.0427635 Eh/α   predicted    -0.2894593E-02 ( -26.99%)
   displ. norm   :     0.4400763 α      lambda       -0.6130483E-02
   maximum displ.:     0.1852723 α      in ANC's #8, #3, #5, ...

........................................................................
.............................. CYCLE   17 ..............................
........................................................................
   1    -38.2454182 -0.382454E+02  0.401E-01    1.66       0.0  T
   2    -38.2455198 -0.101607E-03  0.309E-01    1.62       1.0  T
   3    -38.2454247  0.950870E-04  0.162E-01    1.65       1.0  T
   4    -38.2455597 -0.135017E-03  0.455E-02    1.64       1.0  T
   5    -38.2456044 -0.446522E-04  0.165E-02    1.64       1.1  T
   6    -38.2456055 -0.112736E-05  0.874E-03    1.64       2.1  T
   7    -38.2456060 -0.483350E-06  0.466E-03    1.64       3.9  T
   8    -38.2456061 -0.919288E-07  0.240E-03    1.64       7.5  T
   9    -38.2456061 -0.210432E-07  0.115E-03    1.64      15.6  T
  10    -38.2456061 -0.106360E-08  0.707E-04    1.64      25.4  T
  11    -38.2456061 -0.514504E-09  0.218E-04    1.64      82.3  T
     SCC iter.                  ...        0 min,  0.261 sec
     gradient                   ...        0 min,  0.005 sec
 * total energy  :   -37.6250915 Eh     change       -0.4683425E-02 Eh
   gradient norm :     0.0356269 Eh/α   predicted    -0.3658898E-02 ( -21.88%)
   displ. norm   :     0.4282758 α      lambda       -0.4836131E-02
   maximum displ.:     0.1880132 α      in ANC's #8, #3, #5, ...

........................................................................
.............................. CYCLE   18 ..............................
........................................................................
   1    -38.2532772 -0.382533E+02  0.406E-01    1.72       0.0  T
   2    -38.2533453 -0.681014E-04  0.289E-01    1.70       1.0  T
   3    -38.2532452  0.100155E-03  0.114E-01    1.72       1.0  T
   4    -38.2533711 -0.125922E-03  0.228E-02    1.70       1.0  T
   5    -38.2533754 -0.436090E-05  0.155E-02    1.70       1.2  T
   6    -38.2533763 -0.823308E-06  0.689E-03    1.71       2.6  T
   7    -38.2533767 -0.460397E-06  0.450E-03    1.71       4.0  T
   8    -38.2533768 -0.106630E-06  0.240E-03    1.71       7.5  T
   9    -38.2533769 -0.284483E-07  0.144E-03    1.71      12.5  T
  10    -38.2533769  0.192579E-08  0.708E-04    1.71      25.4  T
  11    -38.2533769 -0.342902E-08  0.185E-04    1.71      97.1  T
     SCC iter.                  ...        0 min,  0.262 sec
     gradient                   ...        0 min,  0.079 sec
 * total energy  :   -37.6286121 Eh     change       -0.3520587E-02 Eh
   gradient norm :     0.0290507 Eh/α   predicted    -0.2861601E-02 ( -18.72%)
   displ. norm   :     0.3750006 α      lambda       -0.2815564E-02
   maximum displ.:     0.1711422 α      in ANC's #8, #3, #5, ...

........................................................................
.............................. CYCLE   19 ..............................
........................................................................
   1    -38.2554791 -0.382555E+02  0.364E-01    1.76       0.0  T
   2    -38.2555178 -0.387357E-04  0.245E-01    1.75       1.0  T
   3    -38.2553062  0.211627E-03  0.114E-01    1.77       1.0  T
   4    -38.2555347 -0.228503E-03  0.291E-02    1.76       1.0  T
   5    -38.2555500 -0.153370E-04  0.149E-02    1.75       1.2  T
   6    -38.2555504 -0.416176E-06  0.643E-03    1.76       2.8  T
   7    -38.2555506 -0.210160E-06  0.344E-03    1.76       5.2  T
   8    -38.2555507 -0.847286E-07  0.210E-03    1.76       8.5  T
   9    -38.2555507 -0.169907E-07  0.122E-03    1.76      14.7  T
  10    -38.2555507  0.357730E-09  0.674E-04    1.76      26.7  T
  11    -38.2555507 -0.148342E-08  0.141E-04    1.76     127.8  T
     SCC iter.                  ...        0 min,  0.264 sec
     gradient                   ...        0 min,  0.005 sec
 * total energy  :   -37.6306350 Eh     change       -0.2022906E-02 Eh
   gradient norm :     0.0224479 Eh/α   predicted    -0.1605758E-02 ( -20.62%)
   displ. norm   :     0.3306228 α      lambda       -0.1824819E-02
   maximum displ.:     0.1514497 α      in ANC's #8, #3, #13, ...

........................................................................
.............................. CYCLE   20 ..............................
........................................................................
   1    -38.2560134 -0.382560E+02  0.309E-01    1.81       0.0  T
   2    -38.2560398 -0.263806E-04  0.204E-01    1.80       1.0  T
   3    -38.2558341  0.205657E-03  0.103E-01    1.81       1.0  T
   4    -38.2560595 -0.225377E-03  0.250E-02    1.81       1.0  T
   5    -38.2560675 -0.801368E-05  0.131E-02    1.80       1.4  T
   6    -38.2560678 -0.251981E-06  0.593E-03    1.81       3.0  T
   7    -38.2560680 -0.187744E-06  0.276E-03    1.81       6.5  T
   8    -38.2560680 -0.773981E-07  0.188E-03    1.81       9.6  T
   9    -38.2560680 -0.791076E-08  0.111E-03    1.81      16.2  T
  10    -38.2560680 -0.703650E-10  0.618E-04    1.81      29.1  T
  11    -38.2560680 -0.157245E-08  0.138E-04    1.81     130.4  T
     SCC iter.                  ...        0 min,  0.263 sec
     gradient                   ...        0 min,  0.067 sec
 * total energy  :   -37.6319773 Eh     change       -0.1342274E-02 Eh
   gradient norm :     0.0163246 Eh/α   predicted    -0.1012153E-02 ( -24.59%)
   displ. norm   :     0.2862089 α      lambda       -0.1747641E-02
   maximum displ.:     0.1211202 α      in ANC's #8, #13, #4, ...
 * RMSD in coord.:     1.1070210 α      energy gain  -0.9510917E+01 Eh

generating ANC from model Hessian ...
Using Lindh-Hessian (1995)
 Shifting diagonal of input Hessian by    1.3430476435685474E-002
 Lowest  eigenvalues of input Hessian
    0.010000    0.012403    0.000000    0.000000    0.000000    0.000000
    0.000000    0.000000    0.013800    0.014031    0.014631    0.015059
    0.015461    0.015752    0.016422    0.019557    0.020416    0.020844
 Highest eigenvalues
    1.732442    1.735987    1.738621    1.741421    3.073851    4.093179


........................................................................
.............................. CYCLE   21 ..............................
........................................................................
   1    -38.2588080 -0.382588E+02  0.241E-01    1.81       0.0  T
   2    -38.2588297 -0.217295E-04  0.154E-01    1.81       1.0  T
   3    -38.2586657  0.164065E-03  0.109E-01    1.81       1.0  T
   4    -38.2588622 -0.196508E-03  0.200E-02    1.81       1.0  T
   5    -38.2588674 -0.518388E-05  0.117E-02    1.81       1.5  T
   6    -38.2588675 -0.178484E-06  0.585E-03    1.81       3.1  T
   7    -38.2588678 -0.227566E-06  0.211E-03    1.81       8.5  T
   8    -38.2588678 -0.244667E-07  0.148E-03    1.81      12.2  T
   9    -38.2588678 -0.472935E-08  0.749E-04    1.81      24.0  T
  10    -38.2588678  0.448850E-10  0.413E-04    1.81      43.5  T
     SCC iter.                  ...        0 min,  0.249 sec
     gradient                   ...        0 min,  0.011 sec
 * total energy  :   -37.6332172 Eh     change       -0.1239896E-02 Eh
   gradient norm :     0.0209878 Eh/α   predicted     0.0000000E+00 (-100.00%)
   displ. norm   :     0.3457538 α      lambda       -0.3298905E-02
   maximum displ.:     0.1597826 α      in ANC's #5, #17, #8, ...

........................................................................
.............................. CYCLE   22 ..............................
........................................................................
   1    -38.2589937 -0.382590E+02  0.210E-01    1.82       0.0  T
   2    -38.2590103 -0.165308E-04  0.134E-01    1.81       1.0  T
   3    -38.2589221  0.881594E-04  0.703E-02    1.82       1.0  T
   4    -38.2590235 -0.101448E-03  0.188E-02    1.81       1.0  T
   5    -38.2590259 -0.235270E-05  0.138E-02    1.81       1.3  T
   6    -38.2590270 -0.110668E-05  0.443E-03    1.81       4.1  T
   7    -38.2590272 -0.168484E-06  0.233E-03    1.81       7.7  T
   8    -38.2590272 -0.172796E-07  0.136E-03    1.81      13.2  T
   9    -38.2590272 -0.688129E-08  0.626E-04    1.81      28.7  T
  10    -38.2590272 -0.715836E-09  0.349E-04    1.81      51.5  T
     SCC iter.                  ...        0 min,  0.253 sec
     gradient                   ...        0 min,  0.004 sec
 * total energy  :   -37.6357893 Eh     change       -0.2572085E-02 Eh
   gradient norm :     0.0077334 Eh/α   predicted    -0.1848067E-02 ( -28.15%)
   displ. norm   :     0.5541760 α      lambda       -0.3083983E-02
   maximum displ.:     0.3052324 α      in ANC's #5, #6, #2, ...

........................................................................
.............................. CYCLE   23 ..............................
........................................................................
   1    -38.2582813 -0.382583E+02  0.298E-01    1.83       0.0  T
   2    -38.2583172 -0.359155E-04  0.190E-01    1.81       1.0  T
   3    -38.2580484  0.268805E-03  0.127E-01    1.83       1.0  T
   4    -38.2583656 -0.317220E-03  0.256E-02    1.81       1.0  T
   5    -38.2583739 -0.828086E-05  0.167E-02    1.81       1.1  T
   6    -38.2583757 -0.175896E-05  0.507E-03    1.81       3.5  T
   7    -38.2583758 -0.154865E-06  0.239E-03    1.81       7.5  T
   8    -38.2583758 -0.743491E-08  0.146E-03    1.81      12.3  T
   9    -38.2583758 -0.116784E-07  0.707E-04    1.81      25.4  T
  10    -38.2583758 -0.474415E-09  0.439E-04    1.81      40.9  T
     SCC iter.                  ...        0 min,  0.252 sec
     gradient                   ...        0 min,  0.017 sec
 * total energy  :   -37.6379592 Eh     change       -0.2169908E-02 Eh
   gradient norm :     0.0166387 Eh/α   predicted    -0.2015555E-02 (  -7.11%)
   displ. norm   :     0.4321948 α      lambda       -0.1441100E-02
   maximum displ.:     0.2816777 α      in ANC's #5, #6, #7, ...

........................................................................
.............................. CYCLE   24 ..............................
........................................................................
   1    -38.2578968 -0.382579E+02  0.197E-01    1.83       0.0  T
   2    -38.2579132 -0.163567E-04  0.119E-01    1.82       1.0  T
   3    -38.2577926  0.120591E-03  0.872E-02    1.84       1.0  T
   4    -38.2579403 -0.147665E-03  0.156E-02    1.82       1.1  T
   5    -38.2579440 -0.374799E-05  0.800E-03    1.82       2.2  T
   6    -38.2579441 -0.109971E-06  0.306E-03    1.83       5.9  T
   7    -38.2579442 -0.119328E-06  0.115E-03    1.83      15.6  T
   8    -38.2579442 -0.199345E-08  0.675E-04    1.83      26.6  T
   9    -38.2579442 -0.300248E-08  0.346E-04    1.83      51.9  T
     SCC iter.                  ...        0 min,  0.160 sec
     gradient                   ...        0 min,  0.005 sec
 * total energy  :   -37.6389915 Eh     change       -0.1032292E-02 Eh
   gradient norm :     0.0151705 Eh/α   predicted    -0.8551559E-03 ( -17.16%)
   displ. norm   :     0.3795891 α      lambda       -0.1152357E-02
   maximum displ.:     0.2591560 α      in ANC's #5, #7, #6, ...

........................................................................
.............................. CYCLE   25 ..............................
........................................................................
   1    -38.2595809 -0.382596E+02  0.154E-01    1.84       0.0  T
   2    -38.2595927 -0.117454E-04  0.935E-02    1.83       1.0  T
   3    -38.2595557  0.370049E-04  0.531E-02    1.84       1.0  T
   4    -38.2596022 -0.465032E-04  0.101E-02    1.83       1.8  T
   5    -38.2596023 -0.114268E-06  0.778E-03    1.84       2.3  T
   6    -38.2596026 -0.304129E-06  0.261E-03    1.83       6.9  T
   7    -38.2596027 -0.104695E-06  0.105E-03    1.83      17.2  T
   8    -38.2596027 -0.134883E-07  0.551E-04    1.83      32.6  T
   9    -38.2596027 -0.114240E-08  0.278E-04    1.83      64.7  T
     SCC iter.                  ...        0 min,  0.112 sec
     gradient                   ...        0 min,  0.004 sec
 * total energy  :   -37.6398110 Eh     change       -0.8195728E-03 Eh
   gradient norm :     0.0131280 Eh/α   predicted    -0.6592258E-03 ( -19.56%)
   displ. norm   :     0.4065881 α      lambda       -0.1243824E-02
   maximum displ.:     0.2935747 α      in ANC's #5, #7, #6, ...

........................................................................
.............................. CYCLE   26 ..............................
........................................................................
   1    -38.2624572 -0.382625E+02  0.132E-01    1.84       0.0  T
   2    -38.2624652 -0.796711E-05  0.832E-02    1.85       1.0  T
   3    -38.2624432  0.219558E-04  0.360E-02    1.85       1.0  T
   4    -38.2624696 -0.264123E-04  0.107E-02    1.85       1.7  T
   5    -38.2624709 -0.130399E-05  0.539E-03    1.85       3.3  T
   6    -38.2624711 -0.178248E-06  0.239E-03    1.85       7.5  T
   7    -38.2624712 -0.375820E-07  0.617E-04    1.85      29.1  T
   8    -38.2624712 -0.526221E-09  0.337E-04    1.85      53.2  T
     SCC iter.                  ...        0 min,  0.016 sec
     gradient                   ...        0 min,  0.004 sec
 * total energy  :   -37.6406118 Eh     change       -0.8007481E-03 Eh
   gradient norm :     0.0171741 Eh/α   predicted    -0.7247232E-03 (  -9.49%)
   displ. norm   :     0.3664794 α      lambda       -0.9898501E-03
   maximum displ.:     0.2633031 α      in ANC's #5, #9, #7, ...

........................................................................
.............................. CYCLE   27 ..............................
........................................................................
   1    -38.2644852 -0.382645E+02  0.149E-01    1.84       0.0  T
   2    -38.2644905 -0.533045E-05  0.986E-02    1.85       1.0  T
   3    -38.2644324  0.580880E-04  0.508E-02    1.84       1.0  T
   4    -38.2644976 -0.652059E-04  0.134E-02    1.84       1.3  T
   5    -38.2644994 -0.178992E-05  0.660E-03    1.85       2.7  T
   6    -38.2644995 -0.719466E-07  0.262E-03    1.84       6.9  T
   7    -38.2644996 -0.624339E-07  0.799E-04    1.84      22.5  T
   8    -38.2644996 -0.209168E-08  0.515E-04    1.84      34.9  T
     SCC iter.                  ...        0 min,  0.014 sec
     gradient                   ...        0 min,  0.004 sec
 * total energy  :   -37.6413293 Eh     change       -0.7174887E-03 Eh
   gradient norm :     0.0146673 Eh/α   predicted    -0.5614007E-03 ( -21.75%)
   displ. norm   :     0.4519736 α      lambda       -0.9899724E-03
   maximum displ.:     0.3069536 α      in ANC's #5, #1, #4, ...

........................................................................
.............................. CYCLE   28 ..............................
........................................................................
   1    -38.2636257 -0.382636E+02  0.154E-01    1.83       0.0  T
   2    -38.2636316 -0.585116E-05  0.113E-01    1.85       1.0  T
   3    -38.2635781  0.535247E-04  0.695E-02    1.83       1.0  T
   4    -38.2636673 -0.891998E-04  0.166E-02    1.84       1.1  T
   5    -38.2636691 -0.177506E-05  0.953E-03    1.84       1.9  T
   6    -38.2636692 -0.142686E-06  0.385E-03    1.84       4.7  T
   7    -38.2636693 -0.776923E-07  0.255E-03    1.84       7.0  T
   8    -38.2636693 -0.249695E-07  0.968E-04    1.84      18.5  T
   9    -38.2636693 -0.467843E-08  0.510E-04    1.84      35.2  T
     SCC iter.                  ...        0 min,  0.015 sec
     gradient                   ...        0 min,  0.004 sec
 * total energy  :   -37.6420342 Eh     change       -0.7049045E-03 Eh
   gradient norm :     0.0131877 Eh/α   predicted    -0.5961047E-03 ( -15.43%)
   displ. norm   :     0.4359397 α      lambda       -0.1163173E-02
   maximum displ.:     0.2581397 α      in ANC's #5, #1, #9, ...

........................................................................
.............................. CYCLE   29 ..............................
........................................................................
   1    -38.2680917 -0.382681E+02  0.197E-01    1.83       0.0  T
   2    -38.2681178 -0.260448E-04  0.126E-01    1.84       1.0  T
   3    -38.2680077  0.110100E-03  0.873E-02    1.83       1.0  T
   4    -38.2681648 -0.157098E-03  0.202E-02    1.84       1.0  T
   5    -38.2681682 -0.339175E-05  0.135E-02    1.84       1.3  T
   6    -38.2681686 -0.386761E-06  0.544E-03    1.84       3.3  T
   7    -38.2681688 -0.208378E-06  0.138E-03    1.84      13.0  T
   8    -38.2681688 -0.207092E-07  0.851E-04    1.84      21.1  T
   9    -38.2681688 -0.202593E-08  0.423E-04    1.84      42.5  T
     SCC iter.                  ...        0 min,  0.015 sec
     gradient                   ...        0 min,  0.004 sec
 * total energy  :   -37.6426948 Eh     change       -0.6606577E-03 Eh
   gradient norm :     0.0146111 Eh/α   predicted    -0.6921165E-03 (   4.76%)
   displ. norm   :     0.6431146 α      lambda       -0.1207590E-02
   maximum displ.:     0.4096102 α      in ANC's #5, #9, #1, ...

........................................................................
.............................. CYCLE   30 ..............................
........................................................................
   1    -38.2535225 -0.382535E+02  0.389E-01    1.83       0.0  T
   2    -38.2535727 -0.501847E-04  0.220E-01    1.86       1.0  T
   3    -38.2531868  0.385923E-03  0.199E-01    1.83       1.0  T
   4    -38.2536600 -0.473262E-03  0.378E-02    1.84       1.0  T
   5    -38.2536649 -0.491711E-05  0.295E-02    1.85       1.0  T
   6    -38.2536671 -0.215071E-05  0.117E-02    1.85       1.5  T
   7    -38.2536691 -0.200886E-05  0.355E-03    1.85       5.1  T
   8    -38.2536692 -0.485039E-07  0.206E-03    1.85       8.7  T
   9    -38.2536692 -0.216129E-07  0.854E-04    1.85      21.0  T
  10    -38.2536692 -0.165860E-08  0.396E-04    1.85      45.4  T
     SCC iter.                  ...        0 min,  0.240 sec
     gradient                   ...        0 min,  0.042 sec
 * total energy  :   -37.6421176 Eh     change        0.5772469E-03 Eh
   gradient norm :     0.0306163 Eh/α   predicted    -0.8535373E-03 (-247.86%)
   displ. norm   :     0.2040447 α      lambda       -0.2886945E-02
   maximum displ.:     0.1043950 α      in ANC's #5, #9, #8, ...

........................................................................
.............................. CYCLE   31 ..............................
........................................................................
   1    -38.2667604 -0.382668E+02  0.243E-01    1.86       0.0  T
   2    -38.2668021 -0.416400E-04  0.128E-01    1.83       1.0  T
   3    -38.2667161  0.859513E-04  0.125E-01    1.85       1.0  T
   4    -38.2668635 -0.147399E-03  0.215E-02    1.85       1.0  T
   5    -38.2668699 -0.635861E-05  0.133E-02    1.84       1.4  T
   6    -38.2668708 -0.955003E-06  0.726E-03    1.84       2.5  T
   7    -38.2668711 -0.260197E-06  0.163E-03    1.84      11.0  T
   8    -38.2668711 -0.252800E-07  0.878E-04    1.84      20.4  T
   9    -38.2668711 -0.311806E-08  0.425E-04    1.84      42.3  T
     SCC iter.                  ...        0 min,  0.203 sec
     gradient                   ...        0 min,  0.005 sec
 * total energy  :   -37.6434725 Eh     change       -0.1354896E-02 Eh
   gradient norm :     0.0143273 Eh/α   predicted    -0.1503565E-02 (  10.97%)
   displ. norm   :     0.1170916 α      lambda       -0.5092510E-03
   maximum displ.:     0.0495610 α      in ANC's #10, #4, #8, ...

........................................................................
.............................. CYCLE   32 ..............................
........................................................................
   1    -38.2702577 -0.382703E+02  0.585E-02    1.84       0.0  T
   2    -38.2702595 -0.180752E-05  0.381E-02    1.84       1.0  T
   3    -38.2702516  0.790560E-05  0.209E-02    1.85       1.0  T
   4    -38.2702613 -0.967282E-05  0.674E-03    1.84       2.7  T
   5    -38.2702617 -0.419741E-06  0.361E-03    1.84       5.0  T
   6    -38.2702617 -0.153508E-07  0.102E-03    1.84      17.6  T
   7    -38.2702618 -0.125084E-07  0.467E-04    1.84      38.5  T
   8    -38.2702618 -0.847521E-09  0.301E-04    1.84      59.7  T
     SCC iter.                  ...        0 min,  0.192 sec
     gradient                   ...        0 min,  0.005 sec
 * total energy  :   -37.6437366 Eh     change       -0.2640895E-03 Eh
   gradient norm :     0.0070579 Eh/α   predicted    -0.2581187E-03 (  -2.26%)
   displ. norm   :     0.3147754 α      lambda       -0.4549208E-03
   maximum displ.:     0.1688608 α      in ANC's #5, #4, #1, ...

........................................................................
.............................. CYCLE   33 ..............................
........................................................................
   1    -38.2685744 -0.382686E+02  0.136E-01    1.85       0.0  T
   2    -38.2685784 -0.404867E-05  0.841E-02    1.85       1.0  T
   3    -38.2685471  0.313568E-04  0.452E-02    1.85       1.0  T
   4    -38.2685821 -0.350065E-04  0.108E-02    1.85       1.7  T
   5    -38.2685827 -0.640187E-06  0.955E-03    1.85       1.9  T
   6    -38.2685831 -0.367930E-06  0.279E-03    1.85       6.4  T
   7    -38.2685831 -0.482250E-07  0.131E-03    1.85      13.7  T
   8    -38.2685831  0.136353E-09  0.800E-04    1.85      22.4  T
   9    -38.2685831 -0.532453E-08  0.329E-04    1.85      54.6  T
     SCC iter.                  ...        0 min,  0.158 sec
     gradient                   ...        0 min,  0.012 sec
 * total energy  :   -37.6440719 Eh     change       -0.3353130E-03 Eh
   gradient norm :     0.0069996 Eh/α   predicted    -0.2500095E-03 ( -25.44%)
   displ. norm   :     0.3466732 α      lambda       -0.3735954E-03
   maximum displ.:     0.1528520 α      in ANC's #5, #4, #1, ...

........................................................................
.............................. CYCLE   34 ..............................
........................................................................
   1    -38.2677853 -0.382678E+02  0.147E-01    1.85       0.0  T
   2    -38.2677905 -0.529911E-05  0.913E-02    1.85       1.0  T
   3    -38.2677432  0.473811E-04  0.583E-02    1.85       1.0  T
   4    -38.2677971 -0.539021E-04  0.141E-02    1.85       1.3  T
   5    -38.2677969  0.210134E-06  0.142E-02    1.85       1.3  T
   6    -38.2677980 -0.118691E-05  0.301E-03    1.85       6.0  T
   7    -38.2677981 -0.342416E-07  0.164E-03    1.85      10.9  T
   8    -38.2677981  0.281482E-09  0.818E-04    1.85      22.0  T
   9    -38.2677981 -0.294352E-08  0.398E-04    1.85      45.1  T
     SCC iter.                  ...        0 min,  0.241 sec
     gradient                   ...        0 min,  0.077 sec
 * total energy  :   -37.6442230 Eh     change       -0.1510787E-03 Eh
   gradient norm :     0.0106674 Eh/α   predicted    -0.2092573E-03 (  38.51%)
   displ. norm   :     0.1534049 α      lambda       -0.3307638E-03
   maximum displ.:     0.0787006 α      in ANC's #4, #5, #7, ...

........................................................................
.............................. CYCLE   35 ..............................
........................................................................
   1    -38.2673669 -0.382674E+02  0.928E-02    1.85       0.0  T
   2    -38.2673705 -0.365262E-05  0.538E-02    1.85       1.0  T
   3    -38.2673581  0.124870E-04  0.388E-02    1.85       1.0  T
   4    -38.2673731 -0.150693E-04  0.110E-02    1.85       1.6  T
   5    -38.2673731  0.772422E-08  0.761E-03    1.85       2.4  T
   6    -38.2673733 -0.182062E-06  0.331E-03    1.85       5.4  T
   7    -38.2673735 -0.155588E-06  0.109E-03    1.85      16.5  T
   8    -38.2673735 -0.688937E-08  0.331E-04    1.85      54.3  T
   9    -38.2673735 -0.464674E-09  0.162E-04    1.85     111.2  T
     SCC iter.                  ...        0 min,  0.208 sec
     gradient                   ...        0 min,  0.005 sec
 * total energy  :   -37.6443625 Eh     change       -0.1395463E-03 Eh
   gradient norm :     0.0078148 Eh/α   predicted    -0.1692751E-03 (  21.30%)
   displ. norm   :     0.0936735 α      lambda       -0.2505139E-03
   maximum displ.:     0.0419504 α      in ANC's #5, #2, #7, ...

........................................................................
.............................. CYCLE   36 ..............................
........................................................................
   1    -38.2720553 -0.382721E+02  0.571E-02    1.85       0.0  T
   2    -38.2720572 -0.196965E-05  0.333E-02    1.85       1.0  T
   3    -38.2720491  0.812199E-05  0.299E-02    1.85       1.0  T
   4    -38.2720604 -0.112925E-04  0.787E-03    1.85       2.3  T
   5    -38.2720605 -0.127405E-06  0.587E-03    1.85       3.1  T
   6    -38.2720605 -0.482613E-08  0.264E-03    1.85       6.8  T
   7    -38.2720606 -0.976861E-07  0.613E-04    1.85      29.3  T
   8    -38.2720606 -0.315337E-08  0.379E-04    1.85      47.4  T
     SCC iter.                  ...        0 min,  0.178 sec
     gradient                   ...        0 min,  0.005 sec
 * total energy  :   -37.6444723 Eh     change       -0.1098127E-03 Eh
   gradient norm :     0.0082362 Eh/α   predicted    -0.1263579E-03 (  15.07%)
   displ. norm   :     0.2513514 α      lambda       -0.2270423E-03
   maximum displ.:     0.1316708 α      in ANC's #4, #7, #5, ...

........................................................................
.............................. CYCLE   37 ..............................
........................................................................
   1    -38.2696171 -0.382696E+02  0.113E-01    1.85       0.0  T
   2    -38.2696195 -0.237537E-05  0.710E-02    1.85       1.0  T
   3    -38.2695980  0.214381E-04  0.315E-02    1.85       1.0  T
   4    -38.2696215 -0.234953E-04  0.101E-02    1.85       1.8  T
   5    -38.2696219 -0.351141E-06  0.611E-03    1.85       2.9  T
   6    -38.2696219  0.551419E-08  0.234E-03    1.85       7.7  T
   7    -38.2696219 -0.399742E-07  0.125E-03    1.85      14.4  T
   8    -38.2696219 -0.368286E-08  0.737E-04    1.85      24.4  T
   9    -38.2696219 -0.261282E-08  0.287E-04    1.85      62.5  T
     SCC iter.                  ...        0 min,  0.189 sec
     gradient                   ...        0 min,  0.005 sec
 * total energy  :   -37.6445869 Eh     change       -0.1146340E-03 Eh
   gradient norm :     0.0057772 Eh/α   predicted    -0.1206961E-03 (   5.29%)
   displ. norm   :     0.1479881 α      lambda       -0.1378368E-03
   maximum displ.:     0.0783141 α      in ANC's #4, #7, #2, ...

........................................................................
.............................. CYCLE   38 ..............................
........................................................................
   1    -38.2692267 -0.382692E+02  0.728E-02    1.85       0.0  T
   2    -38.2692273 -0.553970E-06  0.525E-02    1.85       1.0  T
   3    -38.2692088  0.185058E-04  0.324E-02    1.85       1.0  T
   4    -38.2692321 -0.233089E-04  0.603E-03    1.85       3.0  T
   5    -38.2692323 -0.163326E-06  0.330E-03    1.85       5.4  T
   6    -38.2692323 -0.366085E-07  0.157E-03    1.85      11.4  T
   7    -38.2692323 -0.121646E-07  0.101E-03    1.85      17.7  T
   8    -38.2692323 -0.320324E-08  0.429E-04    1.85      41.8  T
   9    -38.2692323 -0.135511E-08  0.141E-04    1.85     127.2  T
     SCC iter.                  ...        0 min,  0.194 sec
     gradient                   ...        0 min,  0.004 sec
 * total energy  :   -37.6446651 Eh     change       -0.7815483E-04 Eh
   gradient norm :     0.0062118 Eh/α   predicted    -0.7042858E-04 (  -9.89%)
   displ. norm   :     0.1639903 α      lambda       -0.1231700E-03
   maximum displ.:     0.0900387 α      in ANC's #4, #7, #2, ...

........................................................................
.............................. CYCLE   39 ..............................
........................................................................
   1    -38.2695148 -0.382695E+02  0.671E-02    1.85       0.0  T
   2    -38.2695159 -0.115945E-05  0.484E-02    1.85       1.0  T
   3    -38.2695125  0.343197E-05  0.142E-02    1.86       1.3  T
   4    -38.2695164 -0.391369E-05  0.688E-03    1.85       2.6  T
   5    -38.2695166 -0.176875E-06  0.394E-03    1.85       4.6  T
   6    -38.2695166 -0.475514E-07  0.179E-03    1.85      10.0  T
   7    -38.2695167 -0.366986E-07  0.732E-04    1.85      24.5  T
   8    -38.2695167 -0.358951E-08  0.351E-04    1.85      51.1  T
     SCC iter.                  ...        0 min,  0.191 sec
     gradient                   ...        0 min,  0.006 sec
 * total energy  :   -37.6447461 Eh     change       -0.8103398E-04 Eh
   gradient norm :     0.0038129 Eh/α   predicted    -0.6324450E-04 ( -21.95%)
   displ. norm   :     0.2573372 α      lambda       -0.1127716E-03
   maximum displ.:     0.1552974 α      in ANC's #4, #2, #7, ...

........................................................................
.............................. CYCLE   40 ..............................
........................................................................
   1    -38.2688239 -0.382688E+02  0.991E-02    1.85       0.0  T
   2    -38.2688252 -0.130702E-05  0.661E-02    1.86       1.0  T
   3    -38.2688021  0.231872E-04  0.331E-02    1.86       1.0  T
   4    -38.2688271 -0.250450E-04  0.105E-02    1.86       1.7  T
   5    -38.2688279 -0.826194E-06  0.537E-03    1.86       3.3  T
   6    -38.2688280 -0.823829E-07  0.220E-03    1.86       8.2  T
   7    -38.2688280 -0.366644E-07  0.112E-03    1.86      16.0  T
   8    -38.2688280 -0.137291E-09  0.647E-04    1.86      27.8  T
   9    -38.2688280 -0.231812E-08  0.246E-04    1.86      72.9  T
     SCC iter.                  ...        0 min,  0.197 sec
     gradient                   ...        0 min,  0.006 sec
 * total energy  :   -37.6448154 Eh     change       -0.6924570E-04 Eh
   gradient norm :     0.0055583 Eh/α   predicted    -0.6012035E-04 ( -13.18%)
   displ. norm   :     0.3085165 α      lambda       -0.1480069E-03
   maximum displ.:     0.1851560 α      in ANC's #4, #2, #7, ...

........................................................................
.............................. CYCLE   41 ..............................
........................................................................
   1    -38.2699276 -0.382699E+02  0.934E-02    1.86       0.0  T
   2    -38.2699296 -0.200324E-05  0.637E-02    1.85       1.0  T
   3    -38.2699190  0.105966E-04  0.271E-02    1.86       1.0  T
   4    -38.2699310 -0.120288E-04  0.860E-03    1.85       2.1  T
   5    -38.2699310  0.376162E-07  0.805E-03    1.85       2.2  T
   6    -38.2699313 -0.268808E-06  0.201E-03    1.86       8.9  T
   7    -38.2699314 -0.110487E-06  0.696E-04    1.85      25.8  T
   8    -38.2699314 -0.183536E-08  0.434E-04    1.85      41.4  T
     SCC iter.                  ...        0 min,  0.186 sec
     gradient                   ...        0 min,  0.007 sec
 * total energy  :   -37.6449037 Eh     change       -0.8835357E-04 Eh
   gradient norm :     0.0037659 Eh/α   predicted    -0.8105095E-04 (  -8.27%)
   displ. norm   :     0.3588500 α      lambda       -0.1343747E-03
   maximum displ.:     0.2325891 α      in ANC's #4, #2, #7, ...

........................................................................
.............................. CYCLE   42 ..............................
........................................................................
   1    -38.2676033 -0.382676E+02  0.920E-02    1.85       0.0  T
   2    -38.2676053 -0.196056E-05  0.579E-02    1.85       1.0  T
   3    -38.2675978  0.750910E-05  0.197E-02    1.85       1.0  T
   4    -38.2676058 -0.803811E-05  0.825E-03    1.85       2.2  T
   5    -38.2676065 -0.632364E-06  0.409E-03    1.85       4.4  T
   6    -38.2676065  0.254170E-08  0.208E-03    1.85       8.6  T
   7    -38.2676065 -0.315813E-07  0.101E-03    1.85      17.7  T
   8    -38.2676065  0.688551E-09  0.773E-04    1.85      23.2  T
   9    -38.2676065 -0.200823E-08  0.212E-04    1.85      84.6  T
     SCC iter.                  ...        0 min,  0.231 sec
     gradient                   ...        0 min,  0.077 sec
 * total energy  :   -37.6449923 Eh     change       -0.8852492E-04 Eh
   gradient norm :     0.0048039 Eh/α   predicted    -0.7584073E-04 ( -14.33%)
   displ. norm   :     0.4242517 α      lambda       -0.2796520E-03
   maximum displ.:     0.2849692 α      in ANC's #2, #4, #3, ...
 * RMSD in coord.:     0.9071262 α      energy gain  -0.1301499E-01 Eh

generating ANC from model Hessian ...
Using Lindh-Hessian (1995)
 Shifting diagonal of input Hessian by    1.2943718097319031E-002
 Lowest  eigenvalues of input Hessian
    0.010000    0.012322    0.000000    0.000000    0.000000    0.000000
    0.000000    0.000000    0.013306    0.013817    0.013889    0.014483
    0.015074    0.016075    0.016674    0.020550    0.020778    0.020958
 Highest eigenvalues
    1.729369    1.730297    1.734106    1.735579    3.082002    4.104092


........................................................................
.............................. CYCLE   43 ..............................
........................................................................
   1    -38.2695997 -0.382696E+02  0.119E-01    1.83       0.0  T
   2    -38.2696068 -0.706588E-05  0.679E-02    1.84       1.0  T
   3    -38.2695882  0.185550E-04  0.537E-02    1.84       1.0  T
   4    -38.2696120 -0.238405E-04  0.133E-02    1.84       1.3  T
   5    -38.2696123 -0.286073E-06  0.110E-02    1.84       1.6  T
   6    -38.2696131 -0.735566E-06  0.232E-03    1.84       7.7  T
   7    -38.2696132 -0.960277E-07  0.757E-04    1.84      23.7  T
   8    -38.2696132 -0.181740E-08  0.418E-04    1.84      43.0  T
     SCC iter.                  ...        0 min,  0.216 sec
     gradient                   ...        0 min,  0.005 sec
 * total energy  :   -37.6451259 Eh     change       -0.1336253E-03 Eh
   gradient norm :     0.0089553 Eh/α   predicted     0.0000000E+00 (-100.00%)
   displ. norm   :     0.0754461 α      lambda       -0.2178828E-03
   maximum displ.:     0.0324651 α      in ANC's #2, #6, #5, ...

........................................................................
.............................. CYCLE   44 ..............................
........................................................................
   1    -38.2705206 -0.382705E+02  0.348E-02    1.84       0.0  T
   2    -38.2705213 -0.659723E-06  0.225E-02    1.84       1.0  T
   3    -38.2705191  0.217739E-05  0.155E-02    1.84       1.2  T
   4    -38.2705220 -0.294434E-05  0.433E-03    1.84       4.1  T
   5    -38.2705220  0.231661E-07  0.350E-03    1.84       5.1  T
   6    -38.2705221 -0.126432E-06  0.908E-04    1.84      19.8  T
   7    -38.2705222 -0.721683E-08  0.373E-04    1.84      48.2  T
     SCC iter.                  ...        0 min,  0.205 sec
     gradient                   ...        0 min,  0.019 sec
 * total energy  :   -37.6452732 Eh     change       -0.1473052E-03 Eh
   gradient norm :     0.0030375 Eh/α   predicted    -0.1097456E-03 ( -25.50%)
   displ. norm   :     0.1084516 α      lambda       -0.1176779E-03
   maximum displ.:     0.0550161 α      in ANC's #4, #5, #2, ...

........................................................................
.............................. CYCLE   45 ..............................
........................................................................
   1    -38.2710843 -0.382711E+02  0.434E-02    1.85       0.0  T
   2    -38.2710853 -0.931052E-06  0.303E-02    1.85       1.0  T
   3    -38.2710846  0.719212E-06  0.979E-03    1.85       1.8  T
   4    -38.2710857 -0.109905E-05  0.443E-03    1.85       4.1  T
   5    -38.2710856  0.285178E-07  0.336E-03    1.85       5.3  T
   6    -38.2710857 -0.847894E-07  0.102E-03    1.85      17.7  T
   7    -38.2710857 -0.121242E-07  0.677E-04    1.85      26.5  T
   8    -38.2710857 -0.114434E-08  0.337E-04    1.85      53.2  T
     SCC iter.                  ...        0 min,  0.201 sec
     gradient                   ...        0 min,  0.007 sec
 * total energy  :   -37.6453501 Eh     change       -0.7693840E-04 Eh
   gradient norm :     0.0026274 Eh/α   predicted    -0.5959483E-04 ( -22.54%)
   displ. norm   :     0.1506570 α      lambda       -0.9272873E-04
   maximum displ.:     0.0843867 α      in ANC's #2, #5, #4, ...

........................................................................
.............................. CYCLE   46 ..............................
........................................................................
   1    -38.2710380 -0.382710E+02  0.412E-02    1.85       0.0  T
   2    -38.2710387 -0.705412E-06  0.288E-02    1.85       1.0  T
   3    -38.2710356  0.311014E-05  0.134E-02    1.85       1.3  T
   4    -38.2710392 -0.360830E-05  0.495E-03    1.85       3.6  T
   5    -38.2710395 -0.229963E-06  0.268E-03    1.85       6.7  T
   6    -38.2710395 -0.253865E-07  0.812E-04    1.85      22.1  T
   7    -38.2710395 -0.101035E-07  0.287E-04    1.85      62.5  T
     SCC iter.                  ...        0 min,  0.177 sec
     gradient                   ...        0 min,  0.016 sec
 * total energy  :   -37.6454172 Eh     change       -0.6705644E-04 Eh
   gradient norm :     0.0043611 Eh/α   predicted    -0.4743605E-04 ( -29.26%)
   displ. norm   :     0.2768502 α      lambda       -0.1479491E-03
   maximum displ.:     0.1617360 α      in ANC's #2, #5, #4, ...

........................................................................
.............................. CYCLE   47 ..............................
........................................................................
   1    -38.2700334 -0.382700E+02  0.823E-02    1.85       0.0  T
   2    -38.2700347 -0.134220E-05  0.557E-02    1.85       1.0  T
   3    -38.2700285  0.625032E-05  0.156E-02    1.86       1.1  T
   4    -38.2700353 -0.685471E-05  0.707E-03    1.85       2.5  T
   5    -38.2700355 -0.174458E-06  0.369E-03    1.85       4.9  T
   6    -38.2700356 -0.107959E-06  0.132E-03    1.85      13.6  T
   7    -38.2700356 -0.226569E-07  0.675E-04    1.85      26.6  T
   8    -38.2700356 -0.622862E-10  0.505E-04    1.85      35.5  T
     SCC iter.                  ...        0 min,  0.172 sec
     gradient                   ...        0 min,  0.009 sec
 * total energy  :   -37.6455258 Eh     change       -0.1085890E-03 Eh
   gradient norm :     0.0056038 Eh/α   predicted    -0.7964563E-04 ( -26.65%)
   displ. norm   :     0.3397167 α      lambda       -0.1869401E-03
   maximum displ.:     0.2038148 α      in ANC's #2, #5, #4, ...

........................................................................
.............................. CYCLE   48 ..............................
........................................................................
   1    -38.2685854 -0.382686E+02  0.984E-02    1.85       0.0  T
   2    -38.2685865 -0.114892E-05  0.652E-02    1.85       1.0  T
   3    -38.2685826  0.388316E-05  0.127E-02    1.85       1.4  T
   4    -38.2685871 -0.443435E-05  0.516E-03    1.85       3.5  T
   5    -38.2685871 -0.306708E-07  0.220E-03    1.85       8.2  T
   6    -38.2685872 -0.542184E-07  0.841E-04    1.85      21.3  T
   7    -38.2685872 -0.421128E-08  0.566E-04    1.85      31.7  T
     SCC iter.                  ...        0 min,  0.204 sec
     gradient                   ...        0 min,  0.022 sec
 * total energy  :   -37.6456631 Eh     change       -0.1373645E-03 Eh
   gradient norm :     0.0044379 Eh/α   predicted    -0.1042611E-03 ( -24.10%)
   displ. norm   :     0.3504912 α      lambda       -0.2160156E-03
   maximum displ.:     0.2403979 α      in ANC's #2, #5, #4, ...

........................................................................
.............................. CYCLE   49 ..............................
........................................................................
   1    -38.2683884 -0.382684E+02  0.104E-01    1.85       0.0  T
   2    -38.2683897 -0.125828E-05  0.679E-02    1.85       1.0  T
   3    -38.2683798  0.993790E-05  0.202E-02    1.85       1.0  T
   4    -38.2683901 -0.103937E-04  0.931E-03    1.85       1.9  T
   5    -38.2683907 -0.550642E-06  0.450E-03    1.85       4.0  T
   6    -38.2683907 -0.354206E-07  0.115E-03    1.85      15.6  T
   7    -38.2683907 -0.106570E-07  0.572E-04    1.85      31.4  T
   8    -38.2683907  0.334019E-09  0.424E-04    1.85      42.4  T
     SCC iter.                  ...        0 min,  0.224 sec
     gradient                   ...        0 min,  0.005 sec
 * total energy  :   -37.6458269 Eh     change       -0.1637706E-03 Eh
   gradient norm :     0.0046101 Eh/α   predicted    -0.1212773E-03 ( -25.95%)
   displ. norm   :     0.2555958 α      lambda       -0.1735704E-03
   maximum displ.:     0.1812135 α      in ANC's #2, #4, #5, ...

........................................................................
.............................. CYCLE   50 ..............................
........................................................................
   1    -38.2701385 -0.382701E+02  0.697E-02    1.84       0.0  T
   2    -38.2701396 -0.115485E-05  0.440E-02    1.85       1.0  T
   3    -38.2701338  0.583052E-05  0.161E-02    1.85       1.1  T
   4    -38.2701402 -0.640925E-05  0.586E-03    1.85       3.1  T
   5    -38.2701404 -0.251504E-06  0.289E-03    1.85       6.2  T
   6    -38.2701405 -0.110108E-07  0.172E-03    1.85      10.4  T
   7    -38.2701405 -0.234924E-07  0.411E-04    1.85      43.7  T
   8    -38.2701405 -0.518703E-09  0.308E-04    1.85      58.4  T
     SCC iter.                  ...        0 min,  0.210 sec
     gradient                   ...        0 min,  0.004 sec
 * total energy  :   -37.6459659 Eh     change       -0.1389654E-03 Eh
   gradient norm :     0.0047621 Eh/α   predicted    -0.9245595E-04 ( -33.47%)
   displ. norm   :     0.3214906 α      lambda       -0.1708269E-03
   maximum displ.:     0.2345373 α      in ANC's #2, #4, #5, ...

........................................................................
.............................. CYCLE   51 ..............................
........................................................................
   1    -38.2705881 -0.382706E+02  0.781E-02    1.84       0.0  T
   2    -38.2705900 -0.183927E-05  0.517E-02    1.84       1.0  T
   3    -38.2705804  0.954888E-05  0.200E-02    1.84       1.0  T
   4    -38.2705906 -0.101835E-04  0.939E-03    1.84       1.9  T
   5    -38.2705913 -0.759868E-06  0.437E-03    1.84       4.1  T
   6    -38.2705914 -0.289688E-07  0.220E-03    1.84       8.2  T
   7    -38.2705914 -0.377344E-07  0.590E-04    1.84      30.4  T
   8    -38.2705914 -0.992081E-09  0.453E-04    1.84      39.7  T
     SCC iter.                  ...        0 min,  0.205 sec
     gradient                   ...        0 min,  0.031 sec
 * total energy  :   -37.6461049 Eh     change       -0.1390356E-03 Eh
   gradient norm :     0.0054260 Eh/α   predicted    -0.9424359E-04 ( -32.22%)
   displ. norm   :     0.2993185 α      lambda       -0.1447201E-03
   maximum displ.:     0.2215547 α      in ANC's #2, #4, #1, ...

........................................................................
.............................. CYCLE   52 ..............................
........................................................................
   1    -38.2712322 -0.382712E+02  0.661E-02    1.84       0.0  T
   2    -38.2712341 -0.187608E-05  0.463E-02    1.84       1.0  T
   3    -38.2712250  0.908666E-05  0.193E-02    1.84       1.0  T
   4    -38.2712349 -0.986219E-05  0.934E-03    1.84       1.9  T
   5    -38.2712356 -0.763976E-06  0.436E-03    1.84       4.1  T
   6    -38.2712357 -0.497893E-07  0.205E-03    1.84       8.7  T
   7    -38.2712357 -0.366912E-07  0.543E-04    1.84      33.1  T
   8    -38.2712357 -0.106783E-08  0.406E-04    1.84      44.2  T
     SCC iter.                  ...        0 min,  0.218 sec
     gradient                   ...        0 min,  0.032 sec
 * total energy  :   -37.6462262 Eh     change       -0.1212732E-03 Eh
   gradient norm :     0.0040488 Eh/α   predicted    -0.7885546E-04 ( -34.98%)
   displ. norm   :     0.3688412 α      lambda       -0.1589069E-03
   maximum displ.:     0.2694091 α      in ANC's #2, #4, #1, ...

........................................................................
.............................. CYCLE   53 ..............................
........................................................................
   1    -38.2706493 -0.382706E+02  0.771E-02    1.84       0.0  T
   2    -38.2706521 -0.287594E-05  0.545E-02    1.84       1.0  T
   3    -38.2706400  0.121220E-04  0.226E-02    1.84       1.0  T
   4    -38.2706534 -0.134342E-04  0.106E-02    1.84       1.7  T
   5    -38.2706544 -0.957676E-06  0.506E-03    1.84       3.6  T
   6    -38.2706545 -0.510959E-07  0.234E-03    1.84       7.7  T
   7    -38.2706545 -0.609829E-07  0.630E-04    1.84      28.5  T
   8    -38.2706545 -0.133538E-08  0.449E-04    1.84      40.0  T
     SCC iter.                  ...        0 min,  0.226 sec
     gradient                   ...        0 min,  0.006 sec
 * total energy  :   -37.6463597 Eh     change       -0.1335313E-03 Eh
   gradient norm :     0.0045161 Eh/α   predicted    -0.9026510E-04 ( -32.40%)
   displ. norm   :     0.5408517 α      lambda       -0.2187725E-03
   maximum displ.:     0.3918798 α      in ANC's #2, #4, #1, ...

........................................................................
.............................. CYCLE   54 ..............................
........................................................................
   1    -38.2692422 -0.382692E+02  0.107E-01    1.83       0.0  T
   2    -38.2692483 -0.610382E-05  0.750E-02    1.83       1.0  T
   3    -38.2692228  0.255319E-04  0.342E-02    1.84       1.0  T
   4    -38.2692523 -0.295136E-04  0.145E-02    1.83       1.2  T
   5    -38.2692541 -0.184468E-05  0.724E-03    1.84       2.5  T
   6    -38.2692542 -0.731057E-07  0.325E-03    1.84       5.5  T
   7    -38.2692543 -0.129407E-06  0.100E-03    1.84      18.0  T
   8    -38.2692543 -0.155823E-08  0.697E-04    1.84      25.8  T
     SCC iter.                  ...        0 min,  0.234 sec
     gradient                   ...        0 min,  0.007 sec
 * total energy  :   -37.6465157 Eh     change       -0.1559926E-03 Eh
   gradient norm :     0.0058012 Eh/α   predicted    -0.1413877E-03 (  -9.36%)
   displ. norm   :     0.3386557 α      lambda       -0.1458164E-03
   maximum displ.:     0.2292342 α      in ANC's #2, #4, #9, ...

........................................................................
.............................. CYCLE   55 ..............................
........................................................................
   1    -38.2695013 -0.382695E+02  0.757E-02    1.83       0.0  T
   2    -38.2695034 -0.215866E-05  0.513E-02    1.83       1.0  T
   3    -38.2694925  0.109071E-04  0.209E-02    1.84       1.0  T
   4    -38.2695049 -0.124048E-04  0.673E-03    1.83       2.7  T
   5    -38.2695052 -0.326466E-06  0.358E-03    1.83       5.0  T
   6    -38.2695053 -0.446970E-07  0.164E-03    1.83      11.0  T
   7    -38.2695053 -0.343258E-07  0.620E-04    1.83      29.0  T
   8    -38.2695053 -0.260364E-09  0.480E-04    1.83      37.4  T
     SCC iter.                  ...        0 min,  0.224 sec
     gradient                   ...        0 min,  0.029 sec
 * total energy  :   -37.6466290 Eh     change       -0.1132602E-03 Eh
   gradient norm :     0.0052591 Eh/α   predicted    -0.8127324E-04 ( -28.24%)
   displ. norm   :     0.3439407 α      lambda       -0.2023488E-03
   maximum displ.:     0.2056333 α      in ANC's #2, #4, #9, ...

........................................................................
.............................. CYCLE   56 ..............................
........................................................................
   1    -38.2709830 -0.382710E+02  0.899E-02    1.84       0.0  T
   2    -38.2709851 -0.210028E-05  0.598E-02    1.83       1.0  T
   3    -38.2709744  0.107650E-04  0.204E-02    1.84       1.0  T
   4    -38.2709865 -0.121668E-04  0.554E-03    1.83       3.2  T
   5    -38.2709866 -0.112366E-06  0.316E-03    1.83       5.7  T
   6    -38.2709867 -0.703241E-07  0.898E-04    1.83      20.0  T
   7    -38.2709867 -0.446691E-08  0.556E-04    1.83      32.3  T
     SCC iter.                  ...        0 min,  0.196 sec
     gradient                   ...        0 min,  0.032 sec
 * total energy  :   -37.6467844 Eh     change       -0.1553977E-03 Eh
   gradient norm :     0.0053257 Eh/α   predicted    -0.1131443E-03 ( -27.19%)
   displ. norm   :     0.4234491 α      lambda       -0.1835660E-03
   maximum displ.:     0.2562096 α      in ANC's #4, #2, #9, ...

........................................................................
.............................. CYCLE   57 ..............................
........................................................................
   1    -38.2694589 -0.382695E+02  0.104E-01    1.84       0.0  T
   2    -38.2694616 -0.267215E-05  0.689E-02    1.83       1.0  T
   3    -38.2694435  0.180938E-04  0.286E-02    1.84       1.0  T
   4    -38.2694633 -0.198223E-04  0.765E-03    1.83       2.3  T
   5    -38.2694639 -0.606114E-06  0.475E-03    1.83       3.8  T
   6    -38.2694640 -0.125712E-06  0.138E-03    1.83      13.0  T
   7    -38.2694641 -0.172481E-07  0.798E-04    1.83      22.5  T
   8    -38.2694641 -0.259242E-08  0.552E-04    1.83      32.5  T
     SCC iter.                  ...        0 min,  0.232 sec
     gradient                   ...        0 min,  0.020 sec
 * total energy  :   -37.6469095 Eh     change       -0.1251742E-03 Eh
   gradient norm :     0.0042595 Eh/α   predicted    -0.1082470E-03 ( -13.52%)
   displ. norm   :     0.2485407 α      lambda       -0.2183807E-03
   maximum displ.:     0.1340954 α      in ANC's #5, #4, #6, ...

........................................................................
.............................. CYCLE   58 ..............................
........................................................................
   1    -38.2787677 -0.382788E+02  0.101E-01    1.85       0.0  T
   2    -38.2787738 -0.611133E-05  0.624E-02    1.84       1.0  T
   3    -38.2787691  0.473973E-05  0.276E-02    1.85       1.0  T
   4    -38.2787757 -0.661255E-05  0.791E-03    1.84       2.3  T
   5    -38.2787756  0.586870E-07  0.624E-03    1.84       2.9  T
   6    -38.2787759 -0.235321E-06  0.218E-03    1.84       8.2  T
   7    -38.2787759 -0.717610E-07  0.122E-03    1.84      14.7  T
   8    -38.2787760 -0.354582E-08  0.779E-04    1.84      23.1  T
   9    -38.2787760 -0.175558E-08  0.368E-04    1.84      48.8  T
     SCC iter.                  ...        0 min,  0.247 sec
     gradient                   ...        0 min,  0.005 sec
 * total energy  :   -37.6468823 Eh     change        0.2723001E-04 Eh
   gradient norm :     0.0171767 Eh/α   predicted    -0.1159358E-03 (-525.76%)
   displ. norm   :     0.2326207 α      lambda       -0.2381892E-03
   maximum displ.:     0.1659545 α      in ANC's #2, #4, #1, ...

........................................................................
.............................. CYCLE   59 ..............................
........................................................................
   1    -38.2724124 -0.382724E+02  0.446E-02    1.84       0.0  T
   2    -38.2724142 -0.180599E-05  0.281E-02    1.84       1.0  T
   3    -38.2724114  0.283025E-05  0.151E-02    1.84       1.2  T
   4    -38.2724148 -0.339016E-05  0.676E-03    1.84       2.7  T
   5    -38.2724153 -0.495416E-06  0.304E-03    1.84       5.9  T
   6    -38.2724153  0.352273E-09  0.156E-03    1.84      11.5  T
   7    -38.2724153 -0.129881E-07  0.571E-04    1.84      31.5  T
   8    -38.2724153 -0.127827E-09  0.399E-04    1.84      45.0  T
     SCC iter.                  ...        0 min,  0.225 sec
     gradient                   ...        0 min,  0.020 sec
 * total energy  :   -37.6470007 Eh     change       -0.1183801E-03 Eh
   gradient norm :     0.0036384 Eh/α   predicted    -0.1255402E-03 (   6.05%)
   displ. norm   :     0.0502417 α      lambda       -0.3333994E-04
   maximum displ.:     0.0289216 α      in ANC's #6, #1, #5, ...

........................................................................
.............................. CYCLE   60 ..............................
........................................................................
   1    -38.2713911 -0.382714E+02  0.302E-02    1.84       0.0  T
   2    -38.2713916 -0.488652E-06  0.186E-02    1.84       1.0  T
   3    -38.2713905  0.103505E-05  0.101E-02    1.84       1.8  T
   4    -38.2713918 -0.123902E-05  0.207E-03    1.84       8.7  T
   5    -38.2713918 -0.437719E-07  0.157E-03    1.84      11.4  T
   6    -38.2713918 -0.100958E-07  0.602E-04    1.84      29.8  T
   7    -38.2713918 -0.544460E-08  0.240E-04    1.84      74.8  T
     SCC iter.                  ...        0 min,  0.199 sec
     gradient                   ...        0 min,  0.074 sec
 * total energy  :   -37.6470166 Eh     change       -0.1590629E-04 Eh
   gradient norm :     0.0039100 Eh/α   predicted    -0.1671512E-04 (   5.08%)
   displ. norm   :     0.0417977 α      lambda       -0.2107195E-04
   maximum displ.:     0.0218606 α      in ANC's #3, #5, #6, ...

........................................................................
.............................. CYCLE   61 ..............................
........................................................................
   1    -38.2723362 -0.382723E+02  0.163E-02    1.84       0.0  T
   2    -38.2723363 -0.128016E-06  0.978E-03    1.84       1.8  T
   3    -38.2723360  0.325409E-06  0.528E-03    1.84       3.4  T
   4    -38.2723364 -0.399409E-06  0.158E-03    1.84      11.3  T
   5    -38.2723364 -0.115230E-07  0.107E-03    1.84      16.8  T
   6    -38.2723364 -0.402429E-08  0.558E-04    1.84      32.2  T
   7    -38.2723364 -0.208676E-08  0.298E-04    1.84      60.3  T
     SCC iter.                  ...        0 min,  0.175 sec
     gradient                   ...        0 min,  0.072 sec
 * total energy  :   -37.6470318 Eh     change       -0.1516863E-04 Eh
   gradient norm :     0.0020699 Eh/α   predicted    -0.1055753E-04 ( -30.40%)
   displ. norm   :     0.1393709 α      lambda       -0.2509494E-04
   maximum displ.:     0.0722326 α      in ANC's #3, #4, #2, ...

........................................................................
.............................. CYCLE   62 ..............................
........................................................................
   1    -38.2726080 -0.382726E+02  0.301E-02    1.84       0.0  T
   2    -38.2726082 -0.279426E-06  0.193E-02    1.84       1.0  T
   3    -38.2726075  0.704411E-06  0.685E-03    1.84       2.6  T
   4    -38.2726084 -0.836207E-06  0.191E-03    1.84       9.4  T
   5    -38.2726084  0.656314E-09  0.149E-03    1.84      12.0  T
   6    -38.2726084 -0.184989E-07  0.427E-04    1.84      42.0  T
   7    -38.2726084 -0.117863E-08  0.260E-04    1.84      69.2  T
     SCC iter.                  ...        0 min,  0.133 sec
     gradient                   ...        0 min,  0.018 sec
 * total energy  :   -37.6470475 Eh     change       -0.1573848E-04 Eh
   gradient norm :     0.0012204 Eh/α   predicted    -0.1279189E-04 ( -18.72%)
   displ. norm   :     0.1255969 α      lambda       -0.1236845E-04
   maximum displ.:     0.0820591 α      in ANC's #3, #5, #4, ...

........................................................................
.............................. CYCLE   63 ..............................
........................................................................
   1    -38.2728665 -0.382729E+02  0.261E-02    1.84       0.0  T
   2    -38.2728668 -0.294194E-06  0.169E-02    1.84       1.1  T
   3    -38.2728656  0.122534E-05  0.771E-03    1.84       2.3  T
   4    -38.2728670 -0.140532E-05  0.232E-03    1.84       7.7  T
   5    -38.2728670 -0.594427E-07  0.124E-03    1.84      14.5  T
   6    -38.2728671 -0.336060E-08  0.383E-04    1.84      46.9  T
   7    -38.2728671 -0.141046E-08  0.175E-04    1.84     102.8  T
     SCC iter.                  ...        0 min,  0.196 sec
     gradient                   ...        0 min,  0.019 sec
 * total energy  :   -37.6470594 Eh     change       -0.1186437E-04 Eh
   gradient norm :     0.0014581 Eh/α   predicted    -0.6229624E-05 ( -47.49%)
   displ. norm   :     0.2146733 α      lambda       -0.3204800E-04
   maximum displ.:     0.1694932 α      in ANC's #3, #5, #1, ...

........................................................................
.............................. CYCLE   64 ..............................
........................................................................
   1    -38.2740357 -0.382740E+02  0.469E-02    1.84       0.0  T
   2    -38.2740367 -0.106833E-05  0.293E-02    1.84       1.0  T
   3    -38.2740402 -0.343114E-05  0.233E-02    1.84       1.0  T
   4    -38.2740460 -0.584001E-05  0.482E-03    1.84       3.7  T
   5    -38.2740461 -0.120587E-06  0.419E-03    1.84       4.3  T
   6    -38.2740462 -0.744203E-07  0.204E-03    1.84       8.8  T
   7    -38.2740462 -0.285506E-07  0.426E-04    1.84      42.2  T
   8    -38.2740462 -0.210136E-08  0.195E-04    1.84      92.1  T
     SCC iter.                  ...        0 min,  0.202 sec
     gradient                   ...        0 min,  0.028 sec
 * total energy  :   -37.6470541 Eh     change        0.5255164E-05 Eh
   gradient norm :     0.0058786 Eh/α   predicted    -0.1635664E-04 (-411.25%)
   displ. norm   :     0.0384113 α      lambda       -0.4402965E-04
   maximum displ.:     0.0216318 α      in ANC's #3, #2, #4, ...

........................................................................
.............................. CYCLE   65 ..............................
........................................................................
   1    -38.2730477 -0.382730E+02  0.214E-02    1.84       0.0  T
   2    -38.2730479 -0.176324E-06  0.124E-02    1.84       1.4  T
   3    -38.2730466  0.121832E-05  0.110E-02    1.84       1.6  T
   4    -38.2730481 -0.150398E-05  0.203E-03    1.84       8.8  T
   5    -38.2730482 -0.159881E-07  0.186E-03    1.84       9.6  T
   6    -38.2730482 -0.177398E-07  0.398E-04    1.84      45.1  T
   7    -38.2730482 -0.997872E-09  0.217E-04    1.84      82.9  T
     SCC iter.                  ...        0 min,  0.129 sec
     gradient                   ...        0 min,  0.005 sec
 * total energy  :   -37.6470859 Eh     change       -0.3182918E-04 Eh
   gradient norm :     0.0029883 Eh/α   predicted    -0.2205029E-04 ( -30.72%)
   displ. norm   :     0.0607158 α      lambda       -0.3126395E-04
   maximum displ.:     0.0341428 α      in ANC's #4, #2, #3, ...

........................................................................
.............................. CYCLE   66 ..............................
........................................................................
   1    -38.2728473 -0.382728E+02  0.260E-02    1.84       0.0  T
   2    -38.2728475 -0.220319E-06  0.163E-02    1.84       1.1  T
   3    -38.2728468  0.726107E-06  0.878E-03    1.84       2.0  T
   4    -38.2728476 -0.807814E-06  0.243E-03    1.84       7.4  T
   5    -38.2728476 -0.484308E-07  0.189E-03    1.84       9.5  T
   6    -38.2728476 -0.170755E-07  0.383E-04    1.84      46.9  T
   7    -38.2728476 -0.167422E-08  0.235E-04    1.84      76.5  T
     SCC iter.                  ...        0 min,  0.200 sec
     gradient                   ...        0 min,  0.076 sec
 * total energy  :   -37.6471057 Eh     change       -0.1973129E-04 Eh
   gradient norm :     0.0013217 Eh/α   predicted    -0.1569193E-04 ( -20.47%)
   displ. norm   :     0.0978383 α      lambda       -0.1728459E-04
   maximum displ.:     0.0629999 α      in ANC's #3, #2, #4, ...
 * RMSD in coord.:     0.7630450 α      energy gain  -0.2113413E-02 Eh

generating ANC from model Hessian ...
Using Lindh-Hessian (1995)
 Shifting diagonal of input Hessian by    1.3380503859193066E-002
 Lowest  eigenvalues of input Hessian
    0.010000    0.012626    0.000000    0.000000    0.000000    0.000000
    0.000000    0.000000    0.013789    0.014173    0.014438    0.014951
    0.015327    0.016285    0.017219    0.020650    0.021187    0.021457
 Highest eigenvalues
    1.731373    1.735978    1.737028    1.740963    3.080789    4.093573


........................................................................
.............................. CYCLE   67 ..............................
........................................................................
   1    -38.2718024 -0.382718E+02  0.257E-02    1.84       0.0  T
   2    -38.2718027 -0.311259E-06  0.165E-02    1.84       1.1  T
   3    -38.2718017  0.953969E-06  0.963E-03    1.84       1.9  T
   4    -38.2718028 -0.104432E-05  0.271E-03    1.84       6.6  T
   5    -38.2718029 -0.131410E-06  0.216E-03    1.84       8.3  T
   6    -38.2718029 -0.230625E-07  0.586E-04    1.84      30.7  T
   7    -38.2718029 -0.167667E-08  0.222E-04    1.84      81.0  T
     SCC iter.                  ...        0 min,  0.186 sec
     gradient                   ...        0 min,  0.068 sec
 * total energy  :   -37.6471234 Eh     change       -0.1777424E-04 Eh
   gradient norm :     0.0029216 Eh/α   predicted     0.0000000E+00 (-100.00%)
   displ. norm   :     0.0249021 α      lambda        0.3295159E-05
   maximum displ.:     0.0154472 α      in ANC's #3, #1, #9, ...

........................................................................
.............................. CYCLE   68 ..............................
........................................................................
   1    -38.2723978 -0.382724E+02  0.128E-02    1.84       0.0  T
   2    -38.2723979 -0.551244E-07  0.856E-03    1.84       2.1  T
   3    -38.2723976  0.214635E-06  0.415E-03    1.84       4.3  T
   4    -38.2723979 -0.235657E-06  0.137E-03    1.84      13.1  T
   5    -38.2723979 -0.338035E-08  0.143E-03    1.84      12.6  T
   6    -38.2723979 -0.126992E-07  0.267E-04    1.84      67.2  T
   7    -38.2723979 -0.909111E-09  0.112E-04    1.84     160.7  T
     SCC iter.                  ...        0 min,  0.193 sec
     gradient                   ...        0 min,  0.005 sec
 * total energy  :   -37.6471357 Eh     change       -0.1226971E-04 Eh
   gradient norm :     0.0007777 Eh/α   predicted    -0.8978560E-05 ( -26.82%)
   displ. norm   :     0.0800246 α      lambda       -0.2102554E-04
   maximum displ.:     0.0601399 α      in ANC's #3, #9, #5, ...

........................................................................
.............................. CYCLE   69 ..............................
........................................................................
   1    -38.2733685 -0.382734E+02  0.289E-02    1.84       0.0  T
   2    -38.2733688 -0.330224E-06  0.210E-02    1.84       1.0  T
   3    -38.2733670  0.180387E-05  0.959E-03    1.84       1.9  T
   4    -38.2733691 -0.213639E-05  0.383E-03    1.84       4.7  T
   5    -38.2733693 -0.188215E-06  0.204E-03    1.84       8.8  T
   6    -38.2733693 -0.122458E-07  0.822E-04    1.84      21.8  T
   7    -38.2733693 -0.409157E-08  0.219E-04    1.84      82.1  T
     SCC iter.                  ...        0 min,  0.122 sec
     gradient                   ...        0 min,  0.015 sec
 * total energy  :   -37.6471454 Eh     change       -0.9661173E-05 Eh
   gradient norm :     0.0036347 Eh/α   predicted    -0.1054303E-04 (   9.13%)
   displ. norm   :     0.0467138 α      lambda       -0.2042871E-04
   maximum displ.:     0.0342724 α      in ANC's #3, #1, #9, ...

........................................................................
.............................. CYCLE   70 ..............................
........................................................................
   1    -38.2731913 -0.382732E+02  0.154E-02    1.84       0.0  T
   2    -38.2731914 -0.519069E-07  0.113E-02    1.84       1.6  T
   3    -38.2731913  0.343749E-07  0.775E-03    1.84       2.3  T
   4    -38.2731919 -0.598489E-06  0.122E-03    1.84      14.7  T
   5    -38.2731919 -0.584912E-08  0.103E-03    1.84      17.4  T
   6    -38.2731920 -0.940113E-08  0.433E-04    1.84      41.5  T
   7    -38.2731920 -0.107848E-08  0.143E-04    1.84     125.3  T
     SCC iter.                  ...        0 min,  0.185 sec
     gradient                   ...        0 min,  0.006 sec
 * total energy  :   -37.6471608 Eh     change       -0.1545148E-04 Eh
   gradient norm :     0.0030380 Eh/α   predicted    -0.1023682E-04 ( -33.75%)
   displ. norm   :     0.0583509 α      lambda       -0.2300647E-04
   maximum displ.:     0.0471010 α      in ANC's #3, #5, #9, ...

........................................................................
.............................. CYCLE   71 ..............................
........................................................................
   1    -38.2724742 -0.382725E+02  0.164E-02    1.84       0.0  T
   2    -38.2724743 -0.750020E-07  0.107E-02    1.84       1.7  T
   3    -38.2724737  0.627787E-06  0.624E-03    1.84       2.9  T
   4    -38.2724744 -0.710069E-06  0.136E-03    1.84      13.2  T
   5    -38.2724744 -0.104074E-07  0.120E-03    1.84      15.0  T
   6    -38.2724744 -0.777081E-08  0.343E-04    1.84      52.4  T
   7    -38.2724744 -0.890985E-09  0.191E-04    1.84      94.1  T
     SCC iter.                  ...        0 min,  0.189 sec
     gradient                   ...        0 min,  0.009 sec
 * total energy  :   -37.6471783 Eh     change       -0.1744762E-04 Eh
   gradient norm :     0.0009402 Eh/α   predicted    -0.1154660E-04 ( -33.82%)
   displ. norm   :     0.0891975 α      lambda       -0.1517960E-04
   maximum displ.:     0.0753701 α      in ANC's #3, #5, #9, ...

........................................................................
.............................. CYCLE   72 ..............................
........................................................................
   1    -38.2718115 -0.382718E+02  0.222E-02    1.84       0.0  T
   2    -38.2718116 -0.137381E-06  0.148E-02    1.84       1.2  T
   3    -38.2718112  0.391757E-06  0.468E-03    1.84       3.8  T
   4    -38.2718117 -0.443029E-06  0.213E-03    1.84       8.4  T
   5    -38.2718117 -0.200661E-07  0.114E-03    1.84      15.8  T
   6    -38.2718117 -0.716684E-08  0.516E-04    1.84      34.8  T
   7    -38.2718117 -0.250252E-08  0.253E-04    1.84      70.9  T
     SCC iter.                  ...        0 min,  0.202 sec
     gradient                   ...        0 min,  0.083 sec
 * total energy  :   -37.6471962 Eh     change       -0.1790054E-04 Eh
   gradient norm :     0.0019790 Eh/α   predicted    -0.7619461E-05 ( -57.43%)
   displ. norm   :     0.0673406 α      lambda       -0.1182735E-04
   maximum displ.:     0.0582336 α      in ANC's #3, #5, #4, ...

........................................................................
.............................. CYCLE   73 ..............................
........................................................................
   1    -38.2719126 -0.382719E+02  0.181E-02    1.84       0.0  T
   2    -38.2719127 -0.695911E-07  0.124E-02    1.84       1.4  T
   3    -38.2719117  0.977846E-06  0.699E-03    1.84       2.6  T
   4    -38.2719128 -0.109386E-05  0.139E-03    1.84      12.9  T
   5    -38.2719128 -0.219393E-07  0.790E-04    1.84      22.7  T
   6    -38.2719128 -0.149831E-08  0.224E-04    1.84      80.2  T
     SCC iter.                  ...        0 min,  0.136 sec
     gradient                   ...        0 min,  0.004 sec
 * total energy  :   -37.6472128 Eh     change       -0.1661153E-04 Eh
   gradient norm :     0.0018176 Eh/α   predicted    -0.5926980E-05 ( -64.32%)
   displ. norm   :     0.0788148 α      lambda       -0.1531877E-04
   maximum displ.:     0.0671128 α      in ANC's #3, #4, #5, ...

........................................................................
.............................. CYCLE   74 ..............................
........................................................................
   1    -38.2724075 -0.382724E+02  0.204E-02    1.84       0.0  T
   2    -38.2724076 -0.587628E-07  0.135E-02    1.84       1.3  T
   3    -38.2724063  0.127109E-05  0.942E-03    1.84       1.9  T
   4    -38.2724079 -0.158208E-05  0.187E-03    1.84       9.6  T
   5    -38.2724079 -0.199787E-07  0.112E-03    1.84      16.0  T
   6    -38.2724079 -0.471156E-08  0.316E-04    1.84      56.8  T
   7    -38.2724079 -0.481513E-09  0.200E-04    1.84      89.6  T
     SCC iter.                  ...        0 min,  0.177 sec
     gradient                   ...        0 min,  0.005 sec
 * total energy  :   -37.6472328 Eh     change       -0.1999311E-04 Eh
   gradient norm :     0.0009069 Eh/α   predicted    -0.7681082E-05 ( -61.58%)
   displ. norm   :     0.0987798 α      lambda       -0.1792140E-04
   maximum displ.:     0.0838782 α      in ANC's #3, #4, #2, ...

........................................................................
.............................. CYCLE   75 ..............................
........................................................................
   1    -38.2729392 -0.382729E+02  0.270E-02    1.84       0.0  T
   2    -38.2729394 -0.220716E-06  0.164E-02    1.84       1.1  T
   3    -38.2729390  0.457923E-06  0.623E-03    1.84       2.9  T
   4    -38.2729395 -0.556478E-06  0.180E-03    1.84      10.0  T
   5    -38.2729395 -0.591179E-08  0.116E-03    1.84      15.5  T
   6    -38.2729395  0.161820E-08  0.602E-04    1.84      29.9  T
   7    -38.2729395 -0.534288E-08  0.228E-04    1.84      78.8  T
     SCC iter.                  ...        0 min,  0.138 sec
     gradient                   ...        0 min,  0.005 sec
 * total energy  :   -37.6472552 Eh     change       -0.2245434E-04 Eh
   gradient norm :     0.0013762 Eh/α   predicted    -0.9001040E-05 ( -59.91%)
   displ. norm   :     0.0959622 α      lambda       -0.1548688E-04
   maximum displ.:     0.0805322 α      in ANC's #3, #4, #2, ...

........................................................................
.............................. CYCLE   76 ..............................
........................................................................
   1    -38.2730688 -0.382731E+02  0.171E-02    1.84       0.0  T
   2    -38.2730688 -0.887019E-07  0.103E-02    1.84       1.7  T
   3    -38.2730684  0.466391E-06  0.566E-03    1.84       3.2  T
   4    -38.2730689 -0.530797E-06  0.152E-03    1.84      11.8  T
   5    -38.2730689 -0.204549E-07  0.750E-04    1.84      24.0  T
   6    -38.2730689 -0.496492E-09  0.178E-04    1.84     100.8  T
     SCC iter.                  ...        0 min,  0.149 sec
     gradient                   ...        0 min,  0.008 sec
 * total energy  :   -37.6472780 Eh     change       -0.2278589E-04 Eh
   gradient norm :     0.0018090 Eh/α   predicted    -0.7777267E-05 ( -65.87%)
   displ. norm   :     0.1170607 α      lambda       -0.2088987E-04
   maximum displ.:     0.0956044 α      in ANC's #3, #4, #2, ...

........................................................................
.............................. CYCLE   77 ..............................
........................................................................
   1    -38.2730229 -0.382730E+02  0.183E-02    1.84       0.0  T
   2    -38.2730231 -0.159888E-06  0.106E-02    1.84       1.7  T
   3    -38.2730228  0.257602E-06  0.557E-03    1.84       3.2  T
   4    -38.2730231 -0.332670E-06  0.139E-03    1.84      12.9  T
   5    -38.2730231  0.938513E-09  0.961E-04    1.84      18.7  T
   6    -38.2730231 -0.502929E-08  0.253E-04    1.84      70.9  T
     SCC iter.                  ...        0 min,  0.167 sec
     gradient                   ...        0 min,  0.008 sec
 * total energy  :   -37.6473091 Eh     change       -0.3106893E-04 Eh
   gradient norm :     0.0018161 Eh/α   predicted    -0.1051119E-04 ( -66.17%)
   displ. norm   :     0.1833677 α      lambda       -0.3425964E-04
   maximum displ.:     0.1462426 α      in ANC's #3, #2, #4, ...

........................................................................
.............................. CYCLE   78 ..............................
........................................................................
   1    -38.2726268 -0.382726E+02  0.270E-02    1.84       0.0  T
   2    -38.2726272 -0.372810E-06  0.160E-02    1.84       1.1  T
   3    -38.2726265  0.672350E-06  0.839E-03    1.84       2.1  T
   4    -38.2726273 -0.850044E-06  0.212E-03    1.84       8.5  T
   5    -38.2726273 -0.702127E-08  0.158E-03    1.84      11.4  T
   6    -38.2726274 -0.116949E-07  0.401E-04    1.84      44.7  T
   7    -38.2726274 -0.278519E-08  0.251E-04    1.84      71.5  T
     SCC iter.                  ...        0 min,  0.173 sec
     gradient                   ...        0 min,  0.019 sec
 * total energy  :   -37.6473598 Eh     change       -0.5075602E-04 Eh
   gradient norm :     0.0016575 Eh/α   predicted    -0.1738807E-04 ( -65.74%)
   displ. norm   :     0.2710706 α      lambda       -0.5159910E-04
   maximum displ.:     0.2128986 α      in ANC's #3, #2, #4, ...

........................................................................
.............................. CYCLE   79 ..............................
........................................................................
   1    -38.2717163 -0.382717E+02  0.391E-02    1.84       0.0  T
   2    -38.2717171 -0.750526E-06  0.231E-02    1.84       1.0  T
   3    -38.2717149  0.213096E-05  0.142E-02    1.84       1.3  T
   4    -38.2717175 -0.257157E-05  0.342E-03    1.84       5.3  T
   5    -38.2717176 -0.610661E-07  0.269E-03    1.84       6.7  T
   6    -38.2717176 -0.334379E-07  0.656E-04    1.84      27.4  T
   7    -38.2717176 -0.696998E-08  0.340E-04    1.84      52.9  T
     SCC iter.                  ...        0 min,  0.166 sec
     gradient                   ...        0 min,  0.014 sec
 * total energy  :   -37.6474345 Eh     change       -0.7462492E-04 Eh
   gradient norm :     0.0020587 Eh/α   predicted    -0.2664421E-04 ( -64.30%)
   displ. norm   :     0.2480342 α      lambda       -0.7074404E-04
   maximum displ.:     0.1938491 α      in ANC's #3, #2, #4, ...

........................................................................
.............................. CYCLE   80 ..............................
........................................................................
   1    -38.2708600 -0.382709E+02  0.363E-02    1.84       0.0  T
   2    -38.2708606 -0.588570E-06  0.219E-02    1.84       1.0  T
   3    -38.2708591  0.148858E-05  0.118E-02    1.84       1.5  T
   4    -38.2708609 -0.179005E-05  0.294E-03    1.84       6.1  T
   5    -38.2708609 -0.243047E-07  0.240E-03    1.84       7.5  T
   6    -38.2708610 -0.318556E-07  0.605E-04    1.84      29.7  T
   7    -38.2708610 -0.511223E-08  0.330E-04    1.84      54.4  T
     SCC iter.                  ...        0 min,  0.146 sec
     gradient                   ...        0 min,  0.016 sec
 * total energy  :   -37.6475010 Eh     change       -0.6650209E-04 Eh
   gradient norm :     0.0028068 Eh/α   predicted    -0.3754947E-04 ( -43.54%)
   displ. norm   :     0.3713661 α      lambda       -0.1032275E-03
   maximum displ.:     0.2913510 α      in ANC's #3, #2, #4, ...

........................................................................
.............................. CYCLE   81 ..............................
........................................................................
   1    -38.2690481 -0.382690E+02  0.554E-02    1.84       0.0  T
   2    -38.2690493 -0.126686E-05  0.335E-02    1.84       1.0  T
   3    -38.2690455  0.383718E-05  0.186E-02    1.84       1.0  T
   4    -38.2690500 -0.452269E-05  0.456E-03    1.84       3.9  T
   5    -38.2690501 -0.720467E-07  0.381E-03    1.84       4.7  T
   6    -38.2690502 -0.817731E-07  0.964E-04    1.84      18.6  T
   7    -38.2690502 -0.120933E-07  0.473E-04    1.84      38.0  T
     SCC iter.                  ...        0 min,  0.179 sec
     gradient                   ...        0 min,  0.016 sec
 * total energy  :   -37.6475876 Eh     change       -0.8660621E-04 Eh
   gradient norm :     0.0046022 Eh/α   predicted    -0.5873525E-04 ( -32.18%)
   displ. norm   :     0.5051805 α      lambda       -0.1238537E-03
   maximum displ.:     0.4029117 α      in ANC's #3, #2, #4, ...

........................................................................
.............................. CYCLE   82 ..............................
........................................................................
   1    -38.2655851 -0.382656E+02  0.773E-02    1.84       0.0  T
   2    -38.2655874 -0.232382E-05  0.471E-02    1.84       1.0  T
   3    -38.2655802  0.720715E-05  0.253E-02    1.84       1.0  T
   4    -38.2655886 -0.841673E-05  0.636E-03    1.84       2.8  T
   5    -38.2655887 -0.116630E-06  0.536E-03    1.84       3.4  T
   6    -38.2655889 -0.164974E-06  0.142E-03    1.84      12.7  T
   7    -38.2655889 -0.236310E-07  0.655E-04    1.84      27.4  T
   8    -38.2655889 -0.433295E-08  0.262E-04    1.84      68.5  T
     SCC iter.                  ...        0 min,  0.224 sec
     gradient                   ...        0 min,  0.078 sec
 * total energy  :   -37.6476530 Eh     change       -0.6537375E-04 Eh
   gradient norm :     0.0080148 Eh/α   predicted    -0.7773160E-04 (  18.90%)
   displ. norm   :     0.0818507 α      lambda       -0.1007220E-03
   maximum displ.:     0.0711081 α      in ANC's #3, #57, #2, ...

........................................................................
.............................. CYCLE   83 ..............................
........................................................................
   1    -38.2683056 -0.382683E+02  0.173E-02    1.84       0.0  T
   2    -38.2683058 -0.160497E-06  0.986E-03    1.84       1.8  T
   3    -38.2683054  0.353348E-06  0.684E-03    1.84       2.6  T
   4    -38.2683059 -0.433008E-06  0.235E-03    1.84       7.6  T
   5    -38.2683059 -0.414452E-08  0.195E-03    1.84       9.2  T
   6    -38.2683059 -0.695319E-08  0.578E-04    1.84      31.1  T
   7    -38.2683059 -0.312611E-08  0.178E-04    1.84     101.0  T
     SCC iter.                  ...        0 min,  0.164 sec
     gradient                   ...        0 min,  0.005 sec
 * total energy  :   -37.6477319 Eh     change       -0.7895482E-04 Eh
   gradient norm :     0.0059477 Eh/α   predicted    -0.5070057E-04 ( -35.79%)
   displ. norm   :     0.3780536 α      lambda       -0.1477733E-03
   maximum displ.:     0.3170626 α      in ANC's #3, #2, #4, ...

........................................................................
.............................. CYCLE   84 ..............................
........................................................................
   1    -38.2698712 -0.382699E+02  0.566E-02    1.84       0.0  T
   2    -38.2698721 -0.908404E-06  0.347E-02    1.84       1.0  T
   3    -38.2698672  0.490839E-05  0.207E-02    1.84       1.0  T
   4    -38.2698728 -0.557640E-05  0.502E-03    1.84       3.6  T
   5    -38.2698728 -0.351980E-07  0.424E-03    1.84       4.2  T
   6    -38.2698729 -0.107171E-06  0.870E-04    1.84      20.6  T
   7    -38.2698729 -0.101624E-07  0.534E-04    1.84      33.7  T
     SCC iter.                  ...        0 min,  0.164 sec
     gradient                   ...        0 min,  0.013 sec
 * total energy  :   -37.6478494 Eh     change       -0.1175190E-03 Eh
   gradient norm :     0.0056979 Eh/α   predicted    -0.8445109E-04 ( -28.14%)
   displ. norm   :     0.4841398 α      lambda       -0.1647595E-03
   maximum displ.:     0.4059629 α      in ANC's #3, #2, #4, ...

........................................................................
.............................. CYCLE   85 ..............................
........................................................................
   1    -38.2696399 -0.382696E+02  0.761E-02    1.84       0.0  T
   2    -38.2696412 -0.130683E-05  0.490E-02    1.84       1.0  T
   3    -38.2696349  0.631183E-05  0.205E-02    1.84       1.0  T
   4    -38.2696419 -0.702560E-05  0.547E-03    1.84       3.3  T
   5    -38.2696419 -0.338506E-07  0.508E-03    1.84       3.5  T
   6    -38.2696421 -0.207551E-06  0.975E-04    1.84      18.4  T
   7    -38.2696422 -0.100926E-07  0.602E-04    1.84      29.8  T
     SCC iter.                  ...        0 min,  0.179 sec
     gradient                   ...        0 min,  0.004 sec
 * total energy  :   -37.6479851 Eh     change       -0.1356734E-03 Eh
   gradient norm :     0.0053689 Eh/α   predicted    -0.1016939E-03 ( -25.05%)
   displ. norm   :     0.4393543 α      lambda       -0.2642050E-03
   maximum displ.:     0.3674876 α      in ANC's #3, #2, #4, ...

........................................................................
.............................. CYCLE   86 ..............................
........................................................................
   1    -38.2761680 -0.382762E+02  0.930E-02    1.85       0.0  T
   2    -38.2761715 -0.351031E-05  0.622E-02    1.84       1.0  T
   3    -38.2761663  0.522296E-05  0.167E-02    1.85       1.1  T
   4    -38.2761725 -0.617088E-05  0.690E-03    1.85       2.6  T
   5    -38.2761726 -0.166177E-06  0.431E-03    1.84       4.2  T
   6    -38.2761727 -0.178067E-07  0.179E-03    1.84      10.1  T
   7    -38.2761727 -0.564135E-07  0.732E-04    1.84      24.5  T
   8    -38.2761727 -0.880640E-09  0.500E-04    1.84      35.9  T
     SCC iter.                  ...        0 min,  0.192 sec
     gradient                   ...        0 min,  0.006 sec
 * total energy  :   -37.6481240 Eh     change       -0.1389068E-03 Eh
   gradient norm :     0.0045521 Eh/α   predicted    -0.1576150E-03 (  13.47%)
   displ. norm   :     0.6956349 α      lambda       -0.2126360E-03
   maximum displ.:     0.5823495 α      in ANC's #3, #2, #4, ...

........................................................................
.............................. CYCLE   87 ..............................
........................................................................
   1    -38.2658777 -0.382659E+02  0.126E-01    1.84       0.0  T
   2    -38.2658819 -0.420905E-05  0.856E-02    1.85       1.0  T
   3    -38.2658697  0.122460E-04  0.228E-02    1.84       1.0  T
   4    -38.2658837 -0.139992E-04  0.104E-02    1.85       1.7  T
   5    -38.2658840 -0.262823E-06  0.565E-03    1.84       3.2  T
   6    -38.2658840 -0.774136E-07  0.297E-03    1.84       6.0  T
   7    -38.2658842 -0.139590E-06  0.998E-04    1.84      18.0  T
   8    -38.2658842 -0.552312E-09  0.747E-04    1.84      24.0  T
     SCC iter.                  ...        0 min,  0.171 sec
     gradient                   ...        0 min,  0.011 sec
 * total energy  :   -37.6480704 Eh     change        0.5359287E-04 Eh
   gradient norm :     0.0087088 Eh/α   predicted    -0.1577782E-03 (-394.40%)
   displ. norm   :     0.3276270 α      lambda       -0.3148331E-03
   maximum displ.:     0.2712512 α      in ANC's #3, #2, #4, ...

........................................................................
.............................. CYCLE   88 ..............................
........................................................................
   1    -38.2737649 -0.382738E+02  0.624E-02    1.84       0.0  T
   2    -38.2737660 -0.115613E-05  0.398E-02    1.84       1.0  T
   3    -38.2737620  0.409704E-05  0.158E-02    1.85       1.1  T
   4    -38.2737665 -0.454519E-05  0.548E-03    1.84       3.3  T
   5    -38.2737667 -0.179204E-06  0.434E-03    1.84       4.1  T
   6    -38.2737667 -0.292776E-07  0.130E-03    1.84      13.9  T
   7    -38.2737667 -0.224326E-07  0.591E-04    1.84      30.4  T
   8    -38.2737667 -0.231749E-08  0.359E-04    1.84      50.1  T
     SCC iter.                  ...        0 min,  0.237 sec
     gradient                   ...        0 min,  0.006 sec
 * total energy  :   -37.6482018 Eh     change       -0.1314020E-03 Eh
   gradient norm :     0.0013826 Eh/α   predicted    -0.1743093E-03 (  32.65%)
   displ. norm   :     0.1101469 α      lambda       -0.1118705E-04
   maximum displ.:     0.0902416 α      in ANC's #3, #4, #2, ...

........................................................................
.............................. CYCLE   89 ..............................
........................................................................
   1    -38.2733333 -0.382733E+02  0.254E-02    1.84       0.0  T
   2    -38.2733335 -0.212693E-06  0.184E-02    1.84       1.0  T
   3    -38.2733322  0.129636E-05  0.714E-03    1.84       2.5  T
   4    -38.2733336 -0.137677E-05  0.255E-03    1.84       7.1  T
   5    -38.2733337 -0.964523E-07  0.135E-03    1.84      13.3  T
   6    -38.2733337 -0.744523E-08  0.444E-04    1.84      40.5  T
   7    -38.2733337 -0.870138E-09  0.234E-04    1.84      76.9  T
     SCC iter.                  ...        0 min,  0.172 sec
     gradient                   ...        0 min,  0.013 sec
 * total energy  :   -37.6482147 Eh     change       -0.1286996E-04 Eh
   gradient norm :     0.0009931 Eh/α   predicted    -0.5624405E-05 ( -56.30%)
   displ. norm   :     0.1474545 α      lambda       -0.9996364E-05
   maximum displ.:     0.1150629 α      in ANC's #3, #4, #2, ...

........................................................................
.............................. CYCLE   90 ..............................
........................................................................
   1    -38.2729171 -0.382729E+02  0.354E-02    1.84       0.0  T
   2    -38.2729174 -0.310674E-06  0.253E-02    1.84       1.0  T
   3    -38.2729142  0.322471E-05  0.120E-02    1.84       1.5  T
   4    -38.2729177 -0.350349E-05  0.319E-03    1.84       5.6  T
   5    -38.2729179 -0.157667E-06  0.181E-03    1.84       9.9  T
   6    -38.2729179 -0.112735E-07  0.560E-04    1.84      32.1  T
   7    -38.2729179 -0.180624E-08  0.323E-04    1.84      55.6  T
     SCC iter.                  ...        0 min,  0.194 sec
     gradient                   ...        0 min,  0.087 sec
 * total energy  :   -37.6482232 Eh     change       -0.8485837E-05 Eh
   gradient norm :     0.0011902 Eh/α   predicted    -0.5049833E-05 ( -40.49%)
   displ. norm   :     0.0385408 α      lambda       -0.2893635E-05
   maximum displ.:     0.0235511 α      in ANC's #4, #3, #2, ...

........................................................................
.............................. CYCLE   91 ..............................
........................................................................
   1    -38.2732398 -0.382732E+02  0.120E-02    1.84       0.0  T
   2    -38.2732398 -0.193773E-07  0.770E-03    1.84       2.3  T
   3    -38.2732394  0.406220E-06  0.512E-03    1.84       3.5  T
   4    -38.2732399 -0.449351E-06  0.864E-04    1.84      20.8  T
   5    -38.2732399  0.544347E-10  0.768E-04    1.84      23.4  T
     SCC iter.                  ...        0 min,  0.117 sec
     gradient                   ...        0 min,  0.006 sec
 * total energy  :   -37.6482264 Eh     change       -0.3177137E-05 Eh
   gradient norm :     0.0011981 Eh/α   predicted    -0.1450096E-05 ( -54.36%)
   displ. norm   :     0.0834425 α      lambda       -0.5991686E-05
   maximum displ.:     0.0562623 α      in ANC's #4, #3, #2, ...

........................................................................
.............................. CYCLE   92 ..............................
........................................................................
   1    -38.2734491 -0.382734E+02  0.229E-02    1.84       0.0  T
   2    -38.2734493 -0.123511E-06  0.146E-02    1.84       1.2  T
   3    -38.2734486  0.654528E-06  0.559E-03    1.84       3.2  T
   4    -38.2734494 -0.745667E-06  0.164E-03    1.84      10.9  T
   5    -38.2734494 -0.418262E-08  0.878E-04    1.84      20.5  T
   6    -38.2734494 -0.118435E-08  0.364E-04    1.84      49.3  T
     SCC iter.                  ...        0 min,  0.166 sec
     gradient                   ...        0 min,  0.076 sec
 * total energy  :   -37.6482325 Eh     change       -0.6184069E-05 Eh
   gradient norm :     0.0008212 Eh/α   predicted    -0.3009133E-05 ( -51.34%)
   displ. norm   :     0.0841049 α      lambda       -0.4976882E-05
   maximum displ.:     0.0580412 α      in ANC's #4, #2, #3, ...
 * RMSD in coord.:     0.7835772 α      energy gain  -0.1126862E-02 Eh

generating ANC from model Hessian ...
Using Lindh-Hessian (1995)
 Shifting diagonal of input Hessian by    1.3359024141854674E-002
 Lowest  eigenvalues of input Hessian
    0.010000    0.012645    0.000000    0.000000    0.000000    0.000000
    0.000000    0.000000    0.013823    0.014118    0.014518    0.014930
    0.015359    0.016574    0.017242    0.020644    0.021311    0.021512
 Highest eigenvalues
    1.734774    1.735189    1.738822    1.740450    3.057376    4.113678


........................................................................
.............................. CYCLE   93 ..............................
........................................................................
   1    -38.2734100 -0.382734E+02  0.205E-02    1.84       0.0  T
   2    -38.2734101 -0.128563E-06  0.124E-02    1.84       1.4  T
   3    -38.2734093  0.797196E-06  0.777E-03    1.84       2.3  T
   4    -38.2734103 -0.913225E-06  0.174E-03    1.84      10.3  T
   5    -38.2734103 -0.145816E-07  0.120E-03    1.84      15.0  T
   6    -38.2734103 -0.492032E-08  0.401E-04    1.84      44.8  T
   7    -38.2734103 -0.247287E-08  0.130E-04    1.84     138.1  T
     SCC iter.                  ...        0 min,  0.171 sec
     gradient                   ...        0 min,  0.004 sec
 * total energy  :   -37.6482377 Eh     change       -0.5211632E-05 Eh
   gradient norm :     0.0009074 Eh/α   predicted     0.0000000E+00 (-100.00%)
   displ. norm   :     0.0204616 α      lambda        0.3864642E-06
   maximum displ.:     0.0107649 α      in ANC's #2, #8, #3, ...

........................................................................
.............................. CYCLE   94 ..............................
........................................................................
   1    -38.2733421 -0.382733E+02  0.109E-02    1.84       0.0  T
   2    -38.2733422 -0.772376E-07  0.662E-03    1.84       2.7  T
   3    -38.2733420  0.176538E-06  0.362E-03    1.84       5.0  T
   4    -38.2733422 -0.217064E-06  0.152E-03    1.84      11.8  T
   5    -38.2733422 -0.203262E-07  0.890E-04    1.84      20.2  T
   6    -38.2733422  0.150430E-08  0.431E-04    1.84      41.7  T
     SCC iter.                  ...        0 min,  0.118 sec
     gradient                   ...        0 min,  0.006 sec
 * total energy  :   -37.6482408 Eh     change       -0.3024176E-05 Eh
   gradient norm :     0.0005216 Eh/α   predicted    -0.2016902E-05 ( -33.31%)
   displ. norm   :     0.0425735 α      lambda       -0.5237745E-05
   maximum displ.:     0.0351479 α      in ANC's #2, #3, #11, ...

   *** GEOMETRY OPTIMIZATION CONVERGED AFTER 94 ITERATIONS ***

------------------------------------------------------------------------
 total energy gain   :        -9.5271806 Eh    -5978.3961 kcal/mol
 total RMSD          :         1.7345955 a0        0.9179 Å
 total power (kW/mol):      -266.1022260 (step)-1043.6022 (real)
------------------------------------------------------------------------

 ANCopt (total)                0 d,  0 h,  0 min, 23.969 sec
 optimizer setup                ...        0 min,  0.001 sec (  0.003%)
 model hessian                  ...        0 min,  0.069 sec (  0.289%)
 ANC generation                 ...        0 min,  0.008 sec (  0.034%)
 coordinate transformation      ...        0 min,  0.001 sec (  0.005%)
 single point calculation       ...        0 min, 23.532 sec ( 98.180%)
 optimization log               ...        0 min,  0.013 sec (  0.053%)
 hessian update                 ...        0 min,  0.232 sec (  0.968%)
 rational function              ...        0 min,  0.106 sec (  0.441%)

================
 final structure:
================
31
 xtb: 6.5.1 (b24c23e)
Zr          -1.01846165573717       -0.08998645866315        0.47277928271968
C           -3.36544936901159        0.54446775814488       -0.69563591690039
C            0.23059281733420       -2.16676321928781        0.83283438952067
C            0.12062497161754       -1.96958598404259       -0.56637098193619
C           -1.25123340839939       -2.08646259076375       -0.91649635619302
C           -1.98413097250700       -2.34936308659590        0.26658669888409
C           -1.06957899088929       -2.40331645669984        1.34509022753216
H            1.16044225779842       -2.28159260250584        1.37988240123419
H            0.95019851838460       -1.92166350196897       -1.26354604396549
H           -1.64018259344724       -2.12305526516211       -1.92733288355716
H           -3.02953824103602       -2.63730356285643        0.31377990393573
H           -1.30363078921626       -2.72898802315981        2.35252619610506
C           -0.25909260768370        0.20589262112260        2.79281643891293
C           -1.62961413362494        0.56085535084640        2.76564750001225
C           -1.76014136290389        1.73139066232582        1.97568405743585
C           -0.47783222047806        2.08235256721754        1.49645956348044
C            0.45285509514047        1.12404866645345        1.98192887484649
H            0.18633993685206       -0.54460739601726        3.43536512804401
H           -2.40606140356747        0.12990552562024        3.39055838577872
H           -2.65253545957694        2.34109538779726        1.88881163068921
H           -0.22411742121027        3.00895743232623        0.99684796728187
H            1.53358488698832        1.19853111045439        1.90713187908171
C           -0.45517102348204        0.98179576986428       -1.37259019786780
C           -1.78667783928019        1.59913577062042       -1.55266440004861
H           -2.21439855753420        1.56385006745194       -2.55148142626292
H           -1.92582109300692        2.57517648812274       -1.08842343881936
H           -0.17814561100223        0.38222348267853       -2.24939942926888
H            0.31480833442322        1.74384437441739       -1.18220891684239
H           -3.20873091779962        0.16548453928007        0.33716263729760
H           -4.13441217674869        1.30600650552641       -0.71135401992260
H           -3.58638820038412       -0.24361381255965       -1.40934503119622

 Bond Distances (Angstroems)
 ---------------------------
Zr1-C2=2.6974        Zr1-C3=2.4501        Zr1-C4=2.4311        Zr1-C5=2.4434        Zr1-C6=2.4657        Zr1-C7=2.4729        
Zr1-C13=2.4590       Zr1-C14=2.4606       Zr1-C15=2.4751       Zr1-C16=2.4616       Zr1-C17=2.4323       Zr1-C23=2.2071       
Zr1-C24=2.7469       Zr1-H29=2.2093       C2-Zr1=2.6974        C2-H29=1.1112        C2-H30=1.0824        C2-H31=1.0859        
C3-Zr1=2.4501        C3-C4=1.4173         C3-C7=1.4173         C3-H8=1.0849         C4-Zr1=2.4311        C4-C3=1.4173         
C4-C5=1.4206         C4-H9=1.0847         C5-Zr1=2.4434        C5-C4=1.4206         C5-C6=1.4163         C5-H10=1.0837        
C6-Zr1=2.4657        C6-C5=1.4163         C6-C7=1.4151         C6-H11=1.0854        C7-Zr1=2.4729        C7-C3=1.4173         
C7-C6=1.4151         C7-H12=1.0843        H8-C3=1.0849         H9-C4=1.0847         H10-C5=1.0837        H11-C6=1.0854        
H12-C7=1.0843        C13-Zr1=2.4590       C13-C14=1.4160       C13-C17=1.4168       C13-H18=1.0838       C14-Zr1=2.4606       
C14-C13=1.4160       C14-C15=1.4182       C14-H19=1.0859       C15-Zr1=2.4751       C15-C14=1.4182       C15-C16=1.4132       
C15-H20=1.0843       C16-Zr1=2.4616       C16-C15=1.4132       C16-C17=1.4213       C16-H21=1.0829       C17-Zr1=2.4323       
C17-C13=1.4168       C17-C16=1.4213       C17-H22=1.0859       H18-C13=1.0838       H19-C14=1.0859       H20-C15=1.0843       
H21-C16=1.0829       H22-C17=1.0859       C23-Zr1=2.2071       C23-C24=1.4787       C23-H27=1.0977       C23-H28=1.0999       
C24-Zr1=2.7469       C24-C23=1.4787       C24-H25=1.0871       C24-H26=1.0897       H25-C24=1.0871       H26-C24=1.0897       
H27-C23=1.0977       H28-C23=1.0999       H29-Zr1=2.2093       H29-C2=1.1112        H30-C2=1.0824        H31-C2=1.0859        
 C  H  Rav=1.0882 sigma=0.0074  Rmin=1.0824  Rmax=1.1112    17
 C  C  Rav=1.4228 sigma=0.0178  Rmin=1.4132  Rmax=1.4787    11
 Zr H  Rav=2.2093 sigma=0.0000  Rmin=2.2093  Rmax=2.2093     1
 Zr C  Rav=2.4772 sigma=0.1244  Rmin=2.2071  Rmax=2.7469    13

 selected bond angles (degree)
 --------------------
C3-Zr1-C2=134.96               C4-Zr1-C2=113.85               C4-Zr1-C3= 33.76               C5-Zr1-C2= 82.13               
C5-Zr1-C3= 55.91               C5-Zr1-C4= 33.89               C6-Zr1-C2= 80.71               C6-Zr1-C3= 55.61               
C6-Zr1-C4= 55.90               C6-Zr1-C5= 33.53               C7-Zr1-C2=110.78               C7-Zr1-C3= 33.46               
C7-Zr1-C4= 55.75               C7-Zr1-C5= 55.54               C7-Zr1-C6= 33.30               C13-Zr1-C2=130.47              
C13-Zr1-C3= 78.81              C13-Zr1-C4=110.59              C13-Zr1-C5=131.62              C13-Zr1-C6=108.06              
C13-Zr1-C7= 77.65              C14-Zr1-C2= 97.20              C14-Zr1-C3=102.35              C14-Zr1-C4=135.99              
C14-Zr1-C5=136.24              C14-Zr1-C6=102.89              C14-Zr1-C7= 85.04              C14-Zr1-C13= 33.46             
C15-Zr1-C2= 80.17              C15-Zr1-C3=133.42              C15-Zr1-C4=165.67              C15-Zr1-C5=156.63              
C15-Zr1-C6=127.42              C15-Zr1-C7=117.91              C15-Zr1-C13= 55.33             C15-Zr1-C14= 33.39             
C16-Zr1-C2= 99.42              C16-Zr1-C3=125.10              C16-Zr1-C4=139.21              C16-Zr1-C5=168.09              
C16-Zr1-C6=158.35              C16-Zr1-C7=133.11              C16-Zr1-C13= 55.50             C16-Zr1-C14= 55.50             
C16-Zr1-C15= 33.27             C17-Zr1-C2=132.66              C17-Zr1-C3= 91.35              C17-Zr1-C4=111.57              
C17-Zr1-C5=144.91              C17-Zr1-C6=138.26              C17-Zr1-C7=105.10              C17-Zr1-C13= 33.67             
C17-Zr1-C14= 55.95             C17-Zr1-C15= 55.75             C17-Zr1-C16= 33.76             C23-Zr1-C2= 75.27              
C23-Zr1-C3=113.85              C23-Zr1-C4= 84.17              C23-Zr1-C5= 86.89              C23-Zr1-C6=118.36              
C23-Zr1-C7=138.98              C23-Zr1-C13=130.66             C23-Zr1-C14=135.57             C23-Zr1-C15=103.11             
C23-Zr1-C16= 82.13             C23-Zr1-C17= 97.01             C24-Zr1-C2= 44.98              C24-Zr1-C3=140.55              
C24-Zr1-C4=106.93              C24-Zr1-C5= 93.24              C24-Zr1-C6=113.10              C24-Zr1-C7=146.05              
C24-Zr1-C13=135.08             C24-Zr1-C14=117.06             C24-Zr1-C15= 84.92             C24-Zr1-C16= 79.94             
C24-Zr1-C17=108.65             C24-Zr1-C23= 32.47             H29-Zr1-C2= 23.60              H29-Zr1-C3=127.77              
H29-Zr1-C4=121.85              H29-Zr1-C5= 88.00              H29-Zr1-C6= 73.30              H29-Zr1-C7= 96.28              
H29-Zr1-C13=110.50             H29-Zr1-C14= 77.31             H29-Zr1-C15= 69.82             H29-Zr1-C16= 98.12             
H29-Zr1-C17=125.46             H29-Zr1-C23= 98.37             H29-Zr1-C24= 66.82             H29-C2-Zr1= 52.73              
H30-C2-Zr1=142.18              H30-C2-H29=110.71              H31-C2-Zr1=106.92              H31-C2-H29=113.08              
H31-C2-H30=110.89              C4-C3-Zr1= 72.39               C7-C3-Zr1= 74.15               C7-C3-C4=107.99                
H8-C3-Zr1=126.92               H8-C3-C4=125.38                H8-C3-C7=125.90                C3-C4-Zr1= 73.86               
C5-C4-Zr1= 73.53               C5-C4-C3=107.87                H9-C4-Zr1=126.79               H9-C4-C3=125.55                
H9-C4-C5=125.72                C4-C5-Zr1= 72.58               C6-C5-Zr1= 74.10               C6-C5-C4=108.00                
H10-C5-Zr1=126.31              H10-C5-C4=125.40               H10-C5-C6=125.96               C5-C6-Zr1= 72.37               
C7-C6-Zr1= 73.63               C7-C6-C5=108.02                H11-C6-Zr1=128.07              H11-C6-C5=125.73               
H11-C6-C7=125.40               C3-C7-Zr1= 72.39               C6-C7-Zr1= 73.07               C6-C7-C3=108.12                
H12-C7-Zr1=127.82              H12-C7-C3=125.73               H12-C7-C6=125.45               

 selected dihedral angles (degree)
 ---------------------------------
H29-C2-Zr1-C3= 82.89          H29-C2-Zr1-C4=115.41          H29-C2-Zr1-C5=103.22          H29-C2-Zr1-C6= 69.32          
H29-C2-Zr1-C7= 54.78          H29-C2-Zr1-C13=323.45         H29-C2-Zr1-C14=327.37         H29-C2-Zr1-C15=298.53         
H29-C2-Zr1-C16=271.27         H29-C2-Zr1-C17=278.00         H29-C2-Zr1-C23=192.05         H29-C2-Zr1-C24=205.88         
H30-C2-Zr1-C3=158.09          H30-C2-Zr1-C4=190.61          H30-C2-Zr1-C5=178.42          H30-C2-Zr1-C6=144.52          
H30-C2-Zr1-C7=129.98          H30-C2-Zr1-C13= 38.65         H30-C2-Zr1-C14= 42.57         H30-C2-Zr1-C15= 13.73         
H30-C2-Zr1-C16=346.47         H30-C2-Zr1-C17=353.20         H30-C2-Zr1-C23=267.25         H30-C2-Zr1-C24=281.08         
H30-C2-Zr1-H29= 75.20         H31-C2-Zr1-C3=336.42          H31-C2-Zr1-C4=  8.95          H31-C2-Zr1-C5=356.75          
H31-C2-Zr1-C6=322.86          H31-C2-Zr1-C7=308.31          H31-C2-Zr1-C13=216.99         H31-C2-Zr1-C14=220.90         
H31-C2-Zr1-C15=192.06         H31-C2-Zr1-C16=164.80         H31-C2-Zr1-C17=171.53         H31-C2-Zr1-C23= 85.59         
H31-C2-Zr1-C24= 99.41         H31-C2-Zr1-H29=253.53         C4-C3-Zr1-C2= 62.25           C4-C3-Zr1-C5= 37.69           
C4-C3-Zr1-C6= 78.54           C4-C3-Zr1-C7=115.27           C4-C3-Zr1-C13=199.76          C4-C3-Zr1-C14=175.82          
C4-C3-Zr1-C15=190.02          C4-C3-Zr1-C16=232.12          C4-C3-Zr1-C17=231.19          C4-C3-Zr1-C23=329.46          
C4-C3-Zr1-C24=353.33          C4-C3-Zr1-H29= 92.41          C7-C3-Zr1-C2=306.97           C7-C3-Zr1-C4=244.73           
C7-C3-Zr1-C5=282.42           C7-C3-Zr1-C6=323.26           C7-C3-Zr1-C13= 84.49          C7-C3-Zr1-C14= 60.55          
C7-C3-Zr1-C15= 74.75          C7-C3-Zr1-C16=116.85          C7-C3-Zr1-C17=115.92          C7-C3-Zr1-C23=214.19          
C7-C3-Zr1-C24=238.05          C7-C3-Zr1-H29=337.14          H8-C3-Zr1-C2=183.67           H8-C3-Zr1-C4=121.42           
H8-C3-Zr1-C5=159.11           H8-C3-Zr1-C6=199.96           H8-C3-Zr1-C7=236.70           H8-C3-Zr1-C13=321.19          
H8-C3-Zr1-C14=297.24          H8-C3-Zr1-C15=311.44          H8-C3-Zr1-C16=353.55          H8-C3-Zr1-C17=352.62          
H8-C3-Zr1-C23= 90.89          H8-C3-Zr1-C24=114.75          H8-C3-Zr1-H29=213.83          C3-C4-Zr1-C2=223.21           
C3-C4-Zr1-C5=245.25           C3-C4-Zr1-C6=282.37           C3-C4-Zr1-C7=322.90           C3-C4-Zr1-C13= 20.75          
C3-C4-Zr1-C14=354.12          C3-C4-Zr1-C15= 30.71          C3-C4-Zr1-C16= 81.36          C3-C4-Zr1-C17= 56.90          
C3-C4-Zr1-C23=152.15          C3-C4-Zr1-C24=175.57          C3-C4-Zr1-H29=248.40          C5-C4-Zr1-C2=337.96           
C5-C4-Zr1-C3=114.75           C5-C4-Zr1-C6= 37.12           C5-C4-Zr1-C7= 77.65           C5-C4-Zr1-C13=135.50          
C5-C4-Zr1-C14=108.87          C5-C4-Zr1-C15=145.46          C5-C4-Zr1-C16=196.11          C5-C4-Zr1-C17=171.65          
C5-C4-Zr1-C23=266.90          C5-C4-Zr1-C24=290.32          C5-C4-Zr1-H29=  3.15          H9-C4-Zr1-C2=100.58           
H9-C4-Zr1-C3=237.37           H9-C4-Zr1-C5=122.62           H9-C4-Zr1-C6=159.74           H9-C4-Zr1-C7=200.27           
H9-C4-Zr1-C13=258.12          H9-C4-Zr1-C14=231.49          H9-C4-Zr1-C15=268.08          H9-C4-Zr1-C16=318.73          
H9-C4-Zr1-C17=294.27          H9-C4-Zr1-C23= 29.52          H9-C4-Zr1-C24= 52.94          H9-C4-Zr1-H29=125.77          
Zr1-C4-C3-C7= 66.15           Zr1-C4-C3-H8=236.80           C5-C4-C3-Zr1=293.79           C5-C4-C3-C7=359.94            
C5-C4-C3-H8=170.59            H9-C4-C3-Zr1=124.02           H9-C4-C3-C7=190.17            H9-C4-C3-H8=  0.82            
C4-C5-Zr1-C2=159.73           C4-C5-Zr1-C3=322.46           C4-C5-Zr1-C6=244.77           C4-C5-Zr1-C7=281.69           
C4-C5-Zr1-C13=298.63          C4-C5-Zr1-C14=251.93          C4-C5-Zr1-C15=200.72          C4-C5-Zr1-C16= 61.40          
C4-C5-Zr1-C17=346.41          C4-C5-Zr1-C23= 84.18          C4-C5-Zr1-C24=116.03          C4-C5-Zr1-H29=182.68          
C6-C5-Zr1-C2=274.96           C6-C5-Zr1-C3= 77.69           C6-C5-Zr1-C4=115.23           C6-C5-Zr1-C7= 36.92           
C6-C5-Zr1-C13= 53.86          C6-C5-Zr1-C14=  7.16          C6-C5-Zr1-C15=315.95          C6-C5-Zr1-C16=176.63          
C6-C5-Zr1-C17=101.64          C6-C5-Zr1-C23=199.41          C6-C5-Zr1-C24=231.26          C6-C5-Zr1-H29=297.91          
H10-C5-Zr1-C2= 38.21          H10-C5-Zr1-C3=200.94          H10-C5-Zr1-C4=238.48          H10-C5-Zr1-C6=123.25          
H10-C5-Zr1-C7=160.17          H10-C5-Zr1-C13=177.11         H10-C5-Zr1-C14=130.41         H10-C5-Zr1-C15= 79.20         
H10-C5-Zr1-C16=299.88         H10-C5-Zr1-C17=224.89         H10-C5-Zr1-C23=322.66         H10-C5-Zr1-C24=354.51         
H10-C5-Zr1-H29= 61.16         Zr1-C5-C4-C3= 66.43           Zr1-C5-C4-H9=236.17           C6-C5-C4-Zr1=293.82           
C6-C5-C4-C3=  0.25            C6-C5-C4-H9=170.00            H10-C5-C4-Zr1=122.57          H10-C5-C4-C3=189.00           
H10-C5-C4-H9=358.75           C5-C6-Zr1-C2= 89.75           C5-C6-Zr1-C3=281.35           C5-C6-Zr1-C4=322.47           
C5-C6-Zr1-C7=244.43           C5-C6-Zr1-C13=219.42          C5-C6-Zr1-C14=185.07          C5-C6-Zr1-C15=159.68          
C5-C6-Zr1-C16=181.89          C5-C6-Zr1-C17=237.75          C5-C6-Zr1-C23= 22.15          C5-C6-Zr1-C24= 57.85          
C5-C6-Zr1-H29=112.76          C7-C6-Zr1-C2=205.32           C7-C6-Zr1-C3= 36.92           C7-C6-Zr1-C4= 78.04           
C7-C6-Zr1-C5=115.57           C7-C6-Zr1-C13=334.99          C7-C6-Zr1-C14=300.64          C7-C6-Zr1-C15=275.25          
C7-C6-Zr1-C16=297.46          C7-C6-Zr1-C17=353.32          C7-C6-Zr1-C23=137.72          C7-C6-Zr1-C24=173.42          
C7-C6-Zr1-H29=228.34          H11-C6-Zr1-C2=327.78          H11-C6-Zr1-C3=159.38          H11-C6-Zr1-C4=200.51          
H11-C6-Zr1-C5=238.03          H11-C6-Zr1-C7=122.46          H11-C6-Zr1-C13= 97.46         H11-C6-Zr1-C14= 63.11         
H11-C6-Zr1-C15= 37.71         H11-C6-Zr1-C16= 59.92         H11-C6-Zr1-C17=115.78         H11-C6-Zr1-C23=260.19         
H11-C6-Zr1-C24=295.88         H11-C6-Zr1-H29=350.80         Zr1-C6-C5-C4= 65.17           Zr1-C6-C5-H10=236.36          
C7-C6-C5-Zr1=294.48           C7-C6-C5-C4=359.66            C7-C6-C5-H10=170.84           H11-C6-C5-Zr1=124.64          
H11-C6-C5-C4=189.82           H11-C6-C5-H10=  1.00          C3-C7-Zr1-C2=142.79           C3-C7-Zr1-C4= 37.44           
C3-C7-Zr1-C5= 78.78           C3-C7-Zr1-C6=115.96           C3-C7-Zr1-C13=271.67          C3-C7-Zr1-C14=238.63          
C3-C7-Zr1-C15=232.47          C3-C7-Zr1-C16=269.31          C3-C7-Zr1-C17=291.36          C3-C7-Zr1-C23= 51.54          
C3-C7-Zr1-C24=105.08          C3-C7-Zr1-H29=162.00          C6-C7-Zr1-C2= 26.83           C6-C7-Zr1-C3=244.04           
C6-C7-Zr1-C4=281.48           C6-C7-Zr1-C5=322.82           C6-C7-Zr1-C13=155.71          C6-C7-Zr1-C14=122.67          
C6-C7-Zr1-C15=116.51          C6-C7-Zr1-C16=153.35          C6-C7-Zr1-C17=175.40          C6-C7-Zr1-C23=295.58          
C6-C7-Zr1-C24=349.12          C6-C7-Zr1-H29= 46.04          H12-C7-Zr1-C2=264.74          H12-C7-Zr1-C3=121.95          
H12-C7-Zr1-C4=159.38          H12-C7-Zr1-C5=200.73          H12-C7-Zr1-C6=237.91          H12-C7-Zr1-C13= 33.61         
H12-C7-Zr1-C14=  0.57         H12-C7-Zr1-C15=354.41         H12-C7-Zr1-C16= 31.26         H12-C7-Zr1-C17= 53.30         
H12-C7-Zr1-C23=173.49         H12-C7-Zr1-C24=227.02         H12-C7-Zr1-H29=283.95         Zr1-C7-C3-C4=295.02           
Zr1-C7-C3-H8=124.43           C6-C7-C3-Zr1= 64.83           C6-C7-C3-C4=359.84            C6-C7-C3-H8=189.26            
H12-C7-C3-Zr1=235.66          H12-C7-C3-C4=170.68           H12-C7-C3-H8=  0.09           Zr1-C7-C6-C5= 64.69           
Zr1-C7-C6-H11=234.57          C3-C7-C6-Zr1=295.62           C3-C7-C6-C5=  0.31            C3-C7-C6-H11=170.19           
H12-C7-C6-Zr1=124.76          H12-C7-C6-C5=189.45           H12-C7-C6-H11=359.33          

 CMA Distance (Angstroems)
 ---------------------------
R(CMA):  2.8222
           -------------------------------------------------
          |                Final Singlepoint                |
           -------------------------------------------------

          ...................................................
          :                      SETUP                      :
          :.................................................:
          :  # basis functions                  79          :
          :  # atomic orbitals                  78          :
          :  # shells                           46          :
          :  # electrons                        72          :
          :  max. iterations                   250          :
          :  Hamiltonian                  GFN2-xTB          :
          :  restarted?                      false          :
          :  GBSA solvation                  false          :
          :  PC potential                    false          :
          :  electronic temp.          300.0000000     K    :
          :  accuracy                    1.0000000          :
          :  -> integral cutoff          0.2500000E+02      :
          :  -> integral neglect         0.1000000E-07      :
          :  -> SCF convergence          0.1000000E-05 Eh   :
          :  -> wf. convergence          0.1000000E-03 e    :
          :  Broyden damping             0.4000000          :
          ...................................................

 iter      E             dE          RMSdq      gap      omega  full diag
   1    -38.2733422 -0.382733E+02  0.124E-04    1.84       0.0  T
   2    -38.2733422 -0.179625E-10  0.808E-05    1.84     222.4  T
   3    -38.2733422  0.586198E-11  0.651E-05    1.84     275.9  T

   *** convergence criteria satisfied after 3 iterations ***

         #    Occupation            Energy/Eh            Energy/eV
      -------------------------------------------------------------
         1        2.0000           -0.8719222             -23.7262
       ...           ...                  ...                  ...
        30        2.0000           -0.5859708             -15.9451
        31        2.0000           -0.5672417             -15.4354
        32        2.0000           -0.5226639             -14.2224
        33        2.0000           -0.5219269             -14.2024
        34        2.0000           -0.5116210             -13.9219
        35        2.0000           -0.5061892             -13.7741
        36        2.0000           -0.4919244             -13.3859 (HOMO)
        37                         -0.4243070             -11.5460 (LUMO)
        38                         -0.4118447             -11.2069
        39                         -0.4091410             -11.1333
        40                         -0.4030678             -10.9680
        41                         -0.3916174             -10.6565
       ...                                ...                  ...
        78                          2.5142165              68.4153
      -------------------------------------------------------------
                  HL-Gap            0.0676174 Eh            1.8400 eV
             Fermi-level           -0.4581157 Eh          -12.4660 eV

 SCC (total)                   0 d,  0 h,  0 min,  0.067 sec
 SCC setup                      ...        0 min,  0.000 sec (  0.404%)
 Dispersion                     ...        0 min,  0.000 sec (  0.164%)
 classical contributions        ...        0 min,  0.000 sec (  0.055%)
 integral evaluation            ...        0 min,  0.003 sec (  4.829%)
 iterations                     ...        0 min,  0.060 sec ( 88.778%)
 molecular gradient             ...        0 min,  0.004 sec (  5.512%)
 printout                       ...        0 min,  0.000 sec (  0.232%)

         :::::::::::::::::::::::::::::::::::::::::::::::::::::
         ::                     SUMMARY                     ::
         :::::::::::::::::::::::::::::::::::::::::::::::::::::
         :: total energy             -37.648240775850 Eh    ::
         :: gradient norm              0.000523243354 Eh/a0 ::
         :: HOMO-LUMO gap              1.839963000275 eV    ::
         ::.................................................::
         :: SCC energy               -38.273342239915 Eh    ::
         :: -> isotropic ES            0.087021964732 Eh    ::
         :: -> anisotropic ES         -0.011992597274 Eh    ::
         :: -> anisotropic XC          0.019920933583 Eh    ::
         :: -> dispersion             -0.027690547912 Eh    ::
         :: repulsion energy           0.623601231679 Eh    ::
         :: add. restraining           0.000834088631 Eh    ::
         :: total charge               1.000000000000 e     ::
         :::::::::::::::::::::::::::::::::::::::::::::::::::::

           -------------------------------------------------
          |                Property Printout                |
           -------------------------------------------------

    * Orbital Energies and Occupations

         #    Occupation            Energy/Eh            Energy/eV
      -------------------------------------------------------------
         1        2.0000           -0.8719222             -23.7262
       ...           ...                  ...                  ...
        24        2.0000           -0.5953998             -16.2017
        25        2.0000           -0.5934226             -16.1478
        26        2.0000           -0.5912558             -16.0889
        27        2.0000           -0.5908612             -16.0782
        28        2.0000           -0.5896726             -16.0458
        29        2.0000           -0.5893605             -16.0373
        30        2.0000           -0.5859708             -15.9451
        31        2.0000           -0.5672417             -15.4354
        32        2.0000           -0.5226639             -14.2224
        33        2.0000           -0.5219269             -14.2024
        34        2.0000           -0.5116210             -13.9219
        35        2.0000           -0.5061892             -13.7741
        36        2.0000           -0.4919244             -13.3859 (HOMO)
        37                         -0.4243070             -11.5460 (LUMO)
        38                         -0.4118447             -11.2069
        39                         -0.4091410             -11.1333
        40                         -0.4030678             -10.9680
        41                         -0.3916174             -10.6565
        42                         -0.3552083              -9.6657
        43                         -0.3068651              -8.3502
        44                         -0.3063025              -8.3349
        45                         -0.3060681              -8.3285
        46                         -0.3047667              -8.2931
        47                         -0.0746043              -2.0301
       ...                                ...                  ...
        78                          2.5142165              68.4153
      -------------------------------------------------------------
                  HL-Gap            0.0676174 Eh            1.8400 eV
             Fermi-level           -0.4581157 Eh          -12.4660 eV

     #   Z          covCN         q      C6AA      α(0)
     1  40 Zr      10.023     0.957   138.650    17.693
     2   6 C        3.679    -0.196    24.619     7.107
     3   6 C        3.760    -0.087    22.205     6.718
     4   6 C        3.766    -0.086    22.174     6.712
     5   6 C        3.764    -0.090    22.265     6.726
     6   6 C        3.753    -0.091    22.294     6.733
     7   6 C        3.752    -0.086    22.194     6.718
     8   1 H        0.925     0.084     1.933     2.174
     9   1 H        0.925     0.088     1.899     2.155
    10   1 H        0.925     0.085     1.926     2.170
    11   1 H        0.925     0.074     2.047     2.238
    12   1 H        0.925     0.083     1.946     2.182
    13   6 C        3.760    -0.083    22.126     6.706
    14   6 C        3.756    -0.093    22.321     6.736
    15   6 C        3.750    -0.091    22.305     6.735
    16   6 C        3.758    -0.086    22.186     6.715
    17   6 C        3.764    -0.091    22.271     6.727
    18   1 H        0.925     0.086     1.913     2.163
    19   1 H        0.925     0.076     2.024     2.225
    20   1 H        0.925     0.076     2.019     2.222
    21   1 H        0.925     0.085     1.927     2.171
    22   1 H        0.925     0.083     1.949     2.183
    23   6 C        3.630    -0.262    26.331     7.389
    24   6 C        3.682    -0.063    21.935     6.707
    25   1 H        0.925     0.098     1.807     2.102
    26   1 H        0.925     0.092     1.859     2.132
    27   1 H        0.926     0.085     1.932     2.174
    28   1 H        0.929     0.092     1.863     2.134
    29   1 H        1.461     0.085     1.919     2.162
    30   1 H        0.925     0.089     1.891     2.150
    31   1 H        0.925     0.087     1.910     2.161

 Mol. C6AA /au·bohr⁶  :       9445.978091
 Mol. C8AA /au·bohr⁸  :     320627.521691
 Mol. α(0) /au        :        143.021102


Wiberg/Mayer (AO) data.
largest (>0.10) Wiberg bond orders for each atom

 ---------------------------------------------------------------------------
     #   Z sym  total        # sym  WBO       # sym  WBO       # sym  WBO
 ---------------------------------------------------------------------------
     1  40 Zr   4.289 --    23 C    0.722     2 C    0.289    17 C    0.266
                             4 C    0.263     3 C    0.246     5 C    0.244
                            16 C    0.240    14 C    0.232     6 C    0.230
                             7 C    0.229    15 C    0.229    13 C    0.228
                            24 C    0.158    29 H    0.131
     2   6 C    3.957 --    30 H    0.975    31 H    0.955    29 H    0.824
                            24 C    0.723     1 Zr   0.289
     3   6 C    3.980 --     7 C    1.305     4 C    1.296     8 H    0.921
                             1 Zr   0.246
     4   6 C    3.981 --     3 C    1.296     5 C    1.287     9 H    0.919
                             1 Zr   0.263
     5   6 C    3.979 --     6 C    1.307     4 C    1.287    10 H    0.924
                             1 Zr   0.244
     6   6 C    3.979 --     7 C    1.309     5 C    1.307    11 H    0.924
                             1 Zr   0.230
     7   6 C    3.980 --     6 C    1.309     3 C    1.305    12 H    0.925
                             1 Zr   0.229
     8   1 H    0.991 --     3 C    0.921
     9   1 H    0.990 --     4 C    0.919
    10   1 H    0.990 --     5 C    0.924
    11   1 H    0.992 --     6 C    0.924
    12   1 H    0.990 --     7 C    0.925
    13   6 C    3.981 --    14 C    1.311    17 C    1.304    18 H    0.925
                             1 Zr   0.228
    14   6 C    3.978 --    13 C    1.311    15 C    1.298    19 H    0.922
                             1 Zr   0.232
    15   6 C    3.979 --    16 C    1.316    14 C    1.298    20 H    0.927
                             1 Zr   0.229
    16   6 C    3.980 --    15 C    1.316    17 C    1.280    21 H    0.926
                             1 Zr   0.240
    17   6 C    3.979 --    13 C    1.304    16 C    1.280    22 H    0.917
                             1 Zr   0.266
    18   1 H    0.990 --    13 C    0.925
    19   1 H    0.993 --    14 C    0.922
    20   1 H    0.992 --    15 C    0.927
    21   1 H    0.990 --    16 C    0.926
    22   1 H    0.991 --    17 C    0.917
    23   6 C    3.845 --    24 C    1.115    27 H    0.912    28 H    0.880
                             1 Zr   0.722
    24   6 C    3.974 --    23 C    1.115    25 H    0.957    26 H    0.942
                             2 C    0.723     1 Zr   0.158
    25   1 H    0.989 --    24 C    0.957
    26   1 H    0.990 --    24 C    0.942
    27   1 H    0.992 --    23 C    0.912
    28   1 H    0.991 --    23 C    0.880
    29   1 H    0.993 --     2 C    0.824     1 Zr   0.131
    30   1 H    0.990 --     2 C    0.975
    31   1 H    0.991 --     2 C    0.955
 ---------------------------------------------------------------------------

Topologies differ in total number of bonds
Writing topology from bond orders to xtbtopo.mol

molecular dipole:
                 x           y           z       tot (Debye)
 q only:       -2.405       0.244       0.356
   full:       -2.645       0.144       0.591       6.898
molecular quadrupole (traceless):
                xx          xy          yy          xz          yz          zz
 q only:        8.210      -2.558      -5.514       0.948      -4.329      -2.697
  q+dip:       11.804      -1.723      -9.351      -0.683      -7.526      -2.453
   full:       12.835      -1.468      -8.846      -1.021      -5.618      -3.989

           -------------------------------------------------
          |                Geometry Summary                 |
           -------------------------------------------------

      molecular mass/u    :      264.4982010
   center of mass at/Å    :       -1.0374521      -0.1210932       0.5561684
  moments of inertia/u·Å² :        0.6049496E+03   0.7160270E+03   0.9430332E+03
rotational constants/cm⁻¹ :        0.2786618E-01   0.2354329E-01   0.1787597E-01

 * 39 selected distances

     #   Z          #   Z                                           value/Å
     1  40 Zr       3   6 C                                       2.4500571
     1  40 Zr       4   6 C                                       2.4311000
     3   6 C        4   6 C                                       1.4173030
     1  40 Zr       5   6 C                                       2.4433967
     4   6 C        5   6 C                                       1.4206490
     1  40 Zr       6   6 C                                       2.4657284
     5   6 C        6   6 C                                       1.4163126
     1  40 Zr       7   6 C                                       2.4728599
     3   6 C        7   6 C                                       1.4173252
     6   6 C        7   6 C                                       1.4150924
     3   6 C        8   1 H                                       1.0849274
     4   6 C        9   1 H                                       1.0846853
     5   6 C       10   1 H                                       1.0837025
     6   6 C       11   1 H                                       1.0853633
     7   6 C       12   1 H                                       1.0843291
     1  40 Zr      13   6 C                                       2.4590159
     1  40 Zr      14   6 C                                       2.4605585
    13   6 C       14   6 C                                       1.4160036
     1  40 Zr      15   6 C                                       2.4751217 (max)
    14   6 C       15   6 C                                       1.4181794
     1  40 Zr      16   6 C                                       2.4615563
    15   6 C       16   6 C                                       1.4132047
     1  40 Zr      17   6 C                                       2.4323215
    13   6 C       17   6 C                                       1.4168342
    16   6 C       17   6 C                                       1.4213395
    13   6 C       18   1 H                                       1.0837571
    14   6 C       19   1 H                                       1.0858646
    15   6 C       20   1 H                                       1.0842758
    16   6 C       21   1 H                                       1.0828572
    17   6 C       22   1 H                                       1.0858726
     1  40 Zr      23   6 C                                       2.2071255
    23   6 C       24   6 C                                       1.4786637
    24   6 C       25   1 H                                       1.0871181
    24   6 C       26   1 H                                       1.0897414
    23   6 C       27   1 H                                       1.0977362
    23   6 C       28   1 H                                       1.0999234
     2   6 C       29   1 H                                       1.1112435
     2   6 C       30   1 H                                       1.0823550 (min)
     2   6 C       31   1 H                                       1.0859408

 * 3 distinct bonds (by element types)

   Z      Z             #   av. dist./Å        max./Å        min./Å
   1 H    6 C          17     1.0882173     1.1112435     1.0823550
   6 C    6 C          11     1.4228098     1.4786637     1.4132047
   6 C   40 Zr         11     2.4326220     2.4751217     2.2071255


optimized geometry written to: xtbopt.xyz


           -------------------------------------------------
          | TOTAL ENERGY              -37.648240775850 Eh   |
          | GRADIENT NORM               0.000523243354 Eh/α |
          | HOMO-LUMO GAP               1.839963000275 eV   |
           -------------------------------------------------

------------------------------------------------------------------------
 * finished run on 2026/08/03 at 11:52:27.587     
------------------------------------------------------------------------
 total:
 * wall-time:     0 d,  0 h,  0 min, 24.731 sec
 *  cpu-time:     0 d,  0 h,  3 min, 11.143 sec
 * ratio c/w:     7.729 speedup
 SCF:
 * wall-time:     0 d,  0 h,  0 min,  0.610 sec
 *  cpu-time:     0 d,  0 h,  0 min,  4.708 sec
 * ratio c/w:     7.720 speedup
 ANC optimizer:
 * wall-time:     0 d,  0 h,  0 min, 24.045 sec
 *  cpu-time:     0 d,  0 h,  3 min,  5.858 sec
 * ratio c/w:     7.730 speedup

