31
 energy: -37.648240775850 gnorm: 0.000523243354 xtb: 6.5.1 (b24c23e)
Zr          -1.01846165573717       -0.08998645866315        0.47277928271968
C           -3.36544936901159        0.54446775814488       -0.69563591690039
C            0.23059281733420       -2.16676321928781        0.83283438952067
C            0.12062497161754       -1.96958598404259       -0.56637098193619
C           -1.25123340839939       -2.08646259076375       -0.91649635619302
C           -1.98413097250700       -2.34936308659590        0.26658669888409
C           -1.06957899088929       -2.40331645669984        1.34509022753216
H            1.16044225779842       -2.28159260250584        1.37988240123419
H            0.95019851838460       -1.92166350196897       -1.26354604396549
H           -1.64018259344724       -2.12305526516211       -1.92733288355716
H           -3.02953824103602       -2.63730356285643        0.31377990393573
H           -1.30363078921626       -2.72898802315981        2.35252619610506
C           -0.25909260768370        0.20589262112260        2.79281643891293
C           -1.62961413362494        0.56085535084640        2.76564750001225
C           -1.76014136290389        1.73139066232582        1.97568405743585
C           -0.47783222047806        2.08235256721754        1.49645956348044
C            0.45285509514047        1.12404866645345        1.98192887484649
H            0.18633993685206       -0.54460739601726        3.43536512804401
H           -2.40606140356747        0.12990552562024        3.39055838577872
H           -2.65253545957694        2.34109538779726        1.88881163068921
H           -0.22411742121027        3.00895743232623        0.99684796728187
H            1.53358488698832        1.19853111045439        1.90713187908171
C           -0.45517102348204        0.98179576986428       -1.37259019786780
C           -1.78667783928019        1.59913577062042       -1.55266440004861
H           -2.21439855753420        1.56385006745194       -2.55148142626292
H           -1.92582109300692        2.57517648812274       -1.08842343881936
H           -0.17814561100223        0.38222348267853       -2.24939942926888
H            0.31480833442322        1.74384437441739       -1.18220891684239
H           -3.20873091779962        0.16548453928007        0.33716263729760
H           -4.13441217674869        1.30600650552641       -0.71135401992260
H           -3.58638820038412       -0.24361381255965       -1.40934503119622
