31
[Cp2Zr(n-propyl)]+ approximate 3D model; counterion omitted
Zr     0.000000     0.000000     0.000000
C     -2.464269    -0.333764     1.388662
H     -3.423570    -0.548327     0.941332
C     -1.145463    -1.669065     2.003631
H     -1.256961    -2.742035     1.951639
C      0.413032    -0.697774     2.730369
H      1.303424    -1.146343     3.145566
C      0.057430     1.237817     2.564549
H      0.719220     2.033556     2.873147
C     -1.720840     1.462787     1.735328
H     -2.202223     2.403150     1.510856
C      0.482571     0.496474    -2.762796
H      1.417666     0.815636    -3.198838
C     -0.094593    -1.372994    -2.493660
H      0.469469    -2.255633    -2.756686
C     -1.884333    -1.345031    -1.659090
H     -2.470819    -2.209693    -1.385607
C     -2.413291     0.541719    -1.412433
H     -3.339821     0.889967    -0.980385
C     -0.950464     1.679832    -2.094561
H     -0.936605     2.759723    -2.101023
C      2.150000     0.450000     0.450000
C      3.550000     1.050000     0.150000
C      4.100000     2.300000    -0.550000
H      2.456466    -0.525911     0.826532
H      2.048820     0.757419     1.490844
H      4.150922     0.219341    -0.220132
H      4.109669     0.966466     1.081607
H      4.020620     3.156147     0.119933
H      3.524230     2.492431    -1.455295
H      5.145806     2.139275    -0.811836
