31
[Cp2Zr(CH3)(ethylene)]+ approximate 3D model; counterion omitted
Zr     0.000000     0.000000     0.000000
C     -2.464269    -0.333764     1.388662
H     -3.423570    -0.548327     0.941332
C     -1.145463    -1.669065     2.003631
H     -1.256961    -2.742035     1.951639
C      0.413032    -0.697774     2.730369
H      1.303424    -1.146343     3.145566
C      0.057430     1.237817     2.564549
H      0.719220     2.033556     2.873147
C     -1.720840     1.462787     1.735328
H     -2.202223     2.403150     1.510856
C      0.482571     0.496474    -2.762796
H      1.417666     0.815636    -3.198838
C     -0.094593    -1.372994    -2.493660
H      0.469469    -2.255633    -2.756686
C     -1.884333    -1.345031    -1.659090
H     -2.470819    -2.209693    -1.385607
C     -2.413291     0.541719    -1.412433
H     -3.339821     0.889967    -0.980385
C     -0.950464     1.679832    -2.094561
H     -0.936605     2.759723    -2.101023
C      2.150000    -0.650000    -0.350000
C      2.350000     0.700000     0.450000
C      3.630000     1.050000     0.450000
H      1.829122     0.557572    -0.485307
H      1.829122     0.557572     1.385307
H      4.150878     1.192428    -0.485307
H      4.150878     1.192428     1.385307
H      2.179343    -1.723685    -0.535577
H      2.747998    -0.417085     0.531050
H      2.553578    -0.120903    -1.213296
