31
Approximate migratory-insertion TS-like geometry for ethylene insertion into Zr-CH3; not an optimized TS
Zr     0.000000     0.000000     0.000000
C     -2.464269    -0.333764     1.388662
H     -3.423570    -0.548327     0.941332
C     -1.145463    -1.669065     2.003631
H     -1.256961    -2.742035     1.951639
C      0.413032    -0.697774     2.730369
H      1.303424    -1.146343     3.145566
C      0.057430     1.237817     2.564549
H      0.719220     2.033556     2.873147
C     -1.720840     1.462787     1.735328
H     -2.202223     2.403150     1.510856
C      0.482571     0.496474    -2.762796
H      1.417666     0.815636    -3.198838
C     -0.094593    -1.372994    -2.493660
H      0.469469    -2.255633    -2.756686
C     -1.884333    -1.345031    -1.659090
H     -2.470819    -2.209693    -1.385607
C     -2.413291     0.541719    -1.412433
H     -3.339821     0.889967    -0.980385
C     -0.950464     1.679832    -2.094561
H     -0.936605     2.759723    -2.101023
C      2.200000     0.550000     0.450000
C      3.550000     1.100000     0.200000
C      2.350000    -0.350000    -0.450000
H      2.500013    -0.386996     0.919181
H      2.057512     0.943380     1.456503
H      4.472612     1.095947     0.780405
H      3.901924     2.029260    -0.248023
H      1.686906    -1.211691    -0.526782
H      3.234252    -0.622205     0.126284
H      2.650568    -0.032719    -1.448545
