      -----------------------------------------------------------      
     |                   =====================                   |     
     |                           x T B                           |     
     |                   =====================                   |     
     |                         S. Grimme                         |     
     |          Mulliken Center for Theoretical Chemistry        |     
     |                    University of Bonn                     |     
      -----------------------------------------------------------      

   * xtb version 6.5.1 (b24c23e) compiled by 'conda@728c89f4b128' on 2022-07-12

   xtb is free software: you can redistribute it and/or modify it under
   the terms of the GNU Lesser General Public License as published by
   the Free Software Foundation, either version 3 of the License, or
   (at your option) any later version.
   
   xtb is distributed in the hope that it will be useful,
   but WITHOUT ANY WARRANTY; without even the implied warranty of
   MERCHANTABILITY or FITNESS FOR A PARTICULAR PURPOSE.  See the
   GNU Lesser General Public License for more details.
   
   Cite this work as:
   * C. Bannwarth, E. Caldeweyher, S. Ehlert, A. Hansen, P. Pracht,
     J. Seibert, S. Spicher, S. Grimme, WIREs Comput. Mol. Sci., 2020, 11,
     e01493. DOI: 10.1002/wcms.1493
   
   for GFN2-xTB:
   * C. Bannwarth, S. Ehlert and S. Grimme., J. Chem. Theory Comput., 2019,
     15, 1652-1671. DOI: 10.1021/acs.jctc.8b01176
   for GFN1-xTB:
   * S. Grimme, C. Bannwarth, P. Shushkov, J. Chem. Theory Comput., 2017,
     13, 1989-2009. DOI: 10.1021/acs.jctc.7b00118
   for GFN0-xTB:
   * P. Pracht, E. Caldeweyher, S. Ehlert, S. Grimme, ChemRxiv, 2019, preprint.
     DOI: 10.26434/chemrxiv.8326202.v1
   for GFN-FF:
   * S. Spicher and S. Grimme, Angew. Chem. Int. Ed., 2020, 59, 15665-15673.
     DOI: 10.1002/anie.202004239
   
   for ALPB and GBSA implicit solvation:
   * S. Ehlert, M. Stahn, S. Spicher, S. Grimme, J. Chem. Theory Comput.,
     2021, 17, 4250-4261. DOI: 10.1021/acs.jctc.1c00471
   
   for DFT-D4:
   * E. Caldeweyher, C. Bannwarth and S. Grimme, J. Chem. Phys., 2017,
     147, 034112. DOI: 10.1063/1.4993215
   * E. Caldeweyher, S. Ehlert, A. Hansen, H. Neugebauer, S. Spicher,
     C. Bannwarth and S. Grimme, J. Chem. Phys., 2019, 150, 154122.
     DOI: 10.1063/1.5090222
   * E. Caldeweyher, J.-M. Mewes, S. Ehlert and S. Grimme, Phys. Chem. Chem. Phys.
     2020, 22, 8499-8512. DOI: 10.1039/D0CP00502A
   
   for sTDA-xTB:
   * S. Grimme and C. Bannwarth, J. Chem. Phys., 2016, 145, 054103.
     DOI: 10.1063/1.4959605
   
   in the mass-spec context:
   * V. Asgeirsson, C. Bauer and S. Grimme, Chem. Sci., 2017, 8, 4879.
     DOI: 10.1039/c7sc00601b
   * J. Koopman and S. Grimme, ACS Omega 2019, 4, 12, 15120-15133.
     DOI: 10.1021/acsomega.9b02011
   
   for metadynamics refer to:
   * S. Grimme, J. Chem. Theory Comput., 2019, 155, 2847-2862
     DOI: 10.1021/acs.jctc.9b00143
   
   for SPH calculations refer to:
   * S. Spicher and S. Grimme, J. Chem. Theory Comput., 2021, 17, 1701-1714
     DOI: 10.1021/acs.jctc.0c01306
   
   with help from (in alphabetical order)
   P. Atkinson, C. Bannwarth, F. Bohle, G. Brandenburg, E. Caldeweyher
   M. Checinski, S. Dohm, S. Ehlert, S. Ehrlich, I. Gerasimov, C. Hölzer
   A. Katbashev, J. Koopman, C. Lavigne, S. Lehtola, F. März, M. Müller,
   F. Musil, H. Neugebauer, J. Pisarek, C. Plett, P. Pracht, F. Pultar,
   J. Seibert, P. Shushkov, S. Spicher, M. Stahn, M. Steiner, T. Strunk,
   J. Stückrath, T. Rose, and J. Unsleber
   
 * started run on 2026/07/30 at 00:21:13.882     

           -------------------------------------------------
          |                Calculation Setup                |
           -------------------------------------------------

          program call               : /h/332/chchoi/miniconda3/envs/el-agente/bin/xtb CpRu_sumanene_concave_init.xyz --opt --gfn 2 -P 4 --chrg 1 --uhf 0 --input detailed_input.inp
          coordinate file            : CpRu_sumanene_concave_init.xyz
          omp threads                :                     4

   ID    Z sym.   atoms
    1    6 C      1-21, 35-39
    2    1 H      22-33, 40-44
    3   44 Ru     34
constraining bond 34 3 to    2.2000000 Å, actual value:    2.2037751 Å
constraining bond 34 4 to    2.2000000 Å, actual value:    2.2037753 Å
constraining bond 34 8 to    2.2000000 Å, actual value:    2.2037752 Å
constraining bond 34 9 to    2.2000000 Å, actual value:    2.2037752 Å
constraining bond 34 13 to    2.2000000 Å, actual value:    2.2037753 Å
constraining bond 34 14 to    2.2000000 Å, actual value:    2.2037752 Å
constraining bond 34 35 to    2.2300000 Å, actual value:    2.2327843 Å
constraining bond 34 36 to    2.2300000 Å, actual value:    2.2327280 Å
constraining bond 34 37 to    2.2300000 Å, actual value:    2.2326554 Å
constraining bond 34 38 to    2.2300000 Å, actual value:    2.2326554 Å
constraining bond 34 39 to    2.2300000 Å, actual value:    2.2327280 Å

           -------------------------------------------------
          |                 G F N 2 - x T B                 |
           -------------------------------------------------

        Reference                      10.1021/acs.jctc.8b01176
      * Hamiltonian:
        H0-scaling (s, p, d)           1.850000    2.230000    2.230000
        zeta-weighting                 0.500000
      * Dispersion:
        s8                             2.700000
        a1                             0.520000
        a2                             5.000000
        s9                             5.000000
      * Repulsion:
        kExp                           1.500000    1.000000
        rExp                           1.000000
      * Coulomb:
        alpha                          2.000000
        third order                    shell-resolved
        anisotropic                    true
        a3                             3.000000
        a5                             4.000000
        cn-shift                       1.200000
        cn-exp                         4.000000
        max-rad                        5.000000


          ...................................................
          :                      SETUP                      :
          :.................................................:
          :  # basis functions                 131          :
          :  # atomic orbitals                 130          :
          :  # shells                           72          :
          :  # electrons                       128          :
          :  max. iterations                   250          :
          :  Hamiltonian                  GFN2-xTB          :
          :  restarted?                      false          :
          :  GBSA solvation                  false          :
          :  PC potential                    false          :
          :  electronic temp.          300.0000000     K    :
          :  accuracy                    1.0000000          :
          :  -> integral cutoff          0.2500000E+02      :
          :  -> integral neglect         0.1000000E-07      :
          :  -> SCF convergence          0.1000000E-05 Eh   :
          :  -> wf. convergence          0.1000000E-03 e    :
          :  Broyden damping             0.4000000          :
          ...................................................

 iter      E             dE          RMSdq      gap      omega  full diag
   1    -66.3783766 -0.663784E+02  0.997E+00    0.87       0.0  T
   2    -59.2533072  0.712507E+01  0.136E+01    0.00       1.0  T
   3    -65.9497418 -0.669643E+01  0.680E+00    1.36       1.0  T
   4    -67.8627760 -0.191303E+01  0.369E+00    1.26       1.0  T
   5    -68.2351749 -0.372399E+00  0.112E+00    1.50       1.0  T
   6    -68.2665534 -0.313785E-01  0.452E-01    1.49       1.0  T
   7    -68.2672109 -0.657516E-03  0.300E-01    1.48       1.0  T
   8    -68.2710304 -0.381947E-02  0.134E-01    1.46       1.0  T
   9    -68.2713420 -0.311665E-03  0.724E-02    1.45       1.0  T
  10    -68.2714562 -0.114143E-03  0.196E-02    1.44       1.0  T
  11    -68.2714567 -0.503442E-06  0.125E-02    1.44       1.2  T
  12    -68.2714579 -0.118982E-05  0.575E-03    1.44       2.6  T
  13    -68.2714580 -0.119470E-06  0.150E-03    1.44      10.1  T
  14    -68.2714580 -0.709635E-08  0.927E-04    1.44      16.3  T
  15    -68.2714580 -0.127157E-07  0.436E-04    1.44      34.6  T

   *** convergence criteria satisfied after 15 iterations ***

         #    Occupation            Energy/Eh            Energy/eV
      -------------------------------------------------------------
         1        2.0000           -0.8530230             -23.2119
       ...           ...                  ...                  ...
        58        2.0000           -0.5372223             -14.6186
        59        2.0000           -0.5298870             -14.4190
        60        2.0000           -0.5156056             -14.0303
        61        2.0000           -0.5144837             -13.9998
        62        2.0000           -0.4913985             -13.3716
        63        2.0000           -0.4761924             -12.9579
        64        2.0000           -0.4760290             -12.9534 (HOMO)
        65                         -0.4229998             -11.5104 (LUMO)
        66                         -0.4225854             -11.4991
        67                         -0.3813802             -10.3779
        68                         -0.3811953             -10.3729
        69                         -0.3725711             -10.1382
       ...                                ...                  ...
       130                          4.0559869             110.3690
      -------------------------------------------------------------
                  HL-Gap            0.0530291 Eh            1.4430 eV
             Fermi-level           -0.4494607 Eh          -12.2304 eV

 SCC (total)                   0 d,  0 h,  0 min,  1.147 sec
 SCC setup                      ...        0 min,  0.010 sec (  0.844%)
 Dispersion                     ...        0 min,  0.022 sec (  1.918%)
 classical contributions        ...        0 min,  0.002 sec (  0.140%)
 integral evaluation            ...        0 min,  0.054 sec (  4.664%)
 iterations                     ...        0 min,  0.992 sec ( 86.420%)
 molecular gradient             ...        0 min,  0.049 sec (  4.308%)
 printout                       ...        0 min,  0.020 sec (  1.701%)

         :::::::::::::::::::::::::::::::::::::::::::::::::::::
         ::                     SUMMARY                     ::
         :::::::::::::::::::::::::::::::::::::::::::::::::::::
         :: total energy             -67.097556838234 Eh    ::
         :: gradient norm              0.118101349788 Eh/a0 ::
         :: HOMO-LUMO gap              1.442996141977 eV    ::
         ::.................................................::
         :: SCC energy               -68.271457994683 Eh    ::
         :: -> isotropic ES            0.059844258036 Eh    ::
         :: -> anisotropic ES         -0.009010070099 Eh    ::
         :: -> anisotropic XC          0.037784376431 Eh    ::
         :: -> dispersion             -0.075641599807 Eh    ::
         :: repulsion energy           1.171039698818 Eh    ::
         :: add. restraining           0.000436573349 Eh    ::
         :: total charge               1.000000000000 e     ::
         :::::::::::::::::::::::::::::::::::::::::::::::::::::

      ----------------------------------------------------------- 
     |                   =====================                   |
     |                        A N C O P T                        |
     |                   =====================                   |
     |               Approximate Normal Coordinate               |
     |                Rational Function Optimizer                |
      ----------------------------------------------------------- 

          ...................................................
          :                      SETUP                      :
          :.................................................:
          :   optimization level            normal          :
          :   max. optcycles                   200          :
          :   ANC micro-cycles                  20          :
          :   degrees of freedom               126          :
          :.................................................:
          :   RF solver                   davidson          :
          :   write xtbopt.log                true          :
          :   linear?                        false          :
          :   energy convergence         0.5000000E-05 Eh   :
          :   grad. convergence          0.1000000E-02 Eh/α :
          :   maximium RF displ.         1.0000000          :
          :   Hlow (freq-cutoff)         0.1000000E-01      :
          :   Hmax (freq-cutoff)         5.0000000          :
          :   S6 in model hess.         20.0000000          :
          ...................................................

generating ANC from model Hessian ...
Using Lindh-Hessian (1995)
 Shifting diagonal of input Hessian by    8.9363497617333167E-003
 Lowest  eigenvalues of input Hessian
    0.000000    0.000000    0.000000    0.000000    0.000000    0.000000
    0.010000    0.012389    0.012403    0.013099    0.013286    0.015344
    0.017280    0.023100    0.023925    0.023993    0.026153    0.026191
 Highest eigenvalues
    2.685374    2.741875    2.741887    6.419510    6.420145   16.703204


........................................................................
.............................. CYCLE    1 ..............................
........................................................................
   1    -68.2714580 -0.682715E+02  0.171E-04    1.44       0.0  T
   2    -68.2714580  0.340748E-09  0.175E-04    1.44      86.4  T
   3    -68.2714580 -0.305874E-09  0.713E-05    1.44     211.5  T
     SCC iter.                  ...        0 min,  0.120 sec
     gradient                   ...        0 min,  0.076 sec
 * total energy  :   -67.0975568 Eh     change       -0.3505960E-08 Eh
   gradient norm :     0.1181001 Eh/α   predicted     0.0000000E+00 (-100.00%)
   displ. norm   :     0.3744355 α      lambda       -0.2155376E-01
   maximum displ.:     0.2087720 α      in ANC's #13, #57, #7, ...

........................................................................
.............................. CYCLE    2 ..............................
........................................................................
   1    -68.2884298 -0.682884E+02  0.287E-01    1.45       0.0  T
   2    -68.2882214  0.208350E-03  0.193E-01    1.45       1.0  T
   3    -68.2877198  0.501631E-03  0.191E-01    1.43       1.0  T
   4    -68.2870638  0.655948E-03  0.146E-01    1.47       1.0  T
   5    -68.2885254 -0.146155E-02  0.130E-02    1.45       1.2  T
   6    -68.2885264 -0.979393E-06  0.484E-03    1.45       3.1  T
   7    -68.2885265 -0.133319E-06  0.223E-03    1.45       6.8  T
   8    -68.2885266 -0.431381E-07  0.132E-03    1.45      11.4  T
   9    -68.2885266 -0.374689E-07  0.453E-04    1.45      33.3  T
  10    -68.2885266  0.100523E-08  0.369E-04    1.45      40.9  T
     SCC iter.                  ...        0 min,  0.333 sec
     gradient                   ...        0 min,  0.074 sec
 * total energy  :   -67.1118944 Eh     change       -0.1433752E-01 Eh
   gradient norm :     0.0821437 Eh/α   predicted    -0.1239842E-01 ( -13.52%)
   displ. norm   :     0.3535660 α      lambda       -0.6806850E-02
   maximum displ.:     0.2548226 α      in ANC's #7, #13, #6, ...

........................................................................
.............................. CYCLE    3 ..............................
........................................................................
   1    -68.2947280 -0.682947E+02  0.170E-01    1.44       0.0  T
   2    -68.2945704  0.157598E-03  0.104E-01    1.45       1.0  T
   3    -68.2934481  0.112224E-02  0.167E-01    1.42       1.0  T
   4    -68.2947519 -0.130376E-02  0.415E-02    1.44       1.0  T
   5    -68.2947725 -0.206426E-04  0.117E-02    1.44       1.3  T
   6    -68.2947744 -0.184098E-05  0.192E-03    1.44       7.9  T
   7    -68.2947744 -0.164120E-07  0.101E-03    1.44      14.9  T
   8    -68.2947744 -0.148897E-07  0.359E-04    1.44      41.9  T
   9    -68.2947744 -0.254303E-08  0.122E-04    1.44     123.7  T
     SCC iter.                  ...        0 min,  0.510 sec
     gradient                   ...        0 min,  0.144 sec
 * total energy  :   -67.1126841 Eh     change       -0.7897437E-03 Eh
   gradient norm :     0.2578629 Eh/α   predicted    -0.3828963E-02 ( 384.84%)
   displ. norm   :     0.1977681 α      lambda       -0.5619486E-02
   maximum displ.:     0.1698067 α      in ANC's #7, #6, #13, ...

........................................................................
.............................. CYCLE    4 ..............................
........................................................................
   1    -68.2936651 -0.682937E+02  0.119E-01    1.46       0.0  T
   2    -68.2936556  0.942404E-05  0.939E-02    1.45       1.0  T
   3    -68.2936688 -0.131707E-04  0.348E-02    1.46       1.0  T
   4    -68.2935010  0.167817E-03  0.584E-02    1.44       1.0  T
   5    -68.2936835 -0.182476E-03  0.415E-03    1.45       3.6  T
   6    -68.2936835  0.269385E-08  0.188E-03    1.45       8.0  T
   7    -68.2936835 -0.668522E-07  0.824E-04    1.45      18.3  T
   8    -68.2936835 -0.779256E-08  0.304E-04    1.45      49.6  T
     SCC iter.                  ...        0 min,  0.557 sec
     gradient                   ...        0 min,  0.125 sec
 * total energy  :   -67.1153349 Eh     change       -0.2650768E-02 Eh
   gradient norm :     0.0512008 Eh/α   predicted    -0.2919771E-02 (  10.15%)
   displ. norm   :     0.1667478 α      lambda       -0.9956380E-03
   maximum displ.:     0.1335049 α      in ANC's #7, #6, #13, ...

........................................................................
.............................. CYCLE    5 ..............................
........................................................................
   1    -68.2924120 -0.682924E+02  0.758E-02    1.46       0.0  T
   2    -68.2923977  0.143084E-04  0.459E-02    1.46       1.0  T
   3    -68.2922814  0.116315E-03  0.563E-02    1.47       1.0  T
   4    -68.2923830 -0.101638E-03  0.321E-02    1.46       1.0  T
   5    -68.2924171 -0.341003E-04  0.387E-03    1.46       3.9  T
   6    -68.2924174 -0.236099E-06  0.724E-04    1.46      20.8  T
   7    -68.2924174  0.159257E-08  0.413E-04    1.46      36.5  T
     SCC iter.                  ...        0 min,  0.359 sec
     gradient                   ...        0 min,  0.048 sec
 * total energy  :   -67.1160536 Eh     change       -0.7187134E-03 Eh
   gradient norm :     0.0213180 Eh/α   predicted    -0.5116628E-03 ( -28.81%)
   displ. norm   :     0.3341142 α      lambda       -0.8298343E-03
   maximum displ.:     0.2797784 α      in ANC's #7, #6, #29, ...

........................................................................
.............................. CYCLE    6 ..............................
........................................................................
   1    -68.2921881 -0.682922E+02  0.130E-01    1.48       0.0  T
   2    -68.2921640  0.241437E-04  0.813E-02    1.47       1.0  T
   3    -68.2919933  0.170687E-03  0.757E-02    1.48       1.0  T
   4    -68.2919810  0.122557E-04  0.695E-02    1.46       1.0  T
   5    -68.2922017 -0.220696E-03  0.566E-03    1.47       2.7  T
   6    -68.2922020 -0.272645E-06  0.141E-03    1.47      10.7  T
   7    -68.2922020 -0.291964E-07  0.587E-04    1.47      25.7  T
   8    -68.2922020 -0.767784E-09  0.262E-04    1.47      57.6  T
     SCC iter.                  ...        0 min,  0.409 sec
     gradient                   ...        0 min,  0.118 sec
 * total energy  :   -67.1165911 Eh     change       -0.5375621E-03 Eh
   gradient norm :     0.0088658 Eh/α   predicted    -0.4612944E-03 ( -14.19%)
   displ. norm   :     0.1619932 α      lambda       -0.1710708E-03
   maximum displ.:     0.1285262 α      in ANC's #7, #6, #29, ...

........................................................................
.............................. CYCLE    7 ..............................
........................................................................
   1    -68.2937121 -0.682937E+02  0.650E-02    1.48       0.0  T
   2    -68.2936992  0.129603E-04  0.416E-02    1.47       1.0  T
   3    -68.2936011  0.980591E-04  0.470E-02    1.48       1.0  T
   4    -68.2936884 -0.872900E-04  0.293E-02    1.47       1.0  T
   5    -68.2937173 -0.289274E-04  0.157E-03    1.47       9.6  T
   6    -68.2937174 -0.335916E-07  0.978E-04    1.47      15.4  T
   7    -68.2937174 -0.108422E-07  0.429E-04    1.47      35.2  T
     SCC iter.                  ...        0 min,  0.402 sec
     gradient                   ...        0 min,  0.088 sec
 * total energy  :   -67.1167051 Eh     change       -0.1139754E-03 Eh
   gradient norm :     0.0054880 Eh/α   predicted    -0.8779534E-04 ( -22.97%)
   displ. norm   :     0.0751580 α      lambda       -0.3984915E-04
   maximum displ.:     0.0567192 α      in ANC's #7, #6, #29, ...

........................................................................
.............................. CYCLE    8 ..............................
........................................................................
   1    -68.2949455 -0.682949E+02  0.314E-02    1.47       0.0  T
   2    -68.2949403  0.521172E-05  0.210E-02    1.47       1.0  T
   3    -68.2949009  0.394432E-04  0.288E-02    1.48       1.0  T
   4    -68.2949459 -0.450382E-04  0.895E-03    1.47       1.7  T
   5    -68.2949473 -0.135252E-05  0.109E-03    1.47      13.8  T
   6    -68.2949473 -0.190868E-07  0.565E-04    1.47      26.7  T
   7    -68.2949473 -0.469949E-08  0.263E-04    1.47      57.3  T
     SCC iter.                  ...        0 min,  0.444 sec
     gradient                   ...        0 min,  0.109 sec
 * total energy  :   -67.1167288 Eh     change       -0.2371570E-04 Eh
   gradient norm :     0.0016610 Eh/α   predicted    -0.2004013E-04 ( -15.50%)
   displ. norm   :     0.0227633 α      lambda       -0.3522116E-05
   maximum displ.:     0.0142715 α      in ANC's #6, #7, #2, ...

........................................................................
.............................. CYCLE    9 ..............................
........................................................................
   1    -68.2953078 -0.682953E+02  0.109E-02    1.47       0.0  T
   2    -68.2953065  0.131246E-05  0.860E-03    1.47       1.8  T
   3    -68.2953050  0.149114E-05  0.886E-03    1.47       1.7  T
   4    -68.2953078 -0.279128E-05  0.390E-03    1.47       3.9  T
   5    -68.2953082 -0.421083E-06  0.948E-04    1.47      15.9  T
   6    -68.2953082 -0.118740E-07  0.255E-04    1.47      59.0  T
     SCC iter.                  ...        0 min,  0.356 sec
     gradient                   ...        0 min,  0.127 sec
 * total energy  :   -67.1167311 Eh     change       -0.2257178E-05 Eh
   gradient norm :     0.0006245 Eh/α   predicted    -0.1761618E-05 ( -21.95%)
   displ. norm   :     0.0090859 α      lambda       -0.4637326E-06
   maximum displ.:     0.0067607 α      in ANC's #7, #6, #2, ...

   *** GEOMETRY OPTIMIZATION CONVERGED AFTER 9 ITERATIONS ***

------------------------------------------------------------------------
 total energy gain   :        -0.0191743 Eh      -12.0320 kcal/mol
 total RMSD          :         0.2253022 a0        0.1192 Å
 total power (kW/mol):        -5.5935560 (step)   -9.7077 (real)
------------------------------------------------------------------------

 ANCopt (total)                0 d,  0 h,  0 min,  5.186 sec
 optimizer setup                ...        0 min,  0.001 sec (  0.020%)
 model hessian                  ...        0 min,  0.191 sec (  3.680%)
 ANC generation                 ...        0 min,  0.043 sec (  0.833%)
 coordinate transformation      ...        0 min,  0.025 sec (  0.478%)
 single point calculation       ...        0 min,  4.861 sec ( 93.739%)
 optimization log               ...        0 min,  0.002 sec (  0.033%)
 hessian update                 ...        0 min,  0.052 sec (  1.001%)
 rational function              ...        0 min,  0.007 sec (  0.134%)

================
 final structure:
================
44
 xtb: 6.5.1 (b24c23e)
C           -3.07523720131821       -1.19052655366572        0.28063298961231
C           -2.63698357121399        0.27691380167867        0.45180537808610
C           -1.32446366582945        0.22970318909686        0.95584882455587
C           -0.45090646479256        1.31564544606041        0.88903739136307
C           -0.80858967621982        2.54880403144632        0.31410457428486
C            0.51877054192779        3.27849734897476        0.02886727553532
C            1.58623675424918        2.17308228953248        0.14169485829912
C            0.95301435336298        1.09526319699715        0.78667981379912
C            1.45436526808485       -0.20611516564133        0.75326941191833
C            2.63543161925459       -0.55011650558495        0.07107138792877
C            2.58157024072421       -2.07862143454816       -0.11505531158953
C            1.11382946805335       -2.44211509288987        0.18438127930037
C            0.56259986857339       -1.31534240375868        0.82149437200977
C           -0.81239641340081       -1.09979257921861        0.92172485854416
C           -1.76328290755281       -1.99152108564960        0.39270093327288
C           -1.22882982645208       -3.17003897528326       -0.09787030048837
C            0.18347316741910       -3.39069455194265       -0.20173112020126
C            3.33825584421282        0.53000180189842       -0.43283708915395
C            2.82272132344631        1.86751772032737       -0.39868249161907
C           -2.14153236511992        2.64559717989564       -0.04385181754116
C           -3.03960689019535        1.53061965163678        0.02592169889882
H           -3.76685889077585       -1.47775739971423        1.07686668484900
H           -3.57890865701062       -1.35876862099200       -0.67076656331821
H            0.52762815296676        3.76696566256222       -0.94407106588576
H            0.69375651854032        4.04854556322091        0.78509882633508
H            3.24521458507077       -2.56990390768186        0.60156251692196
H            2.89225288062676       -2.38420418971741       -1.11299755670169
H           -1.86777975736908       -3.92336593268795       -0.53385319131222
H            0.49474709245377       -4.29171226117674       -0.70847819847030
H            4.25672177380676        0.38001548505516       -0.98026168564945
H            3.39344305263269        2.61889296518685       -0.92339818440867
H           -2.52354479786657        3.54486546228635       -0.50302468205565
H           -4.02688727349632        1.68000109706338       -0.38502313623905
Ru          -0.06007853827532       -0.00121125834268       -0.83189949046478
C           -0.20257956166861        1.19710563830807       -2.70695351266986
C           -1.35125258627762        0.36055887926218       -2.61393357927288
C           -0.91790046292169       -0.98784183727404       -2.63853021030377
C            0.50264376221124       -0.99311761715467       -2.74807496193461
C            0.93944285964066        0.35645408616789       -2.79338655341047
H           -0.21414077875464        2.26853401480498       -2.84089091025940
H           -2.37772848102608        0.69797720943212       -2.64237645045521
H           -1.55426636593123       -1.85971202531635       -2.69244232606169
H            1.11580805441422       -1.86678592452586       -2.91326861562178
H            1.95209386179715        0.68618299187171       -2.97861198042616

 Bond Distances (Angstroems)
 ---------------------------
C1-C2=1.5410         C1-C15=1.5412        C1-H22=1.0931        C1-H23=1.0896        C2-C1=1.5410         C2-C3=1.4068         
C2-C21=1.3839        C3-C2=1.4068         C3-C4=1.3953         C3-C14=1.4251        C3-Ru34=2.2018       C4-C3=1.3953         
C4-C5=1.4068         C4-C8=1.4248         C4-Ru34=2.2019       C5-C4=1.4068         C5-C6=1.5413         C5-C20=1.3836        
C6-C5=1.5413         C6-C7=1.5408         C6-H24=1.0887        C6-H25=1.0934        C7-C6=1.5408         C7-C8=1.4067         
C7-C19=1.3836        C8-C4=1.4248         C8-C7=1.4067         C8-C9=1.3950         C8-Ru34=2.2019       C9-C8=1.3950         
C9-C10=1.4066        C9-C13=1.4249        C9-Ru34=2.2019       C10-C9=1.4066        C10-C11=1.5407       C10-C18=1.3837       
C11-C10=1.5407       C11-C12=1.5414       C11-H26=1.0933       C11-H27=1.0889       C12-C11=1.5414       C12-C13=1.4069       
C12-C17=1.3836       C13-C9=1.4249        C13-C12=1.4069       C13-C14=1.3954       C13-Ru34=2.2019      C14-C3=1.4251        
C14-C13=1.3954       C14-C15=1.4069       C14-Ru34=2.2018      C15-C1=1.5412        C15-C14=1.4069       C15-C16=1.3839       
C16-C15=1.3839       C16-C17=1.4332       C16-H28=1.0797       C17-C12=1.3836       C17-C16=1.4332       C17-H29=1.0796       
C18-C10=1.3837       C18-C19=1.4338       C18-H30=1.0797       C19-C7=1.3836        C19-C18=1.4338       C19-H31=1.0796       
C20-C5=1.3836        C20-C21=1.4334       C20-H32=1.0796       C21-C2=1.3839        C21-C20=1.4334       C21-H33=1.0798       
H22-C1=1.0931        H23-C1=1.0896        H24-C6=1.0887        H25-C6=1.0934        H26-C11=1.0933       H27-C11=1.0889       
H28-C16=1.0797       H29-C17=1.0796       H30-C18=1.0797       H31-C19=1.0796       H32-C20=1.0796       H33-C21=1.0798       
Ru34-C3=2.2018       Ru34-C4=2.2019       Ru34-C8=2.2019       Ru34-C9=2.2019       Ru34-C13=2.2019      Ru34-C14=2.2018      
Ru34-C35=2.2298      Ru34-C36=2.2302      Ru34-C37=2.2301      Ru34-C38=2.2299      Ru34-C39=2.2303      C35-Ru34=2.2298      
C35-C36=1.4240       C35-C39=1.4207       C35-H40=1.0798       C36-Ru34=2.2302      C36-C35=1.4240       C36-C37=1.4165       
C36-H41=1.0809       C37-Ru34=2.2301      C37-C36=1.4165       C37-C38=1.4248       C37-H42=1.0808       C38-Ru34=2.2299      
C38-C37=1.4248       C38-C39=1.4192       C38-H43=1.0801       C39-Ru34=2.2303      C39-C35=1.4207       C39-C38=1.4192       
C39-H44=1.0810       H40-C35=1.0798       H41-C36=1.0809       H42-C37=1.0808       H43-C38=1.0801       H44-C39=1.0810       
 C  H  Rav=1.0840 sigma=0.0055  Rmin=1.0796  Rmax=1.0934    17
 C  C  Rav=1.4330 sigma=0.0542  Rmin=1.3836  Rmax=1.5414    32
 Ru C  Rav=2.2147 sigma=0.0140  Rmin=2.2018  Rmax=2.2303    11

 selected bond angles (degree)
 --------------------
C15-C1-C2=104.17               H22-C1-C2=110.44               H22-C1-C15=110.43              H23-C1-C2=112.05               
H23-C1-C15=112.13              H23-C1-H22=107.64              C3-C2-C1=105.85                C21-C2-C1=138.22               
C21-C2-C3=114.34               C4-C3-C2=122.74                C14-C3-C2=110.98               C14-C3-C4=120.00               
Ru34-C3-C2=104.38              Ru34-C3-C4= 71.53              Ru34-C3-C14= 71.12             C5-C4-C3=122.86                
C8-C4-C3=120.00                C8-C4-C5=110.90                Ru34-C4-C3= 71.52              Ru34-C4-C5=104.47              
Ru34-C4-C8= 71.12              C6-C5-C4=105.76                C20-C5-C4=114.33               C20-C5-C6=138.48               
C7-C6-C5=104.09                H24-C6-C5=112.63               H24-C6-C7=112.44               H25-C6-C5=110.07               
H25-C6-C7=110.11               H25-C6-H24=107.51              C8-C7-C6=105.75                C19-C7-C6=138.50               
C19-C7-C8=114.34               C7-C8-C4=110.98                C9-C8-C4=120.01                C9-C8-C7=122.82                
Ru34-C8-C4= 71.12              Ru34-C8-C7=104.57              Ru34-C8-C9= 71.53              C10-C9-C8=122.79               
C13-C9-C8=120.01               C13-C9-C10=111.00              Ru34-C9-C8= 71.53              Ru34-C9-C10=104.54             
Ru34-C9-C13= 71.12             C11-C10-C9=105.77              C18-C10-C9=114.34              C18-C10-C11=138.43             

 selected dihedral angles (degree)
 ---------------------------------
C3-C2-C1-C15=345.89           C3-C2-C1-H22=104.46           C3-C2-C1-H23=224.46           C21-C2-C1-C15=149.80          
C21-C2-C1-H22=268.38          C21-C2-C1-H23= 28.37          C4-C3-C2-C1=161.23            C4-C3-C2-C21=352.92           
C14-C3-C2-C1=  9.21           C14-C3-C2-C21=200.90          Ru34-C3-C2-C1= 84.17          Ru34-C3-C2-C21=275.86         
C5-C4-C3-C2=  0.08            C5-C4-C3-C14=149.69           C5-C4-C3-Ru34= 95.62          C8-C4-C3-C2=210.39            
C8-C4-C3-C14=  0.00           C8-C4-C3-Ru34=305.93          Ru34-C4-C3-C2=264.46          Ru34-C4-C3-C14= 54.07         
C6-C5-C4-C3=197.94            C6-C5-C4-C8=350.05            C6-C5-C4-Ru34=275.06          C20-C5-C4-C3=  6.87           
C20-C5-C4-C8=158.97           C20-C5-C4-Ru34= 83.99         C7-C6-C5-C4= 15.14            C7-C6-C5-C20=210.45           
H24-C6-C5-C4=137.21           H24-C6-C5-C20=332.52          H25-C6-C5-C4=257.17           H25-C6-C5-C20= 92.47          
C8-C7-C6-C5=344.91            C8-C7-C6-H24=222.72           C8-C7-C6-H25=102.87           C19-C7-C6-C5=149.73           
C19-C7-C6-H24= 27.53          C19-C7-C6-H25=267.68          C7-C8-C4-C3=153.10            C7-C8-C4-C5=  0.09            
C7-C8-C4-Ru34= 98.84          C9-C8-C4-C3=  0.00            C9-C8-C4-C5=206.99            C9-C8-C4-Ru34=305.74          
Ru34-C8-C4-C3= 54.26          Ru34-C8-C4-C5=261.25          C4-C8-C7-C6=  9.82            C4-C8-C7-C19=200.80           
C9-C8-C7-C6=162.03            C9-C8-C7-C19=353.02           Ru34-C8-C7-C6= 84.85          Ru34-C8-C7-C19=275.83         
C10-C9-C8-C4=149.80           C10-C9-C8-C7=359.97           C10-C9-C8-Ru34= 95.73         C13-C9-C8-C4=  0.00           
C13-C9-C8-C7=210.18           C13-C9-C8-Ru34=305.93         Ru34-C9-C8-C4= 54.07          Ru34-C9-C8-C7=264.25          
C11-C10-C9-C8=198.19          C11-C10-C9-C13=350.38         C11-C10-C9-Ru34=275.36        C18-C10-C9-C8=  7.05          
C18-C10-C9-C13=159.23         C18-C10-C9-Ru34= 84.21        
           -------------------------------------------------
          |                Final Singlepoint                |
           -------------------------------------------------

          ...................................................
          :                      SETUP                      :
          :.................................................:
          :  # basis functions                 131          :
          :  # atomic orbitals                 130          :
          :  # shells                           72          :
          :  # electrons                       128          :
          :  max. iterations                   250          :
          :  Hamiltonian                  GFN2-xTB          :
          :  restarted?                      false          :
          :  GBSA solvation                  false          :
          :  PC potential                    false          :
          :  electronic temp.          300.0000000     K    :
          :  accuracy                    1.0000000          :
          :  -> integral cutoff          0.2500000E+02      :
          :  -> integral neglect         0.1000000E-07      :
          :  -> SCF convergence          0.1000000E-05 Eh   :
          :  -> wf. convergence          0.1000000E-03 e    :
          :  Broyden damping             0.4000000          :
          ...................................................

 iter      E             dE          RMSdq      gap      omega  full diag
   1    -68.2953082 -0.682953E+02  0.141E-04    1.47       0.0  T
   2    -68.2953082  0.144334E-08  0.175E-04    1.47      86.1  T
   3    -68.2953082 -0.152346E-08  0.983E-05    1.47     153.3  T

   *** convergence criteria satisfied after 3 iterations ***

         #    Occupation            Energy/Eh            Energy/eV
      -------------------------------------------------------------
         1        2.0000           -0.8483933             -23.0860
       ...           ...                  ...                  ...
        58        2.0000           -0.5375055             -14.6263
        59        2.0000           -0.5303313             -14.4310
        60        2.0000           -0.5138613             -13.9829
        61        2.0000           -0.5130952             -13.9620
        62        2.0000           -0.4895435             -13.3212
        63        2.0000           -0.4756749             -12.9438
        64        2.0000           -0.4756473             -12.9430 (HOMO)
        65                         -0.4215167             -11.4701 (LUMO)
        66                         -0.4209136             -11.4536
        67                         -0.3801107             -10.3433
        68                         -0.3799370             -10.3386
        69                         -0.3704491             -10.0804
       ...                                ...                  ...
       130                          3.9973830             108.7743
      -------------------------------------------------------------
                  HL-Gap            0.0541306 Eh            1.4730 eV
             Fermi-level           -0.4484638 Eh          -12.2033 eV

 SCC (total)                   0 d,  0 h,  0 min,  0.339 sec
 SCC setup                      ...        0 min,  0.013 sec (  3.787%)
 Dispersion                     ...        0 min,  0.023 sec (  6.901%)
 classical contributions        ...        0 min,  0.016 sec (  4.826%)
 integral evaluation            ...        0 min,  0.058 sec ( 17.010%)
 iterations                     ...        0 min,  0.187 sec ( 55.046%)
 molecular gradient             ...        0 min,  0.041 sec ( 11.967%)
 printout                       ...        0 min,  0.002 sec (  0.451%)

         :::::::::::::::::::::::::::::::::::::::::::::::::::::
         ::                     SUMMARY                     ::
         :::::::::::::::::::::::::::::::::::::::::::::::::::::
         :: total energy             -67.116731096231 Eh    ::
         :: gradient norm              0.000624095166 Eh/a0 ::
         :: HOMO-LUMO gap              1.472968052890 eV    ::
         ::.................................................::
         :: SCC energy               -68.295308192057 Eh    ::
         :: -> isotropic ES            0.057807798419 Eh    ::
         :: -> anisotropic ES         -0.009901531845 Eh    ::
         :: -> anisotropic XC          0.037445208948 Eh    ::
         :: -> dispersion             -0.073688497279 Eh    ::
         :: repulsion energy           1.176137649456 Eh    ::
         :: add. restraining           0.000076502621 Eh    ::
         :: total charge               1.000000000000 e     ::
         :::::::::::::::::::::::::::::::::::::::::::::::::::::

           -------------------------------------------------
          |                Property Printout                |
           -------------------------------------------------

    * Orbital Energies and Occupations

         #    Occupation            Energy/Eh            Energy/eV
      -------------------------------------------------------------
         1        2.0000           -0.8483933             -23.0860
       ...           ...                  ...                  ...
        52        2.0000           -0.5595373             -15.2258
        53        2.0000           -0.5595307             -15.2256
        54        2.0000           -0.5541831             -15.0801
        55        2.0000           -0.5489138             -14.9367
        56        2.0000           -0.5488771             -14.9357
        57        2.0000           -0.5397398             -14.6871
        58        2.0000           -0.5375055             -14.6263
        59        2.0000           -0.5303313             -14.4310
        60        2.0000           -0.5138613             -13.9829
        61        2.0000           -0.5130952             -13.9620
        62        2.0000           -0.4895435             -13.3212
        63        2.0000           -0.4756749             -12.9438
        64        2.0000           -0.4756473             -12.9430 (HOMO)
        65                         -0.4215167             -11.4701 (LUMO)
        66                         -0.4209136             -11.4536
        67                         -0.3801107             -10.3433
        68                         -0.3799370             -10.3386
        69                         -0.3704491             -10.0804
        70                         -0.3367031              -9.1622
        71                         -0.3366868              -9.1617
        72                         -0.3314416              -9.0190
        73                         -0.3045989              -8.2886
        74                         -0.3043845              -8.2827
        75                         -0.2642348              -7.1902
       ...                                ...                  ...
       130                          3.9973830             108.7743
      -------------------------------------------------------------
                  HL-Gap            0.0541306 Eh            1.4730 eV
             Fermi-level           -0.4484638 Eh          -12.2033 eV

     #   Z          covCN         q      C6AA      α(0)
     1   6 C        3.856    -0.064    21.691     6.624
     2   6 C        3.044     0.011    27.735     8.638
     3   6 C        3.905     0.032    19.977     6.353
     4   6 C        3.906     0.032    19.978     6.353
     5   6 C        3.044     0.011    27.728     8.637
     6   6 C        3.857    -0.064    21.682     6.622
     7   6 C        3.043     0.011    27.726     8.636
     8   6 C        3.906     0.032    19.978     6.353
     9   6 C        3.906     0.032    19.978     6.353
    10   6 C        3.043     0.011    27.728     8.637
    11   6 C        3.856    -0.064    21.685     6.623
    12   6 C        3.044     0.011    27.731     8.637
    13   6 C        3.905     0.032    19.978     6.353
    14   6 C        3.905     0.032    19.977     6.353
    15   6 C        3.044     0.011    27.735     8.638
    16   6 C        2.925    -0.030    28.753     8.794
    17   6 C        2.925    -0.030    28.745     8.792
    18   6 C        2.925    -0.030    28.753     8.794
    19   6 C        2.925    -0.030    28.750     8.793
    20   6 C        2.925    -0.030    28.744     8.792
    21   6 C        2.925    -0.030    28.755     8.794
    22   1 H        0.924     0.093     1.846     2.125
    23   1 H        0.925     0.079     1.986     2.204
    24   1 H        0.925     0.078     2.000     2.212
    25   1 H        0.924     0.093     1.846     2.125
    26   1 H        0.924     0.093     1.846     2.125
    27   1 H        0.925     0.078     1.996     2.210
    28   1 H        0.926     0.065     2.138     2.286
    29   1 H        0.926     0.066     2.129     2.282
    30   1 H        0.926     0.066     2.132     2.283
    31   1 H        0.926     0.066     2.128     2.281
    32   1 H        0.926     0.066     2.126     2.280
    33   1 H        0.926     0.065     2.138     2.287
    34  44 Ru       9.404    -0.175   313.832    29.797
    35   6 C        3.812    -0.018    20.884     6.505
    36   6 C        3.814    -0.013    20.797     6.491
    37   6 C        3.814    -0.014    20.818     6.494
    38   6 C        3.812    -0.017    20.871     6.503
    39   6 C        3.815    -0.011    20.760     6.485
    40   1 H        0.926     0.090     1.881     2.145
    41   1 H        0.926     0.090     1.876     2.142
    42   1 H        0.926     0.090     1.880     2.144
    43   1 H        0.926     0.090     1.882     2.145
    44   1 H        0.926     0.091     1.869     2.138

 Mol. C6AA /au·bohr⁶  :      28476.892533
 Mol. C8AA /au·bohr⁸  :     893328.464981
 Mol. α(0) /au        :        262.256328


Wiberg/Mayer (AO) data.
largest (>0.10) Wiberg bond orders for each atom

 ---------------------------------------------------------------------------
     #   Z sym  total        # sym  WBO       # sym  WBO       # sym  WBO
 ---------------------------------------------------------------------------
     1   6 C    3.990 --     2 C    0.996    15 C    0.996    23 H    0.954
                            22 H    0.938
     2   6 C    3.976 --    21 C    1.497     3 C    1.217     1 C    0.996
                             5 C    0.107
     3   6 C    3.983 --     2 C    1.217     4 C    1.192    14 C    1.079
                            34 Ru   0.276
     4   6 C    3.983 --     5 C    1.217     3 C    1.192     8 C    1.078
                            34 Ru   0.276
     5   6 C    3.977 --    20 C    1.497     4 C    1.217     6 C    0.995
                             2 C    0.107
     6   6 C    3.990 --     7 C    0.996     5 C    0.995    24 H    0.955
                            25 H    0.937
     7   6 C    3.977 --    19 C    1.497     8 C    1.217     6 C    0.996
                            10 C    0.107
     8   6 C    3.983 --     7 C    1.217     9 C    1.192     4 C    1.078
                            34 Ru   0.277
     9   6 C    3.983 --    10 C    1.217     8 C    1.192    13 C    1.078
                            34 Ru   0.277
    10   6 C    3.977 --    18 C    1.497     9 C    1.217    11 C    0.996
                             7 C    0.107
    11   6 C    3.990 --    10 C    0.996    12 C    0.995    27 H    0.954
                            26 H    0.938
    12   6 C    3.977 --    17 C    1.497    13 C    1.217    11 C    0.995
                            15 C    0.108
    13   6 C    3.983 --    12 C    1.217    14 C    1.193     9 C    1.078
                            34 Ru   0.276
    14   6 C    3.983 --    15 C    1.217    13 C    1.193     3 C    1.079
                            34 Ru   0.276
    15   6 C    3.976 --    16 C    1.497    14 C    1.217     1 C    0.996
                            12 C    0.108
    16   6 C    3.981 --    15 C    1.497    17 C    1.309    28 H    0.966
    17   6 C    3.981 --    12 C    1.497    16 C    1.309    29 H    0.966
    18   6 C    3.981 --    10 C    1.497    19 C    1.308    30 H    0.966
    19   6 C    3.981 --     7 C    1.497    18 C    1.308    31 H    0.966
    20   6 C    3.981 --     5 C    1.497    21 C    1.309    32 H    0.966
    21   6 C    3.981 --     2 C    1.497    20 C    1.309    33 H    0.966
    22   1 H    0.990 --     1 C    0.938
    23   1 H    0.993 --     1 C    0.954
    24   1 H    0.993 --     6 C    0.955
    25   1 H    0.990 --     6 C    0.937
    26   1 H    0.990 --    11 C    0.938
    27   1 H    0.993 --    11 C    0.954
    28   1 H    0.995 --    16 C    0.966
    29   1 H    0.995 --    17 C    0.966
    30   1 H    0.995 --    18 C    0.966
    31   1 H    0.995 --    19 C    0.966
    32   1 H    0.995 --    20 C    0.966
    33   1 H    0.995 --    21 C    0.966
    34  44 Ru   4.848 --    35 C    0.474    38 C    0.472    37 C    0.465
                            36 C    0.463    39 C    0.460     9 C    0.277
                             8 C    0.277     3 C    0.276     4 C    0.276
                            14 C    0.276    13 C    0.276
    35   6 C    3.983 --    39 C    1.234    36 C    1.219    40 H    0.932
                            34 Ru   0.474
    36   6 C    3.983 --    37 C    1.252    35 C    1.219    41 H    0.931
                            34 Ru   0.463
    37   6 C    3.983 --    36 C    1.252    38 C    1.216    42 H    0.931
                            34 Ru   0.465
    38   6 C    3.983 --    39 C    1.241    37 C    1.216    43 H    0.932
                            34 Ru   0.472
    39   6 C    3.983 --    38 C    1.241    35 C    1.234    44 H    0.930
                            34 Ru   0.460
    40   1 H    0.991 --    35 C    0.932
    41   1 H    0.991 --    36 C    0.931
    42   1 H    0.991 --    37 C    0.931
    43   1 H    0.991 --    38 C    0.932
    44   1 H    0.991 --    39 C    0.930
 ---------------------------------------------------------------------------

Topologies differ in total number of bonds
Writing topology from bond orders to xtbtopo.mol

molecular dipole:
                 x           y           z       tot (Debye)
 q only:       -0.130      -0.001      -1.835
   full:       -0.085      -0.002      -1.174       2.992
molecular quadrupole (traceless):
                xx          xy          yy          xz          yz          zz
 q only:        6.340       0.020       6.350      -1.295       0.029     -12.690
  q+dip:        9.430       0.004       9.548      -1.978       0.012     -18.978
   full:        6.729       0.020       6.745      -1.361       0.042     -13.473

           -------------------------------------------------
          |                Geometry Summary                 |
           -------------------------------------------------

      molecular mass/u    :      430.4790663
   center of mass at/Å    :       -0.0328969      -0.0006598      -0.4551468
  moments of inertia/u·Å² :        0.1634347E+04   0.1634530E+04   0.2210683E+04
rotational constants/cm⁻¹ :        0.1031460E-01   0.1031344E-01   0.7625530E-02

 * 54 selected distances

     #   Z          #   Z                                           value/Å
     2   6 C        3   6 C                                       1.4067685
     3   6 C        4   6 C                                       1.3952910
     4   6 C        5   6 C                                       1.4068282
     4   6 C        8   6 C                                       1.4247945
     7   6 C        8   6 C                                       1.4066523
     8   6 C        9   6 C                                       1.3950108
     9   6 C       10   6 C                                       1.4066446
     9   6 C       13   6 C                                       1.4248809
    12   6 C       13   6 C                                       1.4069059
     3   6 C       14   6 C                                       1.4251094
    13   6 C       14   6 C                                       1.3953935
    14   6 C       15   6 C                                       1.4068516
    15   6 C       16   6 C                                       1.3839093
    12   6 C       17   6 C                                       1.3836361
    16   6 C       17   6 C                                       1.4332048
    10   6 C       18   6 C                                       1.3836696
     7   6 C       19   6 C                                       1.3835721
    18   6 C       19   6 C                                       1.4338381
     5   6 C       20   6 C                                       1.3835600
     2   6 C       21   6 C                                       1.3839296
    20   6 C       21   6 C                                       1.4333811
     1   6 C       22   1 H                                       1.0930830
     1   6 C       23   1 H                                       1.0895649
     6   6 C       24   1 H                                       1.0887098
     6   6 C       25   1 H                                       1.0933804
    11   6 C       26   1 H                                       1.0933086
    11   6 C       27   1 H                                       1.0889414
    16   6 C       28   1 H                                       1.0797406
    17   6 C       29   1 H                                       1.0795912
    18   6 C       30   1 H                                       1.0796988
    19   6 C       31   1 H                                       1.0796364
    20   6 C       32   1 H                                       1.0795633 (min)
    21   6 C       33   1 H                                       1.0797746
     3   6 C       34  44 Ru                                      2.2018256
     4   6 C       34  44 Ru                                      2.2019270
     8   6 C       34  44 Ru                                      2.2019113
     9   6 C       34  44 Ru                                      2.2018826
    13   6 C       34  44 Ru                                      2.2019040
    14   6 C       34  44 Ru                                      2.2018316
    34  44 Ru      35   6 C                                       2.2298203
    34  44 Ru      36   6 C                                       2.2301692
    35   6 C       36   6 C                                       1.4240482
    34  44 Ru      37   6 C                                       2.2300704
    36   6 C       37   6 C                                       1.4165394
    34  44 Ru      38   6 C                                       2.2298574
    37   6 C       38   6 C                                       1.4247716
    34  44 Ru      39   6 C                                       2.2303363 (max)
    35   6 C       39   6 C                                       1.4206975
    38   6 C       39   6 C                                       1.4192219
    35   6 C       40   1 H                                       1.0798296
    36   6 C       41   1 H                                       1.0808853
    37   6 C       42   1 H                                       1.0807525
    38   6 C       43   1 H                                       1.0800722
    39   6 C       44   1 H                                       1.0809680

 * 3 distinct bonds (by element types)

   Z      Z             #   av. dist./Å        max./Å        min./Å
   1 H    6 C          17     1.0839706     1.0933804     1.0795633
   6 C    6 C          26     1.4080427     1.4338381     1.3835600
   6 C   44 Ru         11     2.2146851     2.2303363     2.2018256


optimized geometry written to: xtbopt.xyz


           -------------------------------------------------
          | TOTAL ENERGY              -67.116731096231 Eh   |
          | GRADIENT NORM               0.000624095166 Eh/α |
          | HOMO-LUMO GAP               1.472968052890 eV   |
           -------------------------------------------------

------------------------------------------------------------------------
 * finished run on 2026/07/30 at 00:21:20.698     
------------------------------------------------------------------------
 total:
 * wall-time:     0 d,  0 h,  0 min,  6.816 sec
 *  cpu-time:     0 d,  0 h,  0 min, 23.076 sec
 * ratio c/w:     3.386 speedup
 SCF:
 * wall-time:     0 d,  0 h,  0 min,  1.151 sec
 *  cpu-time:     0 d,  0 h,  0 min,  4.094 sec
 * ratio c/w:     3.557 speedup
 ANC optimizer:
 * wall-time:     0 d,  0 h,  0 min,  5.538 sec
 *  cpu-time:     0 d,  0 h,  0 min, 18.586 sec
 * ratio c/w:     3.356 speedup

