44
 energy: -67.157829998425 gnorm: 0.000683167217 xtb: 6.5.1 (b24c23e)
C           -3.02001035813557       -1.19861328112360        0.31329083636196
C           -2.57957497271358        0.25955433480579        0.54056257774241
C           -1.26700452426341        0.18468387858576        1.08046938226163
C           -0.39058473546212        1.27443600441535        1.01465954421613
C           -0.77924434831440        2.49825544187682        0.40521211505564
C            0.53326985131946        3.21960058631545        0.04614106328721
C            1.58934428426790        2.11600440281356        0.17045068786656
C            1.01252213220702        1.06323079049174        0.88476550921040
C            1.48911478072568       -0.23312154243780        0.80757416884065
C            2.59803049321439       -0.55503512664727        0.02083294192038
C            2.53565831401058       -2.05480388358348       -0.25320094760289
C            1.10361754007353       -2.41315767855775        0.13294867110026
C            0.59644019313416       -1.34308186766016        0.87459702141334
C           -0.76544273960461       -1.14752614335043        1.01836169748033
C           -1.70879174010232       -1.98496762518890        0.41823278541188
C           -1.21173613696915       -3.13257008466467       -0.17986764101197
C            0.17774674368147       -3.34374911877192       -0.31594764471543
C            3.27841687381259        0.51157264534730       -0.54855636819736
C            2.78011319956135        1.83091965766962       -0.47954927180206
C           -2.07137167030540        2.57786989697962       -0.16933109361554
C           -2.97056339141769        1.45975635215450       -0.10166091776730
H           -3.73782857184766       -1.53023389856572        1.06799590943241
H           -3.48670841335272       -1.31773744633214       -0.66496954180039
H            0.49085690983667        3.62799814456913       -0.96400139391709
H            0.74595868546358        4.04466915416208        0.73086240582752
H            3.25788492923714       -2.59863305573004        0.36059351060196
H            2.74551536047350       -2.28653960195695       -1.29681694142396
H           -1.87707711559555       -3.82752810356305       -0.66967930345982
H            0.49787086681866       -4.19179596886459       -0.90289233614555
H            4.13968339887648        0.33628575867450       -1.17598864616550
H            3.28476123589039        2.59071066986263       -1.05709153593323
H           -2.36006446670015        3.44502304315692       -0.75484495319954
H           -3.91271765365860        1.51456791279069       -0.63786478202379
Ru          -2.27646627370747        1.94715608738512        1.92835265256453
C           -3.28720774902027        3.58718499013049        3.05171082056127
C           -2.00521383206372        3.36171230786852        3.63069776413302
C           -1.97846377079897        2.03135595916916        4.13669210170733
C           -3.24305418054399        1.43359847864536        3.87115554000514
C           -4.05245131508647        2.39538463410359        3.20040699660703
H           -3.65957277045193        4.53608091622645        2.68984298776683
H           -1.23819497437424        4.10968339553186        3.78033812796290
H           -1.18402984747758        1.59473512026764        4.72753642385924
H           -3.57399539836866        0.46952066858378        4.23367243010761
H           -5.10371970226875        2.28690339441544        2.96992130547637
