44
 energy: -67.116731096231 gnorm: 0.000624095166 xtb: 6.5.1 (b24c23e)
C           -3.07523720131821       -1.19052655366572        0.28063298961231
C           -2.63698357121399        0.27691380167867        0.45180537808610
C           -1.32446366582945        0.22970318909686        0.95584882455587
C           -0.45090646479256        1.31564544606041        0.88903739136307
C           -0.80858967621982        2.54880403144632        0.31410457428486
C            0.51877054192779        3.27849734897476        0.02886727553532
C            1.58623675424918        2.17308228953248        0.14169485829912
C            0.95301435336298        1.09526319699715        0.78667981379912
C            1.45436526808485       -0.20611516564133        0.75326941191833
C            2.63543161925459       -0.55011650558495        0.07107138792877
C            2.58157024072421       -2.07862143454816       -0.11505531158953
C            1.11382946805335       -2.44211509288987        0.18438127930037
C            0.56259986857339       -1.31534240375868        0.82149437200977
C           -0.81239641340081       -1.09979257921861        0.92172485854416
C           -1.76328290755281       -1.99152108564960        0.39270093327288
C           -1.22882982645208       -3.17003897528326       -0.09787030048837
C            0.18347316741910       -3.39069455194265       -0.20173112020126
C            3.33825584421282        0.53000180189842       -0.43283708915395
C            2.82272132344631        1.86751772032737       -0.39868249161907
C           -2.14153236511992        2.64559717989564       -0.04385181754116
C           -3.03960689019535        1.53061965163678        0.02592169889882
H           -3.76685889077585       -1.47775739971423        1.07686668484900
H           -3.57890865701062       -1.35876862099200       -0.67076656331821
H            0.52762815296676        3.76696566256222       -0.94407106588576
H            0.69375651854032        4.04854556322091        0.78509882633508
H            3.24521458507077       -2.56990390768186        0.60156251692196
H            2.89225288062676       -2.38420418971741       -1.11299755670169
H           -1.86777975736908       -3.92336593268795       -0.53385319131222
H            0.49474709245377       -4.29171226117674       -0.70847819847030
H            4.25672177380676        0.38001548505516       -0.98026168564945
H            3.39344305263269        2.61889296518685       -0.92339818440867
H           -2.52354479786657        3.54486546228635       -0.50302468205565
H           -4.02688727349632        1.68000109706338       -0.38502313623905
Ru          -0.06007853827532       -0.00121125834268       -0.83189949046478
C           -0.20257956166861        1.19710563830807       -2.70695351266986
C           -1.35125258627762        0.36055887926218       -2.61393357927288
C           -0.91790046292169       -0.98784183727404       -2.63853021030377
C            0.50264376221124       -0.99311761715467       -2.74807496193461
C            0.93944285964066        0.35645408616789       -2.79338655341047
H           -0.21414077875464        2.26853401480498       -2.84089091025940
H           -2.37772848102608        0.69797720943212       -2.64237645045521
H           -1.55426636593123       -1.85971202531635       -2.69244232606169
H            1.11580805441422       -1.86678592452586       -2.91326861562178
H            1.95209386179715        0.68618299187171       -2.97861198042616
