44
 energy: -67.149074069730 gnorm: 0.000710027520 xtb: 6.5.1 (b24c23e)
C           -3.04090194460420       -1.25685703994841        0.29094866223877
C           -2.60608674408557        0.21561807329395        0.38082615367463
C           -1.29206702228396        0.19956082608477        0.89838538455459
C           -0.41994572059218        1.28272692941022        0.83294545239520
C           -0.74822549212242        2.52236801331250        0.24122106198296
C            0.58848779271647        3.24924752580709        0.01682689041465
C            1.63078744327593        2.13060223893112        0.19766538550748
C            0.98780134976148        1.07187512679741        0.83839437673108
C            1.47285699933916       -0.22066874801167        0.84461870710679
C            2.64155772090819       -0.57120974873688        0.17018459314836
C            2.58869590349351       -2.08637437049231       -0.04371616554765
C            1.13560235185457       -2.44255576288997        0.28281234404240
C            0.58144059415854       -1.32817196007930        0.91149107932967
C           -0.78327571838862       -1.12807436533334        0.96984690703371
C           -1.71437110155028       -2.02350896342845        0.44389374469821
C           -1.17683175489223       -3.21101046919816       -0.03919576191641
C            0.22259164084006       -3.41199297131505       -0.12070025635912
C            3.36834049357076        0.49408538840575       -0.35192216244651
C            2.87725576378680        1.82225165637745       -0.33561722976572
C           -2.12055747823094        2.63371811184620       -0.13480639226950
C           -3.03160104922455        1.50253018941879       -0.06626105159624
H           -3.71932299245014       -1.50310740091229        1.11307715797050
H           -3.55415380598407       -1.48804769565310       -0.64284601029156
H            0.64979389134633        3.72201708716592       -0.96399234252403
H            0.72949672340713        4.02837699012453        0.77156219622119
H            3.27715993081301       -2.59970241284065        0.63156639317587
H            2.85861522518997       -2.36406070965556       -1.06252406230278
H           -1.81436545544623       -3.96717693012217       -0.47253279281740
H            0.56302446597344       -4.30868042838457       -0.61805840993997
H            4.28740897588331        0.31544965436362       -0.89104068050539
H            3.45302269052069        2.57274458886781       -0.85664923608147
H           -2.51789608072800        3.56457110125304       -0.52922111674776
H           -4.04784950243334        1.66508308323901       -0.41375686059717
Ru          -1.22913343595844        0.91769081381439       -1.18371723673440
C           -0.33071328695196        1.51456266203695       -3.13540980907629
C           -1.63355691448930        0.99245045808904       -3.37536078902562
C           -1.64218049995078       -0.36855375543171       -2.95787298605770
C           -0.34898474757025       -0.68399388079542       -2.46206710012240
C            0.46054392465746        0.47775839319438       -2.57131248560471
H            0.02598927987581        2.48497706405343       -3.45220718531390
H           -2.43245837702587        1.50001808846369       -3.89963714938724
H           -2.44794018389944       -1.07115182596162       -3.11898267145747
H           -0.00783374429053       -1.66723639403292       -2.17346690885820
H            1.52254646178030        0.52690608887207       -2.38019880688150
