      -----------------------------------------------------------      
     |                   =====================                   |     
     |                           x T B                           |     
     |                   =====================                   |     
     |                         S. Grimme                         |     
     |          Mulliken Center for Theoretical Chemistry        |     
     |                    University of Bonn                     |     
      -----------------------------------------------------------      

   * xtb version 6.5.1 (b24c23e) compiled by 'conda@728c89f4b128' on 2022-07-12

   xtb is free software: you can redistribute it and/or modify it under
   the terms of the GNU Lesser General Public License as published by
   the Free Software Foundation, either version 3 of the License, or
   (at your option) any later version.
   
   xtb is distributed in the hope that it will be useful,
   but WITHOUT ANY WARRANTY; without even the implied warranty of
   MERCHANTABILITY or FITNESS FOR A PARTICULAR PURPOSE.  See the
   GNU Lesser General Public License for more details.
   
   Cite this work as:
   * C. Bannwarth, E. Caldeweyher, S. Ehlert, A. Hansen, P. Pracht,
     J. Seibert, S. Spicher, S. Grimme, WIREs Comput. Mol. Sci., 2020, 11,
     e01493. DOI: 10.1002/wcms.1493
   
   for GFN2-xTB:
   * C. Bannwarth, S. Ehlert and S. Grimme., J. Chem. Theory Comput., 2019,
     15, 1652-1671. DOI: 10.1021/acs.jctc.8b01176
   for GFN1-xTB:
   * S. Grimme, C. Bannwarth, P. Shushkov, J. Chem. Theory Comput., 2017,
     13, 1989-2009. DOI: 10.1021/acs.jctc.7b00118
   for GFN0-xTB:
   * P. Pracht, E. Caldeweyher, S. Ehlert, S. Grimme, ChemRxiv, 2019, preprint.
     DOI: 10.26434/chemrxiv.8326202.v1
   for GFN-FF:
   * S. Spicher and S. Grimme, Angew. Chem. Int. Ed., 2020, 59, 15665-15673.
     DOI: 10.1002/anie.202004239
   
   for ALPB and GBSA implicit solvation:
   * S. Ehlert, M. Stahn, S. Spicher, S. Grimme, J. Chem. Theory Comput.,
     2021, 17, 4250-4261. DOI: 10.1021/acs.jctc.1c00471
   
   for DFT-D4:
   * E. Caldeweyher, C. Bannwarth and S. Grimme, J. Chem. Phys., 2017,
     147, 034112. DOI: 10.1063/1.4993215
   * E. Caldeweyher, S. Ehlert, A. Hansen, H. Neugebauer, S. Spicher,
     C. Bannwarth and S. Grimme, J. Chem. Phys., 2019, 150, 154122.
     DOI: 10.1063/1.5090222
   * E. Caldeweyher, J.-M. Mewes, S. Ehlert and S. Grimme, Phys. Chem. Chem. Phys.
     2020, 22, 8499-8512. DOI: 10.1039/D0CP00502A
   
   for sTDA-xTB:
   * S. Grimme and C. Bannwarth, J. Chem. Phys., 2016, 145, 054103.
     DOI: 10.1063/1.4959605
   
   in the mass-spec context:
   * V. Asgeirsson, C. Bauer and S. Grimme, Chem. Sci., 2017, 8, 4879.
     DOI: 10.1039/c7sc00601b
   * J. Koopman and S. Grimme, ACS Omega 2019, 4, 12, 15120-15133.
     DOI: 10.1021/acsomega.9b02011
   
   for metadynamics refer to:
   * S. Grimme, J. Chem. Theory Comput., 2019, 155, 2847-2862
     DOI: 10.1021/acs.jctc.9b00143
   
   for SPH calculations refer to:
   * S. Spicher and S. Grimme, J. Chem. Theory Comput., 2021, 17, 1701-1714
     DOI: 10.1021/acs.jctc.0c01306
   
   with help from (in alphabetical order)
   P. Atkinson, C. Bannwarth, F. Bohle, G. Brandenburg, E. Caldeweyher
   M. Checinski, S. Dohm, S. Ehlert, S. Ehrlich, I. Gerasimov, C. Hölzer
   A. Katbashev, J. Koopman, C. Lavigne, S. Lehtola, F. März, M. Müller,
   F. Musil, H. Neugebauer, J. Pisarek, C. Plett, P. Pracht, F. Pultar,
   J. Seibert, P. Shushkov, S. Spicher, M. Stahn, M. Steiner, T. Strunk,
   J. Stückrath, T. Rose, and J. Unsleber
   
 * started run on 2026/07/30 at 00:23:19.510     

           -------------------------------------------------
          |                Calculation Setup                |
           -------------------------------------------------

          program call               : /h/332/chchoi/miniconda3/envs/el-agente/bin/xtb CpRu_sumanene_peripheral_convex_init.xyz --opt --gfn 2 -P 4 --chrg 1 --uhf 0 --input detailed_input.inp
          coordinate file            : CpRu_sumanene_peripheral_convex_init.xyz
          omp threads                :                     4

   ID    Z sym.   atoms
    1    6 C      1-21, 35-39
    2    1 H      22-33, 40-44
    3   44 Ru     34
constraining bond 34 2 to    2.2000000 Å, actual value:    2.2619115 Å
constraining bond 34 3 to    2.2000000 Å, actual value:    2.1616327 Å
constraining bond 34 4 to    2.2000000 Å, actual value:    2.1616327 Å
constraining bond 34 5 to    2.2000000 Å, actual value:    2.2619115 Å
constraining bond 34 20 to    2.2000000 Å, actual value:    2.1662935 Å
constraining bond 34 21 to    2.2000000 Å, actual value:    2.1662935 Å
constraining bond 34 35 to    2.2300000 Å, actual value:    2.2327843 Å
constraining bond 34 36 to    2.2300000 Å, actual value:    2.2327280 Å
constraining bond 34 37 to    2.2300000 Å, actual value:    2.2326554 Å
constraining bond 34 38 to    2.2300000 Å, actual value:    2.2326554 Å
constraining bond 34 39 to    2.2300000 Å, actual value:    2.2327280 Å

           -------------------------------------------------
          |                 G F N 2 - x T B                 |
           -------------------------------------------------

        Reference                      10.1021/acs.jctc.8b01176
      * Hamiltonian:
        H0-scaling (s, p, d)           1.850000    2.230000    2.230000
        zeta-weighting                 0.500000
      * Dispersion:
        s8                             2.700000
        a1                             0.520000
        a2                             5.000000
        s9                             5.000000
      * Repulsion:
        kExp                           1.500000    1.000000
        rExp                           1.000000
      * Coulomb:
        alpha                          2.000000
        third order                    shell-resolved
        anisotropic                    true
        a3                             3.000000
        a5                             4.000000
        cn-shift                       1.200000
        cn-exp                         4.000000
        max-rad                        5.000000


          ...................................................
          :                      SETUP                      :
          :.................................................:
          :  # basis functions                 131          :
          :  # atomic orbitals                 130          :
          :  # shells                           72          :
          :  # electrons                       128          :
          :  max. iterations                   250          :
          :  Hamiltonian                  GFN2-xTB          :
          :  restarted?                      false          :
          :  GBSA solvation                  false          :
          :  PC potential                    false          :
          :  electronic temp.          300.0000000     K    :
          :  accuracy                    1.0000000          :
          :  -> integral cutoff          0.2500000E+02      :
          :  -> integral neglect         0.1000000E-07      :
          :  -> SCF convergence          0.1000000E-05 Eh   :
          :  -> wf. convergence          0.1000000E-03 e    :
          :  Broyden damping             0.4000000          :
          ...................................................

 iter      E             dE          RMSdq      gap      omega  full diag
   1    -66.3392891 -0.663393E+02  0.916E+00    1.30       0.0  T
   2    -59.9495124  0.638978E+01  0.118E+01    0.03       1.0  T
   3    -63.7681454 -0.381863E+01  0.718E+00    0.64       1.0  T
   4    -67.8150836 -0.404694E+01  0.357E+00    2.56       1.0  T
   5    -68.1644141 -0.349330E+00  0.220E+00    0.84       1.0  T
   6    -68.2724712 -0.108057E+00  0.924E-01    0.96       1.0  T
   7    -68.2993646 -0.268934E-01  0.572E-01    1.25       1.0  T
   8    -68.3132782 -0.139136E-01  0.294E-01    1.63       1.0  T
   9    -68.3159065 -0.262837E-02  0.189E-01    1.74       1.0  T
  10    -68.3180528 -0.214630E-02  0.113E-01    1.91       1.0  T
  11    -68.3186416 -0.588804E-03  0.784E-02    1.95       1.0  T
  12    -68.3187161 -0.744473E-04  0.237E-02    1.96       1.0  T
  13    -68.3187260 -0.994863E-05  0.125E-02    1.96       1.2  T
  14    -68.3187298 -0.373862E-05  0.756E-03    1.96       2.0  T
  15    -68.3187292  0.582497E-06  0.604E-03    1.96       2.5  T
  16    -68.3187295 -0.294029E-06  0.346E-03    1.96       4.4  T
  17    -68.3187301 -0.560443E-06  0.707E-04    1.96      21.3  T
  18    -68.3187301 -0.140132E-07  0.205E-04    1.96      73.7  T

   *** convergence criteria satisfied after 18 iterations ***

         #    Occupation            Energy/Eh            Energy/eV
      -------------------------------------------------------------
         1        2.0000           -0.8463010             -23.0290
       ...           ...                  ...                  ...
        58        2.0000           -0.5259161             -14.3109
        59        2.0000           -0.5187365             -14.1155
        60        2.0000           -0.4968002             -13.5186
        61        2.0000           -0.4917587             -13.3814
        62        2.0000           -0.4886500             -13.2968
        63        2.0000           -0.4824039             -13.1269
        64        2.0000           -0.4809350             -13.0869 (HOMO)
        65                         -0.4089145             -11.1271 (LUMO)
        66                         -0.3989344             -10.8556
        67                         -0.3752163             -10.2102
        68                         -0.3741509             -10.1812
        69                         -0.3585352              -9.7562
       ...                                ...                  ...
       130                          3.9824844             108.3689
      -------------------------------------------------------------
                  HL-Gap            0.0720205 Eh            1.9598 eV
             Fermi-level           -0.4449247 Eh          -12.1070 eV

 SCC (total)                   0 d,  0 h,  0 min,  1.705 sec
 SCC setup                      ...        0 min,  0.003 sec (  0.164%)
 Dispersion                     ...        0 min,  0.014 sec (  0.799%)
 classical contributions        ...        0 min,  0.023 sec (  1.352%)
 integral evaluation            ...        0 min,  0.038 sec (  2.242%)
 iterations                     ...        0 min,  1.538 sec ( 90.213%)
 molecular gradient             ...        0 min,  0.085 sec (  4.976%)
 printout                       ...        0 min,  0.004 sec (  0.245%)

         :::::::::::::::::::::::::::::::::::::::::::::::::::::
         ::                     SUMMARY                     ::
         :::::::::::::::::::::::::::::::::::::::::::::::::::::
         :: total energy             -67.099315259453 Eh    ::
         :: gradient norm              0.468935644947 Eh/a0 ::
         :: HOMO-LUMO gap              1.959777853281 eV    ::
         ::.................................................::
         :: SCC energy               -68.318730070415 Eh    ::
         :: -> isotropic ES            0.052558973439 Eh    ::
         :: -> anisotropic ES         -0.008204006938 Eh    ::
         :: -> anisotropic XC          0.036264654421 Eh    ::
         :: -> dispersion             -0.062421477918 Eh    ::
         :: repulsion energy           1.171979343084 Eh    ::
         :: add. restraining           0.046135143981 Eh    ::
         :: total charge               1.000000000000 e     ::
         :::::::::::::::::::::::::::::::::::::::::::::::::::::

      ----------------------------------------------------------- 
     |                   =====================                   |
     |                        A N C O P T                        |
     |                   =====================                   |
     |               Approximate Normal Coordinate               |
     |                Rational Function Optimizer                |
      ----------------------------------------------------------- 

          ...................................................
          :                      SETUP                      :
          :.................................................:
          :   optimization level            normal          :
          :   max. optcycles                   200          :
          :   ANC micro-cycles                  20          :
          :   degrees of freedom               126          :
          :.................................................:
          :   RF solver                   davidson          :
          :   write xtbopt.log                true          :
          :   linear?                        false          :
          :   energy convergence         0.5000000E-05 Eh   :
          :   grad. convergence          0.1000000E-02 Eh/α :
          :   maximium RF displ.         1.0000000          :
          :   Hlow (freq-cutoff)         0.1000000E-01      :
          :   Hmax (freq-cutoff)         5.0000000          :
          :   S6 in model hess.         20.0000000          :
          ...................................................

generating ANC from model Hessian ...
Using Lindh-Hessian (1995)
 Shifting diagonal of input Hessian by    9.1517471457904041E-003
 Lowest  eigenvalues of input Hessian
    0.000000    0.000000    0.000000    0.000000    0.000000    0.000000
    0.010000    0.010923    0.010975    0.011107    0.012772    0.014383
    0.017176    0.022986    0.023413    0.024517    0.025271    0.031140
 Highest eigenvalues
    2.935091    3.146670    3.289597    6.451043    6.475738   16.774411


........................................................................
.............................. CYCLE    1 ..............................
........................................................................
   1    -68.3187301 -0.683187E+02  0.110E-04    1.96       0.0  T
   2    -68.3187301 -0.141569E-09  0.116E-04    1.96     130.3  T
   3    -68.3187301 -0.221817E-09  0.533E-05    1.96     282.8  T
     SCC iter.                  ...        0 min,  0.205 sec
     gradient                   ...        0 min,  0.055 sec
 * total energy  :   -67.0993153 Eh     change       -0.8000995E-09 Eh
   gradient norm :     0.4689357 Eh/α   predicted     0.0000000E+00 (-100.00%)
   displ. norm   :     0.2902687 α      lambda       -0.9124112E-01
   maximum displ.:     0.1163337 α      in ANC's #122, #56, #11, ...

........................................................................
.............................. CYCLE    2 ..............................
........................................................................
   1    -68.3308228 -0.683308E+02  0.283E-01    2.10       0.0  T
   2    -68.3309024 -0.796225E-04  0.180E-01    2.10       1.0  T
   3    -68.3301345  0.767950E-03  0.145E-01    2.10       1.0  T
   4    -68.3304416 -0.307151E-03  0.937E-02    2.11       1.0  T
   5    -68.3309341 -0.492501E-03  0.446E-02    2.10       1.0  T
   6    -68.3310029 -0.687529E-04  0.728E-03    2.10       2.1  T
   7    -68.3310030 -0.866406E-07  0.536E-03    2.10       2.8  T
   8    -68.3310031 -0.732497E-07  0.351E-03    2.10       4.3  T
   9    -68.3310032 -0.996273E-07  0.928E-04    2.10      16.2  T
  10    -68.3310032 -0.912166E-09  0.578E-04    2.10      26.1  T
     SCC iter.                  ...        0 min,  0.327 sec
     gradient                   ...        0 min,  0.049 sec
 * total energy  :   -67.1469646 Eh     change       -0.4764935E-01 Eh
   gradient norm :     0.3942476 Eh/α   predicted    -0.4946465E-01 (   3.81%)
   displ. norm   :     0.2686812 α      lambda       -0.3758382E-01
   maximum displ.:     0.1471575 α      in ANC's #11, #56, #124, ...

........................................................................
.............................. CYCLE    3 ..............................
........................................................................
   1    -68.3303371 -0.683303E+02  0.217E-01    1.98       0.0  T
   2    -68.3275910  0.274608E-02  0.266E-01    2.00       1.0  T
   3    -68.3302004 -0.260940E-02  0.141E-01    1.98       1.0  T
   4    -68.3309118 -0.711457E-03  0.745E-02    1.99       1.0  T
   5    -68.3309730 -0.611444E-04  0.182E-02    1.99       1.0  T
   6    -68.3309750 -0.205061E-05  0.976E-03    1.99       1.5  T
   7    -68.3309759 -0.844293E-06  0.443E-03    1.99       3.4  T
   8    -68.3309761 -0.227587E-06  0.142E-03    1.99      10.6  T
   9    -68.3309762 -0.577655E-07  0.515E-04    1.99      29.3  T
  10    -68.3309762 -0.357710E-08  0.182E-04    1.99      82.7  T
     SCC iter.                  ...        0 min,  0.386 sec
     gradient                   ...        0 min,  0.145 sec
 * total energy  :   -67.1376894 Eh     change        0.9275175E-02 Eh
   gradient norm :     0.7042344 Eh/α   predicted    -0.2015495E-01 (-317.30%)
   displ. norm   :     0.1292777 α      lambda       -0.3685789E-01
   maximum displ.:     0.0808371 α      in ANC's #11, #124, #122, ...

........................................................................
.............................. CYCLE    4 ..............................
........................................................................
   1    -68.3304834 -0.683305E+02  0.131E-01    2.05       0.0  T
   2    -68.3302205  0.262840E-03  0.112E-01    2.04       1.0  T
   3    -68.3302719 -0.513909E-04  0.816E-02    2.05       1.0  T
   4    -68.3304939 -0.221993E-03  0.579E-02    2.05       1.0  T
   5    -68.3305999 -0.105996E-03  0.128E-02    2.05       1.2  T
   6    -68.3306004 -0.503931E-06  0.589E-03    2.05       2.6  T
   7    -68.3306005 -0.723945E-07  0.225E-03    2.05       6.7  T
   8    -68.3306005 -0.597937E-07  0.758E-04    2.05      19.9  T
   9    -68.3306006 -0.241741E-07  0.280E-04    2.05      53.9  T
     SCC iter.                  ...        0 min,  0.626 sec
     gradient                   ...        0 min,  0.074 sec
 * total energy  :   -67.1566005 Eh     change       -0.1891103E-01 Eh
   gradient norm :     0.0116599 Eh/α   predicted    -0.1873716E-01 (  -0.92%)
   displ. norm   :     1.8667622 α      lambda        0.1091450E-01
   maximum displ.:     1.0000000 α      in ANC's #2, #3, #4, ...

........................................................................
.............................. CYCLE    5 ..............................
........................................................................
   1    -68.2843756 -0.682844E+02  0.965E-01    1.86       0.0  T
   2    -68.2825393  0.183625E-02  0.106E+00    1.86       1.0  T
   3    -68.2852731 -0.273379E-02  0.316E-01    1.88       1.0  T
   4    -68.2766394  0.863364E-02  0.390E-01    1.82       1.0  T
   5    -68.2856071 -0.896768E-02  0.916E-02    1.87       1.0  T
   6    -68.2859150 -0.307901E-03  0.110E-02    1.87       1.4  T
   7    -68.2859182 -0.317525E-05  0.522E-03    1.87       2.9  T
   8    -68.2859184 -0.222710E-06  0.389E-03    1.87       3.9  T
   9    -68.2859184  0.883702E-09  0.232E-03    1.87       6.5  T
  10    -68.2859185 -0.896774E-07  0.999E-04    1.87      15.1  T
  11    -68.2859185 -0.138208E-07  0.342E-04    1.87      44.1  T
     SCC iter.                  ...        0 min,  1.030 sec
     gradient                   ...        0 min,  0.208 sec
 * total energy  :   -67.1344914 Eh     change        0.2210906E-01 Eh
   gradient norm :     0.4856496 Eh/α   predicted     0.2684207E-01 (  21.41%)
   displ. norm   :     0.4219313 α      lambda       -0.3471876E-01
   maximum displ.:     0.2282288 α      in ANC's #4, #2, #29, ...

........................................................................
.............................. CYCLE    6 ..............................
........................................................................
   1    -68.3164603 -0.683165E+02  0.336E-01    2.00       0.0  T
   2    -68.3154818  0.978445E-03  0.292E-01    2.00       1.0  T
   3    -68.3157190 -0.237189E-03  0.179E-01    1.98       1.0  T
   4    -68.3158343 -0.115274E-03  0.140E-01    2.01       1.0  T
   5    -68.3167233 -0.888966E-03  0.570E-02    2.00       1.0  T
   6    -68.3167756 -0.522912E-04  0.359E-03    2.00       4.2  T
   7    -68.3167757 -0.147631E-06  0.197E-03    2.00       7.6  T
   8    -68.3167757 -0.878974E-08  0.132E-03    2.00      11.4  T
   9    -68.3167757 -0.307555E-07  0.546E-04    2.00      27.6  T
  10    -68.3167757 -0.871069E-09  0.272E-04    2.00      55.5  T
     SCC iter.                  ...        0 min,  0.879 sec
     gradient                   ...        0 min,  0.131 sec
 * total energy  :   -67.1535806 Eh     change       -0.1908918E-01 Eh
   gradient norm :     0.0616340 Eh/α   predicted    -0.2044981E-01 (   7.13%)
   displ. norm   :     0.4253807 α      lambda       -0.5056903E-02
   maximum displ.:     0.2340094 α      in ANC's #2, #9, #13, ...

........................................................................
.............................. CYCLE    7 ..............................
........................................................................
   1    -68.3338368 -0.683338E+02  0.233E-01    1.99       0.0  T
   2    -68.3337921  0.446303E-04  0.192E-01    1.99       1.0  T
   3    -68.3338294 -0.373172E-04  0.114E-01    1.98       1.0  T
   4    -68.3334537  0.375738E-03  0.847E-02    1.99       1.0  T
   5    -68.3338732 -0.419488E-03  0.212E-02    1.98       1.0  T
   6    -68.3338943 -0.211067E-04  0.445E-03    1.99       3.4  T
   7    -68.3338946 -0.282544E-06  0.219E-03    1.99       6.9  T
   8    -68.3338946 -0.475012E-07  0.107E-03    1.99      14.1  T
   9    -68.3338946 -0.294055E-08  0.585E-04    1.99      25.8  T
  10    -68.3338946 -0.492010E-08  0.224E-04    1.99      67.4  T
     SCC iter.                  ...        0 min,  0.657 sec
     gradient                   ...        0 min,  0.088 sec
 * total energy  :   -67.1563833 Eh     change       -0.2802694E-02 Eh
   gradient norm :     0.0251398 Eh/α   predicted    -0.2986034E-02 (   6.54%)
   displ. norm   :     0.2839941 α      lambda       -0.1121535E-02
   maximum displ.:     0.2011096 α      in ANC's #2, #4, #13, ...

........................................................................
.............................. CYCLE    8 ..............................
........................................................................
   1    -68.3338876 -0.683339E+02  0.115E-01    2.00       0.0  T
   2    -68.3338191  0.685100E-04  0.104E-01    2.01       1.0  T
   3    -68.3338484 -0.292784E-04  0.581E-02    2.00       1.0  T
   4    -68.3336728  0.175542E-03  0.649E-02    2.01       1.0  T
   5    -68.3339097 -0.236871E-03  0.122E-02    2.00       1.2  T
   6    -68.3339136 -0.392833E-05  0.144E-03    2.00      10.5  T
   7    -68.3339137 -0.369233E-07  0.660E-04    2.00      22.9  T
   8    -68.3339137 -0.683173E-09  0.311E-04    2.00      48.4  T
     SCC iter.                  ...        0 min,  0.353 sec
     gradient                   ...        0 min,  0.054 sec
 * total energy  :   -67.1571192 Eh     change       -0.7359086E-03 Eh
   gradient norm :     0.0140401 Eh/α   predicted    -0.6059958E-03 ( -17.65%)
   displ. norm   :     0.2428113 α      lambda       -0.4994247E-03
   maximum displ.:     0.1858709 α      in ANC's #2, #4, #3, ...

........................................................................
.............................. CYCLE    9 ..............................
........................................................................
   1    -68.3317063 -0.683317E+02  0.943E-02    2.01       0.0  T
   2    -68.3316879  0.184030E-04  0.100E-01    2.01       1.0  T
   3    -68.3317144 -0.265353E-04  0.335E-02    2.01       1.0  T
   4    -68.3316217  0.927595E-04  0.403E-02    2.01       1.0  T
   5    -68.3317202 -0.984949E-04  0.524E-03    2.01       2.9  T
   6    -68.3317209 -0.693340E-06  0.968E-04    2.01      15.6  T
   7    -68.3317209 -0.142361E-07  0.521E-04    2.01      28.9  T
     SCC iter.                  ...        0 min,  0.321 sec
     gradient                   ...        0 min,  0.109 sec
 * total energy  :   -67.1574544 Eh     change       -0.3351756E-03 Eh
   gradient norm :     0.0066640 Eh/α   predicted    -0.2644352E-03 ( -21.11%)
   displ. norm   :     0.1729161 α      lambda       -0.2100121E-03
   maximum displ.:     0.1426719 α      in ANC's #2, #4, #3, ...

........................................................................
.............................. CYCLE   10 ..............................
........................................................................
   1    -68.3307205 -0.683307E+02  0.624E-02    2.01       0.0  T
   2    -68.3307164  0.413336E-05  0.653E-02    2.01       1.0  T
   3    -68.3307253 -0.889567E-05  0.223E-02    2.01       1.0  T
   4    -68.3307186  0.669244E-05  0.112E-02    2.01       1.3  T
   5    -68.3307251 -0.653205E-05  0.385E-03    2.01       3.9  T
   6    -68.3307259 -0.741269E-06  0.670E-04    2.01      22.5  T
   7    -68.3307259 -0.683343E-08  0.403E-04    2.01      37.5  T
     SCC iter.                  ...        0 min,  0.341 sec
     gradient                   ...        0 min,  0.162 sec
 * total energy  :   -67.1576088 Eh     change       -0.1544504E-03 Eh
   gradient norm :     0.0063279 Eh/α   predicted    -0.1081460E-03 ( -29.98%)
   displ. norm   :     0.1227197 α      lambda       -0.1104424E-03
   maximum displ.:     0.1044932 α      in ANC's #2, #3, #4, ...

........................................................................
.............................. CYCLE   11 ..............................
........................................................................
   1    -68.3309300 -0.683309E+02  0.504E-02    2.02       0.0  T
   2    -68.3309273  0.270073E-05  0.547E-02    2.01       1.0  T
   3    -68.3309334 -0.614031E-05  0.166E-02    2.01       1.0  T
   4    -68.3309334  0.710079E-07  0.381E-03    2.02       4.0  T
   5    -68.3309336 -0.217038E-06  0.708E-04    2.02      21.3  T
   6    -68.3309336 -0.974323E-08  0.342E-04    2.02      44.1  T
     SCC iter.                  ...        0 min,  0.333 sec
     gradient                   ...        0 min,  0.130 sec
 * total energy  :   -67.1576923 Eh     change       -0.8343809E-04 Eh
   gradient norm :     0.0029063 Eh/α   predicted    -0.5605335E-04 ( -32.82%)
   displ. norm   :     0.0941629 α      lambda       -0.5739232E-04
   maximum displ.:     0.0828387 α      in ANC's #2, #3, #13, ...

........................................................................
.............................. CYCLE   12 ..............................
........................................................................
   1    -68.3314357 -0.683314E+02  0.414E-02    2.02       0.0  T
   2    -68.3314338  0.189405E-05  0.467E-02    2.02       1.0  T
   3    -68.3314383 -0.448656E-05  0.120E-02    2.02       1.3  T
   4    -68.3314381  0.136985E-06  0.380E-03    2.02       4.0  T
   5    -68.3314383 -0.166926E-06  0.105E-03    2.02      14.4  T
   6    -68.3314383 -0.372221E-07  0.612E-04    2.02      24.6  T
   7    -68.3314383 -0.165503E-07  0.229E-04    2.02      65.9  T
     SCC iter.                  ...        0 min,  0.388 sec
     gradient                   ...        0 min,  0.143 sec
 * total energy  :   -67.1577369 Eh     change       -0.4465395E-04 Eh
   gradient norm :     0.0025307 Eh/α   predicted    -0.2895138E-04 ( -35.17%)
   displ. norm   :     0.0738852 α      lambda       -0.3365842E-04
   maximum displ.:     0.0647050 α      in ANC's #2, #3, #6, ...

........................................................................
.............................. CYCLE   13 ..............................
........................................................................
   1    -68.3317396 -0.683317E+02  0.364E-02    2.02       0.0  T
   2    -68.3317381  0.147803E-05  0.418E-02    2.02       1.0  T
   3    -68.3317417 -0.354072E-05  0.948E-03    2.02       1.6  T
   4    -68.3317416  0.133539E-06  0.363E-03    2.02       4.2  T
   5    -68.3317417 -0.144915E-06  0.909E-04    2.02      16.6  T
   6    -68.3317417 -0.337978E-07  0.468E-04    2.02      32.2  T
     SCC iter.                  ...        0 min,  0.339 sec
     gradient                   ...        0 min,  0.114 sec
 * total energy  :   -67.1577650 Eh     change       -0.2813564E-04 Eh
   gradient norm :     0.0028158 Eh/α   predicted    -0.1692181E-04 ( -39.86%)
   displ. norm   :     0.0703825 α      lambda       -0.2747363E-04
   maximum displ.:     0.0594275 α      in ANC's #2, #4, #6, ...

........................................................................
.............................. CYCLE   14 ..............................
........................................................................
   1    -68.3318503 -0.683319E+02  0.373E-02    2.01       0.0  T
   2    -68.3318487  0.155273E-05  0.431E-02    2.01       1.0  T
   3    -68.3318524 -0.366479E-05  0.952E-03    2.01       1.6  T
   4    -68.3318522  0.122899E-06  0.356E-03    2.01       4.2  T
   5    -68.3318524 -0.158954E-06  0.582E-04    2.01      25.9  T
   6    -68.3318524 -0.790489E-08  0.393E-04    2.01      38.4  T
     SCC iter.                  ...        0 min,  0.419 sec
     gradient                   ...        0 min,  0.063 sec
 * total energy  :   -67.1577881 Eh     change       -0.2308976E-04 Eh
   gradient norm :     0.0022084 Eh/α   predicted    -0.1380601E-04 ( -40.21%)
   displ. norm   :     0.0696209 α      lambda       -0.2179270E-04
   maximum displ.:     0.0575323 α      in ANC's #2, #4, #6, ...

........................................................................
.............................. CYCLE   15 ..............................
........................................................................
   1    -68.3317888 -0.683318E+02  0.374E-02    2.01       0.0  T
   2    -68.3317871  0.168413E-05  0.439E-02    2.01       1.0  T
   3    -68.3317909 -0.381582E-05  0.922E-03    2.01       1.6  T
   4    -68.3317904  0.559209E-06  0.424E-03    2.01       3.6  T
   5    -68.3317908 -0.415499E-06  0.192E-03    2.01       7.9  T
   6    -68.3317910 -0.197634E-06  0.327E-04    2.01      46.1  T
   7    -68.3317910 -0.352912E-08  0.141E-04    2.01     107.0  T
     SCC iter.                  ...        0 min,  0.301 sec
     gradient                   ...        0 min,  0.062 sec
 * total energy  :   -67.1578059 Eh     change       -0.1772299E-04 Eh
   gradient norm :     0.0012926 Eh/α   predicted    -0.1094957E-04 ( -38.22%)
   displ. norm   :     0.0869918 α      lambda       -0.1351672E-04
   maximum displ.:     0.0721544 α      in ANC's #2, #4, #6, ...

........................................................................
.............................. CYCLE   16 ..............................
........................................................................
   1    -68.3316107 -0.683316E+02  0.451E-02    2.01       0.0  T
   2    -68.3316080  0.263533E-05  0.541E-02    2.01       1.0  T
   3    -68.3316138 -0.581100E-05  0.104E-02    2.01       1.5  T
   4    -68.3316129  0.927095E-06  0.505E-03    2.01       3.0  T
   5    -68.3316137 -0.781521E-06  0.211E-03    2.01       7.2  T
   6    -68.3316139 -0.215712E-06  0.381E-04    2.01      39.5  T
   7    -68.3316139 -0.466625E-08  0.174E-04    2.01      86.7  T
     SCC iter.                  ...        0 min,  0.309 sec
     gradient                   ...        0 min,  0.048 sec
 * total energy  :   -67.1578203 Eh     change       -0.1442494E-04 Eh
   gradient norm :     0.0008674 Eh/α   predicted    -0.6782053E-05 ( -52.98%)
   displ. norm   :     0.0413009 α      lambda       -0.4749640E-05
   maximum displ.:     0.0355903 α      in ANC's #2, #4, #9, ...

........................................................................
.............................. CYCLE   17 ..............................
........................................................................
   1    -68.3315849 -0.683316E+02  0.186E-02    2.01       0.0  T
   2    -68.3315844  0.489261E-06  0.230E-02    2.01       1.0  T
   3    -68.3315854 -0.105464E-05  0.388E-03    2.01       3.9  T
   4    -68.3315852  0.213569E-06  0.220E-03    2.01       6.8  T
   5    -68.3315854 -0.204774E-06  0.744E-04    2.01      20.3  T
   6    -68.3315855 -0.207367E-07  0.135E-04    2.01     112.0  T
     SCC iter.                  ...        0 min,  0.295 sec
     gradient                   ...        0 min,  0.047 sec
 * total energy  :   -67.1578261 Eh     change       -0.5803637E-05 Eh
   gradient norm :     0.0006660 Eh/α   predicted    -0.2377349E-05 ( -59.04%)
   displ. norm   :     0.0340811 α      lambda       -0.3400700E-05
   maximum displ.:     0.0276941 α      in ANC's #2, #3, #4, ...

........................................................................
.............................. CYCLE   18 ..............................
........................................................................
   1    -68.3315774 -0.683316E+02  0.132E-02    2.01       0.0  T
   2    -68.3315771  0.214164E-06  0.156E-02    2.01       1.0  T
   3    -68.3315776 -0.460283E-06  0.332E-03    2.01       4.5  T
   4    -68.3315774  0.225623E-06  0.213E-03    2.01       7.1  T
   5    -68.3315776 -0.227122E-06  0.577E-04    2.01      26.1  T
   6    -68.3315776 -0.979172E-08  0.104E-04    2.01     144.7  T
     SCC iter.                  ...        0 min,  0.229 sec
     gradient                   ...        0 min,  0.078 sec
 * total energy  :   -67.1578300 Eh     change       -0.3915368E-05 Eh
   gradient norm :     0.0006832 Eh/α   predicted    -0.1703645E-05 ( -56.49%)
   displ. norm   :     0.0294668 α      lambda       -0.1872419E-05
   maximum displ.:     0.0225283 α      in ANC's #2, #3, #4, ...

   *** GEOMETRY OPTIMIZATION CONVERGED AFTER 18 ITERATIONS ***

------------------------------------------------------------------------
 total energy gain   :        -0.0585147 Eh      -36.7186 kcal/mol
 total RMSD          :         0.1761977 a0        0.0932 Å
 total power (kW/mol):        -8.5350236 (step)  -14.1640 (real)
------------------------------------------------------------------------

 ANCopt (total)                0 d,  0 h,  0 min, 10.847 sec
 optimizer setup                ...        0 min,  0.001 sec (  0.005%)
 model hessian                  ...        0 min,  0.052 sec (  0.476%)
 ANC generation                 ...        0 min,  0.010 sec (  0.096%)
 coordinate transformation      ...        0 min,  0.029 sec (  0.265%)
 single point calculation       ...        0 min, 10.566 sec ( 97.413%)
 optimization log               ...        0 min,  0.004 sec (  0.034%)
 hessian update                 ...        0 min,  0.142 sec (  1.306%)
 rational function              ...        0 min,  0.027 sec (  0.246%)

================
 final structure:
================
44
 xtb: 6.5.1 (b24c23e)
C           -3.02001035813557       -1.19861328112360        0.31329083636196
C           -2.57957497271358        0.25955433480579        0.54056257774241
C           -1.26700452426341        0.18468387858576        1.08046938226163
C           -0.39058473546212        1.27443600441535        1.01465954421613
C           -0.77924434831440        2.49825544187682        0.40521211505564
C            0.53326985131946        3.21960058631545        0.04614106328721
C            1.58934428426790        2.11600440281356        0.17045068786656
C            1.01252213220702        1.06323079049174        0.88476550921040
C            1.48911478072568       -0.23312154243780        0.80757416884065
C            2.59803049321439       -0.55503512664727        0.02083294192038
C            2.53565831401058       -2.05480388358348       -0.25320094760289
C            1.10361754007353       -2.41315767855775        0.13294867110026
C            0.59644019313416       -1.34308186766016        0.87459702141334
C           -0.76544273960461       -1.14752614335043        1.01836169748033
C           -1.70879174010232       -1.98496762518890        0.41823278541188
C           -1.21173613696915       -3.13257008466467       -0.17986764101197
C            0.17774674368147       -3.34374911877192       -0.31594764471543
C            3.27841687381259        0.51157264534730       -0.54855636819736
C            2.78011319956135        1.83091965766962       -0.47954927180206
C           -2.07137167030540        2.57786989697962       -0.16933109361554
C           -2.97056339141769        1.45975635215450       -0.10166091776730
H           -3.73782857184766       -1.53023389856572        1.06799590943241
H           -3.48670841335272       -1.31773744633214       -0.66496954180039
H            0.49085690983667        3.62799814456913       -0.96400139391709
H            0.74595868546358        4.04466915416208        0.73086240582752
H            3.25788492923714       -2.59863305573004        0.36059351060196
H            2.74551536047350       -2.28653960195695       -1.29681694142396
H           -1.87707711559555       -3.82752810356305       -0.66967930345982
H            0.49787086681866       -4.19179596886459       -0.90289233614555
H            4.13968339887648        0.33628575867450       -1.17598864616550
H            3.28476123589039        2.59071066986263       -1.05709153593323
H           -2.36006446670015        3.44502304315692       -0.75484495319954
H           -3.91271765365860        1.51456791279069       -0.63786478202379
Ru          -2.27646627370747        1.94715608738512        1.92835265256453
C           -3.28720774902027        3.58718499013049        3.05171082056127
C           -2.00521383206372        3.36171230786852        3.63069776413302
C           -1.97846377079897        2.03135595916916        4.13669210170733
C           -3.24305418054399        1.43359847864536        3.87115554000514
C           -4.05245131508647        2.39538463410359        3.20040699660703
H           -3.65957277045193        4.53608091622645        2.68984298776683
H           -1.23819497437424        4.10968339553186        3.78033812796290
H           -1.18402984747758        1.59473512026764        4.72753642385924
H           -3.57399539836866        0.46952066858378        4.23367243010761
H           -5.10371970226875        2.28690339441544        2.96992130547637

 Bond Distances (Angstroems)
 ---------------------------
C1-C2=1.5401         C1-C15=1.5325        C1-H22=1.0931        C1-H23=1.0904        C2-C1=1.5401         C2-C3=1.4212         
C2-C21=1.4163        C2-Ru34=2.2059       C3-C2=1.4212         C3-C4=1.4000         C3-C14=1.4249        C3-Ru34=2.2010       
C4-C3=1.4000         C4-C5=1.4213         C4-C8=1.4248         C4-Ru34=2.2009       C5-C4=1.4213         C5-C6=1.5401         
C5-C20=1.4163        C5-Ru34=2.2058       C6-C5=1.5401         C6-C7=1.5325         C6-H24=1.0904        C6-H25=1.0931        
C7-C6=1.5325         C7-C8=1.3969         C7-C19=1.3863        C8-C4=1.4248         C8-C7=1.3969         C8-C9=1.3833         
C9-C8=1.3833         C9-C10=1.3972        C9-C13=1.4260        C10-C9=1.3972        C10-C11=1.5259       C10-C18=1.3874       
C11-C10=1.5259       C11-C12=1.5259       C11-H26=1.0928       C11-H27=1.0894       C12-C11=1.5259       C12-C13=1.3973       
C12-C17=1.3874       C13-C9=1.4260        C13-C12=1.3973       C13-C14=1.3833       C14-C3=1.4249        C14-C13=1.3833       
C14-C15=1.3969       C15-C1=1.5325        C15-C14=1.3969       C15-C16=1.3863       C16-C15=1.3863       C16-C17=1.4120       
C16-H28=1.0796       C17-C12=1.3874       C17-C16=1.4120       C17-H29=1.0799       C18-C10=1.3874       C18-C19=1.4120       
C18-H30=1.0799       C19-C7=1.3863        C19-C18=1.4120       C19-H31=1.0796       C20-C5=1.4163        C20-C21=1.4364       
C20-H32=1.0854       C20-Ru34=2.2000      C21-C2=1.4163        C21-C20=1.4364       C21-H33=1.0854       C21-Ru34=2.2001      
H22-C1=1.0931        H23-C1=1.0904        H24-C6=1.0904        H25-C6=1.0931        H26-C11=1.0928       H27-C11=1.0894       
H28-C16=1.0796       H29-C17=1.0799       H30-C18=1.0799       H31-C19=1.0796       H32-C20=1.0854       H33-C21=1.0854       
Ru34-C2=2.2059       Ru34-C3=2.2010       Ru34-C4=2.2009       Ru34-C5=2.2058       Ru34-C20=2.2000      Ru34-C21=2.2001      
Ru34-C35=2.2301      Ru34-C36=2.2299      Ru34-C37=2.2299      Ru34-C38=2.2299      Ru34-C39=2.2301      C35-Ru34=2.2301      
C35-C36=1.4246       C35-C39=1.4241       C35-H40=1.0817       C36-Ru34=2.2299      C36-C35=1.4246       C36-C37=1.4236       
C36-H41=1.0817       C37-Ru34=2.2299      C37-C36=1.4236       C37-C38=1.4237       C37-H42=1.0821       C38-Ru34=2.2299      
C38-C37=1.4237       C38-C39=1.4248       C38-H43=1.0818       C39-Ru34=2.2301      C39-C35=1.4241       C39-C38=1.4248       
C39-H44=1.0817       H40-C35=1.0817       H41-C36=1.0817       H42-C37=1.0821       H43-C38=1.0818       H44-C39=1.0817       
 C  H  Rav=1.0852 sigma=0.0050  Rmin=1.0796  Rmax=1.0931    17
 C  C  Rav=1.4322 sigma=0.0506  Rmin=1.3833  Rmax=1.5401    32
 Ru C  Rav=2.2149 sigma=0.0139  Rmin=2.2000  Rmax=2.2301    11

 selected bond angles (degree)
 --------------------
C15-C1-C2=103.36               H22-C1-C2=111.91               H22-C1-C15=111.03              H23-C1-C2=110.99               
H23-C1-C15=111.81              H23-C1-H22=107.77              C3-C2-C1=105.68                C21-C2-C1=131.03               
C21-C2-C3=118.16               Ru34-C2-C1=148.93              Ru34-C2-C3= 71.00              Ru34-C2-C21= 71.03             
C4-C3-C2=121.28                C14-C3-C2=110.96               C14-C3-C4=120.36               Ru34-C3-C2= 71.37              
Ru34-C3-C4= 71.45              Ru34-C3-C14=157.96             C5-C4-C3=121.28                C8-C4-C3=120.36                
C8-C4-C5=110.97                Ru34-C4-C3= 71.46              Ru34-C4-C5= 71.37              Ru34-C4-C8=157.96              
C6-C5-C4=105.68                C20-C5-C4=118.15               C20-C5-C6=131.04               Ru34-C5-C4= 71.00              
Ru34-C5-C6=148.92              Ru34-C5-C20= 71.03             C7-C6-C5=103.36                H24-C6-C5=110.99               
H24-C6-C7=111.82               H25-C6-C5=111.92               H25-C6-C7=111.02               H25-C6-H24=107.77              
C8-C7-C6=107.44                C19-C7-C6=134.59               C19-C7-C8=116.07               C7-C8-C4=109.97                
C9-C8-C4=118.90                C9-C8-C7=122.38                C10-C9-C8=121.38               C13-C9-C8=120.74               
C13-C9-C10=110.12              C11-C10-C9=107.17              C18-C10-C9=116.31              C18-C10-C11=134.59             

 selected dihedral angles (degree)
 ---------------------------------
C3-C2-C1-C15=345.20           C3-C2-C1-H22=104.75           C3-C2-C1-H23=225.19           C21-C2-C1-C15=138.59          
C21-C2-C1-H22=258.13          C21-C2-C1-H23= 18.58          Ru34-C2-C1-C15=266.11         Ru34-C2-C1-H22= 25.66         
Ru34-C2-C1-H23=146.10         C4-C3-C2-C1=159.11            C4-C3-C2-C21=  1.65           C4-C3-C2-Ru34=306.70          
C14-C3-C2-C1=  9.10           C14-C3-C2-C21=211.64          C14-C3-C2-Ru34=156.69         Ru34-C3-C2-C1=212.41          
Ru34-C3-C2-C21= 54.95         C5-C4-C3-C2=  0.00            C5-C4-C3-C14=147.25           C5-C4-C3-Ru34=306.73          
C8-C4-C3-C2=212.75            C8-C4-C3-C14=  0.00           C8-C4-C3-Ru34=159.49          Ru34-C4-C3-C2= 53.27          
Ru34-C4-C3-C14=200.52         C6-C5-C4-C3=200.90            C6-C5-C4-C8=350.90            C6-C5-C4-Ru34=147.59          
C20-C5-C4-C3=358.36           C20-C5-C4-C8=148.35           C20-C5-C4-Ru34=305.05         Ru34-C5-C4-C3= 53.31          
Ru34-C5-C4-C8=203.31          C7-C6-C5-C4= 14.79            C7-C6-C5-C20=221.42           C7-C6-C5-Ru34= 93.87          
H24-C6-C5-C4=134.81           H24-C6-C5-C20=341.44          H24-C6-C5-Ru34=213.89         H25-C6-C5-C4=255.26           
H25-C6-C5-C20=101.88          H25-C6-C5-Ru34=334.34         C8-C7-C6-C5=344.24            C8-C7-C6-H24=224.79           
C8-C7-C6-H25=104.40           C19-C7-C6-C5=147.26           C19-C7-C6-H24= 27.81          C19-C7-C6-H25=267.41          
C7-C8-C4-C3=149.19            C7-C8-C4-C5=358.88            C7-C8-C4-Ru34=266.88          C9-C8-C4-C3=  0.83            
C9-C8-C4-C5=210.52            C9-C8-C4-Ru34=118.52          C4-C8-C7-C6= 10.98            C4-C8-C7-C19=204.37           
C9-C8-C7-C6=158.04            C9-C8-C7-C19=351.43           C10-C9-C8-C4=145.42           C10-C9-C8-C7=  1.14           
C13-C9-C8-C4=359.16           C13-C9-C8-C7=214.88           C11-C10-C9-C8=200.64          C11-C10-C9-C13=350.08         
C18-C10-C9-C8=  7.12          C18-C10-C9-C13=156.56         
           -------------------------------------------------
          |                Final Singlepoint                |
           -------------------------------------------------

          ...................................................
          :                      SETUP                      :
          :.................................................:
          :  # basis functions                 131          :
          :  # atomic orbitals                 130          :
          :  # shells                           72          :
          :  # electrons                       128          :
          :  max. iterations                   250          :
          :  Hamiltonian                  GFN2-xTB          :
          :  restarted?                      false          :
          :  GBSA solvation                  false          :
          :  PC potential                    false          :
          :  electronic temp.          300.0000000     K    :
          :  accuracy                    1.0000000          :
          :  -> integral cutoff          0.2500000E+02      :
          :  -> integral neglect         0.1000000E-07      :
          :  -> SCF convergence          0.1000000E-05 Eh   :
          :  -> wf. convergence          0.1000000E-03 e    :
          :  Broyden damping             0.4000000          :
          ...................................................

 iter      E             dE          RMSdq      gap      omega  full diag
   1    -68.3315776 -0.683316E+02  0.779E-05    2.01       0.0  T
   2    -68.3315776 -0.517275E-11  0.843E-05    2.01     178.9  T
   3    -68.3315776 -0.889031E-10  0.286E-05    2.01     527.9  T

   *** convergence criteria satisfied after 3 iterations ***

         #    Occupation            Energy/Eh            Energy/eV
      -------------------------------------------------------------
         1        2.0000           -0.8438181             -22.9615
       ...           ...                  ...                  ...
        58        2.0000           -0.5264275             -14.3248
        59        2.0000           -0.5183245             -14.1043
        60        2.0000           -0.4967916             -13.5184
        61        2.0000           -0.4914807             -13.3739
        62        2.0000           -0.4889358             -13.3046
        63        2.0000           -0.4830872             -13.1455
        64        2.0000           -0.4810509             -13.0901 (HOMO)
        65                         -0.4070676             -11.0769 (LUMO)
        66                         -0.4053139             -11.0292
        67                         -0.3777751             -10.2798
        68                         -0.3775352             -10.2733
        69                         -0.3601910              -9.8013
       ...                                ...                  ...
       130                          3.8937494             105.9543
      -------------------------------------------------------------
                  HL-Gap            0.0739834 Eh            2.0132 eV
             Fermi-level           -0.4440592 Eh          -12.0835 eV

 SCC (total)                   0 d,  0 h,  0 min,  0.181 sec
 SCC setup                      ...        0 min,  0.001 sec (  0.349%)
 Dispersion                     ...        0 min,  0.004 sec (  1.985%)
 classical contributions        ...        0 min,  0.004 sec (  2.125%)
 integral evaluation            ...        0 min,  0.018 sec (  9.800%)
 iterations                     ...        0 min,  0.143 sec ( 78.982%)
 molecular gradient             ...        0 min,  0.012 sec (  6.413%)
 printout                       ...        0 min,  0.001 sec (  0.329%)

         :::::::::::::::::::::::::::::::::::::::::::::::::::::
         ::                     SUMMARY                     ::
         :::::::::::::::::::::::::::::::::::::::::::::::::::::
         :: total energy             -67.157829998425 Eh    ::
         :: gradient norm              0.000683167217 Eh/a0 ::
         :: HOMO-LUMO gap              2.013189723527 eV    ::
         ::.................................................::
         :: SCC energy               -68.331577612783 Eh    ::
         :: -> isotropic ES            0.051781137820 Eh    ::
         :: -> anisotropic ES         -0.008291953156 Eh    ::
         :: -> anisotropic XC          0.036053705600 Eh    ::
         :: -> dispersion             -0.062040598130 Eh    ::
         :: repulsion energy           1.172221948963 Eh    ::
         :: add. restraining           0.000247221287 Eh    ::
         :: total charge               1.000000000000 e     ::
         :::::::::::::::::::::::::::::::::::::::::::::::::::::

           -------------------------------------------------
          |                Property Printout                |
           -------------------------------------------------

    * Orbital Energies and Occupations

         #    Occupation            Energy/Eh            Energy/eV
      -------------------------------------------------------------
         1        2.0000           -0.8438181             -22.9615
       ...           ...                  ...                  ...
        52        2.0000           -0.5472580             -14.8916
        53        2.0000           -0.5463741             -14.8676
        54        2.0000           -0.5399438             -14.6926
        55        2.0000           -0.5389219             -14.6648
        56        2.0000           -0.5363720             -14.5954
        57        2.0000           -0.5317200             -14.4688
        58        2.0000           -0.5264275             -14.3248
        59        2.0000           -0.5183245             -14.1043
        60        2.0000           -0.4967916             -13.5184
        61        2.0000           -0.4914807             -13.3739
        62        2.0000           -0.4889358             -13.3046
        63        2.0000           -0.4830872             -13.1455
        64        2.0000           -0.4810509             -13.0901 (HOMO)
        65                         -0.4070676             -11.0769 (LUMO)
        66                         -0.4053139             -11.0292
        67                         -0.3777751             -10.2798
        68                         -0.3775352             -10.2733
        69                         -0.3601910              -9.8013
        70                         -0.3327125              -9.0536
        71                         -0.3304720              -8.9926
        72                         -0.3118106              -8.4848
        73                         -0.3022778              -8.2254
        74                         -0.3015805              -8.2064
        75                         -0.2777916              -7.5591
       ...                                ...                  ...
       130                          3.8937494             105.9543
      -------------------------------------------------------------
                  HL-Gap            0.0739834 Eh            2.0132 eV
             Fermi-level           -0.4440592 Eh          -12.0835 eV

     #   Z          covCN         q      C6AA      α(0)
     1   6 C        3.851    -0.063    21.674     6.622
     2   6 C        3.829     0.033    19.999     6.363
     3   6 C        3.894     0.039    19.872     6.337
     4   6 C        3.894     0.039    19.873     6.337
     5   6 C        3.829     0.033    20.001     6.363
     6   6 C        3.851    -0.063    21.672     6.621
     7   6 C        3.018     0.004    27.907     8.666
     8   6 C        3.057    -0.005    28.100     8.693
     9   6 C        3.075     0.003    27.871     8.656
    10   6 C        3.023     0.013    27.698     8.633
    11   6 C        3.859    -0.068    21.769     6.635
    12   6 C        3.023     0.013    27.698     8.633
    13   6 C        3.075     0.003    27.870     8.656
    14   6 C        3.057    -0.005    28.100     8.693
    15   6 C        3.018     0.004    27.908     8.666
    16   6 C        2.922    -0.031    28.782     8.798
    17   6 C        2.922    -0.029    28.720     8.788
    18   6 C        2.922    -0.029    28.720     8.788
    19   6 C        2.922    -0.031    28.782     8.798
    20   6 C        3.740    -0.003    20.713     6.493
    21   6 C        3.740    -0.003    20.712     6.493
    22   1 H        0.924     0.087     1.912     2.162
    23   1 H        0.924     0.076     2.024     2.225
    24   1 H        0.924     0.076     2.024     2.225
    25   1 H        0.924     0.086     1.914     2.163
    26   1 H        0.924     0.089     1.893     2.151
    27   1 H        0.925     0.074     2.043     2.235
    28   1 H        0.926     0.059     2.206     2.323
    29   1 H        0.926     0.062     2.177     2.307
    30   1 H        0.926     0.062     2.177     2.308
    31   1 H        0.926     0.059     2.206     2.323
    32   1 H        0.925     0.082     1.963     2.191
    33   1 H        0.925     0.082     1.962     2.190
    34  44 Ru       9.119    -0.202   315.280    29.866
    35   6 C        3.807    -0.005    20.660     6.470
    36   6 C        3.808    -0.003    20.634     6.466
    37   6 C        3.807    -0.002    20.610     6.463
    38   6 C        3.807    -0.003    20.634     6.466
    39   6 C        3.807    -0.005    20.656     6.470
    40   1 H        0.925     0.095     1.827     2.114
    41   1 H        0.925     0.094     1.841     2.122
    42   1 H        0.925     0.096     1.823     2.111
    43   1 H        0.925     0.094     1.838     2.120
    44   1 H        0.925     0.095     1.829     2.115

 Mol. C6AA /au·bohr⁶  :      28478.434032
 Mol. C8AA /au·bohr⁸  :     893803.645756
 Mol. α(0) /au        :        262.319066


Wiberg/Mayer (AO) data.
largest (>0.10) Wiberg bond orders for each atom

 ---------------------------------------------------------------------------
     #   Z sym  total        # sym  WBO       # sym  WBO       # sym  WBO
 ---------------------------------------------------------------------------
     1   6 C    3.987 --    15 C    0.999     2 C    0.988    23 H    0.955
                            22 H    0.940
     2   6 C    3.983 --    21 C    1.258     3 C    1.150     1 C    0.988
                            34 Ru   0.410
     3   6 C    3.988 --     4 C    1.163     2 C    1.150    14 C    1.108
                            34 Ru   0.359
     4   6 C    3.988 --     3 C    1.163     5 C    1.150     8 C    1.108
                            34 Ru   0.359
     5   6 C    3.983 --    20 C    1.258     4 C    1.150     6 C    0.988
                            34 Ru   0.410
     6   6 C    3.987 --     7 C    0.999     5 C    0.988    24 H    0.955
                            25 H    0.941
     7   6 C    3.977 --    19 C    1.457     8 C    1.303     6 C    0.999
     8   6 C    3.978 --     9 C    1.310     7 C    1.303     4 C    1.108
     9   6 C    3.981 --     8 C    1.310    10 C    1.306    13 C    1.128
    10   6 C    3.979 --    18 C    1.454     9 C    1.306    11 C    1.008
    11   6 C    3.992 --    12 C    1.008    10 C    1.008    27 H    0.955
                            26 H    0.936
    12   6 C    3.979 --    17 C    1.454    13 C    1.306    11 C    1.008
    13   6 C    3.981 --    14 C    1.310    12 C    1.306     9 C    1.128
    14   6 C    3.977 --    13 C    1.310    15 C    1.303     3 C    1.108
    15   6 C    3.978 --    16 C    1.457    14 C    1.303     1 C    0.999
    16   6 C    3.974 --    15 C    1.457    17 C    1.384    28 H    0.967
    17   6 C    3.969 --    12 C    1.454    16 C    1.384    29 H    0.966
    18   6 C    3.969 --    10 C    1.454    19 C    1.384    30 H    0.966
    19   6 C    3.974 --     7 C    1.457    18 C    1.384    31 H    0.967
    20   6 C    3.982 --     5 C    1.258    21 C    1.219    32 H    0.939
                            34 Ru   0.421
    21   6 C    3.982 --     2 C    1.258    20 C    1.219    33 H    0.939
                            34 Ru   0.421
    22   1 H    0.992 --     1 C    0.940
    23   1 H    0.993 --     1 C    0.955
    24   1 H    0.993 --     6 C    0.955
    25   1 H    0.992 --     6 C    0.941
    26   1 H    0.991 --    11 C    0.936
    27   1 H    0.994 --    11 C    0.955
    28   1 H    0.995 --    16 C    0.967
    29   1 H    0.995 --    17 C    0.966
    30   1 H    0.995 --    18 C    0.966
    31   1 H    0.995 --    19 C    0.967
    32   1 H    0.992 --    20 C    0.939
    33   1 H    0.992 --    21 C    0.939
    34  44 Ru   5.197 --    39 C    0.489    35 C    0.488    38 C    0.485
                            36 C    0.484    37 C    0.480    21 C    0.421
                            20 C    0.421     5 C    0.410     2 C    0.410
                             4 C    0.359     3 C    0.359
    35   6 C    3.978 --    39 C    1.233    36 C    1.230    40 H    0.931
                            34 Ru   0.488
    36   6 C    3.980 --    37 C    1.234    35 C    1.230    41 H    0.931
                            34 Ru   0.484
    37   6 C    3.980 --    36 C    1.234    38 C    1.233    42 H    0.930
                            34 Ru   0.480
    38   6 C    3.980 --    37 C    1.233    39 C    1.230    43 H    0.931
                            34 Ru   0.485
    39   6 C    3.978 --    35 C    1.233    38 C    1.230    44 H    0.931
                            34 Ru   0.489
    40   1 H    0.990 --    35 C    0.931
    41   1 H    0.991 --    36 C    0.931
    42   1 H    0.990 --    37 C    0.930
    43   1 H    0.991 --    38 C    0.931
    44   1 H    0.990 --    39 C    0.931
 ---------------------------------------------------------------------------

Topologies differ in total number of bonds
Writing topology from bond orders to xtbtopo.mol

molecular dipole:
                 x           y           z       tot (Debye)
 q only:       -2.445       2.088       2.026
   full:       -2.549       2.154       1.687       9.505
molecular quadrupole (traceless):
                xx          xy          yy          xz          yz          zz
 q only:        7.976     -16.690       3.343     -21.796      17.531     -11.318
  q+dip:       10.842     -16.048       6.143     -19.045      14.771     -16.985
   full:        8.787     -16.302       4.011     -19.096      15.213     -12.797

           -------------------------------------------------
          |                Geometry Summary                 |
           -------------------------------------------------

      molecular mass/u    :      430.4790663
   center of mass at/Å    :       -0.9499763       0.8330479       1.1394865
  moments of inertia/u·Å² :        0.1405971E+04   0.3006173E+04   0.3756656E+04
rotational constants/cm⁻¹ :        0.1199002E-01   0.5607672E-02   0.4487403E-02

 * 56 selected distances

     #   Z          #   Z                                           value/Å
     1   6 C        2   6 C                                       1.5400938
     2   6 C        3   6 C                                       1.4212482
     3   6 C        4   6 C                                       1.4000009
     4   6 C        5   6 C                                       1.4213433
     5   6 C        6   6 C                                       1.5401184
     4   6 C        8   6 C                                       1.4248471
     7   6 C        8   6 C                                       1.3968902
     8   6 C        9   6 C                                       1.3833397
     9   6 C       10   6 C                                       1.3972418
     9   6 C       13   6 C                                       1.4259636
    12   6 C       13   6 C                                       1.3972594
     3   6 C       14   6 C                                       1.4248528
    13   6 C       14   6 C                                       1.3833423
    14   6 C       15   6 C                                       1.3969147
    15   6 C       16   6 C                                       1.3862829
    12   6 C       17   6 C                                       1.3873519
    16   6 C       17   6 C                                       1.4120118
    10   6 C       18   6 C                                       1.3873652
     7   6 C       19   6 C                                       1.3862555
    18   6 C       19   6 C                                       1.4120005
     5   6 C       20   6 C                                       1.4163445
     2   6 C       21   6 C                                       1.4162656
    20   6 C       21   6 C                                       1.4364203
     1   6 C       22   1 H                                       1.0930760
     1   6 C       23   1 H                                       1.0904087
     6   6 C       24   1 H                                       1.0904015
     6   6 C       25   1 H                                       1.0930774
    11   6 C       26   1 H                                       1.0927513
    11   6 C       27   1 H                                       1.0894384
    16   6 C       28   1 H                                       1.0796115
    17   6 C       29   1 H                                       1.0798922
    18   6 C       30   1 H                                       1.0798968
    19   6 C       31   1 H                                       1.0795866 (min)
    20   6 C       32   1 H                                       1.0854146
    21   6 C       33   1 H                                       1.0854371
     2   6 C       34  44 Ru                                      2.2058642
     3   6 C       34  44 Ru                                      2.2009608
     4   6 C       34  44 Ru                                      2.2008947
     5   6 C       34  44 Ru                                      2.2057520
    20   6 C       34  44 Ru                                      2.2000322
    21   6 C       34  44 Ru                                      2.2000648
    34  44 Ru      35   6 C                                       2.2300735 (max)
    34  44 Ru      36   6 C                                       2.2299164
    35   6 C       36   6 C                                       1.4246307
    34  44 Ru      37   6 C                                       2.2299460
    36   6 C       37   6 C                                       1.4235850
    34  44 Ru      38   6 C                                       2.2299143
    37   6 C       38   6 C                                       1.4237321
    34  44 Ru      39   6 C                                       2.2300571
    35   6 C       39   6 C                                       1.4241126
    38   6 C       39   6 C                                       1.4248019
    35   6 C       40   1 H                                       1.0816690
    36   6 C       41   1 H                                       1.0817445
    37   6 C       42   1 H                                       1.0820630
    38   6 C       43   1 H                                       1.0818442
    39   6 C       44   1 H                                       1.0816919

 * 3 distinct bonds (by element types)

   Z      Z             #   av. dist./Å        max./Å        min./Å
   1 H    6 C          17     1.0851767     1.0930774     1.0795866
   6 C    6 C          28     1.4183792     1.5401184     1.3833397
   6 C   44 Ru         11     2.2148614     2.2300735     2.2000322


optimized geometry written to: xtbopt.xyz


           -------------------------------------------------
          | TOTAL ENERGY              -67.157829998425 Eh   |
          | GRADIENT NORM               0.000683167217 Eh/α |
          | HOMO-LUMO GAP               2.013189723527 eV   |
           -------------------------------------------------

------------------------------------------------------------------------
 * finished run on 2026/07/30 at 00:23:32.409     
------------------------------------------------------------------------
 total:
 * wall-time:     0 d,  0 h,  0 min, 12.898 sec
 *  cpu-time:     0 d,  0 h,  0 min, 44.098 sec
 * ratio c/w:     3.419 speedup
 SCF:
 * wall-time:     0 d,  0 h,  0 min,  1.708 sec
 *  cpu-time:     0 d,  0 h,  0 min,  4.949 sec
 * ratio c/w:     2.898 speedup
 ANC optimizer:
 * wall-time:     0 d,  0 h,  0 min, 11.036 sec
 *  cpu-time:     0 d,  0 h,  0 min, 38.719 sec
 * ratio c/w:     3.509 speedup

