      -----------------------------------------------------------      
     |                   =====================                   |     
     |                           x T B                           |     
     |                   =====================                   |     
     |                         S. Grimme                         |     
     |          Mulliken Center for Theoretical Chemistry        |     
     |                    University of Bonn                     |     
      -----------------------------------------------------------      

   * xtb version 6.5.1 (b24c23e) compiled by 'conda@728c89f4b128' on 2022-07-12

   xtb is free software: you can redistribute it and/or modify it under
   the terms of the GNU Lesser General Public License as published by
   the Free Software Foundation, either version 3 of the License, or
   (at your option) any later version.
   
   xtb is distributed in the hope that it will be useful,
   but WITHOUT ANY WARRANTY; without even the implied warranty of
   MERCHANTABILITY or FITNESS FOR A PARTICULAR PURPOSE.  See the
   GNU Lesser General Public License for more details.
   
   Cite this work as:
   * C. Bannwarth, E. Caldeweyher, S. Ehlert, A. Hansen, P. Pracht,
     J. Seibert, S. Spicher, S. Grimme, WIREs Comput. Mol. Sci., 2020, 11,
     e01493. DOI: 10.1002/wcms.1493
   
   for GFN2-xTB:
   * C. Bannwarth, S. Ehlert and S. Grimme., J. Chem. Theory Comput., 2019,
     15, 1652-1671. DOI: 10.1021/acs.jctc.8b01176
   for GFN1-xTB:
   * S. Grimme, C. Bannwarth, P. Shushkov, J. Chem. Theory Comput., 2017,
     13, 1989-2009. DOI: 10.1021/acs.jctc.7b00118
   for GFN0-xTB:
   * P. Pracht, E. Caldeweyher, S. Ehlert, S. Grimme, ChemRxiv, 2019, preprint.
     DOI: 10.26434/chemrxiv.8326202.v1
   for GFN-FF:
   * S. Spicher and S. Grimme, Angew. Chem. Int. Ed., 2020, 59, 15665-15673.
     DOI: 10.1002/anie.202004239
   
   for ALPB and GBSA implicit solvation:
   * S. Ehlert, M. Stahn, S. Spicher, S. Grimme, J. Chem. Theory Comput.,
     2021, 17, 4250-4261. DOI: 10.1021/acs.jctc.1c00471
   
   for DFT-D4:
   * E. Caldeweyher, C. Bannwarth and S. Grimme, J. Chem. Phys., 2017,
     147, 034112. DOI: 10.1063/1.4993215
   * E. Caldeweyher, S. Ehlert, A. Hansen, H. Neugebauer, S. Spicher,
     C. Bannwarth and S. Grimme, J. Chem. Phys., 2019, 150, 154122.
     DOI: 10.1063/1.5090222
   * E. Caldeweyher, J.-M. Mewes, S. Ehlert and S. Grimme, Phys. Chem. Chem. Phys.
     2020, 22, 8499-8512. DOI: 10.1039/D0CP00502A
   
   for sTDA-xTB:
   * S. Grimme and C. Bannwarth, J. Chem. Phys., 2016, 145, 054103.
     DOI: 10.1063/1.4959605
   
   in the mass-spec context:
   * V. Asgeirsson, C. Bauer and S. Grimme, Chem. Sci., 2017, 8, 4879.
     DOI: 10.1039/c7sc00601b
   * J. Koopman and S. Grimme, ACS Omega 2019, 4, 12, 15120-15133.
     DOI: 10.1021/acsomega.9b02011
   
   for metadynamics refer to:
   * S. Grimme, J. Chem. Theory Comput., 2019, 155, 2847-2862
     DOI: 10.1021/acs.jctc.9b00143
   
   for SPH calculations refer to:
   * S. Spicher and S. Grimme, J. Chem. Theory Comput., 2021, 17, 1701-1714
     DOI: 10.1021/acs.jctc.0c01306
   
   with help from (in alphabetical order)
   P. Atkinson, C. Bannwarth, F. Bohle, G. Brandenburg, E. Caldeweyher
   M. Checinski, S. Dohm, S. Ehlert, S. Ehrlich, I. Gerasimov, C. Hölzer
   A. Katbashev, J. Koopman, C. Lavigne, S. Lehtola, F. März, M. Müller,
   F. Musil, H. Neugebauer, J. Pisarek, C. Plett, P. Pracht, F. Pultar,
   J. Seibert, P. Shushkov, S. Spicher, M. Stahn, M. Steiner, T. Strunk,
   J. Stückrath, T. Rose, and J. Unsleber
   
 * started run on 2026/07/30 at 00:21:13.876     

           -------------------------------------------------
          |                Calculation Setup                |
           -------------------------------------------------

          program call               : /h/332/chchoi/miniconda3/envs/el-agente/bin/xtb CpRu_sumanene_convex_init.xyz --opt --gfn 2 -P 4 --chrg 1 --uhf 0 --input detailed_input.inp
          coordinate file            : CpRu_sumanene_convex_init.xyz
          omp threads                :                     4

   ID    Z sym.   atoms
    1    6 C      1-21, 35-39
    2    1 H      22-33, 40-44
    3   44 Ru     34
constraining bond 34 3 to    2.2000000 Å, actual value:    2.2037753 Å
constraining bond 34 4 to    2.2000000 Å, actual value:    2.2037751 Å
constraining bond 34 8 to    2.2000000 Å, actual value:    2.2037752 Å
constraining bond 34 9 to    2.2000000 Å, actual value:    2.2037753 Å
constraining bond 34 13 to    2.2000000 Å, actual value:    2.2037752 Å
constraining bond 34 14 to    2.2000000 Å, actual value:    2.2037752 Å
constraining bond 34 35 to    2.2300000 Å, actual value:    2.2327843 Å
constraining bond 34 36 to    2.2300000 Å, actual value:    2.2327280 Å
constraining bond 34 37 to    2.2300000 Å, actual value:    2.2326554 Å
constraining bond 34 38 to    2.2300000 Å, actual value:    2.2326554 Å
constraining bond 34 39 to    2.2300000 Å, actual value:    2.2327280 Å

           -------------------------------------------------
          |                 G F N 2 - x T B                 |
           -------------------------------------------------

        Reference                      10.1021/acs.jctc.8b01176
      * Hamiltonian:
        H0-scaling (s, p, d)           1.850000    2.230000    2.230000
        zeta-weighting                 0.500000
      * Dispersion:
        s8                             2.700000
        a1                             0.520000
        a2                             5.000000
        s9                             5.000000
      * Repulsion:
        kExp                           1.500000    1.000000
        rExp                           1.000000
      * Coulomb:
        alpha                          2.000000
        third order                    shell-resolved
        anisotropic                    true
        a3                             3.000000
        a5                             4.000000
        cn-shift                       1.200000
        cn-exp                         4.000000
        max-rad                        5.000000


          ...................................................
          :                      SETUP                      :
          :.................................................:
          :  # basis functions                 131          :
          :  # atomic orbitals                 130          :
          :  # shells                           72          :
          :  # electrons                       128          :
          :  max. iterations                   250          :
          :  Hamiltonian                  GFN2-xTB          :
          :  restarted?                      false          :
          :  GBSA solvation                  false          :
          :  PC potential                    false          :
          :  electronic temp.          300.0000000     K    :
          :  accuracy                    1.0000000          :
          :  -> integral cutoff          0.2500000E+02      :
          :  -> integral neglect         0.1000000E-07      :
          :  -> SCF convergence          0.1000000E-05 Eh   :
          :  -> wf. convergence          0.1000000E-03 e    :
          :  Broyden damping             0.4000000          :
          ...................................................

 iter      E             dE          RMSdq      gap      omega  full diag
   1    -66.2325469 -0.662325E+02  0.979E+00    1.08       0.0  T
   2    -58.9526035  0.727994E+01  0.127E+01    0.00       1.0  T
   3    -65.8094995 -0.685690E+01  0.695E+00    1.25       1.0  T
   4    -67.8986717 -0.208917E+01  0.348E+00    1.33       1.0  T
   5    -68.2932480 -0.394576E+00  0.775E-01    1.67       1.0  T
   6    -68.2891507  0.409730E-02  0.561E-01    1.68       1.0  T
   7    -68.3002407 -0.110900E-01  0.207E-01    1.66       1.0  T
   8    -68.3021056 -0.186486E-02  0.840E-02    1.63       1.0  T
   9    -68.3021736 -0.680817E-04  0.291E-02    1.63       1.0  T
  10    -68.3021787 -0.503549E-05  0.152E-02    1.63       1.0  T
  11    -68.3021846 -0.596464E-05  0.661E-03    1.63       2.3  T
  12    -68.3021850 -0.339294E-06  0.314E-03    1.63       4.8  T
  13    -68.3021850 -0.352498E-07  0.164E-03    1.63       9.2  T
  14    -68.3021850 -0.974838E-08  0.461E-04    1.63      32.7  T
  15    -68.3021850 -0.459674E-08  0.213E-04    1.63      70.7  T

   *** convergence criteria satisfied after 15 iterations ***

         #    Occupation            Energy/Eh            Energy/eV
      -------------------------------------------------------------
         1        2.0000           -0.8460138             -23.0212
       ...           ...                  ...                  ...
        58        2.0000           -0.5328062             -14.4984
        59        2.0000           -0.5194833             -14.1359
        60        2.0000           -0.5053750             -13.7520
        61        2.0000           -0.5053686             -13.7518
        62        2.0000           -0.4853481             -13.2070
        63        2.0000           -0.4726266             -12.8608
        64        2.0000           -0.4726222             -12.8607 (HOMO)
        65                         -0.4126889             -11.2298 (LUMO)
        66                         -0.4126345             -11.2284
        67                         -0.3748776             -10.2009
        68                         -0.3748182             -10.1993
        69                         -0.3686269             -10.0308
       ...                                ...                  ...
       130                          3.8981403             106.0738
      -------------------------------------------------------------
                  HL-Gap            0.0599333 Eh            1.6309 eV
             Fermi-level           -0.4426556 Eh          -12.0453 eV

 SCC (total)                   0 d,  0 h,  0 min,  1.224 sec
 SCC setup                      ...        0 min,  0.002 sec (  0.186%)
 Dispersion                     ...        0 min,  0.003 sec (  0.254%)
 classical contributions        ...        0 min,  0.007 sec (  0.550%)
 integral evaluation            ...        0 min,  0.050 sec (  4.116%)
 iterations                     ...        0 min,  1.007 sec ( 82.300%)
 molecular gradient             ...        0 min,  0.150 sec ( 12.243%)
 printout                       ...        0 min,  0.004 sec (  0.347%)

         :::::::::::::::::::::::::::::::::::::::::::::::::::::
         ::                     SUMMARY                     ::
         :::::::::::::::::::::::::::::::::::::::::::::::::::::
         :: total energy             -67.128943952368 Eh    ::
         :: gradient norm              0.117017587451 Eh/a0 ::
         :: HOMO-LUMO gap              1.630867904543 eV    ::
         ::.................................................::
         :: SCC energy               -68.302185033377 Eh    ::
         :: -> isotropic ES            0.051658949444 Eh    ::
         :: -> anisotropic ES         -0.008404769206 Eh    ::
         :: -> anisotropic XC          0.037881876895 Eh    ::
         :: -> dispersion             -0.063653794500 Eh    ::
         :: repulsion energy           1.170846625732 Eh    ::
         :: add. restraining           0.000436573190 Eh    ::
         :: total charge               1.000000000000 e     ::
         :::::::::::::::::::::::::::::::::::::::::::::::::::::

      ----------------------------------------------------------- 
     |                   =====================                   |
     |                        A N C O P T                        |
     |                   =====================                   |
     |               Approximate Normal Coordinate               |
     |                Rational Function Optimizer                |
      ----------------------------------------------------------- 

          ...................................................
          :                      SETUP                      :
          :.................................................:
          :   optimization level            normal          :
          :   max. optcycles                   200          :
          :   ANC micro-cycles                  20          :
          :   degrees of freedom               126          :
          :.................................................:
          :   RF solver                   davidson          :
          :   write xtbopt.log                true          :
          :   linear?                        false          :
          :   energy convergence         0.5000000E-05 Eh   :
          :   grad. convergence          0.1000000E-02 Eh/α :
          :   maximium RF displ.         1.0000000          :
          :   Hlow (freq-cutoff)         0.1000000E-01      :
          :   Hmax (freq-cutoff)         5.0000000          :
          :   S6 in model hess.         20.0000000          :
          ...................................................

generating ANC from model Hessian ...
Using Lindh-Hessian (1995)
 Shifting diagonal of input Hessian by    9.1324825623077168E-003
 Lowest  eigenvalues of input Hessian
    0.000000    0.000000    0.000000    0.000000    0.000000    0.000000
    0.010000    0.011149    0.011172    0.012740    0.012740    0.014784
    0.016488    0.022967    0.023346    0.023352    0.025468    0.025476
 Highest eigenvalues
    3.377618    3.377626    3.416797    6.556118    6.556658   16.738968


........................................................................
.............................. CYCLE    1 ..............................
........................................................................
   1    -68.3021850 -0.683022E+02  0.881E-05    1.63       0.0  T
   2    -68.3021850  0.475481E-09  0.121E-04    1.63     124.9  T
   3    -68.3021850 -0.732356E-09  0.471E-05    1.63     320.1  T
     SCC iter.                  ...        0 min,  0.382 sec
     gradient                   ...        0 min,  0.136 sec
 * total energy  :   -67.1289440 Eh     change       -0.1247713E-08 Eh
   gradient norm :     0.1170173 Eh/α   predicted     0.0000000E+00 (-100.00%)
   displ. norm   :     0.3284696 α      lambda       -0.1824495E-01
   maximum displ.:     0.2228554 α      in ANC's #13, #60, #26, ...

........................................................................
.............................. CYCLE    2 ..............................
........................................................................
   1    -68.3156843 -0.683157E+02  0.277E-01    1.64       0.0  T
   2    -68.3150726  0.611681E-03  0.186E-01    1.65       1.0  T
   3    -68.3141150  0.957563E-03  0.222E-01    1.61       1.0  T
   4    -68.3153436 -0.122857E-02  0.864E-02    1.65       1.0  T
   5    -68.3158692 -0.525620E-03  0.927E-03    1.63       1.6  T
   6    -68.3158719 -0.264690E-05  0.322E-03    1.63       4.7  T
   7    -68.3158720 -0.126257E-06  0.137E-03    1.63      11.0  T
   8    -68.3158720 -0.352260E-07  0.799E-04    1.63      18.9  T
   9    -68.3158720 -0.164599E-08  0.563E-04    1.63      26.8  T
     SCC iter.                  ...        0 min,  0.803 sec
     gradient                   ...        0 min,  0.094 sec
 * total energy  :   -67.1403165 Eh     change       -0.1137252E-01 Eh
   gradient norm :     0.1156651 Eh/α   predicted    -0.1010672E-01 ( -11.13%)
   displ. norm   :     0.2787106 α      lambda       -0.6952948E-02
   maximum displ.:     0.1929554 α      in ANC's #13, #7, #6, ...

........................................................................
.............................. CYCLE    3 ..............................
........................................................................
   1    -68.3173458 -0.683173E+02  0.165E-01    1.61       0.0  T
   2    -68.3164263  0.919563E-03  0.149E-01    1.63       1.0  T
   3    -68.3166463 -0.219974E-03  0.153E-01    1.60       1.0  T
   4    -68.3175302 -0.883977E-03  0.247E-02    1.62       1.0  T
   5    -68.3175520 -0.217998E-04  0.520E-03    1.62       2.9  T
   6    -68.3175529 -0.855452E-06  0.187E-03    1.62       8.1  T
   7    -68.3175529  0.521302E-08  0.133E-03    1.62      11.3  T
   8    -68.3175529 -0.846318E-08  0.736E-04    1.62      20.5  T
   9    -68.3175529 -0.115042E-07  0.307E-04    1.62      49.0  T
     SCC iter.                  ...        0 min,  0.522 sec
     gradient                   ...        0 min,  0.080 sec
 * total energy  :   -67.1388615 Eh     change        0.1454953E-02 Eh
   gradient norm :     0.3144462 Eh/α   predicted    -0.3746596E-02 (-357.51%)
   displ. norm   :     0.0700261 α      lambda       -0.7018489E-02
   maximum displ.:     0.0407992 α      in ANC's #6, #7, #60, ...

........................................................................
.............................. CYCLE    4 ..............................
........................................................................
   1    -68.3161182 -0.683161E+02  0.472E-02    1.62       0.0  T
   2    -68.3160491  0.690889E-04  0.440E-02    1.62       1.0  T
   3    -68.3160779 -0.287282E-04  0.393E-02    1.63       1.0  T
   4    -68.3161409 -0.630741E-04  0.153E-02    1.62       1.0  T
   5    -68.3161417 -0.744179E-06  0.222E-03    1.62       6.8  T
   6    -68.3161418 -0.108799E-06  0.124E-03    1.62      12.2  T
   7    -68.3161418 -0.128384E-07  0.754E-04    1.62      20.0  T
   8    -68.3161418 -0.367743E-08  0.263E-04    1.62      57.3  T
     SCC iter.                  ...        0 min,  0.446 sec
     gradient                   ...        0 min,  0.073 sec
 * total energy  :   -67.1423732 Eh     change       -0.3511657E-02 Eh
   gradient norm :     0.0143980 Eh/α   predicted    -0.3527515E-02 (   0.45%)
   displ. norm   :     0.0908502 α      lambda       -0.2016615E-03
   maximum displ.:     0.0724700 α      in ANC's #6, #7, #26, ...

........................................................................
.............................. CYCLE    5 ..............................
........................................................................
   1    -68.3159570 -0.683160E+02  0.420E-02    1.62       0.0  T
   2    -68.3159559  0.114383E-05  0.255E-02    1.63       1.0  T
   3    -68.3159000  0.558725E-04  0.321E-02    1.62       1.0  T
   4    -68.3159568 -0.567600E-04  0.419E-03    1.63       3.6  T
   5    -68.3159578 -0.100681E-05  0.730E-04    1.62      20.6  T
   6    -68.3159578 -0.175340E-07  0.335E-04    1.62      45.0  T
   7    -68.3159578 -0.134818E-09  0.229E-04    1.62      65.8  T
     SCC iter.                  ...        0 min,  0.453 sec
     gradient                   ...        0 min,  0.065 sec
 * total energy  :   -67.1425358 Eh     change       -0.1625847E-03 Eh
   gradient norm :     0.0046428 Eh/α   predicted    -0.1022674E-03 ( -37.10%)
   displ. norm   :     0.2296430 α      lambda       -0.3046334E-03
   maximum displ.:     0.1837225 α      in ANC's #6, #7, #29, ...

........................................................................
.............................. CYCLE    6 ..............................
........................................................................
   1    -68.3160765 -0.683161E+02  0.100E-01    1.63       0.0  T
   2    -68.3160574  0.191349E-04  0.608E-02    1.63       1.0  T
   3    -68.3156132  0.444206E-03  0.939E-02    1.62       1.0  T
   4    -68.3160743 -0.461109E-03  0.123E-02    1.63       1.2  T
   5    -68.3160826 -0.835182E-05  0.123E-03    1.63      12.2  T
   6    -68.3160826 -0.119253E-07  0.806E-04    1.63      18.7  T
   7    -68.3160826 -0.464205E-08  0.386E-04    1.63      39.1  T
     SCC iter.                  ...        0 min,  0.418 sec
     gradient                   ...        0 min,  0.064 sec
 * total energy  :   -67.1427287 Eh     change       -0.1929069E-03 Eh
   gradient norm :     0.0049305 Eh/α   predicted    -0.1603507E-03 ( -16.88%)
   displ. norm   :     0.0884423 α      lambda       -0.5266433E-04
   maximum displ.:     0.0745559 α      in ANC's #6, #7, #29, ...

........................................................................
.............................. CYCLE    7 ..............................
........................................................................
   1    -68.3166539 -0.683167E+02  0.394E-02    1.63       0.0  T
   2    -68.3166534  0.484962E-06  0.231E-02    1.63       1.0  T
   3    -68.3166225  0.308472E-04  0.241E-02    1.63       1.0  T
   4    -68.3166534 -0.308316E-04  0.424E-03    1.63       3.6  T
   5    -68.3166544 -0.997949E-06  0.885E-04    1.63      17.0  T
   6    -68.3166544 -0.108909E-07  0.475E-04    1.63      31.7  T
     SCC iter.                  ...        0 min,  0.341 sec
     gradient                   ...        0 min,  0.046 sec
 * total energy  :   -67.1427674 Eh     change       -0.3874948E-04 Eh
   gradient norm :     0.0035932 Eh/α   predicted    -0.2653910E-04 ( -31.51%)
   displ. norm   :     0.0517897 α      lambda       -0.2543174E-04
   maximum displ.:     0.0467311 α      in ANC's #6, #7, #13, ...

........................................................................
.............................. CYCLE    8 ..............................
........................................................................
   1    -68.3171481 -0.683171E+02  0.245E-02    1.63       0.0  T
   2    -68.3171482 -0.810289E-07  0.146E-02    1.63       1.0  T
   3    -68.3171444  0.379268E-05  0.974E-03    1.63       1.5  T
   4    -68.3171476 -0.318596E-05  0.343E-03    1.63       4.4  T
   5    -68.3171483 -0.738181E-06  0.700E-04    1.63      21.5  T
   6    -68.3171483 -0.138605E-07  0.451E-04    1.63      33.4  T
     SCC iter.                  ...        0 min,  0.308 sec
     gradient                   ...        0 min,  0.073 sec
 * total energy  :   -67.1427851 Eh     change       -0.1769437E-04 Eh
   gradient norm :     0.0012889 Eh/α   predicted    -0.1275168E-04 ( -27.93%)
   displ. norm   :     0.0409084 α      lambda       -0.6966006E-05
   maximum displ.:     0.0387867 α      in ANC's #6, #13, #26, ...

........................................................................
.............................. CYCLE    9 ..............................
........................................................................
   1    -68.3171754 -0.683172E+02  0.192E-02    1.63       0.0  T
   2    -68.3171751  0.345030E-06  0.118E-02    1.63       1.3  T
   3    -68.3171625  0.125604E-04  0.159E-02    1.63       1.0  T
   4    -68.3171752 -0.126409E-04  0.280E-03    1.63       5.4  T
   5    -68.3171756 -0.449435E-06  0.597E-04    1.63      25.3  T
   6    -68.3171756 -0.120669E-08  0.313E-04    1.63      48.1  T
     SCC iter.                  ...        0 min,  0.257 sec
     gradient                   ...        0 min,  0.132 sec
 * total energy  :   -67.1427902 Eh     change       -0.5097813E-05 Eh
   gradient norm :     0.0008328 Eh/α   predicted    -0.3489523E-05 ( -31.55%)
   displ. norm   :     0.0086151 α      lambda       -0.6857443E-06
   maximum displ.:     0.0070044 α      in ANC's #7, #6, #13, ...

........................................................................
.............................. CYCLE   10 ..............................
........................................................................
   1    -68.3170715 -0.683171E+02  0.171E-03    1.63       0.0  T
   2    -68.3170715  0.359452E-08  0.124E-03    1.63      12.2  T
   3    -68.3170715  0.270073E-07  0.111E-03    1.63      13.6  T
   4    -68.3170715  0.901198E-08  0.842E-04    1.63      17.9  T
   5    -68.3170715 -0.472824E-07  0.117E-04    1.63     128.5  T
     SCC iter.                  ...        0 min,  0.121 sec
     gradient                   ...        0 min,  0.041 sec
 * total energy  :   -67.1427913 Eh     change       -0.1062186E-05 Eh
   gradient norm :     0.0003512 Eh/α   predicted    -0.4470096E-06 ( -57.92%)
   displ. norm   :     0.0141443 α      lambda       -0.8672715E-06
   maximum displ.:     0.0108425 α      in ANC's #7, #6, #13, ...

   *** GEOMETRY OPTIMIZATION CONVERGED AFTER 10 ITERATIONS ***

------------------------------------------------------------------------
 total energy gain   :        -0.0138473 Eh       -8.6893 kcal/mol
 total RMSD          :         0.1364198 a0        0.0722 Å
 total power (kW/mol):        -3.6356143 (step)   -6.5327 (real)
------------------------------------------------------------------------

 ANCopt (total)                0 d,  0 h,  0 min,  5.565 sec
 optimizer setup                ...        0 min,  0.001 sec (  0.011%)
 model hessian                  ...        0 min,  0.084 sec (  1.503%)
 ANC generation                 ...        0 min,  0.018 sec (  0.321%)
 coordinate transformation      ...        0 min,  0.026 sec (  0.472%)
 single point calculation       ...        0 min,  5.349 sec ( 96.119%)
 optimization log               ...        0 min,  0.001 sec (  0.025%)
 hessian update                 ...        0 min,  0.071 sec (  1.283%)
 rational function              ...        0 min,  0.006 sec (  0.102%)

================
 final structure:
================
44
 xtb: 6.5.1 (b24c23e)
C           -3.04134588040817       -1.17715922396924        0.22290347446867
C           -2.60496073679153        0.27020074155227        0.44759867732564
C           -1.33087206849090        0.23385292071314        1.05100490742136
C           -0.45260644801313        1.32577097611120        0.98417702117899
C           -0.79944922404059        2.51502268452666        0.31029269317304
C            0.50332571286584        3.22988807365638       -0.04684779272432
C            1.56308701969771        2.14448032629388        0.13904697988370
C            0.96894643681406        1.10275445595170        0.88101531368684
C            1.47309699507224       -0.20592135235777        0.84757903919842
C            2.59953427089408       -0.54598905497772        0.07027386059616
C            2.53813383947340       -2.05211821210550       -0.18182650986227
C            1.09864219441623       -2.41213554917197        0.18431797103019
C            0.57003842716025       -1.32889042331259        0.91637828844551
C           -0.81239725187404       -1.11210827003743        1.01664338493409
C           -1.74335625154695       -1.96643471847335        0.39039990464129
C           -1.22137970210006       -3.09744759117787       -0.20425387512894
C            0.17872850260836       -3.31702662202797       -0.30577353901304
C            3.25350203214801        0.50575055503529       -0.53924303088313
C            2.74289703718137        1.83122165745251       -0.50535699126215
C           -2.09693196814518        2.59019009329598       -0.15464862923237
C           -2.98641104635304        1.48427220633197       -0.08701703153670
H           -3.78783409754159       -1.48355004216822        0.96041873221977
H           -3.47531358198038       -1.31903583053095       -0.76626596503561
H            0.48879534670373        3.60916685000266       -1.06805234458740
H            0.68461999141172        4.07716085561296        0.61969864508063
H            3.25210017618082       -2.58760235249636        0.44947251558144
H            2.76423916256877       -2.29734407074355       -1.21896744803111
H           -1.86803730629062       -3.77318067922097       -0.74326485240514
H            0.50618418045833       -4.14552212733073       -0.91542721179240
H            4.09554229604440        0.31683836742982       -1.18777643586062
H            3.22965620752792        2.56457618175219       -1.13031327650683
H           -2.42006494237190        3.45047587980611       -0.72104385154539
H           -3.92841044541248        1.57511363010754       -0.60634442340359
Ru           0.19167253619612        0.00682742147955        2.62688856882668
C            0.32330833101032        1.22244154550955        4.49149529509488
C            1.47432511175604        0.38696812279193        4.41077720431142
C            1.03888078637165       -0.96877275228326        4.44409823066050
C           -0.38271702734659       -0.97142864340988        4.54651409167538
C           -0.82450898691664        0.38191868089179        4.57588409645952
H            0.32890165477745        2.29813627500798        4.60555439087944
H            2.50251214796914        0.72208969197455        4.44524092293459
H            1.67924704860082       -1.83771327284023        4.51533992522548
H           -1.00300194825723       -1.84354473305972        4.70489800127448
H           -1.83800149202778        0.71320448840767        4.75916303260309

 Bond Distances (Angstroems)
 ---------------------------
C1-C2=1.5283         C1-C15=1.5283        C1-H22=1.0932        C1-H23=1.0895        C2-C1=1.5283         C2-C3=1.4102         
C2-C21=1.3803        C3-C2=1.4102         C3-C4=1.4029         C3-C14=1.4428        C3-Ru34=2.2030       C4-C3=1.4029         
C4-C5=1.4102         C4-C8=1.4426         C4-Ru34=2.2030       C5-C4=1.4102         C5-C6=1.5283         C5-C20=1.3803        
C6-C5=1.5283         C6-C7=1.5283         C6-H24=1.0895        C6-H25=1.0932        C7-C6=1.5283         C7-C8=1.4102         
C7-C19=1.3803        C8-C4=1.4426         C8-C7=1.4102         C8-C9=1.4028         C8-Ru34=2.2030       C9-C8=1.4028         
C9-C10=1.4102        C9-C13=1.4427        C9-Ru34=2.2030       C10-C9=1.4102        C10-C11=1.5283       C10-C18=1.3803       
C11-C10=1.5283       C11-C12=1.5283       C11-H26=1.0932       C11-H27=1.0895       C12-C11=1.5283       C12-C13=1.4102       
C12-C17=1.3803       C13-C9=1.4427        C13-C12=1.4102       C13-C14=1.4029       C13-Ru34=2.2030      C14-C3=1.4428        
C14-C13=1.4029       C14-C15=1.4102       C14-Ru34=2.2030      C15-C1=1.5283        C15-C14=1.4102       C15-C16=1.3803       
C16-C15=1.3803       C16-C17=1.4209       C16-H28=1.0795       C17-C12=1.3803       C17-C16=1.4209       C17-H29=1.0795       
C18-C10=1.3803       C18-C19=1.4208       C18-H30=1.0795       C19-C7=1.3803        C19-C18=1.4208       C19-H31=1.0795       
C20-C5=1.3803        C20-C21=1.4208       C20-H32=1.0795       C21-C2=1.3803        C21-C20=1.4208       C21-H33=1.0795       
H22-C1=1.0932        H23-C1=1.0895        H24-C6=1.0895        H25-C6=1.0932        H26-C11=1.0932       H27-C11=1.0895       
H28-C16=1.0795       H29-C17=1.0795       H30-C18=1.0795       H31-C19=1.0795       H32-C20=1.0795       H33-C21=1.0795       
Ru34-C3=2.2030       Ru34-C4=2.2030       Ru34-C8=2.2030       Ru34-C9=2.2030       Ru34-C13=2.2030      Ru34-C14=2.2030      
Ru34-C35=2.2298      Ru34-C36=2.2298      Ru34-C37=2.2298      Ru34-C38=2.2298      Ru34-C39=2.2298      C35-Ru34=2.2298      
C35-C36=1.4246       C35-C39=1.4252       C35-H40=1.0817       C36-Ru34=2.2298      C36-C35=1.4246       C36-C37=1.4243       
C36-H41=1.0820       C37-Ru34=2.2298      C37-C36=1.4243       C37-C38=1.4253       C37-H42=1.0818       C38-Ru34=2.2298      
C38-C37=1.4253       C38-C39=1.4239       C38-H43=1.0819       C39-Ru34=2.2298      C39-C35=1.4252       C39-C38=1.4239       
C39-H44=1.0819       H40-C35=1.0817       H41-C36=1.0820       H42-C37=1.0818       H43-C38=1.0819       H44-C39=1.0819       
 C  H  Rav=1.0844 sigma=0.0053  Rmin=1.0795  Rmax=1.0932    17
 C  C  Rav=1.4324 sigma=0.0494  Rmin=1.3803  Rmax=1.5283    32
 Ru C  Rav=2.2152 sigma=0.0133  Rmin=2.2030  Rmax=2.2298    11

 selected bond angles (degree)
 --------------------
C15-C1-C2=103.32               H22-C1-C2=111.17               H22-C1-C15=111.18              H23-C1-C2=111.75               
H23-C1-C15=111.75              H23-C1-H22=107.70              C3-C2-C1=107.25                C21-C2-C1=134.20               
C21-C2-C3=115.98               C4-C3-C2=121.68                C14-C3-C2=109.79               C14-C3-C4=120.00               
Ru34-C3-C2=158.93              Ru34-C3-C4= 71.43              Ru34-C3-C14= 70.88             C5-C4-C3=121.68                
C8-C4-C3=120.00                C8-C4-C5=109.79                Ru34-C4-C3= 71.43              Ru34-C4-C5=158.93              
Ru34-C4-C8= 70.89              C6-C5-C4=107.25                C20-C5-C4=115.98               C20-C5-C6=134.19               
C7-C6-C5=103.32                H24-C6-C5=111.75               H24-C6-C7=111.75               H25-C6-C5=111.19               
H25-C6-C7=111.18               H25-C6-H24=107.69              C8-C7-C6=107.25                C19-C7-C6=134.19               
C19-C7-C8=115.98               C7-C8-C4=109.79                C9-C8-C4=120.00                C9-C8-C7=121.68                
Ru34-C8-C4= 70.89              Ru34-C8-C7=158.92              Ru34-C8-C9= 71.43              C10-C9-C8=121.68               
C13-C9-C8=120.00               C13-C9-C10=109.79              Ru34-C9-C8= 71.43              Ru34-C9-C10=158.92             
Ru34-C9-C13= 70.89             C11-C10-C9=107.25              C18-C10-C9=115.98              C18-C10-C11=134.19             

 selected dihedral angles (degree)
 ---------------------------------
C3-C2-C1-C15=344.57           C3-C2-C1-H22=103.90           C3-C2-C1-H23=224.27           C21-C2-C1-C15=144.89          
C21-C2-C1-H22=264.22          C21-C2-C1-H23= 24.59          C4-C3-C2-C1=157.92            C4-C3-C2-C21=353.50           
C14-C3-C2-C1= 10.10           C14-C3-C2-C21=205.68          Ru34-C3-C2-C1=282.06          Ru34-C3-C2-C21=117.64         
C5-C4-C3-C2=  0.00            C5-C4-C3-C14=144.65           C5-C4-C3-Ru34=198.30          C8-C4-C3-C2=215.36            
C8-C4-C3-C14=  0.00           C8-C4-C3-Ru34= 53.65          Ru34-C4-C3-C2=161.71          Ru34-C4-C3-C14=306.36         
C6-C5-C4-C3=202.08            C6-C5-C4-C8=349.90            C6-C5-C4-Ru34= 77.96          C20-C5-C4-C3=  6.49           
C20-C5-C4-C8=154.31           C20-C5-C4-Ru34=242.37         C7-C6-C5-C4= 15.41            C7-C6-C5-C20=215.10           
H24-C6-C5-C4=135.71           H24-C6-C5-C20=335.40          H25-C6-C5-C4=256.07           H25-C6-C5-C20= 95.76          
C8-C7-C6-C5=344.59            C8-C7-C6-H24=224.30           C8-C7-C6-H25=103.94           C19-C7-C6-C5=144.91           
C19-C7-C6-H24= 24.61          C19-C7-C6-H25=264.25          C7-C8-C4-C3=148.46            C7-C8-C4-C5=  0.00            
C7-C8-C4-Ru34=202.36          C9-C8-C4-C3=  0.00            C9-C8-C4-C5=211.55            C9-C8-C4-Ru34= 53.90          
Ru34-C8-C4-C3=306.10          Ru34-C8-C4-C5=157.65          C4-C8-C7-C6= 10.08            C4-C8-C7-C19=205.67           
C9-C8-C7-C6=157.92            C9-C8-C7-C19=353.51           Ru34-C8-C7-C6=282.03          Ru34-C8-C7-C19=117.62         
C10-C9-C8-C4=144.66           C10-C9-C8-C7=  0.00           C10-C9-C8-Ru34=198.31         C13-C9-C8-C4=  0.00           
C13-C9-C8-C7=215.33           C13-C9-C8-Ru34= 53.64         Ru34-C9-C8-C4=306.36          Ru34-C9-C8-C7=161.69          
C11-C10-C9-C8=202.08          C11-C10-C9-C13=349.92         C11-C10-C9-Ru34= 77.97        C18-C10-C9-C8=  6.50          
C18-C10-C9-C13=154.33         C18-C10-C9-Ru34=242.38        
           -------------------------------------------------
          |                Final Singlepoint                |
           -------------------------------------------------

          ...................................................
          :                      SETUP                      :
          :.................................................:
          :  # basis functions                 131          :
          :  # atomic orbitals                 130          :
          :  # shells                           72          :
          :  # electrons                       128          :
          :  max. iterations                   250          :
          :  Hamiltonian                  GFN2-xTB          :
          :  restarted?                      false          :
          :  GBSA solvation                  false          :
          :  PC potential                    false          :
          :  electronic temp.          300.0000000     K    :
          :  accuracy                    1.0000000          :
          :  -> integral cutoff          0.2500000E+02      :
          :  -> integral neglect         0.1000000E-07      :
          :  -> SCF convergence          0.1000000E-05 Eh   :
          :  -> wf. convergence          0.1000000E-03 e    :
          :  Broyden damping             0.4000000          :
          ...................................................

 iter      E             dE          RMSdq      gap      omega  full diag
   1    -68.3170715 -0.683171E+02  0.651E-05    1.63       0.0  T
   2    -68.3170715  0.159588E-10  0.851E-05    1.63     177.3  T
   3    -68.3170715 -0.274838E-10  0.173E-05    1.63     873.8  T

   *** convergence criteria satisfied after 3 iterations ***

         #    Occupation            Energy/Eh            Energy/eV
      -------------------------------------------------------------
         1        2.0000           -0.8444205             -22.9779
       ...           ...                  ...                  ...
        58        2.0000           -0.5355880             -14.5741
        59        2.0000           -0.5193816             -14.1331
        60        2.0000           -0.5044247             -13.7261
        61        2.0000           -0.5044139             -13.7258
        62        2.0000           -0.4864028             -13.2357
        63        2.0000           -0.4730672             -12.8728
        64        2.0000           -0.4730625             -12.8727 (HOMO)
        65                         -0.4131084             -11.2413 (LUMO)
        66                         -0.4129899             -11.2380
        67                         -0.3771669             -10.2632
        68                         -0.3771663             -10.2632
        69                         -0.3685422             -10.0285
       ...                                ...                  ...
       130                          3.8431957             104.5787
      -------------------------------------------------------------
                  HL-Gap            0.0599541 Eh            1.6314 eV
             Fermi-level           -0.4429975 Eh          -12.0546 eV

 SCC (total)                   0 d,  0 h,  0 min,  0.103 sec
 SCC setup                      ...        0 min,  0.001 sec (  0.865%)
 Dispersion                     ...        0 min,  0.001 sec (  1.210%)
 classical contributions        ...        0 min,  0.000 sec (  0.106%)
 integral evaluation            ...        0 min,  0.009 sec (  8.702%)
 iterations                     ...        0 min,  0.069 sec ( 67.038%)
 molecular gradient             ...        0 min,  0.022 sec ( 21.628%)
 printout                       ...        0 min,  0.000 sec (  0.428%)

         :::::::::::::::::::::::::::::::::::::::::::::::::::::
         ::                     SUMMARY                     ::
         :::::::::::::::::::::::::::::::::::::::::::::::::::::
         :: total energy             -67.142791275980 Eh    ::
         :: gradient norm              0.000350940042 Eh/a0 ::
         :: HOMO-LUMO gap              1.631434433298 eV    ::
         ::.................................................::
         :: SCC energy               -68.317071541524 Eh    ::
         :: -> isotropic ES            0.051125923852 Eh    ::
         :: -> anisotropic ES         -0.008410102862 Eh    ::
         :: -> anisotropic XC          0.037263682441 Eh    ::
         :: -> dispersion             -0.063174141975 Eh    ::
         :: repulsion energy           1.172134762224 Eh    ::
         :: add. restraining           0.000192830378 Eh    ::
         :: total charge               1.000000000000 e     ::
         :::::::::::::::::::::::::::::::::::::::::::::::::::::

           -------------------------------------------------
          |                Property Printout                |
           -------------------------------------------------

    * Orbital Energies and Occupations

         #    Occupation            Energy/Eh            Energy/eV
      -------------------------------------------------------------
         1        2.0000           -0.8444205             -22.9779
       ...           ...                  ...                  ...
        52        2.0000           -0.5503533             -14.9759
        53        2.0000           -0.5503320             -14.9753
        54        2.0000           -0.5473867             -14.8952
        55        2.0000           -0.5437159             -14.7953
        56        2.0000           -0.5436958             -14.7947
        57        2.0000           -0.5358175             -14.5803
        58        2.0000           -0.5355880             -14.5741
        59        2.0000           -0.5193816             -14.1331
        60        2.0000           -0.5044247             -13.7261
        61        2.0000           -0.5044139             -13.7258
        62        2.0000           -0.4864028             -13.2357
        63        2.0000           -0.4730672             -12.8728
        64        2.0000           -0.4730625             -12.8727 (HOMO)
        65                         -0.4131084             -11.2413 (LUMO)
        66                         -0.4129899             -11.2380
        67                         -0.3771669             -10.2632
        68                         -0.3771663             -10.2632
        69                         -0.3685422             -10.0285
        70                         -0.3351343              -9.1195
        71                         -0.3351186              -9.1190
        72                         -0.3268888              -8.8951
        73                         -0.3026997              -8.2369
        74                         -0.3026867              -8.2365
        75                         -0.2566927              -6.9850
       ...                                ...                  ...
       130                          3.8431957             104.5787
      -------------------------------------------------------------
                  HL-Gap            0.0599541 Eh            1.6314 eV
             Fermi-level           -0.4429975 Eh          -12.0546 eV

     #   Z          covCN         q      C6AA      α(0)
     1   6 C        3.849    -0.067    21.744     6.633
     2   6 C        3.006     0.007    27.844     8.656
     3   6 C        3.887     0.031    20.003     6.358
     4   6 C        3.887     0.031    20.002     6.358
     5   6 C        3.006     0.007    27.843     8.656
     6   6 C        3.849    -0.067    21.744     6.633
     7   6 C        3.006     0.007    27.842     8.656
     8   6 C        3.887     0.031    20.001     6.358
     9   6 C        3.887     0.031    20.001     6.358
    10   6 C        3.006     0.007    27.842     8.656
    11   6 C        3.849    -0.067    21.744     6.633
    12   6 C        3.006     0.007    27.844     8.656
    13   6 C        3.887     0.031    20.002     6.358
    14   6 C        3.887     0.031    20.003     6.358
    15   6 C        3.006     0.007    27.844     8.656
    16   6 C        2.920    -0.031    28.775     8.797
    17   6 C        2.920    -0.031    28.775     8.797
    18   6 C        2.920    -0.031    28.775     8.797
    19   6 C        2.920    -0.031    28.775     8.797
    20   6 C        2.920    -0.031    28.775     8.797
    21   6 C        2.920    -0.031    28.776     8.797
    22   1 H        0.924     0.088     1.903     2.157
    23   1 H        0.925     0.078     2.003     2.213
    24   1 H        0.925     0.078     2.002     2.213
    25   1 H        0.924     0.087     1.904     2.158
    26   1 H        0.924     0.087     1.904     2.158
    27   1 H        0.925     0.078     2.002     2.213
    28   1 H        0.926     0.066     2.125     2.280
    29   1 H        0.926     0.066     2.125     2.280
    30   1 H        0.926     0.066     2.125     2.279
    31   1 H        0.926     0.066     2.125     2.279
    32   1 H        0.926     0.066     2.125     2.280
    33   1 H        0.926     0.066     2.125     2.280
    34  44 Ru       9.117    -0.197   314.992    29.852
    35   6 C        3.806    -0.004    20.638     6.467
    36   6 C        3.807    -0.002    20.617     6.464
    37   6 C        3.806    -0.003    20.636     6.467
    38   6 C        3.807    -0.003    20.626     6.465
    39   6 C        3.807    -0.003    20.623     6.465
    40   1 H        0.925     0.095     1.835     2.118
    41   1 H        0.925     0.095     1.829     2.115
    42   1 H        0.925     0.095     1.835     2.118
    43   1 H        0.925     0.095     1.832     2.117
    44   1 H        0.925     0.095     1.831     2.116

 Mol. C6AA /au·bohr⁶  :      28481.017310
 Mol. C8AA /au·bohr⁸  :     893835.084672
 Mol. α(0) /au        :        262.314967


Wiberg/Mayer (AO) data.
largest (>0.10) Wiberg bond orders for each atom

 ---------------------------------------------------------------------------
     #   Z sym  total        # sym  WBO       # sym  WBO       # sym  WBO
 ---------------------------------------------------------------------------
     1   6 C    3.991 --     2 C    1.004    15 C    1.004    23 H    0.955
                            22 H    0.937
     2   6 C    3.976 --    21 C    1.502     3 C    1.230     1 C    1.004
                             5 C    0.107
     3   6 C    3.988 --     2 C    1.230     4 C    1.169    14 C    1.027
                            34 Ru   0.332
     4   6 C    3.988 --     5 C    1.230     3 C    1.169     8 C    1.028
                            34 Ru   0.332
     5   6 C    3.976 --    20 C    1.502     4 C    1.230     6 C    1.004
                             2 C    0.107
     6   6 C    3.991 --     7 C    1.004     5 C    1.004    24 H    0.955
                            25 H    0.938
     7   6 C    3.976 --    19 C    1.502     8 C    1.230     6 C    1.004
                            10 C    0.107
     8   6 C    3.988 --     7 C    1.230     9 C    1.170     4 C    1.028
                            34 Ru   0.332
     9   6 C    3.988 --    10 C    1.230     8 C    1.170    13 C    1.028
                            34 Ru   0.332
    10   6 C    3.977 --    18 C    1.502     9 C    1.230    11 C    1.004
                             7 C    0.107
    11   6 C    3.991 --    10 C    1.004    12 C    1.004    27 H    0.955
                            26 H    0.938
    12   6 C    3.976 --    17 C    1.502    13 C    1.230    11 C    1.004
                            15 C    0.107
    13   6 C    3.988 --    12 C    1.230    14 C    1.169     9 C    1.028
                            34 Ru   0.332
    14   6 C    3.988 --    15 C    1.230    13 C    1.169     3 C    1.027
                            34 Ru   0.332
    15   6 C    3.976 --    16 C    1.502    14 C    1.230     1 C    1.004
                            12 C    0.107
    16   6 C    3.977 --    15 C    1.502    17 C    1.333    28 H    0.965
    17   6 C    3.976 --    12 C    1.502    16 C    1.333    29 H    0.965
    18   6 C    3.976 --    10 C    1.502    19 C    1.334    30 H    0.965
    19   6 C    3.976 --     7 C    1.502    18 C    1.334    31 H    0.965
    20   6 C    3.976 --     5 C    1.502    21 C    1.333    32 H    0.965
    21   6 C    3.977 --     2 C    1.502    20 C    1.333    33 H    0.965
    22   1 H    0.991 --     1 C    0.937
    23   1 H    0.993 --     1 C    0.955
    24   1 H    0.993 --     6 C    0.955
    25   1 H    0.991 --     6 C    0.938
    26   1 H    0.991 --    11 C    0.938
    27   1 H    0.993 --    11 C    0.955
    28   1 H    0.993 --    16 C    0.965
    29   1 H    0.993 --    17 C    0.965
    30   1 H    0.993 --    18 C    0.965
    31   1 H    0.993 --    19 C    0.965
    32   1 H    0.993 --    20 C    0.965
    33   1 H    0.993 --    21 C    0.965
    34  44 Ru   5.025 --    35 C    0.504    37 C    0.504    38 C    0.503
                            39 C    0.503    36 C    0.503    14 C    0.332
                             3 C    0.332    13 C    0.332     4 C    0.332
                             9 C    0.332     8 C    0.332
    35   6 C    3.976 --    36 C    1.228    39 C    1.225    40 H    0.931
                            34 Ru   0.504
    36   6 C    3.978 --    37 C    1.229    35 C    1.228    41 H    0.930
                            34 Ru   0.503
    37   6 C    3.976 --    36 C    1.229    38 C    1.225    42 H    0.931
                            34 Ru   0.504
    38   6 C    3.978 --    39 C    1.231    37 C    1.225    43 H    0.931
                            34 Ru   0.503
    39   6 C    3.978 --    38 C    1.231    35 C    1.225    44 H    0.930
                            34 Ru   0.503
    40   1 H    0.990 --    35 C    0.931
    41   1 H    0.990 --    36 C    0.930
    42   1 H    0.990 --    37 C    0.931
    43   1 H    0.990 --    38 C    0.931
    44   1 H    0.990 --    39 C    0.930
 ---------------------------------------------------------------------------

Topologies differ in total number of bonds
Writing topology from bond orders to xtbtopo.mol

molecular dipole:
                 x           y           z       tot (Debye)
 q only:        0.197       0.007       2.709
   full:        0.172       0.006       2.360       6.015
molecular quadrupole (traceless):
                xx          xy          yy          xz          yz          zz
 q only:       -4.434       0.011      -4.541       0.968       0.024       8.975
  q+dip:       -0.414       0.007      -0.449       0.080      -0.006       0.862
   full:       -2.748       0.011      -2.830       0.593       0.009       5.579

           -------------------------------------------------
          |                Geometry Summary                 |
           -------------------------------------------------

      molecular mass/u    :      430.4790663
   center of mass at/Å    :        0.1044605       0.0036284       1.4344162
  moments of inertia/u·Å² :        0.2142754E+04   0.2294504E+04   0.2294546E+04
rotational constants/cm⁻¹ :        0.7867273E-02   0.7346961E-02   0.7346827E-02

 * 54 selected distances

     #   Z          #   Z                                           value/Å
     2   6 C        3   6 C                                       1.4102207
     3   6 C        4   6 C                                       1.4028905
     4   6 C        5   6 C                                       1.4102269
     4   6 C        8   6 C                                       1.4426336
     7   6 C        8   6 C                                       1.4102174
     8   6 C        9   6 C                                       1.4028252
     9   6 C       10   6 C                                       1.4102165
     9   6 C       13   6 C                                       1.4426739
    12   6 C       13   6 C                                       1.4102321
     3   6 C       14   6 C                                       1.4427781
    13   6 C       14   6 C                                       1.4029171
    14   6 C       15   6 C                                       1.4102268
    15   6 C       16   6 C                                       1.3803127
    12   6 C       17   6 C                                       1.3803112
    16   6 C       17   6 C                                       1.4208535
    10   6 C       18   6 C                                       1.3803410
     7   6 C       19   6 C                                       1.3803404
    18   6 C       19   6 C                                       1.4208236
     5   6 C       20   6 C                                       1.3803197
     2   6 C       21   6 C                                       1.3803218
    20   6 C       21   6 C                                       1.4208455
     1   6 C       22   1 H                                       1.0931830
     1   6 C       23   1 H                                       1.0894555
     6   6 C       24   1 H                                       1.0894597
     6   6 C       25   1 H                                       1.0931711
    11   6 C       26   1 H                                       1.0931742
    11   6 C       27   1 H                                       1.0894590
    16   6 C       28   1 H                                       1.0794973
    17   6 C       29   1 H                                       1.0794952 (min)
    18   6 C       30   1 H                                       1.0794978
    19   6 C       31   1 H                                       1.0794971
    20   6 C       32   1 H                                       1.0794954
    21   6 C       33   1 H                                       1.0794981
     3   6 C       34  44 Ru                                      2.2029736
     4   6 C       34  44 Ru                                      2.2030001
     8   6 C       34  44 Ru                                      2.2030173
     9   6 C       34  44 Ru                                      2.2030102
    13   6 C       34  44 Ru                                      2.2029864
    14   6 C       34  44 Ru                                      2.2029670
    34  44 Ru      35   6 C                                       2.2297544
    34  44 Ru      36   6 C                                       2.2297902 (max)
    35   6 C       36   6 C                                       1.4245600
    34  44 Ru      37   6 C                                       2.2297555
    36   6 C       37   6 C                                       1.4243440
    34  44 Ru      38   6 C                                       2.2297694
    37   6 C       38   6 C                                       1.4252848
    34  44 Ru      39   6 C                                       2.2297764
    35   6 C       39   6 C                                       1.4251614
    38   6 C       39   6 C                                       1.4239354
    35   6 C       40   1 H                                       1.0817394
    36   6 C       41   1 H                                       1.0819718
    37   6 C       42   1 H                                       1.0817588
    38   6 C       43   1 H                                       1.0818621
    39   6 C       44   1 H                                       1.0819005

 * 3 distinct bonds (by element types)

   Z      Z             #   av. dist./Å        max./Å        min./Å
   1 H    6 C          17     1.0843598     1.0931830     1.0794952
   6 C    6 C          26     1.4102236     1.4427781     1.3803112
   6 C   44 Ru         11     2.2151637     2.2297902     2.2029670


optimized geometry written to: xtbopt.xyz


           -------------------------------------------------
          | TOTAL ENERGY              -67.142791275980 Eh   |
          | GRADIENT NORM               0.000350940042 Eh/α |
          | HOMO-LUMO GAP               1.631434433298 eV   |
           -------------------------------------------------

------------------------------------------------------------------------
 * finished run on 2026/07/30 at 00:21:20.842     
------------------------------------------------------------------------
 total:
 * wall-time:     0 d,  0 h,  0 min,  6.966 sec
 *  cpu-time:     0 d,  0 h,  0 min, 24.264 sec
 * ratio c/w:     3.483 speedup
 SCF:
 * wall-time:     0 d,  0 h,  0 min,  1.224 sec
 *  cpu-time:     0 d,  0 h,  0 min,  4.015 sec
 * ratio c/w:     3.279 speedup
 ANC optimizer:
 * wall-time:     0 d,  0 h,  0 min,  5.677 sec
 *  cpu-time:     0 d,  0 h,  0 min, 19.955 sec
 * ratio c/w:     3.515 speedup

