44
CpRu(eta6-sumanene peripheral ring) convex face initial; ring=[1, 2, 3, 4, 19, 20]; azimuth=0
C  -3.03274632 -1.17439108  0.23796008
C  -2.58812445  0.27341795  0.45219290
C  -1.31297290  0.23125648  1.02090109
C  -0.44875182  1.30571991  0.95568517
C  -0.79907296  2.49769895  0.31718755
C   0.50315579  3.22170374 -0.02886527
C   1.55805179  2.12804310  0.14673658
C   0.95465315  1.08563113  0.85420079
C   1.45073255 -0.20216117  0.82104963
C   2.58500155 -0.53785686  0.07810925
C   2.53283133 -2.04721218 -0.16450149
C   1.08748194 -2.39968409  0.19111621
C   0.55912654 -1.31067161  0.88833246
C  -0.80117399 -1.09734269  0.98669955
C  -1.72851945 -1.95806501  0.39474889
C  -1.21826855 -3.12004335 -0.15973678
C   0.17501410 -3.33854476 -0.26048877
C   3.27606853  0.51691587 -0.49450308
C   2.76796108  1.83593231 -0.46054809
C  -2.11315843  2.60141354 -0.10757904
C  -2.99833352  1.50089840 -0.04078203
H  -3.77093676 -1.47798916  0.98515355
H  -3.47378596 -1.31888625 -0.74876412
H   0.49029008  3.60954897 -1.04789893
H   0.68369231  4.06033217  0.64900188
H   3.24073370 -2.57759255  0.47812271
H   2.76574658 -2.29740147 -1.19996034
H  -1.87214905 -3.82805742 -0.65012116
H   0.50651684 -4.20109149 -0.82212884
H   4.15510512  0.33510420 -1.09746224
H   3.28764450  2.58697994 -1.03949298
H  -2.45530414  3.48761773 -0.62420168
H  -3.96650917  1.60877575 -0.51016343
Ru -2.26168446  1.93743907  1.94909412
C  -3.25598856  3.58727602  3.07813003
C  -1.92369624  3.34524223  3.64877873
C  -1.88846931  1.96435182  4.15017011
C  -3.19896653  1.35302372  3.88938027
C  -4.04417957  2.35606728  3.22680112
H  -3.59742993  4.51178389  2.62673334
H  -1.10970912  4.05988918  3.69226122
H  -1.04393699  1.48148764  4.62845892
H  -3.49101899  0.33995910  4.14148795
H  -5.06920517  2.21284125  2.90431883
