      -----------------------------------------------------------      
     |                   =====================                   |     
     |                           x T B                           |     
     |                   =====================                   |     
     |                         S. Grimme                         |     
     |          Mulliken Center for Theoretical Chemistry        |     
     |                    University of Bonn                     |     
      -----------------------------------------------------------      

   * xtb version 6.5.1 (b24c23e) compiled by 'conda@728c89f4b128' on 2022-07-12

   xtb is free software: you can redistribute it and/or modify it under
   the terms of the GNU Lesser General Public License as published by
   the Free Software Foundation, either version 3 of the License, or
   (at your option) any later version.
   
   xtb is distributed in the hope that it will be useful,
   but WITHOUT ANY WARRANTY; without even the implied warranty of
   MERCHANTABILITY or FITNESS FOR A PARTICULAR PURPOSE.  See the
   GNU Lesser General Public License for more details.
   
   Cite this work as:
   * C. Bannwarth, E. Caldeweyher, S. Ehlert, A. Hansen, P. Pracht,
     J. Seibert, S. Spicher, S. Grimme, WIREs Comput. Mol. Sci., 2020, 11,
     e01493. DOI: 10.1002/wcms.1493
   
   for GFN2-xTB:
   * C. Bannwarth, S. Ehlert and S. Grimme., J. Chem. Theory Comput., 2019,
     15, 1652-1671. DOI: 10.1021/acs.jctc.8b01176
   for GFN1-xTB:
   * S. Grimme, C. Bannwarth, P. Shushkov, J. Chem. Theory Comput., 2017,
     13, 1989-2009. DOI: 10.1021/acs.jctc.7b00118
   for GFN0-xTB:
   * P. Pracht, E. Caldeweyher, S. Ehlert, S. Grimme, ChemRxiv, 2019, preprint.
     DOI: 10.26434/chemrxiv.8326202.v1
   for GFN-FF:
   * S. Spicher and S. Grimme, Angew. Chem. Int. Ed., 2020, 59, 15665-15673.
     DOI: 10.1002/anie.202004239
   
   for ALPB and GBSA implicit solvation:
   * S. Ehlert, M. Stahn, S. Spicher, S. Grimme, J. Chem. Theory Comput.,
     2021, 17, 4250-4261. DOI: 10.1021/acs.jctc.1c00471
   
   for DFT-D4:
   * E. Caldeweyher, C. Bannwarth and S. Grimme, J. Chem. Phys., 2017,
     147, 034112. DOI: 10.1063/1.4993215
   * E. Caldeweyher, S. Ehlert, A. Hansen, H. Neugebauer, S. Spicher,
     C. Bannwarth and S. Grimme, J. Chem. Phys., 2019, 150, 154122.
     DOI: 10.1063/1.5090222
   * E. Caldeweyher, J.-M. Mewes, S. Ehlert and S. Grimme, Phys. Chem. Chem. Phys.
     2020, 22, 8499-8512. DOI: 10.1039/D0CP00502A
   
   for sTDA-xTB:
   * S. Grimme and C. Bannwarth, J. Chem. Phys., 2016, 145, 054103.
     DOI: 10.1063/1.4959605
   
   in the mass-spec context:
   * V. Asgeirsson, C. Bauer and S. Grimme, Chem. Sci., 2017, 8, 4879.
     DOI: 10.1039/c7sc00601b
   * J. Koopman and S. Grimme, ACS Omega 2019, 4, 12, 15120-15133.
     DOI: 10.1021/acsomega.9b02011
   
   for metadynamics refer to:
   * S. Grimme, J. Chem. Theory Comput., 2019, 155, 2847-2862
     DOI: 10.1021/acs.jctc.9b00143
   
   for SPH calculations refer to:
   * S. Spicher and S. Grimme, J. Chem. Theory Comput., 2021, 17, 1701-1714
     DOI: 10.1021/acs.jctc.0c01306
   
   with help from (in alphabetical order)
   P. Atkinson, C. Bannwarth, F. Bohle, G. Brandenburg, E. Caldeweyher
   M. Checinski, S. Dohm, S. Ehlert, S. Ehrlich, I. Gerasimov, C. Hölzer
   A. Katbashev, J. Koopman, C. Lavigne, S. Lehtola, F. März, M. Müller,
   F. Musil, H. Neugebauer, J. Pisarek, C. Plett, P. Pracht, F. Pultar,
   J. Seibert, P. Shushkov, S. Spicher, M. Stahn, M. Steiner, T. Strunk,
   J. Stückrath, T. Rose, and J. Unsleber
   
 * started run on 2026/07/30 at 00:23:19.512     

           -------------------------------------------------
          |                Calculation Setup                |
           -------------------------------------------------

          program call               : /h/332/chchoi/miniconda3/envs/el-agente/bin/xtb CpRu_sumanene_peripheral_concave_init.xyz --opt --gfn 2 -P 4 --chrg 1 --uhf 0 --input detailed_input.inp
          coordinate file            : CpRu_sumanene_peripheral_concave_init.xyz
          omp threads                :                     4

   ID    Z sym.   atoms
    1    6 C      1-21, 35-39
    2    1 H      22-33, 40-44
    3   44 Ru     34
constraining bond 34 2 to    2.2000000 Å, actual value:    2.1800591 Å
constraining bond 34 3 to    2.2000000 Å, actual value:    2.2032165 Å
constraining bond 34 4 to    2.2000000 Å, actual value:    2.2032164 Å
constraining bond 34 5 to    2.2000000 Å, actual value:    2.1800592 Å
constraining bond 34 20 to    2.2000000 Å, actual value:    2.2079191 Å
constraining bond 34 21 to    2.2000000 Å, actual value:    2.2079190 Å
constraining bond 34 35 to    2.2300000 Å, actual value:    2.2327843 Å
constraining bond 34 36 to    2.2300000 Å, actual value:    2.2327280 Å
constraining bond 34 37 to    2.2300000 Å, actual value:    2.2326554 Å
constraining bond 34 38 to    2.2300000 Å, actual value:    2.2326554 Å
constraining bond 34 39 to    2.2300000 Å, actual value:    2.2327280 Å

           -------------------------------------------------
          |                 G F N 2 - x T B                 |
           -------------------------------------------------

        Reference                      10.1021/acs.jctc.8b01176
      * Hamiltonian:
        H0-scaling (s, p, d)           1.850000    2.230000    2.230000
        zeta-weighting                 0.500000
      * Dispersion:
        s8                             2.700000
        a1                             0.520000
        a2                             5.000000
        s9                             5.000000
      * Repulsion:
        kExp                           1.500000    1.000000
        rExp                           1.000000
      * Coulomb:
        alpha                          2.000000
        third order                    shell-resolved
        anisotropic                    true
        a3                             3.000000
        a5                             4.000000
        cn-shift                       1.200000
        cn-exp                         4.000000
        max-rad                        5.000000


          ...................................................
          :                      SETUP                      :
          :.................................................:
          :  # basis functions                 131          :
          :  # atomic orbitals                 130          :
          :  # shells                           72          :
          :  # electrons                       128          :
          :  max. iterations                   250          :
          :  Hamiltonian                  GFN2-xTB          :
          :  restarted?                      false          :
          :  GBSA solvation                  false          :
          :  PC potential                    false          :
          :  electronic temp.          300.0000000     K    :
          :  accuracy                    1.0000000          :
          :  -> integral cutoff          0.2500000E+02      :
          :  -> integral neglect         0.1000000E-07      :
          :  -> SCF convergence          0.1000000E-05 Eh   :
          :  -> wf. convergence          0.1000000E-03 e    :
          :  Broyden damping             0.4000000          :
          ...................................................

 iter      E             dE          RMSdq      gap      omega  full diag
   1    -66.4422550 -0.664423E+02  0.936E+00    1.23       0.0  T
   2    -59.5162646  0.692599E+01  0.124E+01    0.33       1.0  T
   3    -64.0777388 -0.456147E+01  0.733E+00    0.58       1.0  T
   4    -67.8167737 -0.373903E+01  0.343E+00    1.65       1.0  T
   5    -68.0602993 -0.243526E+00  0.234E+00    0.70       1.0  T
   6    -68.2308245 -0.170525E+00  0.117E+00    1.19       1.0  T
   7    -68.2597649 -0.289404E-01  0.841E-01    1.68       1.0  T
   8    -68.2884660 -0.287011E-01  0.423E-01    1.93       1.0  T
   9    -68.2941036 -0.563766E-02  0.251E-01    1.98       1.0  T
  10    -68.2959817 -0.187808E-02  0.172E-01    2.00       1.0  T
  11    -68.2962567 -0.274952E-03  0.702E-02    1.99       1.0  T
  12    -68.2963423 -0.855763E-04  0.379E-02    1.99       1.0  T
  13    -68.2963813 -0.390964E-04  0.138E-02    1.99       1.1  T
  14    -68.2963842 -0.281012E-05  0.726E-03    1.99       2.1  T
  15    -68.2963846 -0.449894E-06  0.401E-03    1.99       3.8  T
  16    -68.2963850 -0.409503E-06  0.175E-03    1.99       8.6  T
  17    -68.2963852 -0.165053E-06  0.694E-04    1.99      21.7  T
  18    -68.2963852 -0.190554E-07  0.299E-04    1.99      50.5  T

   *** convergence criteria satisfied after 18 iterations ***

         #    Occupation            Energy/Eh            Energy/eV
      -------------------------------------------------------------
         1        2.0000           -0.8501727             -23.1344
       ...           ...                  ...                  ...
        58        2.0000           -0.5347475             -14.5512
        59        2.0000           -0.5277066             -14.3596
        60        2.0000           -0.5096253             -13.8676
        61        2.0000           -0.5063358             -13.7781
        62        2.0000           -0.4905256             -13.3479
        63        2.0000           -0.4878297             -13.2745
        64        2.0000           -0.4842307             -13.1766 (HOMO)
        65                         -0.4111859             -11.1889 (LUMO)
        66                         -0.4012328             -10.9181
        67                         -0.3884297             -10.5697
        68                         -0.3810703             -10.3695
        69                         -0.3704289             -10.0799
       ...                                ...                  ...
       130                          4.0659381             110.6398
      -------------------------------------------------------------
                  HL-Gap            0.0730448 Eh            1.9876 eV
             Fermi-level           -0.4477083 Eh          -12.1828 eV

 SCC (total)                   0 d,  0 h,  0 min,  1.989 sec
 SCC setup                      ...        0 min,  0.003 sec (  0.143%)
 Dispersion                     ...        0 min,  0.013 sec (  0.641%)
 classical contributions        ...        0 min,  0.004 sec (  0.183%)
 integral evaluation            ...        0 min,  0.056 sec (  2.836%)
 iterations                     ...        0 min,  1.796 sec ( 90.296%)
 molecular gradient             ...        0 min,  0.113 sec (  5.689%)
 printout                       ...        0 min,  0.004 sec (  0.209%)

         :::::::::::::::::::::::::::::::::::::::::::::::::::::
         ::                     SUMMARY                     ::
         :::::::::::::::::::::::::::::::::::::::::::::::::::::
         :: total energy             -67.118995232485 Eh    ::
         :: gradient norm              0.208470255749 Eh/a0 ::
         :: HOMO-LUMO gap              1.987648964341 eV    ::
         ::.................................................::
         :: SCC energy               -68.296385201108 Eh    ::
         :: -> isotropic ES            0.058660987397 Eh    ::
         :: -> anisotropic ES         -0.009922698284 Eh    ::
         :: -> anisotropic XC          0.035977659244 Eh    ::
         :: -> dispersion             -0.074185372333 Eh    ::
         :: repulsion energy           1.171489362329 Eh    ::
         :: add. restraining           0.003492955790 Eh    ::
         :: total charge               1.000000000000 e     ::
         :::::::::::::::::::::::::::::::::::::::::::::::::::::

      ----------------------------------------------------------- 
     |                   =====================                   |
     |                        A N C O P T                        |
     |                   =====================                   |
     |               Approximate Normal Coordinate               |
     |                Rational Function Optimizer                |
      ----------------------------------------------------------- 

          ...................................................
          :                      SETUP                      :
          :.................................................:
          :   optimization level            normal          :
          :   max. optcycles                   200          :
          :   ANC micro-cycles                  20          :
          :   degrees of freedom               126          :
          :.................................................:
          :   RF solver                   davidson          :
          :   write xtbopt.log                true          :
          :   linear?                        false          :
          :   energy convergence         0.5000000E-05 Eh   :
          :   grad. convergence          0.1000000E-02 Eh/α :
          :   maximium RF displ.         1.0000000          :
          :   Hlow (freq-cutoff)         0.1000000E-01      :
          :   Hmax (freq-cutoff)         5.0000000          :
          :   S6 in model hess.         20.0000000          :
          ...................................................

generating ANC from model Hessian ...
Using Lindh-Hessian (1995)
 Shifting diagonal of input Hessian by    9.1342407519478443E-003
 Lowest  eigenvalues of input Hessian
    0.000000    0.000000    0.000000    0.000000    0.000000    0.000000
    0.010000    0.010624    0.010767    0.012904    0.013111    0.016005
    0.018155    0.022255    0.023387    0.023632    0.025523    0.028710
 Highest eigenvalues
    2.744577    2.774001    2.833844    6.273533    6.519522   16.746468


........................................................................
.............................. CYCLE    1 ..............................
........................................................................
   1    -68.2963852 -0.682964E+02  0.128E-04    1.99       0.0  T
   2    -68.2963852  0.128196E-09  0.152E-04    1.99      99.2  T
   3    -68.2963852 -0.478749E-09  0.669E-05    1.99     225.4  T
     SCC iter.                  ...        0 min,  0.172 sec
     gradient                   ...        0 min,  0.054 sec
 * total energy  :   -67.1189952 Eh     change       -0.3483152E-08 Eh
   gradient norm :     0.2084702 Eh/α   predicted     0.0000000E+00 (-100.00%)
   displ. norm   :     0.4143444 α      lambda       -0.3442876E-01
   maximum displ.:     0.1782254 α      in ANC's #56, #11, #2, ...

........................................................................
.............................. CYCLE    2 ..............................
........................................................................
   1    -68.3118111 -0.683118E+02  0.292E-01    2.02       0.0  T
   2    -68.3115806  0.230457E-03  0.235E-01    2.02       1.0  T
   3    -68.3112961  0.284504E-03  0.191E-01    2.00       1.0  T
   4    -68.3106254  0.670690E-03  0.147E-01    2.04       1.0  T
   5    -68.3119265 -0.130104E-02  0.486E-02    2.01       1.0  T
   6    -68.3119965 -0.700756E-04  0.909E-03    2.01       1.7  T
   7    -68.3119964  0.134977E-06  0.746E-03    2.01       2.0  T
   8    -68.3119973 -0.880715E-06  0.291E-03    2.01       5.2  T
   9    -68.3119973 -0.561517E-07  0.126E-03    2.01      11.9  T
  10    -68.3119974 -0.116234E-07  0.498E-04    2.01      30.3  T
  11    -68.3119974 -0.418828E-08  0.130E-04    2.01     116.1  T
     SCC iter.                  ...        0 min,  0.601 sec
     gradient                   ...        0 min,  0.114 sec
 * total energy  :   -67.1372596 Eh     change       -0.1826432E-01 Eh
   gradient norm :     0.3031531 Eh/α   predicted    -0.2018228E-01 (  10.50%)
   displ. norm   :     0.4136387 α      lambda       -0.2183197E-01
   maximum displ.:     0.1774049 α      in ANC's #11, #7, #2, ...

........................................................................
.............................. CYCLE    3 ..............................
........................................................................
   1    -68.3187882 -0.683188E+02  0.223E-01    2.01       0.0  T
   2    -68.3174371  0.135114E-02  0.225E-01    2.05       1.0  T
   3    -68.3183631 -0.926046E-03  0.156E-01    2.01       1.0  T
   4    -68.3188838 -0.520700E-03  0.933E-02    2.03       1.0  T
   5    -68.3191275 -0.243647E-03  0.290E-02    2.02       1.0  T
   6    -68.3191404 -0.129145E-04  0.422E-03    2.02       3.6  T
   7    -68.3191404 -0.406077E-07  0.219E-03    2.02       6.9  T
   8    -68.3191404 -0.230197E-07  0.948E-04    2.02      15.9  T
   9    -68.3191405 -0.168806E-07  0.426E-04    2.02      35.4  T
     SCC iter.                  ...        0 min,  0.610 sec
     gradient                   ...        0 min,  0.140 sec
 * total energy  :   -67.1372625 Eh     change       -0.2985366E-05 Eh
   gradient norm :     0.4034374 Eh/α   predicted    -0.1278371E-01 (*******%)
   displ. norm   :     0.2062989 α      lambda       -0.1476523E-01
   maximum displ.:     0.0976125 α      in ANC's #2, #7, #56, ...

........................................................................
.............................. CYCLE    4 ..............................
........................................................................
   1    -68.3149680 -0.683150E+02  0.169E-01    2.02       0.0  T
   2    -68.3148820  0.860196E-04  0.163E-01    2.01       1.0  T
   3    -68.3149611 -0.790365E-04  0.563E-02    2.02       1.0  T
   4    -68.3148529  0.108110E-03  0.566E-02    2.01       1.0  T
   5    -68.3149979 -0.144954E-03  0.260E-02    2.02       1.0  T
   6    -68.3150168 -0.188650E-04  0.195E-03    2.02       7.7  T
   7    -68.3150168 -0.400123E-07  0.108E-03    2.02      13.9  T
   8    -68.3150168 -0.275449E-08  0.596E-04    2.02      25.3  T
   9    -68.3150168 -0.332142E-08  0.299E-04    2.02      50.4  T
     SCC iter.                  ...        0 min,  0.483 sec
     gradient                   ...        0 min,  0.047 sec
 * total energy  :   -67.1453637 Eh     change       -0.8101170E-02 Eh
   gradient norm :     0.0126703 Eh/α   predicted    -0.7696832E-02 (  -4.99%)
   displ. norm   :     0.3625349 α      lambda       -0.2021305E-02
   maximum displ.:     0.2125009 α      in ANC's #2, #7, #1, ...

........................................................................
.............................. CYCLE    5 ..............................
........................................................................
   1    -68.3170171 -0.683170E+02  0.162E-01    2.02       0.0  T
   2    -68.3169879  0.291575E-04  0.186E-01    2.01       1.0  T
   3    -68.3170625 -0.745579E-04  0.447E-02    2.01       1.0  T
   4    -68.3170602  0.225243E-05  0.200E-02    2.02       1.0  T
   5    -68.3170606 -0.352801E-06  0.770E-03    2.01       2.0  T
   6    -68.3170637 -0.315724E-05  0.185E-03    2.01       8.1  T
   7    -68.3170637  0.312513E-07  0.148E-03    2.01      10.2  T
   8    -68.3170638 -0.687350E-07  0.784E-04    2.01      19.2  T
   9    -68.3170638 -0.490276E-08  0.290E-04    2.01      52.0  T
     SCC iter.                  ...        0 min,  0.879 sec
     gradient                   ...        0 min,  0.093 sec
 * total energy  :   -67.1470046 Eh     change       -0.1640902E-02 Eh
   gradient norm :     0.0192239 Eh/α   predicted    -0.1143484E-02 ( -30.31%)
   displ. norm   :     0.5048045 α      lambda       -0.1923573E-02
   maximum displ.:     0.2830077 α      in ANC's #2, #7, #1, ...

........................................................................
.............................. CYCLE    6 ..............................
........................................................................
   1    -68.3190385 -0.683190E+02  0.209E-01    2.02       0.0  T
   2    -68.3189867  0.517067E-04  0.238E-01    2.01       1.0  T
   3    -68.3191218 -0.135008E-03  0.632E-02    2.02       1.0  T
   4    -68.3191107  0.110254E-04  0.241E-02    2.02       1.0  T
   5    -68.3191089  0.180879E-05  0.169E-02    2.01       1.0  T
   6    -68.3191242 -0.152673E-04  0.339E-03    2.02       4.4  T
   7    -68.3191243 -0.685828E-07  0.234E-03    2.02       6.4  T
   8    -68.3191244 -0.116803E-06  0.105E-03    2.02      14.4  T
   9    -68.3191244 -0.575128E-08  0.413E-04    2.02      36.5  T
  10    -68.3191244 -0.255761E-08  0.180E-04    2.02      84.0  T
     SCC iter.                  ...        0 min,  0.695 sec
     gradient                   ...        0 min,  0.076 sec
 * total energy  :   -67.1483811 Eh     change       -0.1376479E-02 Eh
   gradient norm :     0.0135791 Eh/α   predicted    -0.1206875E-02 ( -12.32%)
   displ. norm   :     0.3699253 α      lambda       -0.7084298E-03
   maximum displ.:     0.2195282 α      in ANC's #2, #7, #1, ...

........................................................................
.............................. CYCLE    7 ..............................
........................................................................
   1    -68.3201606 -0.683202E+02  0.154E-01    2.02       0.0  T
   2    -68.3201291  0.315102E-04  0.179E-01    2.01       1.0  T
   3    -68.3202085 -0.794562E-04  0.461E-02    2.02       1.0  T
   4    -68.3202048  0.371314E-05  0.127E-02    2.02       1.2  T
   5    -68.3202070 -0.223444E-05  0.801E-03    2.02       1.9  T
   6    -68.3202094 -0.233136E-05  0.286E-03    2.02       5.3  T
   7    -68.3202096 -0.189957E-06  0.159E-03    2.02       9.5  T
   8    -68.3202096 -0.275044E-07  0.726E-04    2.02      20.8  T
   9    -68.3202096 -0.286683E-08  0.255E-04    2.02      59.2  T
     SCC iter.                  ...        0 min,  0.681 sec
     gradient                   ...        0 min,  0.064 sec
 * total energy  :   -67.1488614 Eh     change       -0.4802956E-03 Eh
   gradient norm :     0.0060824 Eh/α   predicted    -0.4026886E-03 ( -16.16%)
   displ. norm   :     0.2135963 α      lambda       -0.2006132E-03
   maximum displ.:     0.1339535 α      in ANC's #2, #7, #1, ...

........................................................................
.............................. CYCLE    8 ..............................
........................................................................
   1    -68.3213805 -0.683214E+02  0.932E-02    2.02       0.0  T
   2    -68.3213681  0.123290E-04  0.108E-01    2.02       1.0  T
   3    -68.3213968 -0.287102E-04  0.289E-02    2.02       1.0  T
   4    -68.3213885  0.834213E-05  0.127E-02    2.02       1.2  T
   5    -68.3213953 -0.681303E-05  0.628E-03    2.02       2.4  T
   6    -68.3213974 -0.208102E-05  0.230E-03    2.02       6.6  T
   7    -68.3213975 -0.100765E-06  0.104E-03    2.02      14.4  T
   8    -68.3213975 -0.936252E-08  0.388E-04    2.02      38.9  T
   9    -68.3213975 -0.408647E-09  0.143E-04    2.02     105.5  T
     SCC iter.                  ...        0 min,  0.520 sec
     gradient                   ...        0 min,  0.035 sec
 * total energy  :   -67.1489963 Eh     change       -0.1349477E-03 Eh
   gradient norm :     0.0031541 Eh/α   predicted    -0.1048837E-03 ( -22.28%)
   displ. norm   :     0.1150223 α      lambda       -0.6014143E-04
   maximum displ.:     0.0756223 α      in ANC's #2, #1, #3, ...

........................................................................
.............................. CYCLE    9 ..............................
........................................................................
   1    -68.3219905 -0.683220E+02  0.530E-02    2.02       0.0  T
   2    -68.3219863  0.416647E-05  0.611E-02    2.02       1.0  T
   3    -68.3219952 -0.888449E-05  0.165E-02    2.02       1.0  T
   4    -68.3219906  0.460713E-05  0.914E-03    2.02       1.6  T
   5    -68.3219953 -0.470268E-05  0.216E-03    2.02       7.0  T
   6    -68.3219954 -0.165764E-06  0.109E-03    2.02      13.8  T
   7    -68.3219955 -0.182313E-07  0.462E-04    2.02      32.6  T
   8    -68.3219955 -0.144520E-08  0.160E-04    2.02      94.1  T
     SCC iter.                  ...        0 min,  0.610 sec
     gradient                   ...        0 min,  0.028 sec
 * total energy  :   -67.1490379 Eh     change       -0.4153451E-04 Eh
   gradient norm :     0.0025078 Eh/α   predicted    -0.3047079E-04 ( -26.64%)
   displ. norm   :     0.0718790 α      lambda       -0.2591928E-04
   maximum displ.:     0.0461623 α      in ANC's #2, #3, #1, ...

........................................................................
.............................. CYCLE   10 ..............................
........................................................................
   1    -68.3221303 -0.683221E+02  0.324E-02    2.02       0.0  T
   2    -68.3221288  0.144117E-05  0.369E-02    2.02       1.0  T
   3    -68.3221318 -0.298235E-05  0.102E-02    2.02       1.5  T
   4    -68.3221304  0.142458E-05  0.527E-03    2.02       2.9  T
   5    -68.3221318 -0.144678E-05  0.144E-03    2.02      10.4  T
   6    -68.3221319 -0.718259E-07  0.354E-04    2.02      42.6  T
   7    -68.3221319 -0.273275E-08  0.186E-04    2.02      81.2  T
     SCC iter.                  ...        0 min,  0.547 sec
     gradient                   ...        0 min,  0.061 sec
 * total energy  :   -67.1490562 Eh     change       -0.1832875E-04 Eh
   gradient norm :     0.0014108 Eh/α   predicted    -0.1303886E-04 ( -28.86%)
   displ. norm   :     0.0773666 α      lambda       -0.1410145E-04
   maximum displ.:     0.0451174 α      in ANC's #2, #4, #3, ...

........................................................................
.............................. CYCLE   11 ..............................
........................................................................
   1    -68.3218872 -0.683219E+02  0.294E-02    2.02       0.0  T
   2    -68.3218863  0.983399E-06  0.334E-02    2.02       1.0  T
   3    -68.3218885 -0.220594E-05  0.910E-03    2.02       1.7  T
   4    -68.3218883  0.115216E-06  0.267E-03    2.02       5.7  T
   5    -68.3218884 -0.658348E-07  0.125E-03    2.02      12.0  T
   6    -68.3218885 -0.887453E-07  0.228E-04    2.02      66.2  T
   7    -68.3218885 -0.139418E-08  0.111E-04    2.02     136.4  T
     SCC iter.                  ...        0 min,  0.461 sec
     gradient                   ...        0 min,  0.139 sec
 * total energy  :   -67.1490673 Eh     change       -0.1112495E-04 Eh
   gradient norm :     0.0013614 Eh/α   predicted    -0.7069833E-05 ( -36.45%)
   displ. norm   :     0.0225546 α      lambda       -0.3761954E-05
   maximum displ.:     0.0135796 α      in ANC's #4, #7, #5, ...

........................................................................
.............................. CYCLE   12 ..............................
........................................................................
   1    -68.3217819 -0.683218E+02  0.672E-03    2.02       0.0  T
   2    -68.3217819  0.399294E-08  0.406E-03    2.02       3.7  T
   3    -68.3217815  0.454318E-06  0.423E-03    2.02       3.6  T
   4    -68.3217818 -0.321540E-06  0.178E-03    2.02       8.5  T
   5    -68.3217820 -0.175034E-06  0.437E-04    2.02      34.5  T
   6    -68.3217820 -0.651981E-08  0.161E-04    2.02      93.4  T
     SCC iter.                  ...        0 min,  0.429 sec
     gradient                   ...        0 min,  0.136 sec
 * total energy  :   -67.1490713 Eh     change       -0.3981999E-05 Eh
   gradient norm :     0.0016744 Eh/α   predicted    -0.1892297E-05 ( -52.48%)
   displ. norm   :     0.0321820 α      lambda       -0.3574285E-05
   maximum displ.:     0.0162163 α      in ANC's #7, #4, #2, ...

........................................................................
.............................. CYCLE   13 ..............................
........................................................................
   1    -68.3216551 -0.683217E+02  0.106E-02    2.02       0.0  T
   2    -68.3216550  0.405091E-07  0.674E-03    2.02       2.2  T
   3    -68.3216542  0.822034E-06  0.636E-03    2.02       2.4  T
   4    -68.3216544 -0.179174E-06  0.356E-03    2.02       4.2  T
   5    -68.3216551 -0.767447E-06  0.366E-04    2.02      41.2  T
   6    -68.3216551 -0.518668E-09  0.217E-04    2.02      69.5  T
     SCC iter.                  ...        0 min,  0.405 sec
     gradient                   ...        0 min,  0.144 sec
 * total energy  :   -67.1490731 Eh     change       -0.1758426E-05 Eh
   gradient norm :     0.0032199 Eh/α   predicted    -0.1790327E-05 (   1.81%)
   displ. norm   :     0.0072818 α      lambda       -0.1450375E-05
   maximum displ.:     0.0057029 α      in ANC's #2, #7, #6, ...

........................................................................
.............................. CYCLE   14 ..............................
........................................................................
   1    -68.3217284 -0.683217E+02  0.302E-03    2.02       0.0  T
   2    -68.3217284  0.276590E-07  0.342E-03    2.02       4.4  T
   3    -68.3217284 -0.421828E-07  0.996E-04    2.02      15.1  T
   4    -68.3217284  0.901143E-07  0.127E-03    2.02      11.8  T
   5    -68.3217285 -0.960309E-07  0.232E-04    2.02      65.0  T
     SCC iter.                  ...        0 min,  0.204 sec
     gradient                   ...        0 min,  0.080 sec
 * total energy  :   -67.1490741 Eh     change       -0.1000504E-05 Eh
   gradient norm :     0.0007113 Eh/α   predicted    -0.7266320E-06 ( -27.37%)
   displ. norm   :     0.0151719 α      lambda       -0.7441964E-06
   maximum displ.:     0.0130031 α      in ANC's #2, #7, #3, ...

   *** GEOMETRY OPTIMIZATION CONVERGED AFTER 14 ITERATIONS ***

------------------------------------------------------------------------
 total energy gain   :        -0.0300788 Eh      -18.8748 kcal/mol
 total RMSD          :         0.3542988 a0        0.1875 Å
 total power (kW/mol):        -5.6408553 (step)   -8.1635 (real)
------------------------------------------------------------------------

 ANCopt (total)                0 d,  0 h,  0 min,  9.674 sec
 optimizer setup                ...        0 min,  0.001 sec (  0.007%)
 model hessian                  ...        0 min,  0.084 sec (  0.865%)
 ANC generation                 ...        0 min,  0.021 sec (  0.214%)
 coordinate transformation      ...        0 min,  0.039 sec (  0.402%)
 single point calculation       ...        0 min,  9.377 sec ( 96.928%)
 optimization log               ...        0 min,  0.003 sec (  0.028%)
 hessian update                 ...        0 min,  0.123 sec (  1.270%)
 rational function              ...        0 min,  0.020 sec (  0.202%)

================
 final structure:
================
44
 xtb: 6.5.1 (b24c23e)
C           -3.04090194460420       -1.25685703994841        0.29094866223877
C           -2.60608674408557        0.21561807329395        0.38082615367463
C           -1.29206702228396        0.19956082608477        0.89838538455459
C           -0.41994572059218        1.28272692941022        0.83294545239520
C           -0.74822549212242        2.52236801331250        0.24122106198296
C            0.58848779271647        3.24924752580709        0.01682689041465
C            1.63078744327593        2.13060223893112        0.19766538550748
C            0.98780134976148        1.07187512679741        0.83839437673108
C            1.47285699933916       -0.22066874801167        0.84461870710679
C            2.64155772090819       -0.57120974873688        0.17018459314836
C            2.58869590349351       -2.08637437049231       -0.04371616554765
C            1.13560235185457       -2.44255576288997        0.28281234404240
C            0.58144059415854       -1.32817196007930        0.91149107932967
C           -0.78327571838862       -1.12807436533334        0.96984690703371
C           -1.71437110155028       -2.02350896342845        0.44389374469821
C           -1.17683175489223       -3.21101046919816       -0.03919576191641
C            0.22259164084006       -3.41199297131505       -0.12070025635912
C            3.36834049357076        0.49408538840575       -0.35192216244651
C            2.87725576378680        1.82225165637745       -0.33561722976572
C           -2.12055747823094        2.63371811184620       -0.13480639226950
C           -3.03160104922455        1.50253018941879       -0.06626105159624
H           -3.71932299245014       -1.50310740091229        1.11307715797050
H           -3.55415380598407       -1.48804769565310       -0.64284601029156
H            0.64979389134633        3.72201708716592       -0.96399234252403
H            0.72949672340713        4.02837699012453        0.77156219622119
H            3.27715993081301       -2.59970241284065        0.63156639317587
H            2.85861522518997       -2.36406070965556       -1.06252406230278
H           -1.81436545544623       -3.96717693012217       -0.47253279281740
H            0.56302446597344       -4.30868042838457       -0.61805840993997
H            4.28740897588331        0.31544965436362       -0.89104068050539
H            3.45302269052069        2.57274458886781       -0.85664923608147
H           -2.51789608072800        3.56457110125304       -0.52922111674776
H           -4.04784950243334        1.66508308323901       -0.41375686059717
Ru          -1.22913343595844        0.91769081381439       -1.18371723673440
C           -0.33071328695196        1.51456266203695       -3.13540980907629
C           -1.63355691448930        0.99245045808904       -3.37536078902562
C           -1.64218049995078       -0.36855375543171       -2.95787298605770
C           -0.34898474757025       -0.68399388079542       -2.46206710012240
C            0.46054392465746        0.47775839319438       -2.57131248560471
H            0.02598927987581        2.48497706405343       -3.45220718531390
H           -2.43245837702587        1.50001808846369       -3.89963714938724
H           -2.44794018389944       -1.07115182596162       -3.11898267145747
H           -0.00783374429053       -1.66723639403292       -2.17346690885820
H            1.52254646178030        0.52690608887207       -2.38019880688150

 Bond Distances (Angstroems)
 ---------------------------
C1-C2=1.5380         C1-C15=1.5398        C1-H22=1.0940        C1-H23=1.0903        C2-C1=1.5380         C2-C3=1.4124         
C2-C21=1.4273        C2-Ru34=2.1993       C3-C2=1.4124         C3-C4=1.3922         C3-C14=1.4236        C3-Ru34=2.2034       
C4-C3=1.3922         C4-C5=1.4123         C4-C8=1.4235         C4-Ru34=2.2034       C5-C4=1.4123         C5-C6=1.5380         
C5-C20=1.4273        C5-Ru34=2.1993       C6-C5=1.5380         C6-C7=1.5396         C6-H24=1.0905        C6-H25=1.0939        
C7-C6=1.5396         C7-C8=1.3946         C7-C19=1.3904        C8-C4=1.4235         C8-C7=1.3946         C8-C9=1.3806         
C9-C8=1.3806         C9-C10=1.3941        C9-C13=1.4233        C10-C9=1.3941        C10-C11=1.5311       C10-C18=1.3913       
C11-C10=1.5311       C11-C12=1.5313       C11-H26=1.0925       C11-H27=1.0899       C12-C11=1.5313       C12-C13=1.3943       
C12-C17=1.3915       C13-C9=1.4233        C13-C12=1.3943       C13-C14=1.3805       C14-C3=1.4236        C14-C13=1.3805       
C14-C15=1.3948       C15-C1=1.5398        C15-C14=1.3948       C15-C16=1.3901       C16-C15=1.3901       C16-C17=1.4161       
C16-H28=1.0798       C17-C12=1.3915       C17-C16=1.4161       C17-H29=1.0804       C18-C10=1.3913       C18-C19=1.4161       
C18-H30=1.0804       C19-C7=1.3904        C19-C18=1.4161       C19-H31=1.0799       C20-C5=1.4273        C20-C21=1.4541       
C20-H32=1.0862       C20-Ru34=2.1999      C21-C2=1.4273        C21-C20=1.4541       C21-H33=1.0862       C21-Ru34=2.1999      
H22-C1=1.0940        H23-C1=1.0903        H24-C6=1.0905        H25-C6=1.0939        H26-C11=1.0925       H27-C11=1.0899       
H28-C16=1.0798       H29-C17=1.0804       H30-C18=1.0804       H31-C19=1.0799       H32-C20=1.0862       H33-C21=1.0862       
Ru34-C2=2.1993       Ru34-C3=2.2034       Ru34-C4=2.2034       Ru34-C5=2.1993       Ru34-C20=2.1999      Ru34-C21=2.1999      
Ru34-C35=2.2299      Ru34-C36=2.2299      Ru34-C37=2.2299      Ru34-C38=2.2303      Ru34-C39=2.2302      C35-Ru34=2.2299      
C35-C36=1.4239       C35-C39=1.4210       C35-H40=1.0813       C36-Ru34=2.2299      C36-C35=1.4239       C36-C37=1.4236       
C36-H41=1.0820       C37-Ru34=2.2299      C37-C36=1.4236       C37-C38=1.4205       C37-H42=1.0811       C38-Ru34=2.2303      
C38-C37=1.4205       C38-C39=1.4202       C38-H43=1.0800       C39-Ru34=2.2302      C39-C35=1.4210       C39-C38=1.4202       
C39-H44=1.0802       H40-C35=1.0813       H41-C36=1.0820       H42-C37=1.0811       H43-C38=1.0800       H44-C39=1.0802       
 C  H  Rav=1.0852 sigma=0.0053  Rmin=1.0798  Rmax=1.0940    17
 C  C  Rav=1.4330 sigma=0.0522  Rmin=1.3805  Rmax=1.5398    32
 Ru C  Rav=2.2141 sigma=0.0146  Rmin=2.1993  Rmax=2.2303    11

 selected bond angles (degree)
 --------------------
C15-C1-C2=103.14               H22-C1-C2=110.30               H22-C1-C15=110.34              H23-C1-C2=112.71               
H23-C1-C15=112.65              H23-C1-H22=107.70              C3-C2-C1=105.88                C21-C2-C1=139.52               
C21-C2-C3=113.73               Ru34-C2-C1=116.17              Ru34-C2-C3= 71.45              Ru34-C2-C21= 71.09             
C4-C3-C2=123.83                C14-C3-C2=111.19               C14-C3-C4=120.27               Ru34-C3-C2= 71.13              
Ru34-C3-C4= 71.59              Ru34-C3-C14=109.95             C5-C4-C3=123.85                C8-C4-C3=120.27                
C8-C4-C5=111.19                Ru34-C4-C3= 71.58              Ru34-C4-C5= 71.13              Ru34-C4-C8=110.01              
C6-C5-C4=105.90                C20-C5-C4=113.73               C20-C5-C6=139.50               Ru34-C5-C4= 71.45              
Ru34-C5-C6=116.13              Ru34-C5-C20= 71.09             C7-C6-C5=103.17                H24-C6-C5=112.64               
H24-C6-C7=112.49               H25-C6-C5=110.36               H25-C6-C7=110.44               H25-C6-H24=107.73              
C8-C7-C6=107.06                C19-C7-C6=136.30               C19-C7-C8=114.91               C7-C8-C4=109.98                
C9-C8-C4=119.09                C9-C8-C7=123.42                C10-C9-C8=121.85               C13-C9-C8=120.58               
C13-C9-C10=110.62              C11-C10-C9=106.71              C18-C10-C9=115.27              C18-C10-C11=136.33             

 selected dihedral angles (degree)
 ---------------------------------
C3-C2-C1-C15=345.25           C3-C2-C1-H22=103.08           C3-C2-C1-H23=223.49           C21-C2-C1-C15=153.15          
C21-C2-C1-H22=270.98          C21-C2-C1-H23= 31.39          Ru34-C2-C1-C15= 62.02         Ru34-C2-C1-H22=179.85         
Ru34-C2-C1-H23=300.26         C4-C3-C2-C1=163.72            C4-C3-C2-C21=352.27           C4-C3-C2-Ru34= 50.88          
C14-C3-C2-C1=  8.12           C14-C3-C2-C21=196.67          C14-C3-C2-Ru34=255.27         Ru34-C3-C2-C1=112.85          
Ru34-C3-C2-C21=301.39         C5-C4-C3-C2=  0.00            C5-C4-C3-C14=153.50           C5-C4-C3-Ru34= 50.67          
C8-C4-C3-C2=206.41            C8-C4-C3-C14=359.93           C8-C4-C3-Ru34=257.10          Ru34-C4-C3-C2=309.31          
Ru34-C4-C3-C14=102.83         C6-C5-C4-C3=196.35            C6-C5-C4-C8=352.00            C6-C5-C4-Ru34=247.21          
C20-C5-C4-C3=  7.75           C20-C5-C4-C8=163.40           C20-C5-C4-Ru34= 58.61         Ru34-C5-C4-C3=309.14          
Ru34-C5-C4-C8=104.79          C7-C6-C5-C4= 14.47            C7-C6-C5-C20=206.64           C7-C6-C5-Ru34=297.70          
H24-C6-C5-C4=136.03           H24-C6-C5-C20=328.19          H24-C6-C5-Ru34= 59.25         H25-C6-C5-C4=256.48           
H25-C6-C5-C20= 88.64          H25-C6-C5-Ru34=179.70         C8-C7-C6-C5=343.69            C8-C7-C6-H24=222.04           
C8-C7-C6-H25=101.64           C19-C7-C6-C5=147.22           C19-C7-C6-H24= 25.57          C19-C7-C6-H25=265.16          
C7-C8-C4-C3=153.89            C7-C8-C4-C5=357.25            C7-C8-C4-Ru34= 74.07          C9-C8-C4-C3=  3.07            
C9-C8-C4-C5=206.43            C9-C8-C4-Ru34=283.26          C4-C8-C7-C6= 12.28            C4-C8-C7-C19=204.75           
C9-C8-C7-C6=161.58            C9-C8-C7-C19=354.05           C10-C9-C8-C4=144.98           C10-C9-C8-C7=358.28           
C13-C9-C8-C4=356.92           C13-C9-C8-C7=210.22           C11-C10-C9-C8=200.50          C11-C10-C9-C13=351.38         
C18-C10-C9-C8=  8.15          C18-C10-C9-C13=159.03         
           -------------------------------------------------
          |                Final Singlepoint                |
           -------------------------------------------------

          ...................................................
          :                      SETUP                      :
          :.................................................:
          :  # basis functions                 131          :
          :  # atomic orbitals                 130          :
          :  # shells                           72          :
          :  # electrons                       128          :
          :  max. iterations                   250          :
          :  Hamiltonian                  GFN2-xTB          :
          :  restarted?                      false          :
          :  GBSA solvation                  false          :
          :  PC potential                    false          :
          :  electronic temp.          300.0000000     K    :
          :  accuracy                    1.0000000          :
          :  -> integral cutoff          0.2500000E+02      :
          :  -> integral neglect         0.1000000E-07      :
          :  -> SCF convergence          0.1000000E-05 Eh   :
          :  -> wf. convergence          0.1000000E-03 e    :
          :  Broyden damping             0.4000000          :
          ...................................................

 iter      E             dE          RMSdq      gap      omega  full diag
   1    -68.3217285 -0.683217E+02  0.742E-05    2.02       0.0  T
   2    -68.3217285  0.629825E-10  0.668E-05    2.02     225.5  T
   3    -68.3217285 -0.908642E-10  0.408E-05    2.02     369.4  T

   *** convergence criteria satisfied after 3 iterations ***

         #    Occupation            Energy/Eh            Energy/eV
      -------------------------------------------------------------
         1        2.0000           -0.8441313             -22.9700
       ...           ...                  ...                  ...
        58        2.0000           -0.5353956             -14.5689
        59        2.0000           -0.5260742             -14.3152
        60        2.0000           -0.5057138             -13.7612
        61        2.0000           -0.5034215             -13.6988
        62        2.0000           -0.4914431             -13.3728
        63        2.0000           -0.4876596             -13.2699
        64        2.0000           -0.4847381             -13.1904 (HOMO)
        65                         -0.4105066             -11.1705 (LUMO)
        66                         -0.4025390             -10.9536
        67                         -0.3849834             -10.4759
        68                         -0.3804792             -10.3534
        69                         -0.3671250              -9.9900
       ...                                ...                  ...
       130                          3.9667540             107.9409
      -------------------------------------------------------------
                  HL-Gap            0.0742315 Eh            2.0199 eV
             Fermi-level           -0.4476224 Eh          -12.1804 eV

 SCC (total)                   0 d,  0 h,  0 min,  0.312 sec
 SCC setup                      ...        0 min,  0.006 sec (  1.847%)
 Dispersion                     ...        0 min,  0.014 sec (  4.402%)
 classical contributions        ...        0 min,  0.000 sec (  0.148%)
 integral evaluation            ...        0 min,  0.033 sec ( 10.715%)
 iterations                     ...        0 min,  0.202 sec ( 64.600%)
 molecular gradient             ...        0 min,  0.052 sec ( 16.534%)
 printout                       ...        0 min,  0.005 sec (  1.744%)

         :::::::::::::::::::::::::::::::::::::::::::::::::::::
         ::                     SUMMARY                     ::
         :::::::::::::::::::::::::::::::::::::::::::::::::::::
         :: total energy             -67.149074069730 Eh    ::
         :: gradient norm              0.000710027520 Eh/a0 ::
         :: HOMO-LUMO gap              2.019942227645 eV    ::
         ::.................................................::
         :: SCC energy               -68.321728455007 Eh    ::
         :: -> isotropic ES            0.056574509606 Eh    ::
         :: -> anisotropic ES         -0.009938441935 Eh    ::
         :: -> anisotropic XC          0.035443701105 Eh    ::
         :: -> dispersion             -0.071003366891 Eh    ::
         :: repulsion energy           1.170185813551 Eh    ::
         :: add. restraining           0.000086370589 Eh    ::
         :: total charge               1.000000000000 e     ::
         :::::::::::::::::::::::::::::::::::::::::::::::::::::

           -------------------------------------------------
          |                Property Printout                |
           -------------------------------------------------

    * Orbital Energies and Occupations

         #    Occupation            Energy/Eh            Energy/eV
      -------------------------------------------------------------
         1        2.0000           -0.8441313             -22.9700
       ...           ...                  ...                  ...
        52        2.0000           -0.5562676             -15.1368
        53        2.0000           -0.5561219             -15.1328
        54        2.0000           -0.5461579             -14.8617
        55        2.0000           -0.5419772             -14.7480
        56        2.0000           -0.5386573             -14.6576
        57        2.0000           -0.5383418             -14.6490
        58        2.0000           -0.5353956             -14.5689
        59        2.0000           -0.5260742             -14.3152
        60        2.0000           -0.5057138             -13.7612
        61        2.0000           -0.5034215             -13.6988
        62        2.0000           -0.4914431             -13.3728
        63        2.0000           -0.4876596             -13.2699
        64        2.0000           -0.4847381             -13.1904 (HOMO)
        65                         -0.4105066             -11.1705 (LUMO)
        66                         -0.4025390             -10.9536
        67                         -0.3849834             -10.4759
        68                         -0.3804792             -10.3534
        69                         -0.3671250              -9.9900
        70                         -0.3410910              -9.2816
        71                         -0.3344540              -9.1010
        72                         -0.3216802              -8.7534
        73                         -0.3032395              -8.2516
        74                         -0.3018489              -8.2137
        75                         -0.2712846              -7.3820
       ...                                ...                  ...
       130                          3.9667540             107.9409
      -------------------------------------------------------------
                  HL-Gap            0.0742315 Eh            2.0199 eV
             Fermi-level           -0.4476224 Eh          -12.1804 eV

     #   Z          covCN         q      C6AA      α(0)
     1   6 C        3.854    -0.059    21.594     6.609
     2   6 C        3.832     0.034    19.981     6.360
     3   6 C        3.907     0.038    19.883     6.338
     4   6 C        3.907     0.038    19.882     6.338
     5   6 C        3.832     0.034    19.981     6.360
     6   6 C        3.854    -0.059    21.596     6.609
     7   6 C        3.016     0.008    27.815     8.651
     8   6 C        3.083    -0.001    27.949     8.667
     9   6 C        3.081     0.007    27.783     8.641
    10   6 C        3.016     0.012    27.726     8.637
    11   6 C        3.861    -0.069    21.769     6.635
    12   6 C        3.016     0.012    27.737     8.639
    13   6 C        3.080     0.007    27.785     8.642
    14   6 C        3.083    -0.001    27.948     8.667
    15   6 C        3.016     0.008    27.812     8.651
    16   6 C        2.925    -0.032    28.788     8.799
    17   6 C        2.924    -0.032    28.790     8.799
    18   6 C        2.924    -0.032    28.787     8.799
    19   6 C        2.925    -0.032    28.797     8.800
    20   6 C        3.749    -0.004    20.717     6.492
    21   6 C        3.749    -0.004    20.717     6.492
    22   1 H        0.924     0.094     1.840     2.121
    23   1 H        0.924     0.083     1.950     2.184
    24   1 H        0.924     0.083     1.945     2.181
    25   1 H        0.924     0.094     1.839     2.121
    26   1 H        0.924     0.092     1.862     2.134
    27   1 H        0.925     0.072     2.068     2.249
    28   1 H        0.926     0.060     2.205     2.322
    29   1 H        0.926     0.060     2.195     2.317
    30   1 H        0.926     0.060     2.194     2.316
    31   1 H        0.926     0.059     2.207     2.323
    32   1 H        0.925     0.085     1.925     2.169
    33   1 H        0.925     0.085     1.925     2.170
    34  44 Ru       9.161    -0.184   314.330    29.821
    35   6 C        3.812    -0.010    20.752     6.484
    36   6 C        3.811    -0.009    20.727     6.480
    37   6 C        3.812    -0.011    20.761     6.485
    38   6 C        3.812    -0.015    20.830     6.496
    39   6 C        3.812    -0.015    20.830     6.496
    40   1 H        0.925     0.091     1.866     2.136
    41   1 H        0.925     0.098     1.804     2.101
    42   1 H        0.926     0.090     1.878     2.143
    43   1 H        0.926     0.081     1.973     2.197
    44   1 H        0.926     0.082     1.961     2.190

 Mol. C6AA /au·bohr⁶  :      28473.160339
 Mol. C8AA /au·bohr⁸  :     893431.578884
 Mol. α(0) /au        :        262.262318


Wiberg/Mayer (AO) data.
largest (>0.10) Wiberg bond orders for each atom

 ---------------------------------------------------------------------------
     #   Z sym  total        # sym  WBO       # sym  WBO       # sym  WBO
 ---------------------------------------------------------------------------
     1   6 C    3.988 --    15 C    0.994     2 C    0.985    23 H    0.947
                            22 H    0.937
     2   6 C    3.979 --    21 C    1.251     3 C    1.176     1 C    0.985
                            34 Ru   0.396
     3   6 C    3.983 --     4 C    1.187     2 C    1.176    14 C    1.101
                            34 Ru   0.322
     4   6 C    3.983 --     3 C    1.187     5 C    1.176     8 C    1.101
                            34 Ru   0.322
     5   6 C    3.979 --    20 C    1.251     4 C    1.176     6 C    0.985
                            34 Ru   0.396
     6   6 C    3.988 --     7 C    0.994     5 C    0.985    24 H    0.947
                            25 H    0.937
     7   6 C    3.978 --    19 C    1.449     8 C    1.302     6 C    0.994
     8   6 C    3.982 --     9 C    1.305     7 C    1.302     4 C    1.101
     9   6 C    3.985 --    10 C    1.311     8 C    1.305    13 C    1.124
    10   6 C    3.980 --    18 C    1.447     9 C    1.311    11 C    1.008
    11   6 C    3.992 --    10 C    1.008    12 C    1.008    27 H    0.954
                            26 H    0.936
    12   6 C    3.980 --    17 C    1.447    13 C    1.310    11 C    1.008
    13   6 C    3.984 --    12 C    1.310    14 C    1.305     9 C    1.124
    14   6 C    3.982 --    13 C    1.305    15 C    1.301     3 C    1.101
    15   6 C    3.978 --    16 C    1.450    14 C    1.301     1 C    0.994
    16   6 C    3.977 --    15 C    1.450    17 C    1.387    28 H    0.967
    17   6 C    3.983 --    12 C    1.447    16 C    1.387    29 H    0.967
    18   6 C    3.983 --    10 C    1.447    19 C    1.387    30 H    0.967
    19   6 C    3.977 --     7 C    1.449    18 C    1.387    31 H    0.967
    20   6 C    3.982 --     5 C    1.251    21 C    1.230    32 H    0.938
                            34 Ru   0.413
    21   6 C    3.982 --     2 C    1.251    20 C    1.230    33 H    0.938
                            34 Ru   0.413
    22   1 H    0.990 --     1 C    0.937
    23   1 H    0.992 --     1 C    0.947
    24   1 H    0.992 --     6 C    0.947
    25   1 H    0.990 --     6 C    0.937
    26   1 H    0.991 --    11 C    0.936
    27   1 H    0.995 --    11 C    0.954
    28   1 H    0.996 --    16 C    0.967
    29   1 H    0.995 --    17 C    0.967
    30   1 H    0.995 --    18 C    0.967
    31   1 H    0.996 --    19 C    0.967
    32   1 H    0.991 --    20 C    0.938
    33   1 H    0.992 --    21 C    0.938
    34  44 Ru   5.107 --    36 C    0.473    35 C    0.457    37 C    0.454
                            39 C    0.448    38 C    0.446    20 C    0.413
                            21 C    0.413     5 C    0.396     2 C    0.396
                             3 C    0.322     4 C    0.322
    35   6 C    3.983 --    39 C    1.242    36 C    1.231    40 H    0.931
                            34 Ru   0.457
    36   6 C    3.980 --    37 C    1.232    35 C    1.231    41 H    0.928
                            34 Ru   0.473
    37   6 C    3.984 --    38 C    1.244    36 C    1.232    42 H    0.932
                            34 Ru   0.454
    38   6 C    3.985 --    37 C    1.244    39 C    1.241    43 H    0.932
                            34 Ru   0.446
    39   6 C    3.985 --    35 C    1.242    38 C    1.241    44 H    0.932
                            34 Ru   0.448
    40   1 H    0.991 --    35 C    0.931
    41   1 H    0.990 --    36 C    0.928
    42   1 H    0.991 --    37 C    0.932
    43   1 H    0.993 --    38 C    0.932
    44   1 H    0.993 --    39 C    0.932
 ---------------------------------------------------------------------------

Topologies differ in total number of bonds
Writing topology from bond orders to xtbtopo.mol

molecular dipole:
                 x           y           z       tot (Debye)
 q only:       -1.057       0.731      -2.013
   full:       -1.267       0.922      -1.613       5.716
molecular quadrupole (traceless):
                xx          xy          yy          xz          yz          zz
 q only:        6.756      -2.482       5.191       3.409      -3.675     -11.947
  q+dip:       10.925      -3.815       8.935       1.746      -2.963     -19.860
   full:        8.350      -3.919       6.320       1.948      -2.656     -14.670

           -------------------------------------------------
          |                Geometry Summary                 |
           -------------------------------------------------

      molecular mass/u    :      430.4790663
   center of mass at/Å    :       -0.3611032       0.2571552      -0.5531530
  moments of inertia/u·Å² :        0.1679519E+04   0.1924252E+04   0.2462834E+04
rotational constants/cm⁻¹ :        0.1003718E-01   0.8760615E-02   0.6844812E-02

 * 56 selected distances

     #   Z          #   Z                                           value/Å
     1   6 C        2   6 C                                       1.5379615
     2   6 C        3   6 C                                       1.4123645
     3   6 C        4   6 C                                       1.3921663
     4   6 C        5   6 C                                       1.4123087
     5   6 C        6   6 C                                       1.5380213
     4   6 C        8   6 C                                       1.4234607
     7   6 C        8   6 C                                       1.3945853
     8   6 C        9   6 C                                       1.3805752
     9   6 C       10   6 C                                       1.3941313
     9   6 C       13   6 C                                       1.4232564
    12   6 C       13   6 C                                       1.3943399
     3   6 C       14   6 C                                       1.4235838
    13   6 C       14   6 C                                       1.3805417
    14   6 C       15   6 C                                       1.3947648
    15   6 C       16   6 C                                       1.3901382
    12   6 C       17   6 C                                       1.3914812
    16   6 C       17   6 C                                       1.4161296
    10   6 C       18   6 C                                       1.3912810
     7   6 C       19   6 C                                       1.3903791
    18   6 C       19   6 C                                       1.4161413
     5   6 C       20   6 C                                       1.4272670
     2   6 C       21   6 C                                       1.4272675
    20   6 C       21   6 C                                       1.4540582
     1   6 C       22   1 H                                       1.0939789
     1   6 C       23   1 H                                       1.0903437
     6   6 C       24   1 H                                       1.0905394
     6   6 C       25   1 H                                       1.0938701
    11   6 C       26   1 H                                       1.0924720
    11   6 C       27   1 H                                       1.0899247
    16   6 C       28   1 H                                       1.0798232 (min)
    17   6 C       29   1 H                                       1.0804204
    18   6 C       30   1 H                                       1.0803919
    19   6 C       31   1 H                                       1.0799175
    20   6 C       32   1 H                                       1.0862451
    21   6 C       33   1 H                                       1.0862495
     2   6 C       34  44 Ru                                      2.1992507
     3   6 C       34  44 Ru                                      2.2033664
     4   6 C       34  44 Ru                                      2.2033986
     5   6 C       34  44 Ru                                      2.1992525
    20   6 C       34  44 Ru                                      2.1999094
    21   6 C       34  44 Ru                                      2.1999172
    34  44 Ru      35   6 C                                       2.2299147
    34  44 Ru      36   6 C                                       2.2298990
    35   6 C       36   6 C                                       1.4239310
    34  44 Ru      37   6 C                                       2.2299468
    36   6 C       37   6 C                                       1.4236233
    34  44 Ru      38   6 C                                       2.2302993 (max)
    37   6 C       38   6 C                                       1.4204512
    34  44 Ru      39   6 C                                       2.2302403
    35   6 C       39   6 C                                       1.4210057
    38   6 C       39   6 C                                       1.4201901
    35   6 C       40   1 H                                       1.0813425
    36   6 C       41   1 H                                       1.0820048
    37   6 C       42   1 H                                       1.0811333
    38   6 C       43   1 H                                       1.0800186
    39   6 C       44   1 H                                       1.0801803

 * 3 distinct bonds (by element types)

   Z      Z             #   av. dist./Å        max./Å        min./Å
   1 H    6 C          17     1.0852268     1.0939789     1.0798232
   6 C    6 C          28     1.4184074     1.5380213     1.3805417
   6 C   44 Ru         11     2.2141268     2.2302993     2.1992507


optimized geometry written to: xtbopt.xyz


           -------------------------------------------------
          | TOTAL ENERGY              -67.149074069730 Eh   |
          | GRADIENT NORM               0.000710027520 Eh/α |
          | HOMO-LUMO GAP               2.019942227645 eV   |
           -------------------------------------------------

------------------------------------------------------------------------
 * finished run on 2026/07/30 at 00:23:31.692     
------------------------------------------------------------------------
 total:
 * wall-time:     0 d,  0 h,  0 min, 12.179 sec
 *  cpu-time:     0 d,  0 h,  0 min, 37.955 sec
 * ratio c/w:     3.116 speedup
 SCF:
 * wall-time:     0 d,  0 h,  0 min,  1.994 sec
 *  cpu-time:     0 d,  0 h,  0 min,  6.315 sec
 * ratio c/w:     3.167 speedup
 ANC optimizer:
 * wall-time:     0 d,  0 h,  0 min,  9.993 sec
 *  cpu-time:     0 d,  0 h,  0 min, 31.198 sec
 * ratio c/w:     3.122 speedup

