      -----------------------------------------------------------      
     |                   =====================                   |     
     |                           x T B                           |     
     |                   =====================                   |     
     |                         S. Grimme                         |     
     |          Mulliken Center for Theoretical Chemistry        |     
     |                    University of Bonn                     |     
      -----------------------------------------------------------      

   * xtb version 6.5.1 (b24c23e) compiled by 'conda@728c89f4b128' on 2022-07-12

   xtb is free software: you can redistribute it and/or modify it under
   the terms of the GNU Lesser General Public License as published by
   the Free Software Foundation, either version 3 of the License, or
   (at your option) any later version.
   
   xtb is distributed in the hope that it will be useful,
   but WITHOUT ANY WARRANTY; without even the implied warranty of
   MERCHANTABILITY or FITNESS FOR A PARTICULAR PURPOSE.  See the
   GNU Lesser General Public License for more details.
   
   Cite this work as:
   * C. Bannwarth, E. Caldeweyher, S. Ehlert, A. Hansen, P. Pracht,
     J. Seibert, S. Spicher, S. Grimme, WIREs Comput. Mol. Sci., 2020, 11,
     e01493. DOI: 10.1002/wcms.1493
   
   for GFN2-xTB:
   * C. Bannwarth, S. Ehlert and S. Grimme., J. Chem. Theory Comput., 2019,
     15, 1652-1671. DOI: 10.1021/acs.jctc.8b01176
   for GFN1-xTB:
   * S. Grimme, C. Bannwarth, P. Shushkov, J. Chem. Theory Comput., 2017,
     13, 1989-2009. DOI: 10.1021/acs.jctc.7b00118
   for GFN0-xTB:
   * P. Pracht, E. Caldeweyher, S. Ehlert, S. Grimme, ChemRxiv, 2019, preprint.
     DOI: 10.26434/chemrxiv.8326202.v1
   for GFN-FF:
   * S. Spicher and S. Grimme, Angew. Chem. Int. Ed., 2020, 59, 15665-15673.
     DOI: 10.1002/anie.202004239
   
   for ALPB and GBSA implicit solvation:
   * S. Ehlert, M. Stahn, S. Spicher, S. Grimme, J. Chem. Theory Comput.,
     2021, 17, 4250-4261. DOI: 10.1021/acs.jctc.1c00471
   
   for DFT-D4:
   * E. Caldeweyher, C. Bannwarth and S. Grimme, J. Chem. Phys., 2017,
     147, 034112. DOI: 10.1063/1.4993215
   * E. Caldeweyher, S. Ehlert, A. Hansen, H. Neugebauer, S. Spicher,
     C. Bannwarth and S. Grimme, J. Chem. Phys., 2019, 150, 154122.
     DOI: 10.1063/1.5090222
   * E. Caldeweyher, J.-M. Mewes, S. Ehlert and S. Grimme, Phys. Chem. Chem. Phys.
     2020, 22, 8499-8512. DOI: 10.1039/D0CP00502A
   
   for sTDA-xTB:
   * S. Grimme and C. Bannwarth, J. Chem. Phys., 2016, 145, 054103.
     DOI: 10.1063/1.4959605
   
   in the mass-spec context:
   * V. Asgeirsson, C. Bauer and S. Grimme, Chem. Sci., 2017, 8, 4879.
     DOI: 10.1039/c7sc00601b
   * J. Koopman and S. Grimme, ACS Omega 2019, 4, 12, 15120-15133.
     DOI: 10.1021/acsomega.9b02011
   
   for metadynamics refer to:
   * S. Grimme, J. Chem. Theory Comput., 2019, 155, 2847-2862
     DOI: 10.1021/acs.jctc.9b00143
   
   for SPH calculations refer to:
   * S. Spicher and S. Grimme, J. Chem. Theory Comput., 2021, 17, 1701-1714
     DOI: 10.1021/acs.jctc.0c01306
   
   with help from (in alphabetical order)
   P. Atkinson, C. Bannwarth, F. Bohle, G. Brandenburg, E. Caldeweyher
   M. Checinski, S. Dohm, S. Ehlert, S. Ehrlich, I. Gerasimov, C. Hölzer
   A. Katbashev, J. Koopman, C. Lavigne, S. Lehtola, F. März, M. Müller,
   F. Musil, H. Neugebauer, J. Pisarek, C. Plett, P. Pracht, F. Pultar,
   J. Seibert, P. Shushkov, S. Spicher, M. Stahn, M. Steiner, T. Strunk,
   J. Stückrath, T. Rose, and J. Unsleber
   
 * started run on 2026/07/30 at 00:20:18.483     

           -------------------------------------------------
          |                Calculation Setup                |
           -------------------------------------------------

          program call               : /h/332/chchoi/miniconda3/envs/el-agente/bin/xtb sumanene.xyz --opt --gfn 2 -P 4 --chrg 0 --uhf 0
          coordinate file            : sumanene.xyz
          omp threads                :                     4

   ID    Z sym.   atoms
    1    6 C      1-21
    2    1 H      22-33

           -------------------------------------------------
          |                 G F N 2 - x T B                 |
           -------------------------------------------------

        Reference                      10.1021/acs.jctc.8b01176
      * Hamiltonian:
        H0-scaling (s, p, d)           1.850000    2.230000    2.230000
        zeta-weighting                 0.500000
      * Dispersion:
        s8                             2.700000
        a1                             0.520000
        a2                             5.000000
        s9                             5.000000
      * Repulsion:
        kExp                           1.500000    1.000000
        rExp                           1.000000
      * Coulomb:
        alpha                          2.000000
        third order                    shell-resolved
        anisotropic                    true
        a3                             3.000000
        a5                             4.000000
        cn-shift                       1.200000
        cn-exp                         4.000000
        max-rad                        5.000000


          ...................................................
          :                      SETUP                      :
          :.................................................:
          :  # basis functions                  96          :
          :  # atomic orbitals                  96          :
          :  # shells                           54          :
          :  # electrons                        96          :
          :  max. iterations                   250          :
          :  Hamiltonian                  GFN2-xTB          :
          :  restarted?                      false          :
          :  GBSA solvation                  false          :
          :  PC potential                    false          :
          :  electronic temp.          300.0000000     K    :
          :  accuracy                    1.0000000          :
          :  -> integral cutoff          0.2500000E+02      :
          :  -> integral neglect         0.1000000E-07      :
          :  -> SCF convergence          0.1000000E-05 Eh   :
          :  -> wf. convergence          0.1000000E-03 e    :
          :  Broyden damping             0.4000000          :
          ...................................................

 iter      E             dE          RMSdq      gap      omega  full diag
   1    -51.9951022 -0.519951E+02  0.368E+00    3.03       0.0  T
   2    -52.0112325 -0.161303E-01  0.215E+00    3.03       1.0  T
   3    -51.9972723  0.139602E-01  0.669E-01    2.96       1.0  T
   4    -52.0125143 -0.152419E-01  0.237E-01    3.01       1.0  T
   5    -52.0146896 -0.217532E-02  0.691E-02    3.00       1.0  T
   6    -52.0148117 -0.122146E-03  0.274E-02    3.00       1.0  T
   7    -52.0148147 -0.292909E-05  0.130E-02    3.00       1.3  T
   8    -52.0148161 -0.145290E-05  0.913E-04    3.00      19.1  T
   9    -52.0148161 -0.685425E-08  0.367E-04    3.00      47.5  T
  10    -52.0148161 -0.732392E-09  0.379E-05    3.00     458.7  T

   *** convergence criteria satisfied after 10 iterations ***

         #    Occupation            Energy/Eh            Energy/eV
      -------------------------------------------------------------
         1        2.0000           -0.6662007             -18.1282
       ...           ...                  ...                  ...
        42        2.0000           -0.4117321             -11.2038
        43        2.0000           -0.4117320             -11.2038
        44        2.0000           -0.4068062             -11.0698
        45        2.0000           -0.4068061             -11.0698
        46        2.0000           -0.3793976             -10.3239
        47        2.0000           -0.3603562              -9.8058
        48        2.0000           -0.3603561              -9.8058 (HOMO)
        49                         -0.2499765              -6.8022 (LUMO)
        50                         -0.2499763              -6.8022
        51                         -0.2412051              -6.5635
        52                         -0.2005860              -5.4582
        53                         -0.2005856              -5.4582
       ...                                ...                  ...
        96                          0.7752260              21.0950
      -------------------------------------------------------------
                  HL-Gap            0.1103796 Eh            3.0036 eV
             Fermi-level           -0.3051663 Eh           -8.3040 eV

 SCC (total)                   0 d,  0 h,  0 min,  0.558 sec
 SCC setup                      ...        0 min,  0.001 sec (  0.147%)
 Dispersion                     ...        0 min,  0.002 sec (  0.316%)
 classical contributions        ...        0 min,  0.002 sec (  0.272%)
 integral evaluation            ...        0 min,  0.016 sec (  2.880%)
 iterations                     ...        0 min,  0.506 sec ( 90.706%)
 molecular gradient             ...        0 min,  0.030 sec (  5.392%)
 printout                       ...        0 min,  0.002 sec (  0.278%)

         :::::::::::::::::::::::::::::::::::::::::::::::::::::
         ::                     SUMMARY                     ::
         :::::::::::::::::::::::::::::::::::::::::::::::::::::
         :: total energy             -51.048633508622 Eh    ::
         :: gradient norm              0.167638395711 Eh/a0 ::
         :: HOMO-LUMO gap              3.003580674831 eV    ::
         ::.................................................::
         :: SCC energy               -52.014816115070 Eh    ::
         :: -> isotropic ES            0.003311765193 Eh    ::
         :: -> anisotropic ES          0.005271232970 Eh    ::
         :: -> anisotropic XC          0.025860078334 Eh    ::
         :: -> dispersion             -0.046580394939 Eh    ::
         :: repulsion energy           0.965431502084 Eh    ::
         :: add. restraining           0.000000000000 Eh    ::
         :: total charge              -0.000000000000 e     ::
         :::::::::::::::::::::::::::::::::::::::::::::::::::::

      ----------------------------------------------------------- 
     |                   =====================                   |
     |                        A N C O P T                        |
     |                   =====================                   |
     |               Approximate Normal Coordinate               |
     |                Rational Function Optimizer                |
      ----------------------------------------------------------- 

          ...................................................
          :                      SETUP                      :
          :.................................................:
          :   optimization level            normal          :
          :   max. optcycles                   200          :
          :   ANC micro-cycles                  20          :
          :   degrees of freedom                93          :
          :.................................................:
          :   RF solver                   davidson          :
          :   write xtbopt.log                true          :
          :   linear?                        false          :
          :   energy convergence         0.5000000E-05 Eh   :
          :   grad. convergence          0.1000000E-02 Eh/α :
          :   maximium RF displ.         1.0000000          :
          :   Hlow (freq-cutoff)         0.1000000E-01      :
          :   Hmax (freq-cutoff)         5.0000000          :
          :   S6 in model hess.         20.0000000          :
          ...................................................

generating ANC from model Hessian ...
Using Lindh-Hessian (1995)
 Shifting diagonal of input Hessian by    6.9347640727893418E-003
 Lowest  eigenvalues of input Hessian
    0.000000    0.000000    0.000000    0.000000    0.000000    0.000000
    0.010000    0.010000    0.013040    0.015913    0.018997    0.020346
    0.020346    0.024867    0.024867    0.035399    0.035399    0.040845
 Highest eigenvalues
    1.928914    1.954977    1.954981    2.045264    2.231914    2.231918


........................................................................
.............................. CYCLE    1 ..............................
........................................................................
   1    -52.0148161 -0.520148E+02  0.468E-06    3.00       0.0  T
   2    -52.0148161 -0.639488E-13  0.321E-06    3.00    5428.3  T
   3    -52.0148161 -0.518696E-12  0.172E-06    3.00   10146.1  T
     SCC iter.                  ...        0 min,  0.090 sec
     gradient                   ...        0 min,  0.026 sec
 * total energy  :   -51.0486335 Eh     change       -0.1527667E-11 Eh
   gradient norm :     0.1676385 Eh/α   predicted     0.0000000E+00 (-100.00%)
   displ. norm   :     0.2936314 α      lambda       -0.2989329E-01
   maximum displ.:     0.1630695 α      in ANC's #4, #59, #20, ...

........................................................................
.............................. CYCLE    2 ..............................
........................................................................
   1    -52.0362792 -0.520363E+02  0.292E-01    3.11       0.0  T
   2    -52.0363795 -0.100314E-03  0.221E-01    3.12       1.0  T
   3    -52.0362946  0.848785E-04  0.107E-01    3.11       1.0  T
   4    -52.0367363 -0.441671E-03  0.797E-03    3.11       2.2  T
   5    -52.0367374 -0.109160E-05  0.356E-03    3.11       4.9  T
   6    -52.0367375 -0.657282E-07  0.155E-03    3.11      11.3  T
   7    -52.0367375 -0.313949E-07  0.614E-04    3.11      28.4  T
   8    -52.0367375 -0.676219E-08  0.507E-05    3.11     343.3  T
     SCC iter.                  ...        0 min,  0.237 sec
     gradient                   ...        0 min,  0.021 sec
 * total energy  :   -51.0682175 Eh     change       -0.1958394E-01 Eh
   gradient norm :     0.0601027 Eh/α   predicted    -0.1624841E-01 ( -17.03%)
   displ. norm   :     0.3462183 α      lambda       -0.6469767E-02
   maximum displ.:     0.3155971 α      in ANC's #4, #3, #20, ...

........................................................................
.............................. CYCLE    3 ..............................
........................................................................
   1    -52.0402604 -0.520403E+02  0.199E-01    3.17       0.0  T
   2    -52.0402750 -0.146651E-04  0.124E-01    3.18       1.0  T
   3    -52.0400546  0.220446E-03  0.702E-02    3.17       1.0  T
   4    -52.0403210 -0.266452E-03  0.336E-03    3.17       5.2  T
   5    -52.0403211 -0.116392E-06  0.183E-03    3.17       9.5  T
   6    -52.0403212 -0.204457E-07  0.484E-04    3.17      36.0  T
   7    -52.0403212 -0.386559E-08  0.164E-04    3.17     106.2  T
     SCC iter.                  ...        0 min,  0.123 sec
     gradient                   ...        0 min,  0.009 sec
 * total energy  :   -51.0724341 Eh     change       -0.4216665E-02 Eh
   gradient norm :     0.0166968 Eh/α   predicted    -0.3626813E-02 ( -13.99%)
   displ. norm   :     0.3771387 α      lambda       -0.2237704E-02
   maximum displ.:     0.3591241 α      in ANC's #4, #3, #23, ...

........................................................................
.............................. CYCLE    4 ..............................
........................................................................
   1    -52.0354703 -0.520355E+02  0.178E-01    3.20       0.0  T
   2    -52.0354753 -0.500474E-05  0.104E-01    3.20       1.0  T
   3    -52.0354433  0.320844E-04  0.268E-02    3.20       1.0  T
   4    -52.0354792 -0.359100E-04  0.328E-03    3.20       5.3  T
   5    -52.0354795 -0.311274E-06  0.150E-03    3.20      11.6  T
   6    -52.0354795 -0.731126E-08  0.594E-04    3.20      29.3  T
   7    -52.0354795 -0.735150E-08  0.159E-04    3.20     109.7  T
     SCC iter.                  ...        0 min,  0.156 sec
     gradient                   ...        0 min,  0.014 sec
 * total energy  :   -51.0741017 Eh     change       -0.1667590E-02 Eh
   gradient norm :     0.0124847 Eh/α   predicted    -0.1277996E-02 ( -23.36%)
   displ. norm   :     0.3631678 α      lambda       -0.1331397E-02
   maximum displ.:     0.3436450 α      in ANC's #4, #3, #23, ...

........................................................................
.............................. CYCLE    5 ..............................
........................................................................
   1    -52.0331027 -0.520331E+02  0.169E-01    3.21       0.0  T
   2    -52.0331074 -0.475714E-05  0.987E-02    3.21       1.0  T
   3    -52.0331053  0.215768E-05  0.101E-02    3.21       1.7  T
   4    -52.0331082 -0.296917E-05  0.261E-03    3.21       6.7  T
   5    -52.0331084 -0.174471E-06  0.137E-03    3.21      12.7  T
   6    -52.0331084 -0.115924E-07  0.470E-04    3.21      37.1  T
   7    -52.0331084 -0.887005E-08  0.150E-04    3.21     116.2  T
     SCC iter.                  ...        0 min,  0.281 sec
     gradient                   ...        0 min,  0.014 sec
 * total energy  :   -51.0750384 Eh     change       -0.9366657E-03 Eh
   gradient norm :     0.0121521 Eh/α   predicted    -0.7535027E-03 ( -19.55%)
   displ. norm   :     0.2235827 α      lambda       -0.4983819E-03
   maximum displ.:     0.2105084 α      in ANC's #4, #3, #23, ...

........................................................................
.............................. CYCLE    6 ..............................
........................................................................
   1    -52.0358680 -0.520359E+02  0.103E-01    3.21       0.0  T
   2    -52.0358689 -0.935109E-06  0.606E-02    3.21       1.0  T
   3    -52.0358687  0.191194E-06  0.360E-03    3.21       4.8  T
   4    -52.0358691 -0.399869E-06  0.153E-03    3.21      11.4  T
   5    -52.0358691 -0.336842E-07  0.687E-04    3.21      25.4  T
   6    -52.0358691 -0.576723E-08  0.229E-04    3.21      76.1  T
     SCC iter.                  ...        0 min,  0.177 sec
     gradient                   ...        0 min,  0.023 sec
 * total energy  :   -51.0753781 Eh     change       -0.3396960E-03 Eh
   gradient norm :     0.0075594 Eh/α   predicted    -0.2616559E-03 ( -22.97%)
   displ. norm   :     0.1197711 α      lambda       -0.1477998E-03
   maximum displ.:     0.1138421 α      in ANC's #4, #42, #3, ...

........................................................................
.............................. CYCLE    7 ..............................
........................................................................
   1    -52.0392278 -0.520392E+02  0.526E-02    3.21       0.0  T
   2    -52.0392280 -0.196983E-06  0.310E-02    3.21       1.0  T
   3    -52.0392280  0.234513E-07  0.189E-03    3.21       9.2  T
   4    -52.0392281 -0.841931E-07  0.699E-04    3.21      24.9  T
   5    -52.0392281 -0.453116E-08  0.272E-04    3.21      64.0  T
     SCC iter.                  ...        0 min,  0.130 sec
     gradient                   ...        0 min,  0.011 sec
 * total energy  :   -51.0754689 Eh     change       -0.9079350E-04 Eh
   gradient norm :     0.0028236 Eh/α   predicted    -0.7496063E-04 ( -17.44%)
   displ. norm   :     0.0360181 α      lambda       -0.1835278E-04
   maximum displ.:     0.0341792 α      in ANC's #4, #42, #20, ...

........................................................................
.............................. CYCLE    8 ..............................
........................................................................
   1    -52.0403066 -0.520403E+02  0.142E-02    3.21       0.0  T
   2    -52.0403067 -0.645581E-07  0.839E-03    3.21       2.1  T
   3    -52.0403065  0.208685E-06  0.253E-03    3.21       6.9  T
   4    -52.0403067 -0.240138E-06  0.354E-04    3.21      49.1  T
   5    -52.0403067 -0.349213E-08  0.173E-04    3.21     100.8  T
     SCC iter.                  ...        0 min,  0.137 sec
     gradient                   ...        0 min,  0.013 sec
 * total energy  :   -51.0754806 Eh     change       -0.1170324E-04 Eh
   gradient norm :     0.0011778 Eh/α   predicted    -0.9189718E-05 ( -21.48%)
   displ. norm   :     0.0214760 α      lambda       -0.4455046E-05
   maximum displ.:     0.0165439 α      in ANC's #4, #3, #20, ...

........................................................................
.............................. CYCLE    9 ..............................
........................................................................
   1    -52.0405539 -0.520406E+02  0.683E-03    3.21       0.0  T
   2    -52.0405540 -0.497014E-07  0.407E-03    3.21       4.3  T
   3    -52.0405538  0.118937E-06  0.220E-03    3.21       7.9  T
   4    -52.0405540 -0.155683E-06  0.312E-04    3.21      55.8  T
   5    -52.0405540 -0.331167E-08  0.126E-04    3.21     137.9  T
     SCC iter.                  ...        0 min,  0.119 sec
     gradient                   ...        0 min,  0.008 sec
 * total energy  :   -51.0754840 Eh     change       -0.3431680E-05 Eh
   gradient norm :     0.0007932 Eh/α   predicted    -0.2229865E-05 ( -35.02%)
   displ. norm   :     0.0220479 α      lambda        0.4085503E-05
   maximum displ.:     0.0168579 α      in ANC's #4, #3, #20, ...

   *** GEOMETRY OPTIMIZATION CONVERGED AFTER 9 ITERATIONS ***

------------------------------------------------------------------------
 total energy gain   :        -0.0268505 Eh      -16.8489 kcal/mol
 total RMSD          :         0.2877716 a0        0.1523 Å
 total power (kW/mol):        -7.8328831 (step)  -40.6733 (real)
------------------------------------------------------------------------

 ANCopt (total)                0 d,  0 h,  0 min,  1.733 sec
 optimizer setup                ...        0 min,  0.001 sec (  0.037%)
 model hessian                  ...        0 min,  0.013 sec (  0.727%)
 ANC generation                 ...        0 min,  0.006 sec (  0.335%)
 coordinate transformation      ...        0 min,  0.000 sec (  0.012%)
 single point calculation       ...        0 min,  1.687 sec ( 97.331%)
 optimization log               ...        0 min,  0.001 sec (  0.079%)
 hessian update                 ...        0 min,  0.013 sec (  0.765%)
 rational function              ...        0 min,  0.011 sec (  0.629%)

================
 final structure:
================
33
 xtb: 6.5.1 (b24c23e)
C           -3.03274631510755       -1.17439108222053        0.23796007991237
C           -2.58812444994128        0.27341794553402        0.45219290329123
C           -1.31297290092720        0.23125647794970        1.02090108788333
C           -0.44875181624806        1.30571991162728        0.95568517024111
C           -0.79907296171160        2.49769895277757        0.31718754609984
C            0.50315579253638        3.22170374431085       -0.02886526528075
C            1.55805178538721        2.12804310370481        0.14673658220983
C            0.95465314716606        1.08563112858781        0.85420078999269
C            1.45073254777998       -0.20216117027418        0.82104962550242
C            2.58500155169435       -0.53785685641126        0.07810925234923
C            2.53283133428964       -2.04721217724432       -0.16450148840289
C            1.08748193932702       -2.39968409034398        0.19111620525739
C            0.55912654022319       -1.31067160988181        0.88833246326015
C           -0.80117399109587       -1.09734268896747        0.98669954951209
C           -1.72851945197202       -1.95806501076938        0.39474888753384
C           -1.21826855396734       -3.12004335452818       -0.15973677811763
C            0.17501410007382       -3.33854476401668       -0.26048877430563
C            3.27606853293717        0.51691587385619       -0.49450308149149
C            2.76796108236730        1.83593230762922       -0.46054809127374
C           -2.11315842909143        2.60141354174649       -0.10757904141430
C           -2.99833352469746        1.50089840349875       -0.04078202818067
H           -3.77093676263980       -1.47798915582042        0.98515354526524
H           -3.47378596270646       -1.31888625185614       -0.74876412244071
H            0.49029008054865        3.60954897423234       -1.04789893342041
H            0.68369230714702        4.06033216599578        0.64900187893797
H            3.24073370373770       -2.57759255342046        0.47812271077337
H            2.76574657862524       -2.29740147058355       -1.19996033985291
H           -1.87214905114511       -3.82805741919215       -0.65012115581300
H            0.50651683645881       -4.20109149119871       -0.82212884064014
H            4.15510512420157        0.33510419761142       -1.09746224270943
H            3.28764449521584        2.58697993775597       -1.03949298190558
H           -2.45530413654944        3.48761772737261       -0.62420168304606
H           -3.96650917191638        1.60877575253842       -0.51016342972681

 Bond Distances (Angstroems)
 ---------------------------
C1-C2=1.5296         C1-C15=1.5296        C1-H22=1.0933        C1-H23=1.0904        C2-C1=1.5296         C2-C3=1.3969         
C2-C21=1.3849        C3-C2=1.3969         C3-C4=1.3804         C3-C14=1.4242        C4-C3=1.3804         C4-C5=1.3969         
C4-C8=1.4242         C5-C4=1.3969         C5-C6=1.5296         C5-C20=1.3849        C6-C5=1.5296         C6-C7=1.5296         
C6-H24=1.0904        C6-H25=1.0933        C7-C6=1.5296         C7-C8=1.3969         C7-C19=1.3849        C8-C4=1.4242         
C8-C7=1.3969         C8-C9=1.3804         C9-C8=1.3804         C9-C10=1.3969        C9-C13=1.4242        C10-C9=1.3969        
C10-C11=1.5296       C10-C18=1.3849       C11-C10=1.5296       C11-C12=1.5296       C11-H26=1.0933       C11-H27=1.0904       
C12-C11=1.5296       C12-C13=1.3969       C12-C17=1.3849       C13-C9=1.4242        C13-C12=1.3969       C13-C14=1.3804       
C14-C3=1.4242        C14-C13=1.3804       C14-C15=1.3969       C15-C1=1.5296        C15-C14=1.3969       C15-C16=1.3849       
C16-C15=1.3849       C16-C17=1.4139       C16-H28=1.0814       C17-C12=1.3849       C17-C16=1.4139       C17-H29=1.0814       
C18-C10=1.3849       C18-C19=1.4139       C18-H30=1.0814       C19-C7=1.3849        C19-C18=1.4139       C19-H31=1.0814       
C20-C5=1.3849        C20-C21=1.4139       C20-H32=1.0814       C21-C2=1.3849        C21-C20=1.4139       C21-H33=1.0814       
H22-C1=1.0933        H23-C1=1.0904        H24-C6=1.0904        H25-C6=1.0933        H26-C11=1.0933       H27-C11=1.0904       
H28-C16=1.0814       H29-C17=1.0814       H30-C18=1.0814       H31-C19=1.0814       H32-C20=1.0814       H33-C21=1.0814       
 C  H  Rav=1.0866 sigma=0.0054  Rmin=1.0814  Rmax=1.0933    12
 C  C  Rav=1.4268 sigma=0.0565  Rmin=1.3804  Rmax=1.5296    27

 selected bond angles (degree)
 --------------------
C15-C1-C2=102.87               H22-C1-C2=111.31               H22-C1-C15=111.31              H23-C1-C2=111.70               
H23-C1-C15=111.70              H23-C1-H22=107.97              C3-C2-C1=107.09                C21-C2-C1=134.67               
C21-C2-C3=116.24               C4-C3-C2=121.92                C14-C3-C2=110.27               C14-C3-C4=120.00               
C5-C4-C3=121.92                C8-C4-C3=120.00                C8-C4-C5=110.27                C6-C5-C4=107.09                
C20-C5-C4=116.24               C20-C5-C6=134.67               C7-C6-C5=102.87                H24-C6-C5=111.70               
H24-C6-C7=111.70               H25-C6-C5=111.31               H25-C6-C7=111.31               H25-C6-H24=107.97              
C8-C7-C6=107.09                C19-C7-C6=134.67               C19-C7-C8=116.24               C7-C8-C4=110.27                
C9-C8-C4=120.00                C9-C8-C7=121.92                C10-C9-C8=121.92               C13-C9-C8=120.00               
C13-C9-C10=110.27              C11-C10-C9=107.09              C18-C10-C9=116.24              C18-C10-C11=134.67             

 selected dihedral angles (degree)
 ---------------------------------
C3-C2-C1-C15=345.21           C3-C2-C1-H22=104.50           C3-C2-C1-H23=225.27           C21-C2-C1-C15=147.78          
C21-C2-C1-H22=267.06          C21-C2-C1-H23= 27.83          C4-C3-C2-C1=158.86            C4-C3-C2-C21=352.61           
C14-C3-C2-C1=  9.77           C14-C3-C2-C21=203.51          C5-C4-C3-C2=  0.00            C5-C4-C3-C14=146.20           
C8-C4-C3-C2=213.80            C8-C4-C3-C14=  0.00           C6-C5-C4-C3=201.14            C6-C5-C4-C8=350.23            
C20-C5-C4-C3=  7.39           C20-C5-C4-C8=156.49           C7-C6-C5-C4= 14.79            C7-C6-C5-C20=212.22           
H24-C6-C5-C4=134.73           H24-C6-C5-C20=332.17          H25-C6-C5-C4=255.50           H25-C6-C5-C20= 92.94          
C8-C7-C6-C5=345.21            C8-C7-C6-H24=225.27           C8-C7-C6-H25=104.50           C19-C7-C6-C5=147.78           
C19-C7-C6-H24= 27.83          C19-C7-C6-H25=267.06          C7-C8-C4-C3=149.78            C7-C8-C4-C5=  0.00            
C9-C8-C4-C3=  0.00            C9-C8-C4-C5=210.22            C4-C8-C7-C6=  9.77            C4-C8-C7-C19=203.51           
C9-C8-C7-C6=158.86            C9-C8-C7-C19=352.61           C10-C9-C8-C4=146.20           C10-C9-C8-C7=  0.00           
C13-C9-C8-C4=  0.00           C13-C9-C8-C7=213.80           C11-C10-C9-C8=201.14          C11-C10-C9-C13=350.23         
C18-C10-C9-C8=  7.39          C18-C10-C9-C13=156.49         
           -------------------------------------------------
          |                Final Singlepoint                |
           -------------------------------------------------

          ...................................................
          :                      SETUP                      :
          :.................................................:
          :  # basis functions                  96          :
          :  # atomic orbitals                  96          :
          :  # shells                           54          :
          :  # electrons                        96          :
          :  max. iterations                   250          :
          :  Hamiltonian                  GFN2-xTB          :
          :  restarted?                      false          :
          :  GBSA solvation                  false          :
          :  PC potential                    false          :
          :  electronic temp.          300.0000000     K    :
          :  accuracy                    1.0000000          :
          :  -> integral cutoff          0.2500000E+02      :
          :  -> integral neglect         0.1000000E-07      :
          :  -> SCF convergence          0.1000000E-05 Eh   :
          :  -> wf. convergence          0.1000000E-03 e    :
          :  Broyden damping             0.4000000          :
          ...................................................

 iter      E             dE          RMSdq      gap      omega  full diag
   1    -52.0405540 -0.520406E+02  0.582E-05    3.21       0.0  T
   2    -52.0405540 -0.329550E-10  0.346E-05    3.21     502.5  T
   3    -52.0405540 -0.306812E-10  0.187E-05    3.21     930.1  T

   *** convergence criteria satisfied after 3 iterations ***

         #    Occupation            Energy/Eh            Energy/eV
      -------------------------------------------------------------
         1        2.0000           -0.6594327             -17.9441
       ...           ...                  ...                  ...
        42        2.0000           -0.4078496             -11.0982
        43        2.0000           -0.4078496             -11.0982
        44        2.0000           -0.4028385             -10.9618
        45        2.0000           -0.4028385             -10.9618
        46        2.0000           -0.3825933             -10.4109
        47        2.0000           -0.3635868              -9.8937
        48        2.0000           -0.3635867              -9.8937 (HOMO)
        49                         -0.2457645              -6.6876 (LUMO)
        50                         -0.2457645              -6.6876
        51                         -0.2334910              -6.3536
        52                         -0.1987780              -5.4090
        53                         -0.1987780              -5.4090
       ...                                ...                  ...
        96                          0.7623271              20.7440
      -------------------------------------------------------------
                  HL-Gap            0.1178222 Eh            3.2061 eV
             Fermi-level           -0.3046756 Eh           -8.2906 eV

 SCC (total)                   0 d,  0 h,  0 min,  0.089 sec
 SCC setup                      ...        0 min,  0.001 sec (  0.744%)
 Dispersion                     ...        0 min,  0.000 sec (  0.205%)
 classical contributions        ...        0 min,  0.000 sec (  0.094%)
 integral evaluation            ...        0 min,  0.003 sec (  2.884%)
 iterations                     ...        0 min,  0.076 sec ( 86.152%)
 molecular gradient             ...        0 min,  0.009 sec (  9.694%)
 printout                       ...        0 min,  0.000 sec (  0.204%)

         :::::::::::::::::::::::::::::::::::::::::::::::::::::
         ::                     SUMMARY                     ::
         :::::::::::::::::::::::::::::::::::::::::::::::::::::
         :: total energy             -51.075483997458 Eh    ::
         :: gradient norm              0.000792657615 Eh/a0 ::
         :: HOMO-LUMO gap              3.206105912209 eV    ::
         ::.................................................::
         :: SCC energy               -52.040553991208 Eh    ::
         :: -> isotropic ES            0.003005851347 Eh    ::
         :: -> anisotropic ES          0.004853387110 Eh    ::
         :: -> anisotropic XC          0.024319613566 Eh    ::
         :: -> dispersion             -0.045928357396 Eh    ::
         :: repulsion energy           0.964448605510 Eh    ::
         :: add. restraining           0.000000000000 Eh    ::
         :: total charge               0.000000000000 e     ::
         :::::::::::::::::::::::::::::::::::::::::::::::::::::

           -------------------------------------------------
          |                Property Printout                |
           -------------------------------------------------

    * Orbital Energies and Occupations

         #    Occupation            Energy/Eh            Energy/eV
      -------------------------------------------------------------
         1        2.0000           -0.6594327             -17.9441
       ...           ...                  ...                  ...
        36        2.0000           -0.4538351             -12.3495
        37        2.0000           -0.4375427             -11.9061
        38        2.0000           -0.4311753             -11.7329
        39        2.0000           -0.4257362             -11.5849
        40        2.0000           -0.4257361             -11.5849
        41        2.0000           -0.4150618             -11.2944
        42        2.0000           -0.4078496             -11.0982
        43        2.0000           -0.4078496             -11.0982
        44        2.0000           -0.4028385             -10.9618
        45        2.0000           -0.4028385             -10.9618
        46        2.0000           -0.3825933             -10.4109
        47        2.0000           -0.3635868              -9.8937
        48        2.0000           -0.3635867              -9.8937 (HOMO)
        49                         -0.2457645              -6.6876 (LUMO)
        50                         -0.2457645              -6.6876
        51                         -0.2334910              -6.3536
        52                         -0.1987780              -5.4090
        53                         -0.1987780              -5.4090
        54                         -0.1850367              -5.0351
        55                         -0.1211146              -3.2957
        56                         -0.1211146              -3.2957
        57                         -0.0814660              -2.2168
        58                          0.0497504               1.3538
        59                          0.0497504               1.3538
       ...                                ...                  ...
        96                          0.7623271              20.7440
      -------------------------------------------------------------
                  HL-Gap            0.1178222 Eh            3.2061 eV
             Fermi-level           -0.3046756 Eh           -8.2906 eV

     #   Z          covCN         q      C6AA      α(0)
     1   6 C        3.857    -0.061    21.641     6.616
     2   6 C        3.021    -0.002    28.051     8.688
     3   6 C        3.077    -0.005    28.070     8.686
     4   6 C        3.077    -0.005    28.070     8.686
     5   6 C        3.021    -0.002    28.051     8.688
     6   6 C        3.857    -0.061    21.641     6.616
     7   6 C        3.021    -0.002    28.051     8.688
     8   6 C        3.077    -0.005    28.070     8.686
     9   6 C        3.077    -0.005    28.070     8.686
    10   6 C        3.021    -0.002    28.051     8.688
    11   6 C        3.857    -0.061    21.641     6.616
    12   6 C        3.021    -0.002    28.051     8.688
    13   6 C        3.077    -0.005    28.070     8.686
    14   6 C        3.077    -0.005    28.070     8.686
    15   6 C        3.021    -0.002    28.051     8.688
    16   6 C        2.922    -0.042    29.049     8.839
    17   6 C        2.922    -0.042    29.049     8.839
    18   6 C        2.922    -0.042    29.049     8.839
    19   6 C        2.922    -0.042    29.049     8.839
    20   6 C        2.922    -0.042    29.049     8.839
    21   6 C        2.922    -0.042    29.049     8.839
    22   1 H        0.924     0.057     2.233     2.337
    23   1 H        0.924     0.048     2.347     2.396
    24   1 H        0.924     0.048     2.347     2.396
    25   1 H        0.924     0.057     2.233     2.337
    26   1 H        0.924     0.057     2.233     2.337
    27   1 H        0.924     0.048     2.347     2.396
    28   1 H        0.925     0.028     2.619     2.531
    29   1 H        0.925     0.028     2.619     2.531
    30   1 H        0.925     0.028     2.619     2.531
    31   1 H        0.925     0.028     2.619     2.531
    32   1 H        0.925     0.028     2.619     2.531
    33   1 H        0.925     0.028     2.619     2.531

 Mol. C6AA /au·bohr⁶  :      16528.167881
 Mol. C8AA /au·bohr⁸  :     429956.457053
 Mol. α(0) /au        :        206.506794


Wiberg/Mayer (AO) data.
largest (>0.10) Wiberg bond orders for each atom

 ---------------------------------------------------------------------------
     #   Z sym  total        # sym  WBO       # sym  WBO       # sym  WBO
 ---------------------------------------------------------------------------
     1   6 C    3.995 --    15 C    1.002     2 C    1.002    23 H    0.962
                            22 H    0.948
     2   6 C    3.981 --    21 C    1.466     3 C    1.304     1 C    1.002
                             5 C    0.101
     3   6 C    3.984 --     4 C    1.320     2 C    1.304    14 C    1.127
     4   6 C    3.984 --     3 C    1.320     5 C    1.304     8 C    1.127
     5   6 C    3.981 --    20 C    1.466     4 C    1.304     6 C    1.002
                             2 C    0.101
     6   6 C    3.995 --     7 C    1.002     5 C    1.002    24 H    0.962
                            25 H    0.948
     7   6 C    3.981 --    19 C    1.466     8 C    1.304     6 C    1.002
                            10 C    0.101
     8   6 C    3.984 --     9 C    1.320     7 C    1.304     4 C    1.127
     9   6 C    3.984 --     8 C    1.320    10 C    1.304    13 C    1.127
    10   6 C    3.981 --    18 C    1.466     9 C    1.304    11 C    1.002
                             7 C    0.101
    11   6 C    3.995 --    10 C    1.002    12 C    1.002    27 H    0.962
                            26 H    0.948
    12   6 C    3.981 --    17 C    1.466    13 C    1.304    11 C    1.002
                            15 C    0.101
    13   6 C    3.984 --    14 C    1.320    12 C    1.304     9 C    1.127
    14   6 C    3.984 --    13 C    1.320    15 C    1.304     3 C    1.127
    15   6 C    3.981 --    16 C    1.466    14 C    1.304     1 C    1.002
                            12 C    0.101
    16   6 C    3.979 --    15 C    1.466    17 C    1.374    28 H    0.970
    17   6 C    3.979 --    12 C    1.466    16 C    1.374    29 H    0.970
    18   6 C    3.979 --    10 C    1.466    19 C    1.374    30 H    0.970
    19   6 C    3.979 --     7 C    1.466    18 C    1.374    31 H    0.970
    20   6 C    3.979 --     5 C    1.466    21 C    1.374    32 H    0.970
    21   6 C    3.979 --     2 C    1.466    20 C    1.374    33 H    0.970
    22   1 H    0.996 --     1 C    0.948
    23   1 H    0.997 --     1 C    0.962
    24   1 H    0.997 --     6 C    0.962
    25   1 H    0.996 --     6 C    0.948
    26   1 H    0.996 --    11 C    0.948
    27   1 H    0.997 --    11 C    0.962
    28   1 H    0.998 --    16 C    0.970
    29   1 H    0.998 --    17 C    0.970
    30   1 H    0.998 --    18 C    0.970
    31   1 H    0.998 --    19 C    0.970
    32   1 H    0.998 --    20 C    0.970
    33   1 H    0.998 --    21 C    0.970
 ---------------------------------------------------------------------------

Topologies differ in total number of bonds
Writing topology from bond orders to xtbtopo.mol

molecular dipole:
                 x           y           z       tot (Debye)
 q only:       -0.017      -0.001      -0.236
   full:       -0.035      -0.001      -0.486       1.239
molecular quadrupole (traceless):
                xx          xy          yy          xz          yz          zz
 q only:        2.003      -0.001       2.035      -0.441      -0.014      -4.039
  q+dip:        4.313      -0.002       4.382      -0.950      -0.029      -8.694
   full:        2.419      -0.001       2.458      -0.533      -0.016      -4.877

           -------------------------------------------------
          |                Geometry Summary                 |
           -------------------------------------------------

      molecular mass/u    :      264.3207429
   center of mass at/Å    :        0.0170235       0.0005269       0.2342715
  moments of inertia/u·Å² :        0.1079100E+04   0.1079100E+04   0.2028339E+04
rotational constants/cm⁻¹ :        0.1562194E-01   0.1562193E-01   0.8311053E-02

 * 33 selected distances

     #   Z          #   Z                                           value/Å
     2   6 C        3   6 C                                       1.3968602
     3   6 C        4   6 C                                       1.3804359
     4   6 C        5   6 C                                       1.3968602
     4   6 C        8   6 C                                       1.4241784
     7   6 C        8   6 C                                       1.3968603
     8   6 C        9   6 C                                       1.3804358
     9   6 C       10   6 C                                       1.3968602
     9   6 C       13   6 C                                       1.4241784 (max)
    12   6 C       13   6 C                                       1.3968602
     3   6 C       14   6 C                                       1.4241784
    13   6 C       14   6 C                                       1.3804359
    14   6 C       15   6 C                                       1.3968602
    15   6 C       16   6 C                                       1.3849203
    12   6 C       17   6 C                                       1.3849203
    16   6 C       17   6 C                                       1.4139062
    10   6 C       18   6 C                                       1.3849203
     7   6 C       19   6 C                                       1.3849203
    18   6 C       19   6 C                                       1.4139062
     5   6 C       20   6 C                                       1.3849203
     2   6 C       21   6 C                                       1.3849204
    20   6 C       21   6 C                                       1.4139062
     1   6 C       22   1 H                                       1.0933413
     1   6 C       23   1 H                                       1.0904218
     6   6 C       24   1 H                                       1.0904216
     6   6 C       25   1 H                                       1.0933413
    11   6 C       26   1 H                                       1.0933413
    11   6 C       27   1 H                                       1.0904217
    16   6 C       28   1 H                                       1.0813513 (min)
    17   6 C       29   1 H                                       1.0813513
    18   6 C       30   1 H                                       1.0813514
    19   6 C       31   1 H                                       1.0813514
    20   6 C       32   1 H                                       1.0813513
    21   6 C       33   1 H                                       1.0813513

 * 2 distinct bonds (by element types)

   Z      Z             #   av. dist./Å        max./Å        min./Å
   1 H    6 C          12     1.0866164     1.0933413     1.0813513
   6 C    6 C          21     1.3974402     1.4241784     1.3804358


optimized geometry written to: xtbopt.xyz


           -------------------------------------------------
          | TOTAL ENERGY              -51.075483997458 Eh   |
          | GRADIENT NORM               0.000792657615 Eh/α |
          | HOMO-LUMO GAP               3.206105912209 eV   |
           -------------------------------------------------

------------------------------------------------------------------------
 * finished run on 2026/07/30 at 00:20:20.936     
------------------------------------------------------------------------
 total:
 * wall-time:     0 d,  0 h,  0 min,  2.453 sec
 *  cpu-time:     0 d,  0 h,  0 min, 16.165 sec
 * ratio c/w:     6.590 speedup
 SCF:
 * wall-time:     0 d,  0 h,  0 min,  0.561 sec
 *  cpu-time:     0 d,  0 h,  0 min,  3.401 sec
 * ratio c/w:     6.066 speedup
 ANC optimizer:
 * wall-time:     0 d,  0 h,  0 min,  1.828 sec
 *  cpu-time:     0 d,  0 h,  0 min, 12.361 sec
 * ratio c/w:     6.761 speedup

