33
 energy: -51.075483997458 gnorm: 0.000792657615 xtb: 6.5.1 (b24c23e)
C           -3.03274631510755       -1.17439108222053        0.23796007991237
C           -2.58812444994128        0.27341794553402        0.45219290329123
C           -1.31297290092720        0.23125647794970        1.02090108788333
C           -0.44875181624806        1.30571991162728        0.95568517024111
C           -0.79907296171160        2.49769895277757        0.31718754609984
C            0.50315579253638        3.22170374431085       -0.02886526528075
C            1.55805178538721        2.12804310370481        0.14673658220983
C            0.95465314716606        1.08563112858781        0.85420078999269
C            1.45073254777998       -0.20216117027418        0.82104962550242
C            2.58500155169435       -0.53785685641126        0.07810925234923
C            2.53283133428964       -2.04721217724432       -0.16450148840289
C            1.08748193932702       -2.39968409034398        0.19111620525739
C            0.55912654022319       -1.31067160988181        0.88833246326015
C           -0.80117399109587       -1.09734268896747        0.98669954951209
C           -1.72851945197202       -1.95806501076938        0.39474888753384
C           -1.21826855396734       -3.12004335452818       -0.15973677811763
C            0.17501410007382       -3.33854476401668       -0.26048877430563
C            3.27606853293717        0.51691587385619       -0.49450308149149
C            2.76796108236730        1.83593230762922       -0.46054809127374
C           -2.11315842909143        2.60141354174649       -0.10757904141430
C           -2.99833352469746        1.50089840349875       -0.04078202818067
H           -3.77093676263980       -1.47798915582042        0.98515354526524
H           -3.47378596270646       -1.31888625185614       -0.74876412244071
H            0.49029008054865        3.60954897423234       -1.04789893342041
H            0.68369230714702        4.06033216599578        0.64900187893797
H            3.24073370373770       -2.57759255342046        0.47812271077337
H            2.76574657862524       -2.29740147058355       -1.19996033985291
H           -1.87214905114511       -3.82805741919215       -0.65012115581300
H            0.50651683645881       -4.20109149119871       -0.82212884064014
H            4.15510512420157        0.33510419761142       -1.09746224270943
H            3.28764449521584        2.58697993775597       -1.03949298190558
H           -2.45530413654944        3.48761772737261       -0.62420168304606
H           -3.96650917191638        1.60877575253842       -0.51016342972681
