33

C     -2.964374   -1.147325    0.209612
C     -2.532078    0.261852    0.561542
C     -1.289929    0.210271    1.155048
C     -0.415384    1.297571    1.089052
C     -0.769219    2.453566    0.428517
C      0.489877    3.147263   -0.051040
C      1.532120    2.092659    0.262094
C      0.939468    1.085097    0.991078
C      1.441473   -0.218079    0.957532
C      2.544033   -0.534206    0.194469
C      2.472684   -1.999990   -0.183552
C      1.081954   -2.351974    0.304808
C      0.580714   -1.288239    1.022487
C     -0.795838   -1.072363    1.122032
C     -1.692817   -1.916823    0.505467
C     -1.213546   -3.054156   -0.180802
C      0.187668   -3.273898   -0.282135
C      3.214510    0.489304   -0.510567
C      2.703513    1.815829   -0.476413
C     -2.060795    2.562994   -0.131882
C     -2.951007    1.456213   -0.064713
H     -3.795368   -1.484284    0.864011
H     -3.232266   -1.222838   -0.866163
H      0.441929    3.345244   -1.143409
H      0.677377    4.076560    0.526530
H      3.244821   -2.588351    0.354940
H      2.551004   -2.129806   -1.284360
H     -1.895737   -3.667815   -0.754413
H      0.562886   -4.053391   -0.932213
H      4.016826    0.240802   -1.192867
H      3.120209    2.568377   -1.132946
H     -2.316352    3.420969   -0.739803
H     -3.878356    1.478966   -0.621941
