      -----------------------------------------------------------      
     |                   =====================                   |     
     |                           x T B                           |     
     |                   =====================                   |     
     |                         S. Grimme                         |     
     |          Mulliken Center for Theoretical Chemistry        |     
     |                    University of Bonn                     |     
      -----------------------------------------------------------      

   * xtb version 6.5.1 (b24c23e) compiled by 'conda@728c89f4b128' on 2022-07-12

   xtb is free software: you can redistribute it and/or modify it under
   the terms of the GNU Lesser General Public License as published by
   the Free Software Foundation, either version 3 of the License, or
   (at your option) any later version.
   
   xtb is distributed in the hope that it will be useful,
   but WITHOUT ANY WARRANTY; without even the implied warranty of
   MERCHANTABILITY or FITNESS FOR A PARTICULAR PURPOSE.  See the
   GNU Lesser General Public License for more details.
   
   Cite this work as:
   * C. Bannwarth, E. Caldeweyher, S. Ehlert, A. Hansen, P. Pracht,
     J. Seibert, S. Spicher, S. Grimme, WIREs Comput. Mol. Sci., 2020, 11,
     e01493. DOI: 10.1002/wcms.1493
   
   for GFN2-xTB:
   * C. Bannwarth, S. Ehlert and S. Grimme., J. Chem. Theory Comput., 2019,
     15, 1652-1671. DOI: 10.1021/acs.jctc.8b01176
   for GFN1-xTB:
   * S. Grimme, C. Bannwarth, P. Shushkov, J. Chem. Theory Comput., 2017,
     13, 1989-2009. DOI: 10.1021/acs.jctc.7b00118
   for GFN0-xTB:
   * P. Pracht, E. Caldeweyher, S. Ehlert, S. Grimme, ChemRxiv, 2019, preprint.
     DOI: 10.26434/chemrxiv.8326202.v1
   for GFN-FF:
   * S. Spicher and S. Grimme, Angew. Chem. Int. Ed., 2020, 59, 15665-15673.
     DOI: 10.1002/anie.202004239
   
   for ALPB and GBSA implicit solvation:
   * S. Ehlert, M. Stahn, S. Spicher, S. Grimme, J. Chem. Theory Comput.,
     2021, 17, 4250-4261. DOI: 10.1021/acs.jctc.1c00471
   
   for DFT-D4:
   * E. Caldeweyher, C. Bannwarth and S. Grimme, J. Chem. Phys., 2017,
     147, 034112. DOI: 10.1063/1.4993215
   * E. Caldeweyher, S. Ehlert, A. Hansen, H. Neugebauer, S. Spicher,
     C. Bannwarth and S. Grimme, J. Chem. Phys., 2019, 150, 154122.
     DOI: 10.1063/1.5090222
   * E. Caldeweyher, J.-M. Mewes, S. Ehlert and S. Grimme, Phys. Chem. Chem. Phys.
     2020, 22, 8499-8512. DOI: 10.1039/D0CP00502A
   
   for sTDA-xTB:
   * S. Grimme and C. Bannwarth, J. Chem. Phys., 2016, 145, 054103.
     DOI: 10.1063/1.4959605
   
   in the mass-spec context:
   * V. Asgeirsson, C. Bauer and S. Grimme, Chem. Sci., 2017, 8, 4879.
     DOI: 10.1039/c7sc00601b
   * J. Koopman and S. Grimme, ACS Omega 2019, 4, 12, 15120-15133.
     DOI: 10.1021/acsomega.9b02011
   
   for metadynamics refer to:
   * S. Grimme, J. Chem. Theory Comput., 2019, 155, 2847-2862
     DOI: 10.1021/acs.jctc.9b00143
   
   for SPH calculations refer to:
   * S. Spicher and S. Grimme, J. Chem. Theory Comput., 2021, 17, 1701-1714
     DOI: 10.1021/acs.jctc.0c01306
   
   with help from (in alphabetical order)
   P. Atkinson, C. Bannwarth, F. Bohle, G. Brandenburg, E. Caldeweyher
   M. Checinski, S. Dohm, S. Ehlert, S. Ehrlich, I. Gerasimov, C. Hölzer
   A. Katbashev, J. Koopman, C. Lavigne, S. Lehtola, F. März, M. Müller,
   F. Musil, H. Neugebauer, J. Pisarek, C. Plett, P. Pracht, F. Pultar,
   J. Seibert, P. Shushkov, S. Spicher, M. Stahn, M. Steiner, T. Strunk,
   J. Stückrath, T. Rose, and J. Unsleber
   
 * started run on 2026/08/13 at 17:51:53.232     

           -------------------------------------------------
          |                Calculation Setup                |
           -------------------------------------------------

          program call               : /h/332/chchoi/miniconda3/envs/el-agente/bin/xtb CpRu_sumanene_peripheral_concave_init.xyz --opt --gfn 2 -P 4 --chrg 1 --uhf 0 --input detailed_input.inp
          coordinate file            : CpRu_sumanene_peripheral_concave_init.xyz
          omp threads                :                     4

   ID    Z sym.   atoms
    1    6 C      1-21, 35-39
    2    1 H      22-33, 40-44
    3   44 Ru     34
constraining bond 34 2 to    2.2000000 Å, actual value:    2.1827304 Å
constraining bond 34 3 to    2.2000000 Å, actual value:    2.2059879 Å
constraining bond 34 4 to    2.2000000 Å, actual value:    2.2059879 Å
constraining bond 34 5 to    2.2000000 Å, actual value:    2.1827304 Å
constraining bond 34 20 to    2.2000000 Å, actual value:    2.2106848 Å
constraining bond 34 21 to    2.2000000 Å, actual value:    2.2106848 Å
constraining bond 34 35 to    2.2200000 Å, actual value:    2.4921551 Å
constraining bond 34 36 to    2.2200000 Å, actual value:    2.4921497 Å
constraining bond 34 37 to    2.2200000 Å, actual value:    2.4921575 Å
constraining bond 34 38 to    2.2200000 Å, actual value:    2.4921575 Å
constraining bond 34 39 to    2.2200000 Å, actual value:    2.4921497 Å

           -------------------------------------------------
          |                 G F N 2 - x T B                 |
           -------------------------------------------------

        Reference                      10.1021/acs.jctc.8b01176
      * Hamiltonian:
        H0-scaling (s, p, d)           1.850000    2.230000    2.230000
        zeta-weighting                 0.500000
      * Dispersion:
        s8                             2.700000
        a1                             0.520000
        a2                             5.000000
        s9                             5.000000
      * Repulsion:
        kExp                           1.500000    1.000000
        rExp                           1.000000
      * Coulomb:
        alpha                          2.000000
        third order                    shell-resolved
        anisotropic                    true
        a3                             3.000000
        a5                             4.000000
        cn-shift                       1.200000
        cn-exp                         4.000000
        max-rad                        5.000000


          ...................................................
          :                      SETUP                      :
          :.................................................:
          :  # basis functions                 131          :
          :  # atomic orbitals                 130          :
          :  # shells                           72          :
          :  # electrons                       128          :
          :  max. iterations                   250          :
          :  Hamiltonian                  GFN2-xTB          :
          :  restarted?                      false          :
          :  GBSA solvation                  false          :
          :  PC potential                    false          :
          :  electronic temp.          300.0000000     K    :
          :  accuracy                    1.0000000          :
          :  -> integral cutoff          0.2500000E+02      :
          :  -> integral neglect         0.1000000E-07      :
          :  -> SCF convergence          0.1000000E-05 Eh   :
          :  -> wf. convergence          0.1000000E-03 e    :
          :  Broyden damping             0.4000000          :
          ...................................................

 iter      E             dE          RMSdq      gap      omega  full diag
   1    -65.9460269 -0.659460E+02  0.876E+00    0.74       0.0  T
   2    -58.6885333  0.725749E+01  0.119E+01    0.83       1.0  T
   3    -64.3757559 -0.568722E+01  0.718E+00    0.61       1.0  T
   4    -67.7704595 -0.339470E+01  0.347E+00    1.37       1.0  T
   5    -68.1065862 -0.336127E+00  0.215E+00    0.62       1.0  T
   6    -68.2171297 -0.110544E+00  0.113E+00    0.86       1.0  T
   7    -68.2565399 -0.394102E-01  0.674E-01    1.20       1.0  T
   8    -68.2757541 -0.192142E-01  0.299E-01    1.35       1.0  T
   9    -68.2780865 -0.233235E-02  0.195E-01    1.38       1.0  T
  10    -68.2793796 -0.129313E-02  0.114E-01    1.38       1.0  T
  11    -68.2795744 -0.194763E-03  0.863E-02    1.39       1.0  T
  12    -68.2797016 -0.127201E-03  0.331E-02    1.39       1.0  T
  13    -68.2797239 -0.223107E-04  0.127E-02    1.39       1.2  T
  14    -68.2797254 -0.150461E-05  0.834E-03    1.39       1.8  T
  15    -68.2797265 -0.105380E-05  0.496E-03    1.39       3.0  T
  16    -68.2797268 -0.292315E-06  0.267E-03    1.39       5.7  T
  17    -68.2797268 -0.756438E-07  0.755E-04    1.39      20.0  T
  18    -68.2797268 -0.719689E-08  0.425E-04    1.39      35.5  T

   *** convergence criteria satisfied after 18 iterations ***

         #    Occupation            Energy/Eh            Energy/eV
      -------------------------------------------------------------
         1        2.0000           -0.8448730             -22.9902
       ...           ...                  ...                  ...
        58        2.0000           -0.5250797             -14.2881
        59        2.0000           -0.5208337             -14.1726
        60        2.0000           -0.5096939             -13.8695
        61        2.0000           -0.5059790             -13.7684
        62        2.0000           -0.4896365             -13.3237
        63        2.0000           -0.4884779             -13.2922
        64        2.0000           -0.4852439             -13.2042 (HOMO)
        65                         -0.4341597             -11.8141 (LUMO)
        66                         -0.4271056             -11.6221
        67                         -0.3872050             -10.5364
        68                         -0.3822326             -10.4011
        69                         -0.3695462             -10.0559
       ...                                ...                  ...
       130                          3.3990145              92.4919
      -------------------------------------------------------------
                  HL-Gap            0.0510842 Eh            1.3901 eV
             Fermi-level           -0.4596814 Eh          -12.5086 eV

 SCC (total)                   0 d,  0 h,  0 min,  1.351 sec
 SCC setup                      ...        0 min,  0.012 sec (  0.899%)
 Dispersion                     ...        0 min,  0.002 sec (  0.165%)
 classical contributions        ...        0 min,  0.019 sec (  1.422%)
 integral evaluation            ...        0 min,  0.055 sec (  4.060%)
 iterations                     ...        0 min,  1.122 sec ( 83.058%)
 molecular gradient             ...        0 min,  0.132 sec (  9.765%)
 printout                       ...        0 min,  0.008 sec (  0.628%)

         :::::::::::::::::::::::::::::::::::::::::::::::::::::
         ::                     SUMMARY                     ::
         :::::::::::::::::::::::::::::::::::::::::::::::::::::
         :: total energy             -66.449354363120 Eh    ::
         :: gradient norm              2.586959523377 Eh/a0 ::
         :: HOMO-LUMO gap              1.390072847034 eV    ::
         ::.................................................::
         :: SCC energy               -68.279726834121 Eh    ::
         :: -> isotropic ES            0.055572931514 Eh    ::
         :: -> anisotropic ES         -0.010117153491 Eh    ::
         :: -> anisotropic XC          0.033984001057 Eh    ::
         :: -> dispersion             -0.073241866955 Eh    ::
         :: repulsion energy           1.164876710593 Eh    ::
         :: add. restraining           0.662852496250 Eh    ::
         :: total charge               1.000000000000 e     ::
         :::::::::::::::::::::::::::::::::::::::::::::::::::::

      ----------------------------------------------------------- 
     |                   =====================                   |
     |                        A N C O P T                        |
     |                   =====================                   |
     |               Approximate Normal Coordinate               |
     |                Rational Function Optimizer                |
      ----------------------------------------------------------- 

          ...................................................
          :                      SETUP                      :
          :.................................................:
          :   optimization level            normal          :
          :   max. optcycles                   200          :
          :   ANC micro-cycles                  20          :
          :   degrees of freedom               126          :
          :.................................................:
          :   RF solver                   davidson          :
          :   write xtbopt.log                true          :
          :   linear?                        false          :
          :   energy convergence         0.5000000E-05 Eh   :
          :   grad. convergence          0.1000000E-02 Eh/α :
          :   maximium RF displ.         1.0000000          :
          :   Hlow (freq-cutoff)         0.1000000E-01      :
          :   Hmax (freq-cutoff)         5.0000000          :
          :   S6 in model hess.         20.0000000          :
          ...................................................

generating ANC from model Hessian ...
Using Lindh-Hessian (1995)
 Shifting diagonal of input Hessian by    6.9835314046261063E-003
 Lowest  eigenvalues of input Hessian
    0.000000    0.000000    0.000000    0.000000    0.000000    0.000000
    0.010000    0.010371    0.012247    0.014983    0.017235    0.019934
    0.020307    0.021175    0.021463    0.021727    0.024364    0.025005
 Highest eigenvalues
    2.078312    2.235843    2.236823    3.454495    3.584112    8.964118


........................................................................
.............................. CYCLE    1 ..............................
........................................................................
   1    -68.2797268 -0.682797E+02  0.264E-04    1.39       0.0  T
   2    -68.2797268  0.195882E-09  0.421E-04    1.39      35.8  T
   3    -68.2797268 -0.531671E-09  0.547E-05    1.39     275.6  T
     SCC iter.                  ...        0 min,  0.169 sec
     gradient                   ...        0 min,  0.131 sec
 * total energy  :   -66.4493544 Eh     change       -0.2045226E-08 Eh
   gradient norm :     2.5869579 Eh/α   predicted     0.0000000E+00 (-100.00%)
   displ. norm   :     0.5243504 α      lambda       -0.1247435E+01
   maximum displ.:     0.3898366 α      in ANC's #126, #109, #77, ...

........................................................................
.............................. CYCLE    2 ..............................
........................................................................
   1    -68.3182040 -0.683182E+02  0.153E+00    1.68       0.0  T
   2    -68.3142716  0.393238E-02  0.123E+00    1.45       1.0  T
   3    -68.3177064 -0.343474E-02  0.398E-01    1.60       1.0  T
   4    -68.3171212  0.585158E-03  0.471E-01    1.52       1.0  T
   5    -68.3240898 -0.696857E-02  0.193E-01    1.57       1.0  T
   6    -68.3245455 -0.455712E-03  0.314E-02    1.55       1.0  T
   7    -68.3245627 -0.171766E-04  0.144E-02    1.56       1.0  T
   8    -68.3245635 -0.885666E-06  0.614E-03    1.56       2.5  T
   9    -68.3245636 -0.108675E-06  0.264E-03    1.56       5.7  T
  10    -68.3245636  0.710016E-08  0.142E-03    1.56      10.6  T
  11    -68.3245637 -0.248864E-07  0.585E-04    1.56      25.8  T
  12    -68.3245637 -0.290204E-08  0.282E-04    1.56      53.5  T
     SCC iter.                  ...        0 min,  0.573 sec
     gradient                   ...        0 min,  0.082 sec
 * total energy  :   -66.9646116 Eh     change       -0.5152572E+00 Eh
   gradient norm :     1.0705527 Eh/α   predicted    -0.7952071E+00 (  54.33%)
   displ. norm   :     0.4430769 α      lambda       -0.2840021E+00
   maximum displ.:     0.2625657 α      in ANC's #77, #109, #62, ...

........................................................................
.............................. CYCLE    3 ..............................
........................................................................
   1    -68.3497476 -0.683497E+02  0.600E-01    1.87       0.0  T
   2    -68.3412359  0.851164E-02  0.583E-01    1.90       1.0  T
   3    -68.3466650 -0.542908E-02  0.353E-01    1.83       1.0  T
   4    -68.3517589 -0.509389E-02  0.145E-01    1.86       1.0  T
   5    -68.3519675 -0.208613E-03  0.443E-02    1.86       1.0  T
   6    -68.3520090 -0.414928E-04  0.104E-02    1.87       1.5  T
   7    -68.3520093 -0.286034E-06  0.752E-03    1.87       2.0  T
   8    -68.3520095 -0.196746E-06  0.282E-03    1.87       5.3  T
   9    -68.3520095 -0.126860E-07  0.137E-03    1.86      11.0  T
  10    -68.3520096 -0.511052E-07  0.397E-04    1.86      38.0  T
  11    -68.3520096 -0.239018E-08  0.176E-04    1.86      85.4  T
     SCC iter.                  ...        0 min,  0.538 sec
     gradient                   ...        0 min,  0.084 sec
 * total energy  :   -67.1275012 Eh     change       -0.1628896E+00 Eh
   gradient norm :     0.1051932 Eh/α   predicted    -0.1698796E+00 (   4.29%)
   displ. norm   :     0.4075666 α      lambda       -0.2577281E-01
   maximum displ.:     0.2386093 α      in ANC's #6, #11, #45, ...

........................................................................
.............................. CYCLE    4 ..............................
........................................................................
   1    -68.3431649 -0.683432E+02  0.204E-01    2.00       0.0  T
   2    -68.3424680  0.696918E-03  0.167E-01    2.01       1.0  T
   3    -68.3424578  0.102381E-04  0.157E-01    1.98       1.0  T
   4    -68.3433300 -0.872262E-03  0.559E-02    2.00       1.0  T
   5    -68.3434170 -0.869409E-04  0.139E-02    1.99       1.1  T
   6    -68.3434198 -0.284374E-05  0.479E-03    1.99       3.1  T
   7    -68.3434199 -0.587579E-07  0.352E-03    1.99       4.3  T
   8    -68.3434200 -0.111920E-06  0.193E-03    1.99       7.8  T
   9    -68.3434200 -0.203281E-07  0.125E-03    1.99      12.1  T
  10    -68.3434200 -0.137978E-07  0.335E-04    1.99      45.0  T
  11    -68.3434200 -0.455898E-09  0.125E-04    1.99     121.0  T
     SCC iter.                  ...        0 min,  0.505 sec
     gradient                   ...        0 min,  0.072 sec
 * total energy  :   -67.1439193 Eh     change       -0.1641814E-01 Eh
   gradient norm :     0.0308739 Eh/α   predicted    -0.1502702E-01 (  -8.47%)
   displ. norm   :     0.3654232 α      lambda       -0.5264371E-02
   maximum displ.:     0.1932247 α      in ANC's #3, #2, #6, ...

........................................................................
.............................. CYCLE    5 ..............................
........................................................................
   1    -68.3251743 -0.683252E+02  0.130E-01    2.03       0.0  T
   2    -68.3249499  0.224377E-03  0.127E-01    2.05       1.0  T
   3    -68.3251087 -0.158835E-03  0.787E-02    2.03       1.0  T
   4    -68.3249721  0.136602E-03  0.761E-02    2.05       1.0  T
   5    -68.3252503 -0.278129E-03  0.878E-03    2.04       1.7  T
   6    -68.3252524 -0.213125E-05  0.345E-03    2.04       4.4  T
   7    -68.3252524 -0.390761E-07  0.175E-03    2.04       8.6  T
   8    -68.3252525 -0.380073E-07  0.707E-04    2.04      21.3  T
   9    -68.3252525 -0.631911E-08  0.557E-04    2.04      27.1  T
     SCC iter.                  ...        0 min,  0.407 sec
     gradient                   ...        0 min,  0.041 sec
 * total energy  :   -67.1472956 Eh     change       -0.3376315E-02 Eh
   gradient norm :     0.0090548 Eh/α   predicted    -0.2983937E-02 ( -11.62%)
   displ. norm   :     0.3316914 α      lambda       -0.1398597E-02
   maximum displ.:     0.2153901 α      in ANC's #3, #2, #4, ...

........................................................................
.............................. CYCLE    6 ..............................
........................................................................
   1    -68.3190339 -0.683190E+02  0.131E-01    2.04       0.0  T
   2    -68.3190171  0.168569E-04  0.143E-01    2.05       1.0  T
   3    -68.3190657 -0.486410E-04  0.498E-02    2.04       1.0  T
   4    -68.3190511  0.145627E-04  0.248E-02    2.05       1.0  T
   5    -68.3190625 -0.114007E-04  0.898E-03    2.04       1.7  T
   6    -68.3190670 -0.447827E-05  0.273E-03    2.04       5.5  T
   7    -68.3190672 -0.150781E-06  0.165E-03    2.04       9.1  T
   8    -68.3190672 -0.204691E-07  0.664E-04    2.04      22.7  T
   9    -68.3190672 -0.134148E-08  0.231E-04    2.04      65.1  T
     SCC iter.                  ...        0 min,  0.450 sec
     gradient                   ...        0 min,  0.142 sec
 * total energy  :   -67.1482956 Eh     change       -0.1000011E-02 Eh
   gradient norm :     0.0091421 Eh/α   predicted    -0.7763047E-03 ( -22.37%)
   displ. norm   :     0.3358414 α      lambda       -0.8186213E-03
   maximum displ.:     0.2347985 α      in ANC's #3, #2, #4, ...

........................................................................
.............................. CYCLE    7 ..............................
........................................................................
   1    -68.3162779 -0.683163E+02  0.150E-01    2.05       0.0  T
   2    -68.3162528  0.250388E-04  0.176E-01    2.05       1.0  T
   3    -68.3163159 -0.630614E-04  0.464E-02    2.04       1.0  T
   4    -68.3163038  0.121071E-04  0.177E-02    2.05       1.0  T
   5    -68.3163134 -0.960215E-05  0.784E-03    2.04       1.9  T
   6    -68.3163166 -0.317413E-05  0.366E-03    2.05       4.1  T
   7    -68.3163169 -0.347565E-06  0.166E-03    2.05       9.1  T
   8    -68.3163169 -0.262639E-07  0.593E-04    2.05      25.4  T
   9    -68.3163169 -0.657153E-09  0.183E-04    2.05      82.4  T
     SCC iter.                  ...        0 min,  0.629 sec
     gradient                   ...        0 min,  0.119 sec
 * total energy  :   -67.1488865 Eh     change       -0.5909046E-03 Eh
   gradient norm :     0.0078608 Eh/α   predicted    -0.4554840E-03 ( -22.92%)
   displ. norm   :     0.2693513 α      lambda       -0.4455894E-03
   maximum displ.:     0.1883886 α      in ANC's #3, #2, #4, ...

........................................................................
.............................. CYCLE    8 ..............................
........................................................................
   1    -68.3193159 -0.683193E+02  0.128E-01    2.04       0.0  T
   2    -68.3192928  0.230785E-04  0.148E-01    2.04       1.0  T
   3    -68.3193413 -0.485084E-04  0.394E-02    2.04       1.0  T
   4    -68.3192878  0.534950E-04  0.300E-02    2.04       1.0  T
   5    -68.3193430 -0.551700E-04  0.481E-03    2.04       3.1  T
   6    -68.3193438 -0.831498E-06  0.306E-03    2.04       4.9  T
   7    -68.3193440 -0.135530E-06  0.135E-03    2.04      11.2  T
   8    -68.3193440 -0.142364E-07  0.492E-04    2.04      30.7  T
   9    -68.3193440 -0.279854E-09  0.178E-04    2.04      84.9  T
     SCC iter.                  ...        0 min,  0.452 sec
     gradient                   ...        0 min,  0.158 sec
 * total energy  :   -67.1492015 Eh     change       -0.3149924E-03 Eh
   gradient norm :     0.0053669 Eh/α   predicted    -0.2389724E-03 ( -24.13%)
   displ. norm   :     0.2071267 α      lambda       -0.2235466E-03
   maximum displ.:     0.1489100 α      in ANC's #3, #2, #4, ...

........................................................................
.............................. CYCLE    9 ..............................
........................................................................
   1    -68.3216833 -0.683217E+02  0.104E-01    2.04       0.0  T
   2    -68.3216716  0.116791E-04  0.124E-01    2.04       1.0  T
   3    -68.3216986 -0.270182E-04  0.280E-02    2.04       1.0  T
   4    -68.3216983  0.362630E-06  0.729E-03    2.04       2.1  T
   5    -68.3216988 -0.560580E-06  0.174E-03    2.04       8.7  T
   6    -68.3216989 -0.764285E-07  0.701E-04    2.04      21.5  T
   7    -68.3216989  0.265062E-07  0.852E-04    2.04      17.7  T
     SCC iter.                  ...        0 min,  0.402 sec
     gradient                   ...        0 min,  0.055 sec
 * total energy  :   -67.1493533 Eh     change       -0.1517931E-03 Eh
   gradient norm :     0.0040318 Eh/α   predicted    -0.1165726E-03 ( -23.20%)
   displ. norm   :     0.1407888 α      lambda       -0.1055738E-03
   maximum displ.:     0.1027840 α      in ANC's #3, #2, #4, ...

........................................................................
.............................. CYCLE   10 ..............................
........................................................................
   1    -68.3236585 -0.683237E+02  0.692E-02    2.04       0.0  T
   2    -68.3236528  0.572243E-05  0.812E-02    2.04       1.0  T
   3    -68.3236649 -0.121274E-04  0.187E-02    2.04       1.0  T
   4    -68.3236591  0.588202E-05  0.109E-02    2.04       1.4  T
   5    -68.3236638 -0.472926E-05  0.534E-03    2.04       2.8  T
   6    -68.3236653 -0.152120E-05  0.556E-04    2.04      27.1  T
   7    -68.3236653 -0.462595E-08  0.308E-04    2.04      49.0  T
   8    -68.3236653 -0.658119E-09  0.196E-04    2.04      77.0  T
     SCC iter.                  ...        0 min,  0.491 sec
     gradient                   ...        0 min,  0.059 sec
 * total energy  :   -67.1494284 Eh     change       -0.7506421E-04 Eh
   gradient norm :     0.0037979 Eh/α   predicted    -0.5383962E-04 ( -28.28%)
   displ. norm   :     0.1154967 α      lambda       -0.8075905E-04
   maximum displ.:     0.0762144 α      in ANC's #3, #2, #7, ...

........................................................................
.............................. CYCLE   11 ..............................
........................................................................
   1    -68.3243837 -0.683244E+02  0.555E-02    2.04       0.0  T
   2    -68.3243805  0.317570E-05  0.660E-02    2.04       1.0  T
   3    -68.3243877 -0.713690E-05  0.128E-02    2.04       1.2  T
   4    -68.3243874  0.214170E-06  0.596E-03    2.04       2.5  T
   5    -68.3243876 -0.129405E-06  0.168E-03    2.04       9.0  T
   6    -68.3243877 -0.166244E-06  0.332E-04    2.04      45.5  T
   7    -68.3243877 -0.382373E-08  0.166E-04    2.04      91.1  T
     SCC iter.                  ...        0 min,  0.523 sec
     gradient                   ...        0 min,  0.118 sec
 * total energy  :   -67.1494877 Eh     change       -0.5928798E-04 Eh
   gradient norm :     0.0033674 Eh/α   predicted    -0.4091855E-04 ( -30.98%)
   displ. norm   :     0.1051694 α      lambda       -0.7470700E-04
   maximum displ.:     0.0582863 α      in ANC's #7, #3, #2, ...

........................................................................
.............................. CYCLE   12 ..............................
........................................................................
   1    -68.3243099 -0.683243E+02  0.431E-02    2.05       0.0  T
   2    -68.3243080  0.189390E-05  0.504E-02    2.05       1.0  T
   3    -68.3243122 -0.417734E-05  0.969E-03    2.05       1.6  T
   4    -68.3243102  0.203725E-05  0.748E-03    2.05       2.0  T
   5    -68.3243117 -0.156781E-05  0.362E-03    2.05       4.2  T
   6    -68.3243123 -0.617793E-06  0.342E-04    2.05      44.0  T
   7    -68.3243123  0.543565E-10  0.237E-04    2.05      63.6  T
     SCC iter.                  ...        0 min,  0.471 sec
     gradient                   ...        0 min,  0.135 sec
 * total energy  :   -67.1495404 Eh     change       -0.5270059E-04 Eh
   gradient norm :     0.0027932 Eh/α   predicted    -0.3776918E-04 ( -28.33%)
   displ. norm   :     0.0789441 α      lambda       -0.4758471E-04
   maximum displ.:     0.0526024 α      in ANC's #7, #4, #17, ...

........................................................................
.............................. CYCLE   13 ..............................
........................................................................
   1    -68.3235032 -0.683235E+02  0.260E-02    2.05       0.0  T
   2    -68.3235027  0.434347E-06  0.244E-02    2.05       1.0  T
   3    -68.3235037 -0.966795E-06  0.982E-03    2.05       1.5  T
   4    -68.3235008  0.285705E-05  0.755E-03    2.05       2.0  T
   5    -68.3235038 -0.295281E-05  0.217E-03    2.05       6.9  T
   6    -68.3235039 -0.148699E-06  0.385E-04    2.05      39.1  T
   7    -68.3235039 -0.277822E-09  0.259E-04    2.05      58.1  T
     SCC iter.                  ...        0 min,  0.295 sec
     gradient                   ...        0 min,  0.020 sec
 * total energy  :   -67.1495722 Eh     change       -0.3181619E-04 Eh
   gradient norm :     0.0018337 Eh/α   predicted    -0.2394263E-04 ( -24.75%)
   displ. norm   :     0.0674130 α      lambda       -0.1825507E-04
   maximum displ.:     0.0363841 α      in ANC's #7, #3, #4, ...

........................................................................
.............................. CYCLE   14 ..............................
........................................................................
   1    -68.3225716 -0.683226E+02  0.245E-02    2.05       0.0  T
   2    -68.3225713  0.295513E-06  0.145E-02    2.05       1.0  T
   3    -68.3225605  0.107804E-04  0.156E-02    2.05       1.0  T
   4    -68.3225699 -0.935372E-05  0.644E-03    2.05       2.3  T
   5    -68.3225720 -0.218908E-05  0.127E-03    2.05      11.9  T
   6    -68.3225721 -0.305582E-07  0.395E-04    2.05      38.2  T
   7    -68.3225721  0.202135E-09  0.261E-04    2.05      57.8  T
     SCC iter.                  ...        0 min,  0.192 sec
     gradient                   ...        0 min,  0.022 sec
 * total energy  :   -67.1495849 Eh     change       -0.1276983E-04 Eh
   gradient norm :     0.0011710 Eh/α   predicted    -0.9147081E-05 ( -28.37%)
   displ. norm   :     0.0204772 α      lambda       -0.3369542E-05
   maximum displ.:     0.0111126 α      in ANC's #3, #7, #4, ...

........................................................................
.............................. CYCLE   15 ..............................
........................................................................
   1    -68.3227667 -0.683228E+02  0.756E-03    2.05       0.0  T
   2    -68.3227667  0.722946E-08  0.654E-03    2.05       2.3  T
   3    -68.3227668 -0.463857E-07  0.305E-03    2.05       4.9  T
   4    -68.3227667  0.286554E-07  0.136E-03    2.05      11.1  T
   5    -68.3227668 -0.261526E-07  0.487E-04    2.05      31.0  T
   6    -68.3227668 -0.105548E-07  0.897E-05    2.05     168.1  T
     SCC iter.                  ...        0 min,  0.152 sec
     gradient                   ...        0 min,  0.041 sec
 * total energy  :   -67.1495883 Eh     change       -0.3401516E-05 Eh
   gradient norm :     0.0003891 Eh/α   predicted    -0.1687335E-05 ( -50.39%)
   displ. norm   :     0.0191307 α      lambda       -0.1866469E-05
   maximum displ.:     0.0117547 α      in ANC's #12, #3, #4, ...

   *** GEOMETRY OPTIMIZATION CONVERGED AFTER 15 ITERATIONS ***

------------------------------------------------------------------------
 total energy gain   :        -0.7002340 Eh     -439.4035 kcal/mol
 total RMSD          :         0.3344926 a0        0.1770 Å
 total power (kW/mol):      -122.5642718 (step) -210.0531 (real)
------------------------------------------------------------------------

 ANCopt (total)                0 d,  0 h,  0 min,  8.752 sec
 optimizer setup                ...        0 min,  0.001 sec (  0.006%)
 model hessian                  ...        0 min,  0.072 sec (  0.818%)
 ANC generation                 ...        0 min,  0.005 sec (  0.059%)
 coordinate transformation      ...        0 min,  0.019 sec (  0.212%)
 single point calculation       ...        0 min,  8.505 sec ( 97.170%)
 optimization log               ...        0 min,  0.002 sec (  0.022%)
 hessian update                 ...        0 min,  0.115 sec (  1.319%)
 rational function              ...        0 min,  0.026 sec (  0.293%)

================
 final structure:
================
44
 xtb: 6.5.1 (b24c23e)
C           -3.22004895634668        0.67525588176756       -0.03298334558350
C           -2.03337174894578        1.65162838763275        0.01208278282388
C           -0.99301017555166        0.96659858732614        0.67861433301702
C            0.34192575501092        1.36106980195647        0.63953118898576
C            0.80691490753281        2.48961538725929       -0.07159751103319
C            2.32888969674065        2.31215832764892       -0.19841839856862
C            2.54088469874181        0.83433953158153        0.17707814599205
C            1.37865757097232        0.40188096095329        0.81551106029827
C            1.04467667213572       -0.92954351791309        0.96550671523926
C            1.84317556625983       -1.94958575417553        0.44922698740541
C            0.95496368673050       -3.19210086651198        0.34230947826919
C           -0.46029039211895       -2.63187606936937        0.51417631369630
C           -0.32015554627118       -1.33352498946853        1.00489080364838
C           -1.33108040952262       -0.39989808077279        0.89109363766693
C           -2.57098799894731       -0.67709685099716        0.31449027578823
C           -2.77109406325350       -2.00671100996347       -0.03642128766395
C           -1.73195556329115       -2.96316197906842        0.05896235686793
C            3.06890232371624       -1.54430395631671       -0.06707013874167
C            3.41687466296154       -0.17839430905529       -0.19643285219629
C           -0.23558238860350        3.30272856924608       -0.60873298041596
C           -1.62930926699366        2.89152971243839       -0.56738225816565
H           -3.96292460391658        0.94492557504723        0.72350438419403
H           -3.72132855368156        0.66758130531720       -1.00134843498270
H            2.69427184275179        2.54456141387055       -1.19965689588439
H            2.85028550691044        2.96562243182765        0.50688990993237
H            1.18847188618942       -3.90451649849128        1.13729264932533
H            1.08346210096368       -3.71006369794037       -0.60830184603384
H           -3.69575337008493       -2.32091024733634       -0.49723942698068
H           -1.92810344036238       -3.94586357753613       -0.34446712248701
H            3.74910909182749       -2.26878157038891       -0.49048031967515
H            4.34259498185388        0.05470160844763       -0.70170590137234
H           -0.01134811643210        4.24035446993465       -1.10939758878710
H           -2.35338969353896        3.54961065652269       -1.03935182029136
Ru          -0.41836038589900        1.27016553420197       -1.43000705544247
C            0.43249269607801        1.26672249179604       -3.48041369393679
C           -0.97719359443776        1.07926794554407       -3.56997500210144
C           -1.29918473057063       -0.13675321226876       -2.90482612360021
C           -0.09374668819909       -0.69778984518118       -2.40741976341146
C            0.97565945184216        0.16701791561316       -2.76062370849693
H            0.99789711893822        2.04099272209505       -3.98184910556813
H           -1.65971115091689        1.68682697486427       -4.14962441827661
H           -2.26659225871925       -0.61881898223301       -2.89937635484803
H            0.00471042217108       -1.67297989539915       -1.95557278802136
H            2.02659677627647       -0.04347572250506       -2.62253488058373

 Bond Distances (Angstroems)
 ---------------------------
C1-C2=1.5374         C1-C15=1.5398        C1-H22=1.0940        C1-H23=1.0904        C2-C1=1.5374         C2-C3=1.4128         
C2-C21=1.4270        C2-Ru34=2.1985       C3-C2=1.4128         C3-C4=1.3925         C3-C14=1.4236        C3-Ru34=2.2065       
C4-C3=1.3925         C4-C5=1.4126         C4-C8=1.4233         C4-Ru34=2.2066       C5-C4=1.4126         C5-C6=1.5375         
C5-C20=1.4270        C5-Ru34=2.1986       C6-C5=1.5375         C6-C7=1.5394         C6-H24=1.0909        C6-H25=1.0938        
C7-C6=1.5394         C7-C8=1.3948         C7-C19=1.3901        C8-C4=1.4233         C8-C7=1.3948         C8-C9=1.3808         
C9-C8=1.3808         C9-C10=1.3945        C9-C13=1.4239        C10-C9=1.3945        C10-C11=1.5311       C10-C18=1.3904       
C11-C10=1.5311       C11-C12=1.5318       C11-H26=1.0927       C11-H27=1.0902       C12-C11=1.5318       C12-C13=1.3950       
C12-C17=1.3907       C13-C9=1.4239        C13-C12=1.3950       C13-C14=1.3808       C14-C3=1.4236        C14-C13=1.3808       
C14-C15=1.3952       C15-C1=1.5398        C15-C14=1.3952       C15-C16=1.3896       C16-C15=1.3896       C16-C17=1.4155       
C16-H28=1.0798       C17-C12=1.3907       C17-C16=1.4155       C17-H29=1.0802       C18-C10=1.3904       C18-C19=1.4155       
C18-H30=1.0802       C19-C7=1.3901        C19-C18=1.4155       C19-H31=1.0801       C20-C5=1.4270        C20-C21=1.4537       
C20-H32=1.0863       C20-Ru34=2.1998      C21-C2=1.4270        C21-C20=1.4537       C21-H33=1.0863       C21-Ru34=2.1999      
H22-C1=1.0940        H23-C1=1.0904        H24-C6=1.0909        H25-C6=1.0938        H26-C11=1.0927       H27-C11=1.0902       
H28-C16=1.0798       H29-C17=1.0802       H30-C18=1.0802       H31-C19=1.0801       H32-C20=1.0863       H33-C21=1.0863       
Ru34-C2=2.1985       Ru34-C3=2.2065       Ru34-C4=2.2066       Ru34-C5=2.1986       Ru34-C20=2.1998      Ru34-C21=2.1999      
Ru34-C35=2.2199      Ru34-C36=2.2200      Ru34-C37=2.2204      Ru34-C38=2.2212      Ru34-C39=2.2205      C35-Ru34=2.2199      
C35-C36=1.4249       C35-C39=1.4221       C35-H40=1.0819       C36-Ru34=2.2200      C36-C35=1.4249       C36-C37=1.4230       
C36-H41=1.0821       C37-Ru34=2.2204      C37-C36=1.4230       C37-C38=1.4196       C37-H42=1.0809       C38-Ru34=2.2212      
C38-C37=1.4196       C38-C39=1.4200       C38-H43=1.0793       C39-Ru34=2.2205      C39-C35=1.4221       C39-C38=1.4200       
C39-H44=1.0807       H40-C35=1.0819       H41-C36=1.0821       H42-C37=1.0809       H43-C38=1.0793       H44-C39=1.0807       
 C  H  Rav=1.0853 sigma=0.0054  Rmin=1.0793  Rmax=1.0940    17
 C  C  Rav=1.4330 sigma=0.0521  Rmin=1.3808  Rmax=1.5398    32
 Ru C  Rav=2.2102 sigma=0.0097  Rmin=2.1985  Rmax=2.2212    11

 selected bond angles (degree)
 --------------------
C15-C1-C2=103.05               H22-C1-C2=110.32               H22-C1-C15=110.28              H23-C1-C2=112.66               
H23-C1-C15=112.83              H23-C1-H22=107.68              C3-C2-C1=105.92                C21-C2-C1=139.33               
C21-C2-C3=113.85               Ru34-C2-C1=115.95              Ru34-C2-C3= 71.60              Ru34-C2-C21= 71.12             
C4-C3-C2=123.73                C14-C3-C2=111.16               C14-C3-C4=120.25               Ru34-C3-C2= 70.99              
Ru34-C3-C4= 71.61              Ru34-C3-C14=109.67             C5-C4-C3=123.78                C8-C4-C3=120.26                
C8-C4-C5=111.15                Ru34-C4-C3= 71.60              Ru34-C4-C5= 70.99              Ru34-C4-C8=109.83              
C6-C5-C4=105.97                C20-C5-C4=113.84               C20-C5-C6=139.28               Ru34-C5-C4= 71.61              
Ru34-C5-C6=115.89              Ru34-C5-C20= 71.12             C7-C6-C5=103.12                H24-C6-C5=112.50               
H24-C6-C7=112.47               H25-C6-C5=110.47               H25-C6-C7=110.52               H25-C6-H24=107.75              
C8-C7-C6=107.13                C19-C7-C6=136.10               C19-C7-C8=114.97               C7-C8-C4=109.96                
C9-C8-C4=119.15                C9-C8-C7=123.38                C10-C9-C8=121.77               C13-C9-C8=120.56               
C13-C9-C10=110.58              C11-C10-C9=106.70              C18-C10-C9=115.41              C18-C10-C11=136.22             

 selected dihedral angles (degree)
 ---------------------------------
C3-C2-C1-C15=344.95           C3-C2-C1-H22=102.69           C3-C2-C1-H23=223.06           C21-C2-C1-C15=152.69          
C21-C2-C1-H22=270.43          C21-C2-C1-H23= 30.80          Ru34-C2-C1-C15= 61.88         Ru34-C2-C1-H22=179.61         
Ru34-C2-C1-H23=299.98         C4-C3-C2-C1=163.48            C4-C3-C2-C21=352.18           C4-C3-C2-Ru34= 50.85          
C14-C3-C2-C1=  8.25           C14-C3-C2-C21=196.95          C14-C3-C2-Ru34=255.62         Ru34-C3-C2-C1=112.62          
Ru34-C3-C2-C21=301.33         C5-C4-C3-C2=359.94            C5-C4-C3-C14=153.05           C5-C4-C3-Ru34= 50.54          
C8-C4-C3-C2=206.71            C8-C4-C3-C14=359.82           C8-C4-C3-Ru34=257.31          Ru34-C4-C3-C2=309.41          
Ru34-C4-C3-C14=102.51         C6-C5-C4-C3=196.66            C6-C5-C4-C8=352.00            C6-C5-C4-Ru34=247.45          
C20-C5-C4-C3=  7.89           C20-C5-C4-C8=163.23           C20-C5-C4-Ru34= 58.68         Ru34-C5-C4-C3=309.21          
Ru34-C5-C4-C8=104.56          C7-C6-C5-C4= 14.41            C7-C6-C5-C20=206.76           C7-C6-C5-Ru34=297.47          
H24-C6-C5-C4=135.84           H24-C6-C5-C20=328.18          H24-C6-C5-Ru34= 58.89         H25-C6-C5-C4=256.30           
H25-C6-C5-C20= 88.64          H25-C6-C5-Ru34=179.35         C8-C7-C6-C5=343.79            C8-C7-C6-H24=222.34           
C8-C7-C6-H25=101.87           C19-C7-C6-C5=147.02           C19-C7-C6-H24= 25.58          C19-C7-C6-H25=265.10          
C7-C8-C4-C3=153.64            C7-C8-C4-C5=357.31            C7-C8-C4-Ru34= 73.90          C9-C8-C4-C3=  2.85            
C9-C8-C4-C5=206.52            C9-C8-C4-Ru34=283.11          C4-C8-C7-C6= 12.19            C4-C8-C7-C19=204.94           
C9-C8-C7-C6=161.50            C9-C8-C7-C19=354.25           C10-C9-C8-C4=144.94           C10-C9-C8-C7=358.27           
C13-C9-C8-C4=357.17           C13-C9-C8-C7=210.49           C11-C10-C9-C8=200.25          C11-C10-C9-C13=350.88         
C18-C10-C9-C8=  7.94          C18-C10-C9-C13=158.56         
           -------------------------------------------------
          |                Final Singlepoint                |
           -------------------------------------------------

          ...................................................
          :                      SETUP                      :
          :.................................................:
          :  # basis functions                 131          :
          :  # atomic orbitals                 130          :
          :  # shells                           72          :
          :  # electrons                       128          :
          :  max. iterations                   250          :
          :  Hamiltonian                  GFN2-xTB          :
          :  restarted?                      false          :
          :  GBSA solvation                  false          :
          :  PC potential                    false          :
          :  electronic temp.          300.0000000     K    :
          :  accuracy                    1.0000000          :
          :  -> integral cutoff          0.2500000E+02      :
          :  -> integral neglect         0.1000000E-07      :
          :  -> SCF convergence          0.1000000E-05 Eh   :
          :  -> wf. convergence          0.1000000E-03 e    :
          :  Broyden damping             0.4000000          :
          ...................................................

 iter      E             dE          RMSdq      gap      omega  full diag
   1    -68.3227668 -0.683228E+02  0.719E-05    2.05       0.0  T
   2    -68.3227668  0.351008E-10  0.107E-04    2.05     140.8  T
   3    -68.3227668 -0.779892E-10  0.221E-05    2.05     681.6  T

   *** convergence criteria satisfied after 3 iterations ***

         #    Occupation            Energy/Eh            Energy/eV
      -------------------------------------------------------------
         1        2.0000           -0.8442853             -22.9742
       ...           ...                  ...                  ...
        58        2.0000           -0.5355220             -14.5723
        59        2.0000           -0.5260501             -14.3146
        60        2.0000           -0.5057122             -13.7611
        61        2.0000           -0.5032446             -13.6940
        62        2.0000           -0.4915003             -13.3744
        63        2.0000           -0.4877104             -13.2713
        64        2.0000           -0.4851042             -13.2004 (HOMO)
        65                         -0.4097789             -11.1507 (LUMO)
        66                         -0.4012194             -10.9177
        67                         -0.3848335             -10.4719
        68                         -0.3802619             -10.3475
        69                         -0.3670917              -9.9891
       ...                                ...                  ...
       130                          3.9924140             108.6391
      -------------------------------------------------------------
                  HL-Gap            0.0753253 Eh            2.0497 eV
             Fermi-level           -0.4474415 Eh          -12.1755 eV

 SCC (total)                   0 d,  0 h,  0 min,  0.141 sec
 SCC setup                      ...        0 min,  0.004 sec (  2.642%)
 Dispersion                     ...        0 min,  0.002 sec (  1.229%)
 classical contributions        ...        0 min,  0.000 sec (  0.073%)
 integral evaluation            ...        0 min,  0.009 sec (  6.275%)
 iterations                     ...        0 min,  0.096 sec ( 68.045%)
 molecular gradient             ...        0 min,  0.029 sec ( 20.475%)
 printout                       ...        0 min,  0.002 sec (  1.242%)

         :::::::::::::::::::::::::::::::::::::::::::::::::::::
         ::                     SUMMARY                     ::
         :::::::::::::::::::::::::::::::::::::::::::::::::::::
         :: total energy             -67.149588348903 Eh    ::
         :: gradient norm              0.000389106839 Eh/a0 ::
         :: HOMO-LUMO gap              2.049704764296 eV    ::
         ::.................................................::
         :: SCC energy               -68.322766764405 Eh    ::
         :: -> isotropic ES            0.056693271697 Eh    ::
         :: -> anisotropic ES         -0.009785874062 Eh    ::
         :: -> anisotropic XC          0.035506543627 Eh    ::
         :: -> dispersion             -0.071200288484 Eh    ::
         :: repulsion energy           1.170627121379 Eh    ::
         :: add. restraining           0.000165540939 Eh    ::
         :: total charge               1.000000000000 e     ::
         :::::::::::::::::::::::::::::::::::::::::::::::::::::

           -------------------------------------------------
          |                Property Printout                |
           -------------------------------------------------

    * Orbital Energies and Occupations

         #    Occupation            Energy/Eh            Energy/eV
      -------------------------------------------------------------
         1        2.0000           -0.8442853             -22.9742
       ...           ...                  ...                  ...
        52        2.0000           -0.5565052             -15.1433
        53        2.0000           -0.5564346             -15.1414
        54        2.0000           -0.5462018             -14.8629
        55        2.0000           -0.5425177             -14.7627
        56        2.0000           -0.5387271             -14.6595
        57        2.0000           -0.5384722             -14.6526
        58        2.0000           -0.5355220             -14.5723
        59        2.0000           -0.5260501             -14.3146
        60        2.0000           -0.5057122             -13.7611
        61        2.0000           -0.5032446             -13.6940
        62        2.0000           -0.4915003             -13.3744
        63        2.0000           -0.4877104             -13.2713
        64        2.0000           -0.4851042             -13.2004 (HOMO)
        65                         -0.4097789             -11.1507 (LUMO)
        66                         -0.4012194             -10.9177
        67                         -0.3848335             -10.4719
        68                         -0.3802619             -10.3475
        69                         -0.3670917              -9.9891
        70                         -0.3410272              -9.2798
        71                         -0.3346394              -9.1060
        72                         -0.3218094              -8.7569
        73                         -0.3037775              -8.2662
        74                         -0.3010756              -8.1927
        75                         -0.2716238              -7.3913
       ...                                ...                  ...
       130                          3.9924140             108.6391
      -------------------------------------------------------------
                  HL-Gap            0.0753253 Eh            2.0497 eV
             Fermi-level           -0.4474415 Eh          -12.1755 eV

     #   Z          covCN         q      C6AA      α(0)
     1   6 C        3.854    -0.059    21.599     6.610
     2   6 C        3.833     0.034    19.980     6.360
     3   6 C        3.905     0.038    19.885     6.339
     4   6 C        3.904     0.038    19.884     6.338
     5   6 C        3.833     0.034    19.981     6.360
     6   6 C        3.854    -0.059    21.602     6.611
     7   6 C        3.017     0.008    27.816     8.651
     8   6 C        3.082    -0.001    27.950     8.667
     9   6 C        3.080     0.007    27.786     8.642
    10   6 C        3.016     0.012    27.729     8.638
    11   6 C        3.861    -0.068    21.756     6.633
    12   6 C        3.016     0.011    27.754     8.642
    13   6 C        3.079     0.007    27.790     8.643
    14   6 C        3.082    -0.000    27.948     8.667
    15   6 C        3.017     0.008    27.810     8.650
    16   6 C        2.925    -0.031    28.779     8.798
    17   6 C        2.924    -0.031    28.767     8.796
    18   6 C        2.924    -0.030    28.760     8.795
    19   6 C        2.925    -0.032    28.799     8.801
    20   6 C        3.748    -0.004    20.722     6.493
    21   6 C        3.748    -0.004    20.720     6.492
    22   1 H        0.924     0.094     1.840     2.121
    23   1 H        0.924     0.083     1.952     2.185
    24   1 H        0.924     0.084     1.940     2.178
    25   1 H        0.924     0.094     1.839     2.121
    26   1 H        0.924     0.092     1.863     2.134
    27   1 H        0.925     0.069     2.097     2.265
    28   1 H        0.926     0.059     2.213     2.326
    29   1 H        0.926     0.061     2.187     2.313
    30   1 H        0.926     0.061     2.184     2.311
    31   1 H        0.926     0.058     2.218     2.329
    32   1 H        0.925     0.085     1.924     2.169
    33   1 H        0.925     0.085     1.925     2.170
    34  44 Ru       9.195    -0.184   314.286    29.819
    35   6 C        3.819    -0.010    20.735     6.480
    36   6 C        3.819    -0.009    20.725     6.479
    37   6 C        3.819    -0.013    20.789     6.489
    38   6 C        3.820    -0.015    20.822     6.494
    39   6 C        3.819    -0.014    20.815     6.493
    40   1 H        0.925     0.095     1.833     2.117
    41   1 H        0.925     0.097     1.812     2.105
    42   1 H        0.926     0.087     1.904     2.158
    43   1 H        0.926     0.079     1.989     2.206
    44   1 H        0.926     0.085     1.929     2.172

 Mol. C6AA /au·bohr⁶  :      28472.853241
 Mol. C8AA /au·bohr⁸  :     893397.987294
 Mol. α(0) /au        :        262.256302


Wiberg/Mayer (AO) data.
largest (>0.10) Wiberg bond orders for each atom

 ---------------------------------------------------------------------------
     #   Z sym  total        # sym  WBO       # sym  WBO       # sym  WBO
 ---------------------------------------------------------------------------
     1   6 C    3.988 --    15 C    0.994     2 C    0.985    23 H    0.948
                            22 H    0.937
     2   6 C    3.979 --    21 C    1.251     3 C    1.175     1 C    0.985
                            34 Ru   0.396
     3   6 C    3.983 --     4 C    1.187     2 C    1.175    14 C    1.102
                            34 Ru   0.320
     4   6 C    3.983 --     3 C    1.187     5 C    1.175     8 C    1.102
                            34 Ru   0.320
     5   6 C    3.979 --    20 C    1.251     4 C    1.175     6 C    0.985
                            34 Ru   0.396
     6   6 C    3.988 --     7 C    0.994     5 C    0.985    24 H    0.947
                            25 H    0.937
     7   6 C    3.978 --    19 C    1.449     8 C    1.301     6 C    0.994
     8   6 C    3.982 --     9 C    1.304     7 C    1.301     4 C    1.102
     9   6 C    3.985 --    10 C    1.311     8 C    1.304    13 C    1.124
    10   6 C    3.980 --    18 C    1.448     9 C    1.311    11 C    1.008
    11   6 C    3.992 --    10 C    1.008    12 C    1.007    27 H    0.955
                            26 H    0.935
    12   6 C    3.980 --    17 C    1.449    13 C    1.309    11 C    1.007
    13   6 C    3.986 --    12 C    1.309    14 C    1.306     9 C    1.124
    14   6 C    3.982 --    13 C    1.306    15 C    1.299     3 C    1.102
    15   6 C    3.978 --    16 C    1.452    14 C    1.299     1 C    0.994
    16   6 C    3.977 --    15 C    1.452    17 C    1.386    28 H    0.967
    17   6 C    3.982 --    12 C    1.449    16 C    1.386    29 H    0.967
    18   6 C    3.983 --    10 C    1.448    19 C    1.387    30 H    0.967
    19   6 C    3.977 --     7 C    1.449    18 C    1.387    31 H    0.967
    20   6 C    3.982 --     5 C    1.251    21 C    1.230    32 H    0.938
                            34 Ru   0.412
    21   6 C    3.982 --     2 C    1.251    20 C    1.230    33 H    0.938
                            34 Ru   0.412
    22   1 H    0.990 --     1 C    0.937
    23   1 H    0.992 --     1 C    0.948
    24   1 H    0.992 --     6 C    0.947
    25   1 H    0.990 --     6 C    0.937
    26   1 H    0.990 --    11 C    0.935
    27   1 H    0.995 --    11 C    0.955
    28   1 H    0.996 --    16 C    0.967
    29   1 H    0.995 --    17 C    0.967
    30   1 H    0.995 --    18 C    0.967
    31   1 H    0.996 --    19 C    0.967
    32   1 H    0.992 --    20 C    0.938
    33   1 H    0.992 --    21 C    0.938
    34  44 Ru   5.120 --    36 C    0.475    35 C    0.469    39 C    0.453
                            37 C    0.452    38 C    0.446    20 C    0.412
                            21 C    0.412     5 C    0.396     2 C    0.396
                             3 C    0.320     4 C    0.320
    35   6 C    3.983 --    39 C    1.237    36 C    1.227    40 H    0.929
                            34 Ru   0.469
    36   6 C    3.981 --    37 C    1.234    35 C    1.227    41 H    0.928
                            34 Ru   0.475
    37   6 C    3.984 --    38 C    1.244    36 C    1.234    42 H    0.932
                            34 Ru   0.452
    38   6 C    3.985 --    37 C    1.244    39 C    1.241    43 H    0.932
                            34 Ru   0.446
    39   6 C    3.984 --    38 C    1.241    35 C    1.237    44 H    0.932
                            34 Ru   0.453
    40   1 H    0.990 --    35 C    0.929
    41   1 H    0.990 --    36 C    0.928
    42   1 H    0.992 --    37 C    0.932
    43   1 H    0.993 --    38 C    0.932
    44   1 H    0.992 --    39 C    0.932
 ---------------------------------------------------------------------------

Topologies differ in total number of bonds
Writing topology from bond orders to xtbtopo.mol

molecular dipole:
                 x           y           z       tot (Debye)
 q only:       -0.331       0.903      -2.272
   full:       -0.417       1.214      -1.919       5.867
molecular quadrupole (traceless):
                xx          xy          yy          xz          yz          zz
 q only:        3.609      -1.108       6.199       1.792      -7.310      -9.808
  q+dip:        6.442      -1.922      11.481       1.548      -7.461     -17.923
   full:        3.778      -1.984       9.127       1.453      -6.429     -12.905

           -------------------------------------------------
          |                Geometry Summary                 |
           -------------------------------------------------

      molecular mass/u    :      430.4790663
   center of mass at/Å    :       -0.1146402       0.3198708      -0.6631940
  moments of inertia/u·Å² :        0.1673130E+04   0.1919349E+04   0.2457803E+04
rotational constants/cm⁻¹ :        0.1007550E-01   0.8782995E-02   0.6858822E-02

 * 56 selected distances

     #   Z          #   Z                                           value/Å
     1   6 C        2   6 C                                       1.5373801
     2   6 C        3   6 C                                       1.4127571
     3   6 C        4   6 C                                       1.3925478
     4   6 C        5   6 C                                       1.4126339
     5   6 C        6   6 C                                       1.5375247
     4   6 C        8   6 C                                       1.4233149
     7   6 C        8   6 C                                       1.3947721
     8   6 C        9   6 C                                       1.3808452
     9   6 C       10   6 C                                       1.3945005
     9   6 C       13   6 C                                       1.4239099
    12   6 C       13   6 C                                       1.3950464
     3   6 C       14   6 C                                       1.4236406
    13   6 C       14   6 C                                       1.3807891
    14   6 C       15   6 C                                       1.3952354
    15   6 C       16   6 C                                       1.3896242
    12   6 C       17   6 C                                       1.3907202
    16   6 C       17   6 C                                       1.4155231
    10   6 C       18   6 C                                       1.3904037
     7   6 C       19   6 C                                       1.3901435
    18   6 C       19   6 C                                       1.4154607
     5   6 C       20   6 C                                       1.4270489
     2   6 C       21   6 C                                       1.4270255
    20   6 C       21   6 C                                       1.4537088
     1   6 C       22   1 H                                       1.0940109
     1   6 C       23   1 H                                       1.0904455
     6   6 C       24   1 H                                       1.0908685
     6   6 C       25   1 H                                       1.0937682
    11   6 C       26   1 H                                       1.0927308
    11   6 C       27   1 H                                       1.0901649
    16   6 C       28   1 H                                       1.0798470
    17   6 C       29   1 H                                       1.0802463
    18   6 C       30   1 H                                       1.0801970
    19   6 C       31   1 H                                       1.0800893
    20   6 C       32   1 H                                       1.0863188
    21   6 C       33   1 H                                       1.0863326
     2   6 C       34  44 Ru                                      2.1984994
     3   6 C       34  44 Ru                                      2.2065041
     4   6 C       34  44 Ru                                      2.2066463
     5   6 C       34  44 Ru                                      2.1985529
    20   6 C       34  44 Ru                                      2.1998210
    21   6 C       34  44 Ru                                      2.1998503
    34  44 Ru      35   6 C                                       2.2199394
    34  44 Ru      36   6 C                                       2.2199550
    35   6 C       36   6 C                                       1.4249127
    34  44 Ru      37   6 C                                       2.2204423
    36   6 C       37   6 C                                       1.4229579
    34  44 Ru      38   6 C                                       2.2211616 (max)
    37   6 C       38   6 C                                       1.4195973
    34  44 Ru      39   6 C                                       2.2205332
    35   6 C       39   6 C                                       1.4221386
    38   6 C       39   6 C                                       1.4199561
    35   6 C       40   1 H                                       1.0819493
    36   6 C       41   1 H                                       1.0821053
    37   6 C       42   1 H                                       1.0808768
    38   6 C       43   1 H                                       1.0792846 (min)
    39   6 C       44   1 H                                       1.0806690

 * 3 distinct bonds (by element types)

   Z      Z             #   av. dist./Å        max./Å        min./Å
   1 H    6 C          17     1.0852885     1.0940109     1.0792846
   6 C    6 C          28     1.4183614     1.5375247     1.3807891
   6 C   44 Ru         11     2.2101732     2.2211616     2.1984994


optimized geometry written to: xtbopt.xyz


           -------------------------------------------------
          | TOTAL ENERGY              -67.149588348903 Eh   |
          | GRADIENT NORM               0.000389106839 Eh/α |
          | HOMO-LUMO GAP               2.049704764296 eV   |
           -------------------------------------------------

------------------------------------------------------------------------
 * finished run on 2026/08/13 at 17:52:03.555     
------------------------------------------------------------------------
 total:
 * wall-time:     0 d,  0 h,  0 min, 10.323 sec
 *  cpu-time:     0 d,  0 h,  0 min, 41.565 sec
 * ratio c/w:     4.027 speedup
 SCF:
 * wall-time:     0 d,  0 h,  0 min,  1.352 sec
 *  cpu-time:     0 d,  0 h,  0 min,  5.179 sec
 * ratio c/w:     3.830 speedup
 ANC optimizer:
 * wall-time:     0 d,  0 h,  0 min,  8.904 sec
 *  cpu-time:     0 d,  0 h,  0 min, 36.064 sec
 * ratio c/w:     4.050 speedup

