      -----------------------------------------------------------      
     |                   =====================                   |     
     |                           x T B                           |     
     |                   =====================                   |     
     |                         S. Grimme                         |     
     |          Mulliken Center for Theoretical Chemistry        |     
     |                    University of Bonn                     |     
      -----------------------------------------------------------      

   * xtb version 6.5.1 (b24c23e) compiled by 'conda@728c89f4b128' on 2022-07-12

   xtb is free software: you can redistribute it and/or modify it under
   the terms of the GNU Lesser General Public License as published by
   the Free Software Foundation, either version 3 of the License, or
   (at your option) any later version.
   
   xtb is distributed in the hope that it will be useful,
   but WITHOUT ANY WARRANTY; without even the implied warranty of
   MERCHANTABILITY or FITNESS FOR A PARTICULAR PURPOSE.  See the
   GNU Lesser General Public License for more details.
   
   Cite this work as:
   * C. Bannwarth, E. Caldeweyher, S. Ehlert, A. Hansen, P. Pracht,
     J. Seibert, S. Spicher, S. Grimme, WIREs Comput. Mol. Sci., 2020, 11,
     e01493. DOI: 10.1002/wcms.1493
   
   for GFN2-xTB:
   * C. Bannwarth, S. Ehlert and S. Grimme., J. Chem. Theory Comput., 2019,
     15, 1652-1671. DOI: 10.1021/acs.jctc.8b01176
   for GFN1-xTB:
   * S. Grimme, C. Bannwarth, P. Shushkov, J. Chem. Theory Comput., 2017,
     13, 1989-2009. DOI: 10.1021/acs.jctc.7b00118
   for GFN0-xTB:
   * P. Pracht, E. Caldeweyher, S. Ehlert, S. Grimme, ChemRxiv, 2019, preprint.
     DOI: 10.26434/chemrxiv.8326202.v1
   for GFN-FF:
   * S. Spicher and S. Grimme, Angew. Chem. Int. Ed., 2020, 59, 15665-15673.
     DOI: 10.1002/anie.202004239
   
   for ALPB and GBSA implicit solvation:
   * S. Ehlert, M. Stahn, S. Spicher, S. Grimme, J. Chem. Theory Comput.,
     2021, 17, 4250-4261. DOI: 10.1021/acs.jctc.1c00471
   
   for DFT-D4:
   * E. Caldeweyher, C. Bannwarth and S. Grimme, J. Chem. Phys., 2017,
     147, 034112. DOI: 10.1063/1.4993215
   * E. Caldeweyher, S. Ehlert, A. Hansen, H. Neugebauer, S. Spicher,
     C. Bannwarth and S. Grimme, J. Chem. Phys., 2019, 150, 154122.
     DOI: 10.1063/1.5090222
   * E. Caldeweyher, J.-M. Mewes, S. Ehlert and S. Grimme, Phys. Chem. Chem. Phys.
     2020, 22, 8499-8512. DOI: 10.1039/D0CP00502A
   
   for sTDA-xTB:
   * S. Grimme and C. Bannwarth, J. Chem. Phys., 2016, 145, 054103.
     DOI: 10.1063/1.4959605
   
   in the mass-spec context:
   * V. Asgeirsson, C. Bauer and S. Grimme, Chem. Sci., 2017, 8, 4879.
     DOI: 10.1039/c7sc00601b
   * J. Koopman and S. Grimme, ACS Omega 2019, 4, 12, 15120-15133.
     DOI: 10.1021/acsomega.9b02011
   
   for metadynamics refer to:
   * S. Grimme, J. Chem. Theory Comput., 2019, 155, 2847-2862
     DOI: 10.1021/acs.jctc.9b00143
   
   for SPH calculations refer to:
   * S. Spicher and S. Grimme, J. Chem. Theory Comput., 2021, 17, 1701-1714
     DOI: 10.1021/acs.jctc.0c01306
   
   with help from (in alphabetical order)
   P. Atkinson, C. Bannwarth, F. Bohle, G. Brandenburg, E. Caldeweyher
   M. Checinski, S. Dohm, S. Ehlert, S. Ehrlich, I. Gerasimov, C. Hölzer
   A. Katbashev, J. Koopman, C. Lavigne, S. Lehtola, F. März, M. Müller,
   F. Musil, H. Neugebauer, J. Pisarek, C. Plett, P. Pracht, F. Pultar,
   J. Seibert, P. Shushkov, S. Spicher, M. Stahn, M. Steiner, T. Strunk,
   J. Stückrath, T. Rose, and J. Unsleber
   
 * started run on 2026/08/13 at 17:49:04.701     

           -------------------------------------------------
          |                Calculation Setup                |
           -------------------------------------------------

          program call               : /h/332/chchoi/miniconda3/envs/el-agente/bin/xtb CpRu_sumanene_convex_init.xyz --opt --gfn 2 -P 4 --chrg 1 --uhf 0 --input detailed_input.inp
          coordinate file            : CpRu_sumanene_convex_init.xyz
          omp threads                :                     4

   ID    Z sym.   atoms
    1    6 C      1-21, 35-39
    2    1 H      22-33, 40-44
    3   44 Ru     34
constraining bond 34 3 to    2.2000000 Å, actual value:    2.2000002 Å
constraining bond 34 4 to    2.2000000 Å, actual value:    2.2000002 Å
constraining bond 34 8 to    2.2000000 Å, actual value:    2.2000002 Å
constraining bond 34 9 to    2.2000000 Å, actual value:    2.2000002 Å
constraining bond 34 13 to    2.2000000 Å, actual value:    2.2000002 Å
constraining bond 34 14 to    2.2000000 Å, actual value:    2.2000001 Å

           -------------------------------------------------
          |                 G F N 2 - x T B                 |
           -------------------------------------------------

        Reference                      10.1021/acs.jctc.8b01176
      * Hamiltonian:
        H0-scaling (s, p, d)           1.850000    2.230000    2.230000
        zeta-weighting                 0.500000
      * Dispersion:
        s8                             2.700000
        a1                             0.520000
        a2                             5.000000
        s9                             5.000000
      * Repulsion:
        kExp                           1.500000    1.000000
        rExp                           1.000000
      * Coulomb:
        alpha                          2.000000
        third order                    shell-resolved
        anisotropic                    true
        a3                             3.000000
        a5                             4.000000
        cn-shift                       1.200000
        cn-exp                         4.000000
        max-rad                        5.000000


          ...................................................
          :                      SETUP                      :
          :.................................................:
          :  # basis functions                 131          :
          :  # atomic orbitals                 130          :
          :  # shells                           72          :
          :  # electrons                       128          :
          :  max. iterations                   250          :
          :  Hamiltonian                  GFN2-xTB          :
          :  restarted?                      false          :
          :  GBSA solvation                  false          :
          :  PC potential                    false          :
          :  electronic temp.          300.0000000     K    :
          :  accuracy                    1.0000000          :
          :  -> integral cutoff          0.2500000E+02      :
          :  -> integral neglect         0.1000000E-07      :
          :  -> SCF convergence          0.1000000E-05 Eh   :
          :  -> wf. convergence          0.1000000E-03 e    :
          :  Broyden damping             0.4000000          :
          ...................................................

 iter      E             dE          RMSdq      gap      omega  full diag
   1    -65.6022078 -0.656022E+02  0.913E+00    0.57       0.0  T
   2    -57.3769518  0.822526E+01  0.126E+01    0.00       1.0  T
   3    -65.8000380 -0.842309E+01  0.709E+00    1.04       1.0  T
   4    -67.7538753 -0.195384E+01  0.360E+00    0.65       1.0  T
   5    -68.2650302 -0.511155E+00  0.734E-01    1.11       1.0  T
   6    -68.2640659  0.964318E-03  0.597E-01    1.05       1.0  T
   7    -68.2700435 -0.597765E-02  0.369E-01    1.05       1.0  T
   8    -68.2759131 -0.586960E-02  0.115E-01    1.05       1.0  T
   9    -68.2762170 -0.303821E-03  0.284E-02    1.05       1.0  T
  10    -68.2762206 -0.367591E-05  0.219E-02    1.05       1.0  T
  11    -68.2762237 -0.303902E-05  0.125E-02    1.04       1.2  T
  12    -68.2762243 -0.642733E-06  0.706E-03    1.04       2.1  T
  13    -68.2762245 -0.207209E-06  0.301E-03    1.04       5.0  T
  14    -68.2762248 -0.257680E-06  0.835E-04    1.04      18.1  T
  15    -68.2762248 -0.105500E-07  0.429E-04    1.04      35.2  T

   *** convergence criteria satisfied after 15 iterations ***

         #    Occupation            Energy/Eh            Energy/eV
      -------------------------------------------------------------
         1        2.0000           -0.8402322             -22.8639
       ...           ...                  ...                  ...
        58        2.0000           -0.5271269             -14.3439
        59        2.0000           -0.5191428             -14.1266
        60        2.0000           -0.5055547             -13.7568
        61        2.0000           -0.5055531             -13.7568
        62        2.0000           -0.4870083             -13.2522
        63        2.0000           -0.4753635             -12.9353
        64        2.0000           -0.4753616             -12.9352 (HOMO)
        65                         -0.4369997             -11.8914 (LUMO)
        66                         -0.4369465             -11.8899
        67                         -0.3781123             -10.2890
        68                         -0.3780968             -10.2885
        69                         -0.3687270             -10.0336
       ...                                ...                  ...
       130                          3.2433460              88.2559
      -------------------------------------------------------------
                  HL-Gap            0.0383619 Eh            1.0439 eV
             Fermi-level           -0.4561680 Eh          -12.4130 eV

 SCC (total)                   0 d,  0 h,  0 min,  1.297 sec
 SCC setup                      ...        0 min,  0.008 sec (  0.640%)
 Dispersion                     ...        0 min,  0.001 sec (  0.089%)
 classical contributions        ...        0 min,  0.009 sec (  0.693%)
 integral evaluation            ...        0 min,  0.019 sec (  1.460%)
 iterations                     ...        0 min,  1.182 sec ( 91.071%)
 molecular gradient             ...        0 min,  0.078 sec (  5.987%)
 printout                       ...        0 min,  0.001 sec (  0.055%)

         :::::::::::::::::::::::::::::::::::::::::::::::::::::
         ::                     SUMMARY                     ::
         :::::::::::::::::::::::::::::::::::::::::::::::::::::
         :: total energy             -67.109528958978 Eh    ::
         :: gradient norm              0.150980944173 Eh/a0 ::
         :: HOMO-LUMO gap              1.043881419110 eV    ::
         ::.................................................::
         :: SCC energy               -68.276224783118 Eh    ::
         :: -> isotropic ES            0.049293509815 Eh    ::
         :: -> anisotropic ES         -0.009026781770 Eh    ::
         :: -> anisotropic XC          0.035396651010 Eh    ::
         :: -> dispersion             -0.062935464375 Eh    ::
         :: repulsion energy           1.164751200894 Eh    ::
         :: add. restraining           0.000000000000 Eh    ::
         :: total charge               1.000000000179 e     ::
         :::::::::::::::::::::::::::::::::::::::::::::::::::::

      ----------------------------------------------------------- 
     |                   =====================                   |
     |                        A N C O P T                        |
     |                   =====================                   |
     |               Approximate Normal Coordinate               |
     |                Rational Function Optimizer                |
      ----------------------------------------------------------- 

          ...................................................
          :                      SETUP                      :
          :.................................................:
          :   optimization level            normal          :
          :   max. optcycles                   200          :
          :   ANC micro-cycles                  20          :
          :   degrees of freedom               126          :
          :.................................................:
          :   RF solver                   davidson          :
          :   write xtbopt.log                true          :
          :   linear?                        false          :
          :   energy convergence         0.5000000E-05 Eh   :
          :   grad. convergence          0.1000000E-02 Eh/α :
          :   maximium RF displ.         1.0000000          :
          :   Hlow (freq-cutoff)         0.1000000E-01      :
          :   Hmax (freq-cutoff)         5.0000000          :
          :   S6 in model hess.         20.0000000          :
          ...................................................

generating ANC from model Hessian ...
Using Lindh-Hessian (1995)
 Shifting diagonal of input Hessian by    9.7396110218491254E-003
 Lowest  eigenvalues of input Hessian
    0.000000    0.000000    0.000000    0.000000    0.000000    0.000000
    0.010000    0.010246    0.010252    0.013266    0.013266    0.014777
    0.016020    0.016317    0.016319    0.021525    0.023141    0.023143
 Highest eigenvalues
    2.531051    2.612132    2.612140    3.073119    3.073176    5.251487


........................................................................
.............................. CYCLE    1 ..............................
........................................................................
   1    -68.2762248 -0.682762E+02  0.212E-04    1.04       0.0  T
   2    -68.2762248  0.436287E-09  0.258E-04    1.04      58.4  T
   3    -68.2762248 -0.167059E-08  0.104E-04    1.04     145.6  T
     SCC iter.                  ...        0 min,  0.205 sec
     gradient                   ...        0 min,  0.178 sec
 * total energy  :   -67.1095290 Eh     change       -0.4193296E-08 Eh
   gradient norm :     0.1509798 Eh/α   predicted     0.0000000E+00 (-100.00%)
   displ. norm   :     0.4693375 α      lambda       -0.3447229E-01
   maximum displ.:     0.3938922 α      in ANC's #22, #62, #53, ...

........................................................................
.............................. CYCLE    2 ..............................
........................................................................
   1    -68.2993137 -0.682993E+02  0.109E+00    1.30       0.0  T
   2    -68.2999306 -0.616979E-03  0.644E-01    1.22       1.0  T
   3    -68.3001486 -0.217929E-03  0.232E-01    1.23       1.0  T
   4    -68.2925778  0.757081E-02  0.351E-01    1.27       1.0  T
   5    -68.3005768 -0.799904E-02  0.162E-02    1.23       1.0  T
   6    -68.3005889 -0.121160E-04  0.964E-03    1.24       1.6  T
   7    -68.3005902 -0.127375E-05  0.488E-03    1.24       3.1  T
   8    -68.3005904 -0.206182E-06  0.258E-03    1.24       5.8  T
   9    -68.3005904 -0.182138E-07  0.182E-03    1.24       8.3  T
  10    -68.3005904 -0.288216E-07  0.134E-03    1.24      11.3  T
  11    -68.3005905 -0.250856E-07  0.208E-04    1.24      72.6  T
  12    -68.3005905 -0.173854E-08  0.768E-05    1.24     196.3  T
     SCC iter.                  ...        0 min,  0.921 sec
     gradient                   ...        0 min,  0.075 sec
 * total energy  :   -67.1339770 Eh     change       -0.2444799E-01 Eh
   gradient norm :     0.0375562 Eh/α   predicted    -0.2103334E-01 ( -13.97%)
   displ. norm   :     0.5177838 α      lambda       -0.1286844E-01
   maximum displ.:     0.3074632 α      in ANC's #22, #10, #7, ...

........................................................................
.............................. CYCLE    3 ..............................
........................................................................
   1    -68.3126888 -0.683127E+02  0.114E+00    1.58       0.0  T
   2    -68.3132146 -0.525847E-03  0.662E-01    1.50       1.0  T
   3    -68.3134497 -0.235129E-03  0.220E-01    1.51       1.0  T
   4    -68.3140298 -0.580043E-03  0.102E-01    1.52       1.0  T
   5    -68.3141626 -0.132782E-03  0.177E-02    1.52       1.0  T
   6    -68.3141638 -0.122729E-05  0.135E-02    1.52       1.1  T
   7    -68.3141663 -0.246588E-05  0.422E-03    1.52       3.6  T
   8    -68.3141662  0.535694E-08  0.312E-03    1.52       4.8  T
   9    -68.3141663 -0.943305E-07  0.195E-03    1.52       7.7  T
  10    -68.3141664 -0.424473E-07  0.682E-04    1.52      22.1  T
  11    -68.3141664 -0.662087E-08  0.239E-04    1.52      63.2  T
     SCC iter.                  ...        0 min,  0.751 sec
     gradient                   ...        0 min,  0.111 sec
 * total energy  :   -67.1413404 Eh     change       -0.7363425E-02 Eh
   gradient norm :     0.0302855 Eh/α   predicted    -0.8162850E-02 (  10.86%)
   displ. norm   :     0.2884650 α      lambda       -0.2117220E-02
   maximum displ.:     0.2054772 α      in ANC's #10, #7, #6, ...

........................................................................
.............................. CYCLE    4 ..............................
........................................................................
   1    -68.3172686 -0.683173E+02  0.287E-01    1.63       0.0  T
   2    -68.3173247 -0.560544E-04  0.164E-01    1.61       1.0  T
   3    -68.3173548 -0.301384E-04  0.486E-02    1.62       1.0  T
   4    -68.3173314  0.234305E-04  0.205E-02    1.62       1.0  T
   5    -68.3173553 -0.238481E-04  0.437E-03    1.62       3.4  T
   6    -68.3173556 -0.301083E-06  0.404E-03    1.62       3.7  T
   7    -68.3173559 -0.355119E-06  0.152E-03    1.62       9.9  T
   8    -68.3173559 -0.189929E-08  0.935E-04    1.62      16.1  T
   9    -68.3173559 -0.610753E-08  0.454E-04    1.62      33.2  T
     SCC iter.                  ...        0 min,  0.672 sec
     gradient                   ...        0 min,  0.050 sec
 * total energy  :   -67.1426992 Eh     change       -0.1358784E-02 Eh
   gradient norm :     0.0123919 Eh/α   predicted    -0.1146699E-02 ( -15.61%)
   displ. norm   :     0.1397918 α      lambda       -0.5074013E-03
   maximum displ.:     0.1033099 α      in ANC's #7, #10, #6, ...

........................................................................
.............................. CYCLE    5 ..............................
........................................................................
   1    -68.3170922 -0.683171E+02  0.828E-02    1.65       0.0  T
   2    -68.3170908  0.135608E-05  0.483E-02    1.65       1.0  T
   3    -68.3170863  0.454885E-05  0.267E-02    1.65       1.0  T
   4    -68.3169978  0.885091E-04  0.422E-02    1.65       1.0  T
   5    -68.3170991 -0.101297E-03  0.140E-03    1.65      10.8  T
   6    -68.3170991 -0.536403E-07  0.704E-04    1.65      21.4  T
   7    -68.3170991 -0.746324E-08  0.398E-04    1.65      37.8  T
     SCC iter.                  ...        0 min,  0.330 sec
     gradient                   ...        0 min,  0.100 sec
 * total energy  :   -67.1429729 Eh     change       -0.2737598E-03 Eh
   gradient norm :     0.0048397 Eh/α   predicted    -0.2587963E-03 (  -5.47%)
   displ. norm   :     0.0472515 α      lambda       -0.4598191E-04
   maximum displ.:     0.0419564 α      in ANC's #7, #10, #22, ...

........................................................................
.............................. CYCLE    6 ..............................
........................................................................
   1    -68.3180789 -0.683181E+02  0.221E-02    1.65       0.0  T
   2    -68.3180677  0.112256E-04  0.198E-02    1.65       1.0  T
   3    -68.3180682 -0.563592E-06  0.178E-02    1.65       1.0  T
   4    -68.3180804 -0.122130E-04  0.415E-03    1.65       3.6  T
   5    -68.3180814 -0.918667E-06  0.684E-04    1.65      22.1  T
   6    -68.3180814 -0.760964E-08  0.547E-04    1.65      27.6  T
     SCC iter.                  ...        0 min,  0.388 sec
     gradient                   ...        0 min,  0.095 sec
 * total energy  :   -67.1430025 Eh     change       -0.2957062E-04 Eh
   gradient norm :     0.0026693 Eh/α   predicted    -0.2304679E-04 ( -22.06%)
   displ. norm   :     0.0367167 α      lambda       -0.1848070E-04
   maximum displ.:     0.0358755 α      in ANC's #7, #10, #35, ...

........................................................................
.............................. CYCLE    7 ..............................
........................................................................
   1    -68.3180918 -0.683181E+02  0.133E-02    1.66       0.0  T
   2    -68.3180910  0.828541E-06  0.858E-03    1.65       1.8  T
   3    -68.3180895  0.145830E-05  0.742E-03    1.66       2.0  T
   4    -68.3180908 -0.132775E-05  0.597E-03    1.65       2.5  T
   5    -68.3180921 -0.128365E-05  0.914E-04    1.66      16.5  T
   6    -68.3180921 -0.562380E-09  0.323E-04    1.66      46.7  T
   7    -68.3180921 -0.264596E-08  0.148E-04    1.66     102.0  T
     SCC iter.                  ...        0 min,  0.414 sec
     gradient                   ...        0 min,  0.047 sec
 * total energy  :   -67.1430140 Eh     change       -0.1148238E-04 Eh
   gradient norm :     0.0009209 Eh/α   predicted    -0.9253679E-05 ( -19.41%)
   displ. norm   :     0.0320929 α      lambda       -0.5587482E-05
   maximum displ.:     0.0249366 α      in ANC's #7, #10, #6, ...

........................................................................
.............................. CYCLE    8 ..............................
........................................................................
   1    -68.3178205 -0.683178E+02  0.107E-02    1.65       0.0  T
   2    -68.3178204  0.144416E-06  0.675E-03    1.65       2.2  T
   3    -68.3178203  0.103800E-06  0.408E-03    1.65       3.7  T
   4    -68.3178198  0.449721E-06  0.377E-03    1.65       4.0  T
   5    -68.3178207 -0.831861E-06  0.999E-04    1.65      15.1  T
   6    -68.3178207 -0.140443E-07  0.147E-04    1.65     102.8  T
     SCC iter.                  ...        0 min,  0.282 sec
     gradient                   ...        0 min,  0.051 sec
 * total energy  :   -67.1430193 Eh     change       -0.5355374E-05 Eh
   gradient norm :     0.0013479 Eh/α   predicted    -0.2835083E-05 ( -47.06%)
   displ. norm   :     0.0227460 α      lambda       -0.3147682E-05
   maximum displ.:     0.0190872 α      in ANC's #7, #10, #6, ...

........................................................................
.............................. CYCLE    9 ..............................
........................................................................
   1    -68.3177119 -0.683177E+02  0.857E-03    1.65       0.0  T
   2    -68.3177115  0.368273E-06  0.618E-03    1.65       2.4  T
   3    -68.3177114  0.863339E-07  0.426E-03    1.65       3.5  T
   4    -68.3177117 -0.267577E-06  0.259E-03    1.65       5.8  T
   5    -68.3177121 -0.348938E-06  0.860E-04    1.65      17.5  T
   6    -68.3177121 -0.378758E-08  0.794E-05    1.65     189.9  T
     SCC iter.                  ...        0 min,  0.237 sec
     gradient                   ...        0 min,  0.119 sec
 * total energy  :   -67.1430222 Eh     change       -0.2874369E-05 Eh
   gradient norm :     0.0006062 Eh/α   predicted    -0.1580419E-05 ( -45.02%)
   displ. norm   :     0.0104524 α      lambda       -0.6239287E-06
   maximum displ.:     0.0088209 α      in ANC's #7, #6, #10, ...

   *** GEOMETRY OPTIMIZATION CONVERGED AFTER 9 ITERATIONS ***

------------------------------------------------------------------------
 total energy gain   :        -0.0334932 Eh      -21.0173 kcal/mol
 total RMSD          :         0.1861304 a0        0.0985 Å
 total power (kW/mol):        -9.7707222 (step)  -15.2627 (real)
------------------------------------------------------------------------

 ANCopt (total)                0 d,  0 h,  0 min,  5.762 sec
 optimizer setup                ...        0 min,  0.000 sec (  0.006%)
 model hessian                  ...        0 min,  0.047 sec (  0.817%)
 ANC generation                 ...        0 min,  0.005 sec (  0.089%)
 coordinate transformation      ...        0 min,  0.031 sec (  0.535%)
 single point calculation       ...        0 min,  5.617 sec ( 97.497%)
 optimization log               ...        0 min,  0.002 sec (  0.029%)
 hessian update                 ...        0 min,  0.046 sec (  0.799%)
 rational function              ...        0 min,  0.010 sec (  0.172%)

================
 final structure:
================
44
 xtb: 6.5.1 (b24c23e)
C           -3.17967933515022        0.76196164750986        0.05375262114668
C           -2.01228917591522        1.73095016476611        0.23844399151212
C           -1.01521639048381        1.05007595482858        0.96707210491654
C            0.32891013763318        1.44944728979116        0.92698993686040
C            0.75132700107838        2.55200549168204        0.15591448691775
C            2.24612191330354        2.37402778388680       -0.10813639153529
C            2.49369814329600        0.90730676795037        0.24301118126143
C            1.37754907127250        0.45971216886121        0.97958947520473
C            1.05279663855790       -0.90199874008775        1.07073946434525
C            1.82601370698933       -1.89233669600656        0.43038885881058
C            0.93525479267726       -3.12249291971765        0.25970782398781
C           -0.47136621659497       -2.57482821392883        0.49905415974317
C           -0.32981806505692       -1.31266434714121        1.11187104061517
C           -1.34919700182475       -0.35036188552301        1.06080575741810
C           -2.56731123638288       -0.59632378732103        0.39421157212940
C           -2.74860181837040       -1.88014545790963       -0.07963397999468
C           -1.71613709162970       -2.85473232515224       -0.02801171483414
C            2.99059599805970       -1.45632263478575       -0.16890835804914
C            3.31949395576539       -0.07724601870763       -0.26120593231232
C           -0.25010043623743        3.29248322952831       -0.43942836549203
C           -1.61144512634647        2.88805430593877       -0.39875719549752
H           -4.00384424565421        1.00376966680968        0.73010042144446
H           -3.56825770732379        0.78652928715702       -0.96373868136899
H            2.50202924853387        2.59023453186214       -1.14478771706842
H            2.84027652915993        3.03721780500957        0.52617086974480
H            1.18676834528051       -3.89607313069907        0.99011760154356
H            1.03536954519268       -3.55939825911525       -0.73325394966680
H           -3.63643778072573       -2.12983698234316       -0.64070248180345
H           -1.88552330342235       -3.78258708723410       -0.55317235312446
H            3.60947888742168       -2.14987437858731       -0.71787350713257
H            4.16722608126688        0.18875302834741       -0.87438464750196
H           -0.00015644008910        4.12296686427568       -1.08225480123383
H           -2.30878739603159        3.43712333474117       -1.01327632902634
Ru           0.02888351576584        0.17399296835552        2.70151991295766
C           -0.02638215565460        1.49986329115303        4.48039852279756
C            1.17693037038149        0.73938192565714        4.51437535114289
C            0.82434978651631       -0.63847058276190        4.60711109578949
C           -0.59657078074237       -0.72805236486337        4.63044227933117
C           -1.12332660760405        0.59334254455656        4.55103387851796
H           -0.09463194323548        2.57905408786494        4.52108086511567
H            2.17846625932188        1.14174708421074        4.58997400397776
H            1.51320442641312       -1.45767604632469        4.76535740419458
H           -1.17133067677105       -1.62829402926626        4.80419848182309
H           -2.16406061264018        0.86722229273254        4.66233631239219

 Bond Distances (Angstroems)
 ---------------------------
C1-C2=1.5283         C1-C15=1.5283        C1-H22=1.0932        C1-H23=1.0894        C2-C1=1.5283         C2-C3=1.4102         
C2-C21=1.3804        C3-C2=1.4102         C3-C4=1.4028         C3-C14=1.4428        C3-Ru34=2.2059       C4-C3=1.4028         
C4-C5=1.4102         C4-C8=1.4429         C4-Ru34=2.2058       C5-C4=1.4102         C5-C6=1.5283         C5-C20=1.3804        
C6-C5=1.5283         C6-C7=1.5284         C6-H24=1.0894        C6-H25=1.0932        C7-C6=1.5284         C7-C8=1.4102         
C7-C19=1.3804        C8-C4=1.4429         C8-C7=1.4102         C8-C9=1.4029         C8-Ru34=2.2058       C9-C8=1.4029         
C9-C10=1.4102        C9-C13=1.4429        C9-Ru34=2.2058       C10-C9=1.4102        C10-C11=1.5284       C10-C18=1.3804       
C11-C10=1.5284       C11-C12=1.5283       C11-H26=1.0932       C11-H27=1.0894       C12-C11=1.5283       C12-C13=1.4102       
C12-C17=1.3804       C13-C9=1.4429        C13-C12=1.4102       C13-C14=1.4028       C13-Ru34=2.2059      C14-C3=1.4428        
C14-C13=1.4028       C14-C15=1.4102       C14-Ru34=2.2059      C15-C1=1.5283        C15-C14=1.4102       C15-C16=1.3804       
C16-C15=1.3804       C16-C17=1.4207       C16-H28=1.0795       C17-C12=1.3804       C17-C16=1.4207       C17-H29=1.0795       
C18-C10=1.3804       C18-C19=1.4208       C18-H30=1.0795       C19-C7=1.3804        C19-C18=1.4208       C19-H31=1.0795       
C20-C5=1.3804        C20-C21=1.4207       C20-H32=1.0795       C21-C2=1.3804        C21-C20=1.4207       C21-H33=1.0795       
H22-C1=1.0932        H23-C1=1.0894        H24-C6=1.0894        H25-C6=1.0932        H26-C11=1.0932       H27-C11=1.0894       
H28-C16=1.0795       H29-C17=1.0795       H30-C18=1.0795       H31-C19=1.0795       H32-C20=1.0795       H33-C21=1.0795       
Ru34-C3=2.2059       Ru34-C4=2.2058       Ru34-C8=2.2058       Ru34-C9=2.2058       Ru34-C13=2.2059      Ru34-C14=2.2059      
Ru34-C35=2.2193      Ru34-C36=2.2190      Ru34-C37=2.2190      Ru34-C38=2.2194      Ru34-C39=2.2190      C35-Ru34=2.2193      
C35-C36=1.4239       C35-C39=1.4248       C35-H40=1.0821       C36-Ru34=2.2190      C36-C35=1.4239       C36-C37=1.4253       
C36-H41=1.0820       C37-Ru34=2.2190      C37-C36=1.4253       C37-C38=1.4239       C37-H42=1.0820       C38-Ru34=2.2194      
C38-C37=1.4239       C38-C39=1.4247       C38-H43=1.0821       C39-Ru34=2.2190      C39-C35=1.4248       C39-C38=1.4247       
C39-H44=1.0819       H40-C35=1.0821       H41-C36=1.0820       H42-C37=1.0820       H43-C38=1.0821       H44-C39=1.0819       
 C  H  Rav=1.0844 sigma=0.0053  Rmin=1.0795  Rmax=1.0932    17
 C  C  Rav=1.4324 sigma=0.0494  Rmin=1.3804  Rmax=1.5284    32
 Ru C  Rav=2.2119 sigma=0.0066  Rmin=2.2058  Rmax=2.2194    11

 selected bond angles (degree)
 --------------------
C15-C1-C2=103.33               H22-C1-C2=111.15               H22-C1-C15=111.15              H23-C1-C2=111.78               
H23-C1-C15=111.78              H23-C1-H22=107.69              C3-C2-C1=107.24                C21-C2-C1=134.22               
C21-C2-C3=115.97               C4-C3-C2=121.69                C14-C3-C2=109.79               C14-C3-C4=120.00               
Ru34-C3-C2=158.86              Ru34-C3-C4= 71.46              Ru34-C3-C14= 70.91             C5-C4-C3=121.68                
C8-C4-C3=120.00                C8-C4-C5=109.79                Ru34-C4-C3= 71.46              Ru34-C4-C5=158.86              
Ru34-C4-C8= 70.91              C6-C5-C4=107.24                C20-C5-C4=115.97               C20-C5-C6=134.23               
C7-C6-C5=103.33                H24-C6-C5=111.78               H24-C6-C7=111.78               H25-C6-C5=111.14               
H25-C6-C7=111.15               H25-C6-H24=107.70              C8-C7-C6=107.24                C19-C7-C6=134.22               
C19-C7-C8=115.97               C7-C8-C4=109.78                C9-C8-C4=120.00                C9-C8-C7=121.68                
Ru34-C8-C4= 70.91              Ru34-C8-C7=158.87              Ru34-C8-C9= 71.46              C10-C9-C8=121.68               
C13-C9-C8=120.00               C13-C9-C10=109.78              Ru34-C9-C8= 71.46              Ru34-C9-C10=158.87             
Ru34-C9-C13= 70.91             C11-C10-C9=107.24              C18-C10-C9=115.97              C18-C10-C11=134.22             

 selected dihedral angles (degree)
 ---------------------------------
C3-C2-C1-C15=344.56           C3-C2-C1-H22=103.85           C3-C2-C1-H23=224.21           C21-C2-C1-C15=144.92          
C21-C2-C1-H22=264.21          C21-C2-C1-H23= 24.58          C4-C3-C2-C1=157.95            C4-C3-C2-C21=353.49           
C14-C3-C2-C1= 10.11           C14-C3-C2-C21=205.65          Ru34-C3-C2-C1=282.01          Ru34-C3-C2-C21=117.55         
C5-C4-C3-C2=  0.00            C5-C4-C3-C14=144.66           C5-C4-C3-Ru34=198.37          C8-C4-C3-C2=215.33            
C8-C4-C3-C14=  0.00           C8-C4-C3-Ru34= 53.70          Ru34-C4-C3-C2=161.63          Ru34-C4-C3-C14=306.30         
C6-C5-C4-C3=202.05            C6-C5-C4-C8=349.89            C6-C5-C4-Ru34= 77.98          C20-C5-C4-C3=  6.52           
C20-C5-C4-C8=154.36           C20-C5-C4-Ru34=242.44         C7-C6-C5-C4= 15.45            C7-C6-C5-C20=215.08           
H24-C6-C5-C4=135.80           H24-C6-C5-C20=335.43          H25-C6-C5-C4=256.17           H25-C6-C5-C20= 95.80          
C8-C7-C6-C5=344.54            C8-C7-C6-H24=224.19           C8-C7-C6-H25=103.82           C19-C7-C6-C5=144.90           
C19-C7-C6-H24= 24.55          C19-C7-C6-H25=264.18          C7-C8-C4-C3=148.45            C7-C8-C4-C5=  0.00            
C7-C8-C4-Ru34=202.41          C9-C8-C4-C3=  0.00            C9-C8-C4-C5=211.54            C9-C8-C4-Ru34= 53.96          
Ru34-C8-C4-C3=306.04          Ru34-C8-C4-C5=157.58          C4-C8-C7-C6= 10.13            C4-C8-C7-C19=205.67           
C9-C8-C7-C6=157.95            C9-C8-C7-C19=353.49           Ru34-C8-C7-C6=282.05          Ru34-C8-C7-C19=117.59         
C10-C9-C8-C4=144.64           C10-C9-C8-C7=  0.00           C10-C9-C8-Ru34=198.35         C13-C9-C8-C4=  0.00           
C13-C9-C8-C7=215.36           C13-C9-C8-Ru34= 53.71         Ru34-C9-C8-C4=306.29          Ru34-C9-C8-C7=161.65          
C11-C10-C9-C8=202.05          C11-C10-C9-C13=349.87         C11-C10-C9-Ru34= 77.96        C18-C10-C9-C8=  6.51          
C18-C10-C9-C13=154.33         C18-C10-C9-Ru34=242.42        
           -------------------------------------------------
          |                Final Singlepoint                |
           -------------------------------------------------

          ...................................................
          :                      SETUP                      :
          :.................................................:
          :  # basis functions                 131          :
          :  # atomic orbitals                 130          :
          :  # shells                           72          :
          :  # electrons                       128          :
          :  max. iterations                   250          :
          :  Hamiltonian                  GFN2-xTB          :
          :  restarted?                      false          :
          :  GBSA solvation                  false          :
          :  PC potential                    false          :
          :  electronic temp.          300.0000000     K    :
          :  accuracy                    1.0000000          :
          :  -> integral cutoff          0.2500000E+02      :
          :  -> integral neglect         0.1000000E-07      :
          :  -> SCF convergence          0.1000000E-05 Eh   :
          :  -> wf. convergence          0.1000000E-03 e    :
          :  Broyden damping             0.4000000          :
          ...................................................

 iter      E             dE          RMSdq      gap      omega  full diag
   1    -68.3177121 -0.683177E+02  0.475E-05    1.65       0.0  T
   2    -68.3177121  0.185878E-09  0.644E-05    1.65     234.2  T
   3    -68.3177121 -0.225086E-09  0.277E-05    1.65     544.9  T

   *** convergence criteria satisfied after 3 iterations ***

         #    Occupation            Energy/Eh            Energy/eV
      -------------------------------------------------------------
         1        2.0000           -0.8445657             -22.9818
       ...           ...                  ...                  ...
        58        2.0000           -0.5355237             -14.5723
        59        2.0000           -0.5194333             -14.1345
        60        2.0000           -0.5044507             -13.7268
        61        2.0000           -0.5044403             -13.7265
        62        2.0000           -0.4862403             -13.2313
        63        2.0000           -0.4729672             -12.8701
        64        2.0000           -0.4729633             -12.8700 (HOMO)
        65                         -0.4121611             -11.2155 (LUMO)
        66                         -0.4120038             -11.2112
        67                         -0.3770141             -10.2591
        68                         -0.3770082             -10.2589
        69                         -0.3686278             -10.0309
       ...                                ...                  ...
       130                          3.8664581             105.2117
      -------------------------------------------------------------
                  HL-Gap            0.0608021 Eh            1.6545 eV
             Fermi-level           -0.4425622 Eh          -12.0427 eV

 SCC (total)                   0 d,  0 h,  0 min,  0.303 sec
 SCC setup                      ...        0 min,  0.011 sec (  3.549%)
 Dispersion                     ...        0 min,  0.025 sec (  8.145%)
 classical contributions        ...        0 min,  0.011 sec (  3.717%)
 integral evaluation            ...        0 min,  0.035 sec ( 11.656%)
 iterations                     ...        0 min,  0.148 sec ( 48.893%)
 molecular gradient             ...        0 min,  0.072 sec ( 23.749%)
 printout                       ...        0 min,  0.001 sec (  0.280%)

         :::::::::::::::::::::::::::::::::::::::::::::::::::::
         ::                     SUMMARY                     ::
         :::::::::::::::::::::::::::::::::::::::::::::::::::::
         :: total energy             -67.143022202764 Eh    ::
         :: gradient norm              0.000606443272 Eh/a0 ::
         :: HOMO-LUMO gap              1.654509771890 eV    ::
         ::.................................................::
         :: SCC energy               -68.317712061216 Eh    ::
         :: -> isotropic ES            0.051169463886 Eh    ::
         :: -> anisotropic ES         -0.008414886638 Eh    ::
         :: -> anisotropic XC          0.037385063185 Eh    ::
         :: -> dispersion             -0.063214559865 Eh    ::
         :: repulsion energy           1.172367705149 Eh    ::
         :: add. restraining           0.000366971728 Eh    ::
         :: total charge               1.000000000000 e     ::
         :::::::::::::::::::::::::::::::::::::::::::::::::::::

           -------------------------------------------------
          |                Property Printout                |
           -------------------------------------------------

    * Orbital Energies and Occupations

         #    Occupation            Energy/Eh            Energy/eV
      -------------------------------------------------------------
         1        2.0000           -0.8445657             -22.9818
       ...           ...                  ...                  ...
        52        2.0000           -0.5503822             -14.9767
        53        2.0000           -0.5503601             -14.9761
        54        2.0000           -0.5474346             -14.8965
        55        2.0000           -0.5437373             -14.7958
        56        2.0000           -0.5437177             -14.7953
        57        2.0000           -0.5357546             -14.5786
        58        2.0000           -0.5355237             -14.5723
        59        2.0000           -0.5194333             -14.1345
        60        2.0000           -0.5044507             -13.7268
        61        2.0000           -0.5044403             -13.7265
        62        2.0000           -0.4862403             -13.2313
        63        2.0000           -0.4729672             -12.8701
        64        2.0000           -0.4729633             -12.8700 (HOMO)
        65                         -0.4121611             -11.2155 (LUMO)
        66                         -0.4120038             -11.2112
        67                         -0.3770141             -10.2591
        68                         -0.3770082             -10.2589
        69                         -0.3686278             -10.0309
        70                         -0.3351505              -9.1199
        71                         -0.3351262              -9.1192
        72                         -0.3269646              -8.8972
        73                         -0.3019648              -8.2169
        74                         -0.3019469              -8.2164
        75                         -0.2567256              -6.9859
       ...                                ...                  ...
       130                          3.8664581             105.2117
      -------------------------------------------------------------
                  HL-Gap            0.0608021 Eh            1.6545 eV
             Fermi-level           -0.4425622 Eh          -12.0427 eV

     #   Z          covCN         q      C6AA      α(0)
     1   6 C        3.849    -0.067    21.745     6.633
     2   6 C        3.006     0.007    27.841     8.655
     3   6 C        3.885     0.031    20.003     6.359
     4   6 C        3.885     0.031    20.004     6.359
     5   6 C        3.006     0.007    27.842     8.655
     6   6 C        3.849    -0.067    21.745     6.633
     7   6 C        3.006     0.007    27.843     8.656
     8   6 C        3.885     0.031    20.004     6.359
     9   6 C        3.885     0.031    20.004     6.359
    10   6 C        3.006     0.007    27.843     8.656
    11   6 C        3.849    -0.067    21.745     6.633
    12   6 C        3.006     0.007    27.842     8.655
    13   6 C        3.885     0.031    20.003     6.359
    14   6 C        3.885     0.031    20.003     6.359
    15   6 C        3.006     0.007    27.841     8.655
    16   6 C        2.920    -0.031    28.774     8.796
    17   6 C        2.920    -0.031    28.775     8.797
    18   6 C        2.920    -0.031    28.774     8.796
    19   6 C        2.920    -0.031    28.774     8.796
    20   6 C        2.920    -0.031    28.775     8.797
    21   6 C        2.920    -0.031    28.774     8.796
    22   1 H        0.924     0.088     1.903     2.157
    23   1 H        0.925     0.078     2.001     2.212
    24   1 H        0.925     0.078     2.001     2.212
    25   1 H        0.924     0.088     1.902     2.157
    26   1 H        0.924     0.088     1.902     2.157
    27   1 H        0.925     0.078     2.001     2.212
    28   1 H        0.926     0.067     2.124     2.279
    29   1 H        0.926     0.067     2.124     2.279
    30   1 H        0.926     0.066     2.124     2.279
    31   1 H        0.926     0.066     2.124     2.279
    32   1 H        0.926     0.067     2.124     2.279
    33   1 H        0.926     0.067     2.124     2.279
    34  44 Ru       9.146    -0.196   314.977    29.852
    35   6 C        3.815    -0.003    20.615     6.462
    36   6 C        3.815    -0.003    20.626     6.464
    37   6 C        3.815    -0.003    20.627     6.464
    38   6 C        3.815    -0.003    20.614     6.462
    39   6 C        3.815    -0.004    20.635     6.465
    40   1 H        0.925     0.095     1.832     2.116
    41   1 H        0.925     0.095     1.835     2.118
    42   1 H        0.925     0.095     1.835     2.119
    43   1 H        0.925     0.095     1.831     2.116
    44   1 H        0.925     0.094     1.837     2.120

 Mol. C6AA /au·bohr⁶  :      28479.659191
 Mol. C8AA /au·bohr⁸  :     893793.131587
 Mol. α(0) /au        :        262.303527


Wiberg/Mayer (AO) data.
largest (>0.10) Wiberg bond orders for each atom

 ---------------------------------------------------------------------------
     #   Z sym  total        # sym  WBO       # sym  WBO       # sym  WBO
 ---------------------------------------------------------------------------
     1   6 C    3.991 --    15 C    1.004     2 C    1.004    23 H    0.955
                            22 H    0.937
     2   6 C    3.976 --    21 C    1.501     3 C    1.231     1 C    1.004
                             5 C    0.107
     3   6 C    3.988 --     2 C    1.231     4 C    1.170    14 C    1.027
                            34 Ru   0.331
     4   6 C    3.988 --     5 C    1.231     3 C    1.170     8 C    1.027
                            34 Ru   0.331
     5   6 C    3.976 --    20 C    1.501     4 C    1.231     6 C    1.004
                             2 C    0.107
     6   6 C    3.991 --     5 C    1.004     7 C    1.004    24 H    0.955
                            25 H    0.937
     7   6 C    3.977 --    19 C    1.501     8 C    1.231     6 C    1.004
                            10 C    0.107
     8   6 C    3.988 --     7 C    1.231     9 C    1.170     4 C    1.027
                            34 Ru   0.331
     9   6 C    3.988 --    10 C    1.231     8 C    1.170    13 C    1.027
                            34 Ru   0.331
    10   6 C    3.977 --    18 C    1.501     9 C    1.231    11 C    1.004
                             7 C    0.107
    11   6 C    3.991 --    12 C    1.004    10 C    1.004    27 H    0.955
                            26 H    0.937
    12   6 C    3.976 --    17 C    1.501    13 C    1.231    11 C    1.004
                            15 C    0.107
    13   6 C    3.988 --    12 C    1.231    14 C    1.170     9 C    1.027
                            34 Ru   0.331
    14   6 C    3.988 --    15 C    1.231    13 C    1.170     3 C    1.027
                            34 Ru   0.331
    15   6 C    3.976 --    16 C    1.501    14 C    1.231     1 C    1.004
                            12 C    0.107
    16   6 C    3.976 --    15 C    1.501    17 C    1.334    28 H    0.965
    17   6 C    3.977 --    12 C    1.501    16 C    1.334    29 H    0.965
    18   6 C    3.976 --    10 C    1.501    19 C    1.334    30 H    0.965
    19   6 C    3.976 --     7 C    1.501    18 C    1.334    31 H    0.965
    20   6 C    3.977 --     5 C    1.501    21 C    1.334    32 H    0.965
    21   6 C    3.976 --     2 C    1.501    20 C    1.334    33 H    0.965
    22   1 H    0.991 --     1 C    0.937
    23   1 H    0.993 --     1 C    0.955
    24   1 H    0.993 --     6 C    0.955
    25   1 H    0.991 --     6 C    0.937
    26   1 H    0.991 --    11 C    0.937
    27   1 H    0.993 --    11 C    0.955
    28   1 H    0.993 --    16 C    0.965
    29   1 H    0.993 --    17 C    0.965
    30   1 H    0.993 --    18 C    0.965
    31   1 H    0.993 --    19 C    0.965
    32   1 H    0.993 --    20 C    0.965
    33   1 H    0.993 --    21 C    0.965
    34  44 Ru   5.034 --    39 C    0.508    37 C    0.507    36 C    0.507
                            35 C    0.506    38 C    0.506     8 C    0.331
                             9 C    0.331     4 C    0.331    13 C    0.331
                             3 C    0.331    14 C    0.331
    35   6 C    3.978 --    36 C    1.229    39 C    1.225    40 H    0.930
                            34 Ru   0.506
    36   6 C    3.976 --    35 C    1.229    37 C    1.223    41 H    0.930
                            34 Ru   0.507
    37   6 C    3.976 --    38 C    1.229    36 C    1.223    42 H    0.930
                            34 Ru   0.507
    38   6 C    3.978 --    37 C    1.229    39 C    1.225    43 H    0.930
                            34 Ru   0.506
    39   6 C    3.976 --    38 C    1.225    35 C    1.225    44 H    0.930
                            34 Ru   0.508
    40   1 H    0.990 --    35 C    0.930
    41   1 H    0.991 --    36 C    0.930
    42   1 H    0.991 --    37 C    0.930
    43   1 H    0.990 --    38 C    0.930
    44   1 H    0.990 --    39 C    0.930
 ---------------------------------------------------------------------------

Topologies differ in total number of bonds
Writing topology from bond orders to xtbtopo.mol

molecular dipole:
                 x           y           z       tot (Debye)
 q only:        0.030       0.182       2.822
   full:        0.027       0.160       2.487       6.335
molecular quadrupole (traceless):
                xx          xy          yy          xz          yz          zz
 q only:       -4.759       0.022      -4.664       0.168       0.910       9.423
  q+dip:       -0.682       0.012      -0.643       0.035       0.127       1.325
   full:       -3.068       0.020      -2.991       0.116       0.584       6.059

           -------------------------------------------------
          |                Geometry Summary                 |
           -------------------------------------------------

      molecular mass/u    :      430.4790663
   center of mass at/Å    :        0.0163334       0.0969078       1.5044762
  moments of inertia/u·Å² :        0.2143100E+04   0.2291659E+04   0.2291707E+04
rotational constants/cm⁻¹ :        0.7866005E-02   0.7356083E-02   0.7355927E-02

 * 54 selected distances

     #   Z          #   Z                                           value/Å
     2   6 C        3   6 C                                       1.4101926
     3   6 C        4   6 C                                       1.4027760
     4   6 C        5   6 C                                       1.4101873
     4   6 C        8   6 C                                       1.4429090
     7   6 C        8   6 C                                       1.4102048
     8   6 C        9   6 C                                       1.4028647
     9   6 C       10   6 C                                       1.4102068
     9   6 C       13   6 C                                       1.4429005
    12   6 C       13   6 C                                       1.4101909
     3   6 C       14   6 C                                       1.4427597
    13   6 C       14   6 C                                       1.4027714
    14   6 C       15   6 C                                       1.4101942
    15   6 C       16   6 C                                       1.3804327
    12   6 C       17   6 C                                       1.3804346
    16   6 C       17   6 C                                       1.4207281
    10   6 C       18   6 C                                       1.3804049
     7   6 C       19   6 C                                       1.3804051
    18   6 C       19   6 C                                       1.4207552
     5   6 C       20   6 C                                       1.3804339
     2   6 C       21   6 C                                       1.3804317
    20   6 C       21   6 C                                       1.4207310
     1   6 C       22   1 H                                       1.0932362
     1   6 C       23   1 H                                       1.0894427
     6   6 C       24   1 H                                       1.0894403
     6   6 C       25   1 H                                       1.0932459
    11   6 C       26   1 H                                       1.0932447
    11   6 C       27   1 H                                       1.0894414
    16   6 C       28   1 H                                       1.0795354
    17   6 C       29   1 H                                       1.0795370
    18   6 C       30   1 H                                       1.0795337 (min)
    19   6 C       31   1 H                                       1.0795340
    20   6 C       32   1 H                                       1.0795375
    21   6 C       33   1 H                                       1.0795356
     3   6 C       34  44 Ru                                      2.2058958
     4   6 C       34  44 Ru                                      2.2058462
     8   6 C       34  44 Ru                                      2.2058059
     9   6 C       34  44 Ru                                      2.2058110
    13   6 C       34  44 Ru                                      2.2058561
    14   6 C       34  44 Ru                                      2.2059007
    34  44 Ru      35   6 C                                       2.2193234
    34  44 Ru      36   6 C                                       2.2190363
    35   6 C       36   6 C                                       1.4238847
    34  44 Ru      37   6 C                                       2.2190408
    36   6 C       37   6 C                                       1.4252687
    34  44 Ru      38   6 C                                       2.2193741 (max)
    37   6 C       38   6 C                                       1.4239329
    34  44 Ru      39   6 C                                       2.2190415
    35   6 C       39   6 C                                       1.4248006
    38   6 C       39   6 C                                       1.4247324
    35   6 C       40   1 H                                       1.0821119
    36   6 C       41   1 H                                       1.0819830
    37   6 C       42   1 H                                       1.0819706
    38   6 C       43   1 H                                       1.0821162
    39   6 C       44   1 H                                       1.0819084

 * 3 distinct bonds (by element types)

   Z      Z             #   av. dist./Å        max./Å        min./Å
   1 H    6 C          17     1.0844326     1.0932459     1.0795337
   6 C    6 C          26     1.4102129     1.4429090     1.3804049
   6 C   44 Ru         11     2.2119029     2.2193741     2.2058059


optimized geometry written to: xtbopt.xyz


           -------------------------------------------------
          | TOTAL ENERGY              -67.143022202764 Eh   |
          | GRADIENT NORM               0.000606443272 Eh/α |
          | HOMO-LUMO GAP               1.654509771890 eV   |
           -------------------------------------------------

------------------------------------------------------------------------
 * finished run on 2026/08/13 at 17:49:12.155     
------------------------------------------------------------------------
 total:
 * wall-time:     0 d,  0 h,  0 min,  7.454 sec
 *  cpu-time:     0 d,  0 h,  0 min, 28.625 sec
 * ratio c/w:     3.840 speedup
 SCF:
 * wall-time:     0 d,  0 h,  0 min,  1.299 sec
 *  cpu-time:     0 d,  0 h,  0 min,  5.151 sec
 * ratio c/w:     3.966 speedup
 ANC optimizer:
 * wall-time:     0 d,  0 h,  0 min,  6.069 sec
 *  cpu-time:     0 d,  0 h,  0 min, 23.165 sec
 * ratio c/w:     3.817 speedup

