44
 energy: -67.149588348903 gnorm: 0.000389106839 xtb: 6.5.1 (b24c23e)
C           -3.22004895634668        0.67525588176756       -0.03298334558350
C           -2.03337174894578        1.65162838763275        0.01208278282388
C           -0.99301017555166        0.96659858732614        0.67861433301702
C            0.34192575501092        1.36106980195647        0.63953118898576
C            0.80691490753281        2.48961538725929       -0.07159751103319
C            2.32888969674065        2.31215832764892       -0.19841839856862
C            2.54088469874181        0.83433953158153        0.17707814599205
C            1.37865757097232        0.40188096095329        0.81551106029827
C            1.04467667213572       -0.92954351791309        0.96550671523926
C            1.84317556625983       -1.94958575417553        0.44922698740541
C            0.95496368673050       -3.19210086651198        0.34230947826919
C           -0.46029039211895       -2.63187606936937        0.51417631369630
C           -0.32015554627118       -1.33352498946853        1.00489080364838
C           -1.33108040952262       -0.39989808077279        0.89109363766693
C           -2.57098799894731       -0.67709685099716        0.31449027578823
C           -2.77109406325350       -2.00671100996347       -0.03642128766395
C           -1.73195556329115       -2.96316197906842        0.05896235686793
C            3.06890232371624       -1.54430395631671       -0.06707013874167
C            3.41687466296154       -0.17839430905529       -0.19643285219629
C           -0.23558238860350        3.30272856924608       -0.60873298041596
C           -1.62930926699366        2.89152971243839       -0.56738225816565
H           -3.96292460391658        0.94492557504723        0.72350438419403
H           -3.72132855368156        0.66758130531720       -1.00134843498270
H            2.69427184275179        2.54456141387055       -1.19965689588439
H            2.85028550691044        2.96562243182765        0.50688990993237
H            1.18847188618942       -3.90451649849128        1.13729264932533
H            1.08346210096368       -3.71006369794037       -0.60830184603384
H           -3.69575337008493       -2.32091024733634       -0.49723942698068
H           -1.92810344036238       -3.94586357753613       -0.34446712248701
H            3.74910909182749       -2.26878157038891       -0.49048031967515
H            4.34259498185388        0.05470160844763       -0.70170590137234
H           -0.01134811643210        4.24035446993465       -1.10939758878710
H           -2.35338969353896        3.54961065652269       -1.03935182029136
Ru          -0.41836038589900        1.27016553420197       -1.43000705544247
C            0.43249269607801        1.26672249179604       -3.48041369393679
C           -0.97719359443776        1.07926794554407       -3.56997500210144
C           -1.29918473057063       -0.13675321226876       -2.90482612360021
C           -0.09374668819909       -0.69778984518118       -2.40741976341146
C            0.97565945184216        0.16701791561316       -2.76062370849693
H            0.99789711893822        2.04099272209505       -3.98184910556813
H           -1.65971115091689        1.68682697486427       -4.14962441827661
H           -2.26659225871925       -0.61881898223301       -2.89937635484803
H            0.00471042217108       -1.67297989539915       -1.95557278802136
H            2.02659677627647       -0.04347572250506       -2.62253488058373
