      -----------------------------------------------------------      
     |                   =====================                   |     
     |                           x T B                           |     
     |                   =====================                   |     
     |                         S. Grimme                         |     
     |          Mulliken Center for Theoretical Chemistry        |     
     |                    University of Bonn                     |     
      -----------------------------------------------------------      

   * xtb version 6.5.1 (b24c23e) compiled by 'conda@728c89f4b128' on 2022-07-12

   xtb is free software: you can redistribute it and/or modify it under
   the terms of the GNU Lesser General Public License as published by
   the Free Software Foundation, either version 3 of the License, or
   (at your option) any later version.
   
   xtb is distributed in the hope that it will be useful,
   but WITHOUT ANY WARRANTY; without even the implied warranty of
   MERCHANTABILITY or FITNESS FOR A PARTICULAR PURPOSE.  See the
   GNU Lesser General Public License for more details.
   
   Cite this work as:
   * C. Bannwarth, E. Caldeweyher, S. Ehlert, A. Hansen, P. Pracht,
     J. Seibert, S. Spicher, S. Grimme, WIREs Comput. Mol. Sci., 2020, 11,
     e01493. DOI: 10.1002/wcms.1493
   
   for GFN2-xTB:
   * C. Bannwarth, S. Ehlert and S. Grimme., J. Chem. Theory Comput., 2019,
     15, 1652-1671. DOI: 10.1021/acs.jctc.8b01176
   for GFN1-xTB:
   * S. Grimme, C. Bannwarth, P. Shushkov, J. Chem. Theory Comput., 2017,
     13, 1989-2009. DOI: 10.1021/acs.jctc.7b00118
   for GFN0-xTB:
   * P. Pracht, E. Caldeweyher, S. Ehlert, S. Grimme, ChemRxiv, 2019, preprint.
     DOI: 10.26434/chemrxiv.8326202.v1
   for GFN-FF:
   * S. Spicher and S. Grimme, Angew. Chem. Int. Ed., 2020, 59, 15665-15673.
     DOI: 10.1002/anie.202004239
   
   for ALPB and GBSA implicit solvation:
   * S. Ehlert, M. Stahn, S. Spicher, S. Grimme, J. Chem. Theory Comput.,
     2021, 17, 4250-4261. DOI: 10.1021/acs.jctc.1c00471
   
   for DFT-D4:
   * E. Caldeweyher, C. Bannwarth and S. Grimme, J. Chem. Phys., 2017,
     147, 034112. DOI: 10.1063/1.4993215
   * E. Caldeweyher, S. Ehlert, A. Hansen, H. Neugebauer, S. Spicher,
     C. Bannwarth and S. Grimme, J. Chem. Phys., 2019, 150, 154122.
     DOI: 10.1063/1.5090222
   * E. Caldeweyher, J.-M. Mewes, S. Ehlert and S. Grimme, Phys. Chem. Chem. Phys.
     2020, 22, 8499-8512. DOI: 10.1039/D0CP00502A
   
   for sTDA-xTB:
   * S. Grimme and C. Bannwarth, J. Chem. Phys., 2016, 145, 054103.
     DOI: 10.1063/1.4959605
   
   in the mass-spec context:
   * V. Asgeirsson, C. Bauer and S. Grimme, Chem. Sci., 2017, 8, 4879.
     DOI: 10.1039/c7sc00601b
   * J. Koopman and S. Grimme, ACS Omega 2019, 4, 12, 15120-15133.
     DOI: 10.1021/acsomega.9b02011
   
   for metadynamics refer to:
   * S. Grimme, J. Chem. Theory Comput., 2019, 155, 2847-2862
     DOI: 10.1021/acs.jctc.9b00143
   
   for SPH calculations refer to:
   * S. Spicher and S. Grimme, J. Chem. Theory Comput., 2021, 17, 1701-1714
     DOI: 10.1021/acs.jctc.0c01306
   
   with help from (in alphabetical order)
   P. Atkinson, C. Bannwarth, F. Bohle, G. Brandenburg, E. Caldeweyher
   M. Checinski, S. Dohm, S. Ehlert, S. Ehrlich, I. Gerasimov, C. Hölzer
   A. Katbashev, J. Koopman, C. Lavigne, S. Lehtola, F. März, M. Müller,
   F. Musil, H. Neugebauer, J. Pisarek, C. Plett, P. Pracht, F. Pultar,
   J. Seibert, P. Shushkov, S. Spicher, M. Stahn, M. Steiner, T. Strunk,
   J. Stückrath, T. Rose, and J. Unsleber
   
 * started run on 2026/08/13 at 17:49:04.697     

           -------------------------------------------------
          |                Calculation Setup                |
           -------------------------------------------------

          program call               : /h/332/chchoi/miniconda3/envs/el-agente/bin/xtb CpRu_sumanene_concave_init.xyz --opt --gfn 2 -P 4 --chrg 1 --uhf 0 --input detailed_input.inp
          coordinate file            : CpRu_sumanene_concave_init.xyz
          omp threads                :                     4

   ID    Z sym.   atoms
    1    6 C      1-21, 35-39
    2    1 H      22-33, 40-44
    3   44 Ru     34
constraining bond 34 3 to    2.2000000 Å, actual value:    2.2000001 Å
constraining bond 34 4 to    2.2000000 Å, actual value:    2.2000002 Å
constraining bond 34 8 to    2.2000000 Å, actual value:    2.2000003 Å
constraining bond 34 9 to    2.2000000 Å, actual value:    2.2000001 Å
constraining bond 34 13 to    2.2000000 Å, actual value:    2.2000002 Å
constraining bond 34 14 to    2.2000000 Å, actual value:    2.2000003 Å

           -------------------------------------------------
          |                 G F N 2 - x T B                 |
           -------------------------------------------------

        Reference                      10.1021/acs.jctc.8b01176
      * Hamiltonian:
        H0-scaling (s, p, d)           1.850000    2.230000    2.230000
        zeta-weighting                 0.500000
      * Dispersion:
        s8                             2.700000
        a1                             0.520000
        a2                             5.000000
        s9                             5.000000
      * Repulsion:
        kExp                           1.500000    1.000000
        rExp                           1.000000
      * Coulomb:
        alpha                          2.000000
        third order                    shell-resolved
        anisotropic                    true
        a3                             3.000000
        a5                             4.000000
        cn-shift                       1.200000
        cn-exp                         4.000000
        max-rad                        5.000000


          ...................................................
          :                      SETUP                      :
          :.................................................:
          :  # basis functions                 131          :
          :  # atomic orbitals                 130          :
          :  # shells                           72          :
          :  # electrons                       128          :
          :  max. iterations                   250          :
          :  Hamiltonian                  GFN2-xTB          :
          :  restarted?                      false          :
          :  GBSA solvation                  false          :
          :  PC potential                    false          :
          :  electronic temp.          300.0000000     K    :
          :  accuracy                    1.0000000          :
          :  -> integral cutoff          0.2500000E+02      :
          :  -> integral neglect         0.1000000E-07      :
          :  -> SCF convergence          0.1000000E-05 Eh   :
          :  -> wf. convergence          0.1000000E-03 e    :
          :  Broyden damping             0.4000000          :
          ...................................................

 iter      E             dE          RMSdq      gap      omega  full diag
   1    -65.9188573 -0.659189E+02  0.926E+00    0.38       0.0  T
   2    -59.0196685  0.689919E+01  0.123E+01    0.00       1.0  T
   3    -66.2447718 -0.722510E+01  0.622E+00    0.37       1.0  T
   4    -67.6215078 -0.137674E+01  0.399E+00    1.10       1.0  T
   5    -68.0611118 -0.439604E+00  0.281E+00    0.85       1.0  T
   6    -68.2349058 -0.173794E+00  0.989E-01    0.87       1.0  T
   7    -68.2475305 -0.126247E-01  0.448E-01    0.93       1.0  T
   8    -68.2450631  0.246744E-02  0.381E-01    0.94       1.0  T
   9    -68.2515568 -0.649376E-02  0.143E-01    0.91       1.0  T
  10    -68.2519058 -0.348923E-03  0.855E-02    0.91       1.0  T
  11    -68.2521255 -0.219769E-03  0.247E-02    0.92       1.0  T
  12    -68.2521487 -0.231579E-04  0.151E-02    0.92       1.0  T
  13    -68.2521481  0.595176E-06  0.101E-02    0.92       1.5  T
  14    -68.2521496 -0.154198E-05  0.602E-03    0.92       2.5  T
  15    -68.2521509 -0.130241E-05  0.331E-03    0.92       4.6  T
  16    -68.2521512 -0.295799E-06  0.154E-03    0.92       9.8  T
  17    -68.2521513 -0.797261E-07  0.398E-04    0.92      37.9  T
  18    -68.2521513 -0.391982E-08  0.244E-04    0.92      61.7  T

   *** convergence criteria satisfied after 18 iterations ***

         #    Occupation            Energy/Eh            Energy/eV
      -------------------------------------------------------------
         1        2.0000           -0.8475150             -23.0621
       ...           ...                  ...                  ...
        58        2.0000           -0.5295090             -14.4087
        59        2.0000           -0.5284284             -14.3793
        60        2.0000           -0.5139753             -13.9860
        61        2.0000           -0.5134684             -13.9722
        62        2.0000           -0.4895628             -13.3217
        63        2.0000           -0.4756755             -12.9438
        64        2.0000           -0.4755903             -12.9415 (HOMO)
        65                         -0.4417121             -12.0196 (LUMO)
        66                         -0.4413171             -12.0089
        67                         -0.3839672             -10.4483
        68                         -0.3839490             -10.4478
        69                         -0.3730422             -10.1510
       ...                                ...                  ...
       130                          3.4299840              93.3346
      -------------------------------------------------------------
                  HL-Gap            0.0338782 Eh            0.9219 eV
             Fermi-level           -0.4585835 Eh          -12.4787 eV

 SCC (total)                   0 d,  0 h,  0 min,  1.768 sec
 SCC setup                      ...        0 min,  0.014 sec (  0.807%)
 Dispersion                     ...        0 min,  0.030 sec (  1.685%)
 classical contributions        ...        0 min,  0.016 sec (  0.926%)
 integral evaluation            ...        0 min,  0.055 sec (  3.128%)
 iterations                     ...        0 min,  1.545 sec ( 87.379%)
 molecular gradient             ...        0 min,  0.103 sec (  5.820%)
 printout                       ...        0 min,  0.004 sec (  0.253%)

         :::::::::::::::::::::::::::::::::::::::::::::::::::::
         ::                     SUMMARY                     ::
         :::::::::::::::::::::::::::::::::::::::::::::::::::::
         :: total energy             -67.084592597407 Eh    ::
         :: gradient norm              0.137069160886 Eh/a0 ::
         :: HOMO-LUMO gap              0.921873860005 eV    ::
         ::.................................................::
         :: SCC energy               -68.252151307608 Eh    ::
         :: -> isotropic ES            0.056283409200 Eh    ::
         :: -> anisotropic ES         -0.009723672864 Eh    ::
         :: -> anisotropic XC          0.035831722506 Eh    ::
         :: -> dispersion             -0.074275947097 Eh    ::
         :: repulsion energy           1.164893087110 Eh    ::
         :: add. restraining           0.000000000000 Eh    ::
         :: total charge               1.000000000015 e     ::
         :::::::::::::::::::::::::::::::::::::::::::::::::::::

      ----------------------------------------------------------- 
     |                   =====================                   |
     |                        A N C O P T                        |
     |                   =====================                   |
     |               Approximate Normal Coordinate               |
     |                Rational Function Optimizer                |
      ----------------------------------------------------------- 

          ...................................................
          :                      SETUP                      :
          :.................................................:
          :   optimization level            normal          :
          :   max. optcycles                   200          :
          :   ANC micro-cycles                  20          :
          :   degrees of freedom               126          :
          :.................................................:
          :   RF solver                   davidson          :
          :   write xtbopt.log                true          :
          :   linear?                        false          :
          :   energy convergence         0.5000000E-05 Eh   :
          :   grad. convergence          0.1000000E-02 Eh/α :
          :   maximium RF displ.         1.0000000          :
          :   Hlow (freq-cutoff)         0.1000000E-01      :
          :   Hmax (freq-cutoff)         5.0000000          :
          :   S6 in model hess.         20.0000000          :
          ...................................................

generating ANC from model Hessian ...
Using Lindh-Hessian (1995)
 Shifting diagonal of input Hessian by    9.6539502051318955E-003
 Lowest  eigenvalues of input Hessian
    0.000000    0.000000    0.000000    0.000000    0.000000    0.000000
    0.010000    0.011202    0.011214    0.013587    0.013699    0.015532
    0.016101    0.016171    0.016687    0.022024    0.023632    0.024049
 Highest eigenvalues
    2.010058    2.252917    2.252931    2.693717    2.693778    5.114183


........................................................................
.............................. CYCLE    1 ..............................
........................................................................
   1    -68.2521513 -0.682522E+02  0.149E-04    0.92       0.0  T
   2    -68.2521513  0.346095E-08  0.324E-04    0.92      46.6  T
   3    -68.2521513 -0.375991E-08  0.645E-05    0.92     233.6  T
     SCC iter.                  ...        0 min,  0.195 sec
     gradient                   ...        0 min,  0.171 sec
 * total energy  :   -67.0845926 Eh     change       -0.1499629E-08 Eh
   gradient norm :     0.1370696 Eh/α   predicted     0.0000000E+00 (-100.00%)
   displ. norm   :     0.4480353 α      lambda       -0.3178752E-01
   maximum displ.:     0.3491592 α      in ANC's #22, #62, #29, ...

........................................................................
.............................. CYCLE    2 ..............................
........................................................................
   1    -68.2832831 -0.682833E+02  0.969E-01    1.12       0.0  T
   2    -68.2831539  0.129185E-03  0.854E-01    1.06       1.0  T
   3    -68.2840221 -0.868133E-03  0.238E-01    1.07       1.0  T
   4    -68.2769903  0.703177E-02  0.338E-01    1.11       1.0  T
   5    -68.2844748 -0.748448E-02  0.232E-02    1.07       1.0  T
   6    -68.2844986 -0.237822E-04  0.122E-02    1.07       1.2  T
   7    -68.2844996 -0.105542E-05  0.710E-03    1.07       2.1  T
   8    -68.2844998 -0.224670E-06  0.272E-03    1.07       5.5  T
   9    -68.2845000 -0.125859E-06  0.173E-03    1.07       8.7  T
  10    -68.2845000 -0.545938E-07  0.115E-03    1.07      13.1  T
  11    -68.2845000 -0.186731E-07  0.329E-04    1.07      45.8  T
  12    -68.2845000 -0.112566E-08  0.929E-05    1.07     162.2  T
     SCC iter.                  ...        0 min,  0.848 sec
     gradient                   ...        0 min,  0.156 sec
 * total energy  :   -67.1072351 Eh     change       -0.2264252E-01 Eh
   gradient norm :     0.0392953 Eh/α   predicted    -0.1908424E-01 ( -15.72%)
   displ. norm   :     0.5019146 α      lambda       -0.1251781E-01
   maximum displ.:     0.3131629 α      in ANC's #10, #22, #62, ...

........................................................................
.............................. CYCLE    3 ..............................
........................................................................
   1    -68.3019370 -0.683019E+02  0.110E+00    1.36       0.0  T
   2    -68.3020425 -0.105477E-03  0.941E-01    1.30       1.0  T
   3    -68.3032031 -0.116060E-02  0.200E-01    1.31       1.0  T
   4    -68.3003366  0.286645E-02  0.208E-01    1.35       1.0  T
   5    -68.3035025 -0.316587E-02  0.247E-02    1.32       1.0  T
   6    -68.3035212 -0.186963E-04  0.122E-02    1.32       1.2  T
   7    -68.3035224 -0.122971E-05  0.498E-03    1.32       3.0  T
   8    -68.3035226 -0.149517E-06  0.309E-03    1.32       4.9  T
   9    -68.3035226 -0.173899E-07  0.199E-03    1.32       7.6  T
  10    -68.3035226 -0.448601E-07  0.979E-04    1.32      15.4  T
  11    -68.3035227 -0.606930E-08  0.263E-04    1.32      57.4  T
     SCC iter.                  ...        0 min,  0.533 sec
     gradient                   ...        0 min,  0.118 sec
 * total energy  :   -67.1145364 Eh     change       -0.7301239E-02 Eh
   gradient norm :     0.0314569 Eh/α   predicted    -0.7835645E-02 (   7.32%)
   displ. norm   :     0.2964894 α      lambda       -0.2456987E-02
   maximum displ.:     0.2710875 α      in ANC's #10, #22, #9, ...

........................................................................
.............................. CYCLE    4 ..............................
........................................................................
   1    -68.2994586 -0.682995E+02  0.337E-01    1.43       0.0  T
   2    -68.2995006 -0.419708E-04  0.279E-01    1.41       1.0  T
   3    -68.2995958 -0.951697E-04  0.630E-02    1.42       1.0  T
   4    -68.2994480  0.147779E-03  0.536E-02    1.43       1.0  T
   5    -68.2995880 -0.139985E-03  0.148E-02    1.42       1.0  T
   6    -68.2996004 -0.124481E-04  0.584E-03    1.42       2.6  T
   7    -68.2996004 -0.359624E-07  0.344E-03    1.42       4.4  T
   8    -68.2996005 -0.691770E-07  0.126E-03    1.42      12.0  T
   9    -68.2996005 -0.134246E-07  0.670E-04    1.42      22.5  T
  10    -68.2996005 -0.794000E-08  0.194E-04    1.42      77.9  T
     SCC iter.                  ...        0 min,  0.448 sec
     gradient                   ...        0 min,  0.087 sec
 * total energy  :   -67.1161751 Eh     change       -0.1638767E-02 Eh
   gradient norm :     0.0142170 Eh/α   predicted    -0.1336486E-02 ( -18.45%)
   displ. norm   :     0.1839861 α      lambda       -0.7962860E-03
   maximum displ.:     0.1614305 α      in ANC's #10, #6, #62, ...

........................................................................
.............................. CYCLE    5 ..............................
........................................................................
   1    -68.2924100 -0.682924E+02  0.112E-01    1.46       0.0  T
   2    -68.2924060  0.394990E-05  0.760E-02    1.45       1.0  T
   3    -68.2924031  0.289007E-05  0.432E-02    1.46       1.0  T
   4    -68.2922297  0.173392E-03  0.594E-02    1.45       1.0  T
   5    -68.2924229 -0.193158E-03  0.615E-03    1.46       2.5  T
   6    -68.2924230 -0.858155E-07  0.265E-03    1.46       5.7  T
   7    -68.2924232 -0.198950E-06  0.107E-03    1.46      14.1  T
   8    -68.2924232 -0.401667E-08  0.441E-04    1.46      34.2  T
   9    -68.2924232 -0.240065E-08  0.191E-04    1.46      79.0  T
     SCC iter.                  ...        0 min,  0.405 sec
     gradient                   ...        0 min,  0.084 sec
 * total energy  :   -67.1166379 Eh     change       -0.4627809E-03 Eh
   gradient norm :     0.0057042 Eh/α   predicted    -0.4116550E-03 ( -11.05%)
   displ. norm   :     0.0946503 α      lambda       -0.1364366E-03
   maximum displ.:     0.0666403 α      in ANC's #10, #6, #9, ...

........................................................................
.............................. CYCLE    6 ..............................
........................................................................
   1    -68.2927481 -0.682927E+02  0.454E-02    1.46       0.0  T
   2    -68.2927258  0.222748E-04  0.343E-02    1.45       1.0  T
   3    -68.2926835  0.422889E-04  0.397E-02    1.46       1.0  T
   4    -68.2927516 -0.680482E-04  0.139E-02    1.46       1.1  T
   5    -68.2927547 -0.314389E-05  0.421E-03    1.46       3.6  T
   6    -68.2927549 -0.132054E-06  0.111E-03    1.46      13.6  T
   7    -68.2927549 -0.289395E-07  0.491E-04    1.46      30.7  T
   8    -68.2927549 -0.492655E-08  0.218E-04    1.46      69.2  T
     SCC iter.                  ...        0 min,  0.301 sec
     gradient                   ...        0 min,  0.049 sec
 * total energy  :   -67.1167362 Eh     change       -0.9831196E-04 Eh
   gradient norm :     0.0043107 Eh/α   predicted    -0.6883038E-04 ( -29.99%)
   displ. norm   :     0.1127946 α      lambda       -0.1004665E-03
   maximum displ.:     0.0813524 α      in ANC's #6, #9, #10, ...

........................................................................
.............................. CYCLE    7 ..............................
........................................................................
   1    -68.2936850 -0.682937E+02  0.437E-02    1.46       0.0  T
   2    -68.2936746  0.104129E-04  0.301E-02    1.46       1.0  T
   3    -68.2936291  0.454531E-04  0.365E-02    1.46       1.0  T
   4    -68.2936822 -0.530481E-04  0.159E-02    1.46       1.0  T
   5    -68.2936885 -0.635107E-05  0.399E-03    1.46       3.8  T
   6    -68.2936887 -0.203338E-06  0.849E-04    1.46      17.7  T
   7    -68.2936888 -0.199920E-07  0.349E-04    1.46      43.2  T
     SCC iter.                  ...        0 min,  0.296 sec
     gradient                   ...        0 min,  0.049 sec
 * total energy  :   -67.1167974 Eh     change       -0.6117511E-04 Eh
   gradient norm :     0.0013463 Eh/α   predicted    -0.5087592E-04 ( -16.84%)
   displ. norm   :     0.0777013 α      lambda       -0.2233068E-04
   maximum displ.:     0.0558470 α      in ANC's #6, #9, #10, ...

........................................................................
.............................. CYCLE    8 ..............................
........................................................................
   1    -68.2951551 -0.682952E+02  0.269E-02    1.45       0.0  T
   2    -68.2951509  0.421357E-05  0.214E-02    1.45       1.0  T
   3    -68.2951506  0.248154E-06  0.149E-02    1.45       1.0  T
   4    -68.2951457  0.498805E-05  0.133E-02    1.45       1.1  T
   5    -68.2951564 -0.107835E-04  0.225E-03    1.45       6.7  T
   6    -68.2951565 -0.410924E-07  0.302E-04    1.45      49.9  T
   7    -68.2951565 -0.202452E-08  0.143E-04    1.45     105.7  T
     SCC iter.                  ...        0 min,  0.454 sec
     gradient                   ...        0 min,  0.131 sec
 * total energy  :   -67.1168136 Eh     change       -0.1617786E-04 Eh
   gradient norm :     0.0016316 Eh/α   predicted    -0.1119575E-04 ( -30.80%)
   displ. norm   :     0.0141299 α      lambda       -0.4946849E-05
   maximum displ.:     0.0084070 α      in ANC's #9, #22, #6, ...

........................................................................
.............................. CYCLE    9 ..............................
........................................................................
   1    -68.2948639 -0.682949E+02  0.144E-02    1.46       0.0  T
   2    -68.2948621  0.173695E-05  0.139E-02    1.46       1.1  T
   3    -68.2948633 -0.119562E-05  0.606E-03    1.45       2.5  T
   4    -68.2948634 -0.472835E-07  0.455E-03    1.46       3.3  T
   5    -68.2948645 -0.110663E-05  0.768E-04    1.46      19.6  T
   6    -68.2948645 -0.204119E-08  0.143E-04    1.46     105.6  T
   7    -68.2948645 -0.274738E-09  0.779E-05    1.46     193.6  T
     SCC iter.                  ...        0 min,  0.480 sec
     gradient                   ...        0 min,  0.084 sec
 * total energy  :   -67.1168168 Eh     change       -0.3202389E-05 Eh
   gradient norm :     0.0006031 Eh/α   predicted    -0.2474133E-05 ( -22.74%)
   displ. norm   :     0.0058119 α      lambda       -0.7439255E-06
   maximum displ.:     0.0024483 α      in ANC's #6, #13, #22, ...

   *** GEOMETRY OPTIMIZATION CONVERGED AFTER 9 ITERATIONS ***

------------------------------------------------------------------------
 total energy gain   :        -0.0322242 Eh      -20.2210 kcal/mol
 total RMSD          :         0.1970561 a0        0.1043 Å
 total power (kW/mol):        -9.4005057 (step)  -14.7805 (real)
------------------------------------------------------------------------

 ANCopt (total)                0 d,  0 h,  0 min,  5.724 sec
 optimizer setup                ...        0 min,  0.000 sec (  0.006%)
 model hessian                  ...        0 min,  0.080 sec (  1.398%)
 ANC generation                 ...        0 min,  0.008 sec (  0.137%)
 coordinate transformation      ...        0 min,  0.018 sec (  0.309%)
 single point calculation       ...        0 min,  5.550 sec ( 96.967%)
 optimization log               ...        0 min,  0.001 sec (  0.019%)
 hessian update                 ...        0 min,  0.055 sec (  0.957%)
 rational function              ...        0 min,  0.008 sec (  0.146%)

================
 final structure:
================
44
 xtb: 6.5.1 (b24c23e)
C           -3.22809000162542        0.76724769719850       -0.00708232283144
C           -2.04083815609565        1.74366555593832        0.10456637729797
C           -1.01172311830417        1.02362060620223        0.73844291656908
C            0.32528129387788        1.42091407066739        0.69886357866755
C            0.75600786072051        2.57529326767409        0.01992914472075
C            2.27205660214234        2.39849510720294       -0.19175374318102
C            2.52279163332253        0.90743494598049        0.10667602239578
C            1.36111029311482        0.44321084134359        0.75030006529615
C            1.03800482815853       -0.91132711576783        0.84020696970934
C            1.84643267611743       -1.92604130428982        0.29589903567156
C            0.94453464898101       -3.17177768909440        0.19317465685914
C           -0.48230459540194       -2.61748351447509        0.36782979752579
C           -0.32756707018685       -1.31667852075421        0.88053199632874
C           -1.34137284362943       -0.35958709763106        0.83021093250672
C           -2.60321190734256       -0.61493402145486        0.26317670303736
C           -2.80848618654174       -1.93354052603391       -0.10225308389397
C           -1.76687331546708       -2.91726053912445       -0.05018399066800
C            3.05888807224852       -1.48349838339549       -0.20297353090245
C            3.39143571356291       -0.09267283188245       -0.29427594626072
C           -0.26929383232958        3.36372450044048       -0.47267757458921
C           -1.64225700358043        2.95456962051801       -0.43330104970345
H           -3.97663027570465        0.99733763359326        0.75610197187844
H           -3.72210181353857        0.81765635909547       -0.97603913849521
H            2.57910104792390        2.67278933271830       -1.20053437526014
H            2.83085622596586        3.02660330344655        0.50694437964558
H            1.17835258199140       -3.87410832249990        0.99787416151152
H            1.06904688518711       -3.70058280876801       -0.75066694874518
H           -3.73995554425484       -2.23905705070017       -0.55474273031716
H           -1.99595173099086       -3.88659241387799       -0.46706067791469
H            3.75382325300567       -2.17634145868861       -0.65313838210895
H            4.31113146973372        0.15092686891494       -0.80490235743105
H           -0.05130415937617        4.27096685763524       -1.01618730920050
H           -2.34903584175844        3.58488324141898       -0.95169287653593
Ru          -0.01042496680496       -0.05772522835380       -0.90004175831153
C            0.05961286878070        1.03095034232702       -2.84925273972977
C           -1.14477400534063        0.27277607252765       -2.79141816931380
C           -0.79123677524548       -1.10128008139257       -2.71777569681073
C            0.62462824664192       -1.19345414196581       -2.71085083360536
C            1.14991520218361        0.12869572937068       -2.79737539675071
H            0.12379244273267        2.09604421149382       -3.02166340672335
H           -2.14064566324682        0.66419983223973       -2.93895859407700
H           -1.47900673684499       -1.93362168450746       -2.76820645082938
H            1.20338160056776       -2.10295322712937       -2.78123637444441
H            2.19247565665045        0.38163089383957       -2.92826885098636

 Bond Distances (Angstroems)
 ---------------------------
C1-C2=1.5412         C1-C15=1.5408        C1-H22=1.0935        C1-H23=1.0888        C2-C1=1.5412         C2-C3=1.4069         
C2-C21=1.3836        C3-C2=1.4069         C3-C4=1.3953         C3-C14=1.4249        C3-Ru34=2.2038       C4-C3=1.3953         
C4-C5=1.4068         C4-C8=1.4253         C4-Ru34=2.2035       C5-C4=1.4068         C5-C6=1.5409         C5-C20=1.3840        
C6-C5=1.5409         C6-C7=1.5412         C6-H24=1.0896        C6-H25=1.0931        C7-C6=1.5412         C7-C8=1.4069         
C7-C19=1.3840        C8-C4=1.4253         C8-C7=1.4069         C8-C9=1.3954         C8-Ru34=2.2036       C9-C8=1.3954         
C9-C10=1.4069        C9-C13=1.4250        C9-Ru34=2.2037       C10-C9=1.4069        C10-C11=1.5414       C10-C18=1.3838       
C11-C10=1.5414       C11-C12=1.5407       C11-H26=1.0934       C11-H27=1.0890       C12-C11=1.5407       C12-C13=1.4067       
C12-C17=1.3837       C13-C9=1.4250        C13-C12=1.4067       C13-C14=1.3951       C13-Ru34=2.2036      C14-C3=1.4249        
C14-C13=1.3951       C14-C15=1.4068       C14-Ru34=2.2037      C15-C1=1.5408        C15-C14=1.4068       C15-C16=1.3836       
C16-C15=1.3836       C16-C17=1.4337       C16-H28=1.0797       C17-C12=1.3837       C17-C16=1.4337       C17-H29=1.0798       
C18-C10=1.3838       C18-C19=1.4329       C18-H30=1.0796       C19-C7=1.3840        C19-C18=1.4329       C19-H31=1.0798       
C20-C5=1.3840        C20-C21=1.4332       C20-H32=1.0798       C21-C2=1.3836        C21-C20=1.4332       C21-H33=1.0796       
H22-C1=1.0935        H23-C1=1.0888        H24-C6=1.0896        H25-C6=1.0931        H26-C11=1.0934       H27-C11=1.0890       
H28-C16=1.0797       H29-C17=1.0798       H30-C18=1.0796       H31-C19=1.0798       H32-C20=1.0798       H33-C21=1.0796       
Ru34-C3=2.2038       Ru34-C4=2.2035       Ru34-C8=2.2036       Ru34-C9=2.2037       Ru34-C13=2.2036      Ru34-C14=2.2037      
Ru34-C35=2.2337      Ru34-C36=2.2301      Ru34-C37=2.2367      Ru34-C38=2.2298      Ru34-C39=2.2318      C35-Ru34=2.2337      
C35-C36=1.4243       C35-C39=1.4162       C35-H40=1.0809       C36-Ru34=2.2301      C36-C35=1.4243       C36-C37=1.4207       
C36-H41=1.0802       C37-Ru34=2.2367      C37-C36=1.4207       C37-C38=1.4189       C37-H42=1.0809       C38-Ru34=2.2298      
C38-C37=1.4189       C38-C39=1.4253       C38-H43=1.0803       C39-Ru34=2.2318      C39-C35=1.4162       C39-C38=1.4253       
C39-H44=1.0808       H40-C35=1.0809       H41-C36=1.0802       H42-C37=1.0809       H43-C38=1.0803       H44-C39=1.0808       
 C  H  Rav=1.0840 sigma=0.0055  Rmin=1.0796  Rmax=1.0935    17
 C  C  Rav=1.4330 sigma=0.0542  Rmin=1.3836  Rmax=1.5414    32
 Ru C  Rav=2.2167 sigma=0.0144  Rmin=2.2035  Rmax=2.2367    11

 selected bond angles (degree)
 --------------------
C15-C1-C2=104.08               H22-C1-C2=110.09               H22-C1-C15=110.12              H23-C1-C2=112.62               
H23-C1-C15=112.44              H23-C1-H22=107.50              C3-C2-C1=105.78                C21-C2-C1=138.43               
C21-C2-C3=114.35               C4-C3-C2=122.85                C14-C3-C2=110.89               C14-C3-C4=119.99               
Ru34-C3-C2=104.39              Ru34-C3-C4= 71.53              Ru34-C3-C14= 71.14             C5-C4-C3=122.73                
C8-C4-C3=120.00                C8-C4-C5=110.96                Ru34-C4-C3= 71.55              Ru34-C4-C5=104.31              
Ru34-C4-C8= 71.13              C6-C5-C4=105.87                C20-C5-C4=114.36               C20-C5-C6=138.19               
C7-C6-C5=104.15                H24-C6-C5=112.06               H24-C6-C7=112.15               H25-C6-C5=110.44               
H25-C6-C7=110.42               H25-C6-H24=107.64              C8-C7-C6=105.87                C19-C7-C6=138.17               
C19-C7-C8=114.35               C7-C8-C4=110.93                C9-C8-C4=119.99                C9-C8-C7=122.75                
Ru34-C8-C4= 71.13              Ru34-C8-C7=104.26              Ru34-C8-C9= 71.55              C10-C9-C8=122.83               
C13-C9-C8=119.99               C13-C9-C10=110.88              Ru34-C9-C8= 71.54              Ru34-C9-C10=104.31             
Ru34-C9-C13= 71.13             C11-C10-C9=105.81              C18-C10-C9=114.35              C18-C10-C11=138.34             

 selected dihedral angles (degree)
 ---------------------------------
C3-C2-C1-C15=344.84           C3-C2-C1-H22=102.82           C3-C2-C1-H23=222.78           C21-C2-C1-C15=149.49          
C21-C2-C1-H22=267.48          C21-C2-C1-H23= 27.44          C4-C3-C2-C1=162.02            C4-C3-C2-C21=353.13           
C14-C3-C2-C1=  9.97           C14-C3-C2-C21=201.08          Ru34-C3-C2-C1= 84.94          Ru34-C3-C2-C21=276.05         
C5-C4-C3-C2=359.94            C5-C4-C3-C14=149.57           C5-C4-C3-Ru34= 95.46          C8-C4-C3-C2=210.37            
C8-C4-C3-C14=  0.00           C8-C4-C3-Ru34=305.89          Ru34-C4-C3-C2=264.48          Ru34-C4-C3-C14= 54.10         
C6-C5-C4-C3=198.77            C6-C5-C4-C8=350.76            C6-C5-C4-Ru34=275.81          C20-C5-C4-C3=  7.06           
C20-C5-C4-C8=159.05           C20-C5-C4-Ru34= 84.10         C7-C6-C5-C4= 14.16            C7-C6-C5-C20=210.26           
H24-C6-C5-C4=135.61           H24-C6-C5-C20=331.71          H25-C6-C5-C4=255.61           H25-C6-C5-C20= 91.71          
C8-C7-C6-C5=345.81            C8-C7-C6-H24=224.43           C8-C7-C6-H25=104.38           C19-C7-C6-C5=149.65           
C19-C7-C6-H24= 28.26          C19-C7-C6-H25=268.21          C7-C8-C4-C3=152.81            C7-C8-C4-C5=359.96            
C7-C8-C4-Ru34= 98.51          C9-C8-C4-C3=  0.00            C9-C8-C4-C5=207.15            C9-C8-C4-Ru34=305.70          
Ru34-C8-C4-C3= 54.30          Ru34-C8-C4-C5=261.45          C4-C8-C7-C6=  9.31            C4-C8-C7-C19=201.07           
C9-C8-C7-C6=161.24            C9-C8-C7-C19=353.00           Ru34-C8-C7-C6= 84.23          Ru34-C8-C7-C19=275.99         
C10-C9-C8-C4=149.54           C10-C9-C8-C7=  0.04           C10-C9-C8-Ru34= 95.44         C13-C9-C8-C4=  0.00           
C13-C9-C8-C7=210.49           C13-C9-C8-Ru34=305.90         Ru34-C9-C8-C4= 54.11          Ru34-C9-C8-C7=264.60          
C11-C10-C9-C8=198.22          C11-C10-C9-C13=350.19         C11-C10-C9-Ru34=275.25        C18-C10-C9-C8=  6.88          
C18-C10-C9-C13=158.85         C18-C10-C9-Ru34= 83.91        
           -------------------------------------------------
          |                Final Singlepoint                |
           -------------------------------------------------

          ...................................................
          :                      SETUP                      :
          :.................................................:
          :  # basis functions                 131          :
          :  # atomic orbitals                 130          :
          :  # shells                           72          :
          :  # electrons                       128          :
          :  max. iterations                   250          :
          :  Hamiltonian                  GFN2-xTB          :
          :  restarted?                      false          :
          :  GBSA solvation                  false          :
          :  PC potential                    false          :
          :  electronic temp.          300.0000000     K    :
          :  accuracy                    1.0000000          :
          :  -> integral cutoff          0.2500000E+02      :
          :  -> integral neglect         0.1000000E-07      :
          :  -> SCF convergence          0.1000000E-05 Eh   :
          :  -> wf. convergence          0.1000000E-03 e    :
          :  Broyden damping             0.4000000          :
          ...................................................

 iter      E             dE          RMSdq      gap      omega  full diag
   1    -68.2948645 -0.682949E+02  0.295E-05    1.46       0.0  T
   2    -68.2948645 -0.245848E-11  0.195E-05    1.46     772.2  T
   3    -68.2948645 -0.632383E-11  0.163E-05    1.46     923.9  T

   *** convergence criteria satisfied after 3 iterations ***

         #    Occupation            Energy/Eh            Energy/eV
      -------------------------------------------------------------
         1        2.0000           -0.8482814             -23.0829
       ...           ...                  ...                  ...
        58        2.0000           -0.5374817             -14.6256
        59        2.0000           -0.5302716             -14.4294
        60        2.0000           -0.5137786             -13.9806
        61        2.0000           -0.5130289             -13.9602
        62        2.0000           -0.4894872             -13.3196
        63        2.0000           -0.4756200             -12.9423
        64        2.0000           -0.4755865             -12.9414 (HOMO)
        65                         -0.4220991             -11.4859 (LUMO)
        66                         -0.4209280             -11.4540
        67                         -0.3802785             -10.3479
        68                         -0.3800228             -10.3409
        69                         -0.3704750             -10.0811
       ...                                ...                  ...
       130                          3.9866718             108.4829
      -------------------------------------------------------------
                  HL-Gap            0.0534874 Eh            1.4555 eV
             Fermi-level           -0.4486443 Eh          -12.2082 eV

 SCC (total)                   0 d,  0 h,  0 min,  0.110 sec
 SCC setup                      ...        0 min,  0.009 sec (  7.881%)
 Dispersion                     ...        0 min,  0.008 sec (  6.836%)
 classical contributions        ...        0 min,  0.009 sec (  8.460%)
 integral evaluation            ...        0 min,  0.006 sec (  5.221%)
 iterations                     ...        0 min,  0.060 sec ( 54.376%)
 molecular gradient             ...        0 min,  0.016 sec ( 14.940%)
 printout                       ...        0 min,  0.002 sec (  2.263%)

         :::::::::::::::::::::::::::::::::::::::::::::::::::::
         ::                     SUMMARY                     ::
         :::::::::::::::::::::::::::::::::::::::::::::::::::::
         :: total energy             -67.116816769301 Eh    ::
         :: gradient norm              0.000603228940 Eh/a0 ::
         :: HOMO-LUMO gap              1.455466480077 eV    ::
         ::.................................................::
         :: SCC energy               -68.294864487949 Eh    ::
         :: -> isotropic ES            0.057774270576 Eh    ::
         :: -> anisotropic ES         -0.009920624806 Eh    ::
         :: -> anisotropic XC          0.037423954326 Eh    ::
         :: -> dispersion             -0.073659721715 Eh    ::
         :: repulsion energy           1.175538649287 Eh    ::
         :: add. restraining           0.000142673980 Eh    ::
         :: total charge               1.000000000001 e     ::
         :::::::::::::::::::::::::::::::::::::::::::::::::::::

           -------------------------------------------------
          |                Property Printout                |
           -------------------------------------------------

    * Orbital Energies and Occupations

         #    Occupation            Energy/Eh            Energy/eV
      -------------------------------------------------------------
         1        2.0000           -0.8482814             -23.0829
       ...           ...                  ...                  ...
        52        2.0000           -0.5595000             -15.2248
        53        2.0000           -0.5594843             -15.2243
        54        2.0000           -0.5541864             -15.0802
        55        2.0000           -0.5489016             -14.9364
        56        2.0000           -0.5488813             -14.9358
        57        2.0000           -0.5396282             -14.6840
        58        2.0000           -0.5374817             -14.6256
        59        2.0000           -0.5302716             -14.4294
        60        2.0000           -0.5137786             -13.9806
        61        2.0000           -0.5130289             -13.9602
        62        2.0000           -0.4894872             -13.3196
        63        2.0000           -0.4756200             -12.9423
        64        2.0000           -0.4755865             -12.9414 (HOMO)
        65                         -0.4220991             -11.4859 (LUMO)
        66                         -0.4209280             -11.4540
        67                         -0.3802785             -10.3479
        68                         -0.3800228             -10.3409
        69                         -0.3704750             -10.0811
        70                         -0.3369054              -9.1677
        71                         -0.3368314              -9.1656
        72                         -0.3314455              -9.0191
        73                         -0.3047071              -8.2915
        74                         -0.3044481              -8.2845
        75                         -0.2643200              -7.1925
       ...                                ...                  ...
       130                          3.9866718             108.4829
      -------------------------------------------------------------
                  HL-Gap            0.0534874 Eh            1.4555 eV
             Fermi-level           -0.4486443 Eh          -12.2082 eV

     #   Z          covCN         q      C6AA      α(0)
     1   6 C        3.857    -0.064    21.682     6.622
     2   6 C        3.044     0.011    27.726     8.636
     3   6 C        3.904     0.032    19.979     6.354
     4   6 C        3.904     0.032    19.977     6.353
     5   6 C        3.044     0.011    27.734     8.637
     6   6 C        3.855    -0.064    21.691     6.624
     7   6 C        3.044     0.011    27.735     8.638
     8   6 C        3.903     0.032    19.977     6.353
     9   6 C        3.904     0.032    19.979     6.353
    10   6 C        3.044     0.011    27.729     8.637
    11   6 C        3.856    -0.064    21.685     6.623
    12   6 C        3.043     0.011    27.727     8.636
    13   6 C        3.905     0.032    19.978     6.353
    14   6 C        3.905     0.032    19.978     6.353
    15   6 C        3.043     0.011    27.724     8.636
    16   6 C        2.925    -0.030    28.749     8.793
    17   6 C        2.925    -0.030    28.752     8.793
    18   6 C        2.925    -0.030    28.745     8.792
    19   6 C        2.925    -0.030    28.751     8.793
    20   6 C        2.925    -0.030    28.753     8.794
    21   6 C        2.925    -0.030    28.744     8.792
    22   1 H        0.924     0.093     1.846     2.125
    23   1 H        0.925     0.078     2.000     2.212
    24   1 H        0.925     0.079     1.986     2.204
    25   1 H        0.924     0.093     1.847     2.125
    26   1 H        0.924     0.093     1.846     2.125
    27   1 H        0.925     0.078     1.996     2.209
    28   1 H        0.926     0.066     2.128     2.281
    29   1 H        0.926     0.066     2.132     2.283
    30   1 H        0.926     0.066     2.129     2.282
    31   1 H        0.926     0.065     2.137     2.286
    32   1 H        0.926     0.065     2.138     2.287
    33   1 H        0.926     0.066     2.126     2.280
    34  44 Ru       9.387    -0.176   313.862    29.799
    35   6 C        3.810    -0.013    20.798     6.492
    36   6 C        3.813    -0.018    20.882     6.504
    37   6 C        3.808    -0.011    20.764     6.487
    38   6 C        3.813    -0.017    20.869     6.502
    39   6 C        3.812    -0.014    20.821     6.495
    40   1 H        0.926     0.090     1.876     2.142
    41   1 H        0.926     0.090     1.883     2.146
    42   1 H        0.926     0.091     1.869     2.138
    43   1 H        0.926     0.090     1.883     2.146
    44   1 H        0.926     0.090     1.880     2.144

 Mol. C6AA /au·bohr⁶  :      28477.328247
 Mol. C8AA /au·bohr⁸  :     893345.445502
 Mol. α(0) /au        :        262.260112


Wiberg/Mayer (AO) data.
largest (>0.10) Wiberg bond orders for each atom

 ---------------------------------------------------------------------------
     #   Z sym  total        # sym  WBO       # sym  WBO       # sym  WBO
 ---------------------------------------------------------------------------
     1   6 C    3.990 --    15 C    0.996     2 C    0.995    23 H    0.955
                            22 H    0.937
     2   6 C    3.977 --    21 C    1.497     3 C    1.217     1 C    0.995
                             5 C    0.107
     3   6 C    3.983 --     2 C    1.217     4 C    1.193    14 C    1.078
                            34 Ru   0.275
     4   6 C    3.983 --     5 C    1.217     3 C    1.193     8 C    1.079
                            34 Ru   0.276
     5   6 C    3.976 --    20 C    1.496     4 C    1.217     6 C    0.996
                             2 C    0.107
     6   6 C    3.989 --     5 C    0.996     7 C    0.996    24 H    0.954
                            25 H    0.938
     7   6 C    3.976 --    19 C    1.496     8 C    1.217     6 C    0.996
                            10 C    0.108
     8   6 C    3.983 --     7 C    1.217     9 C    1.193     4 C    1.079
                            34 Ru   0.275
     9   6 C    3.983 --    10 C    1.217     8 C    1.193    13 C    1.078
                            34 Ru   0.275
    10   6 C    3.977 --    18 C    1.497     9 C    1.217    11 C    0.995
                             7 C    0.108
    11   6 C    3.990 --    12 C    0.996    10 C    0.995    27 H    0.954
                            26 H    0.938
    12   6 C    3.977 --    17 C    1.497    13 C    1.217    11 C    0.996
                            15 C    0.107
    13   6 C    3.983 --    12 C    1.217    14 C    1.192     9 C    1.078
                            34 Ru   0.277
    14   6 C    3.983 --    15 C    1.217    13 C    1.192     3 C    1.078
                            34 Ru   0.277
    15   6 C    3.977 --    16 C    1.497    14 C    1.217     1 C    0.996
                            12 C    0.107
    16   6 C    3.981 --    15 C    1.497    17 C    1.309    28 H    0.966
    17   6 C    3.981 --    12 C    1.497    16 C    1.309    29 H    0.966
    18   6 C    3.981 --    10 C    1.497    19 C    1.310    30 H    0.966
    19   6 C    3.981 --     7 C    1.496    18 C    1.310    31 H    0.966
    20   6 C    3.981 --     5 C    1.496    21 C    1.310    32 H    0.966
    21   6 C    3.981 --     2 C    1.497    20 C    1.310    33 H    0.966
    22   1 H    0.990 --     1 C    0.937
    23   1 H    0.993 --     1 C    0.955
    24   1 H    0.993 --     6 C    0.954
    25   1 H    0.990 --     6 C    0.938
    26   1 H    0.990 --    11 C    0.938
    27   1 H    0.993 --    11 C    0.954
    28   1 H    0.995 --    16 C    0.966
    29   1 H    0.995 --    17 C    0.966
    30   1 H    0.995 --    18 C    0.966
    31   1 H    0.995 --    19 C    0.966
    32   1 H    0.995 --    20 C    0.966
    33   1 H    0.995 --    21 C    0.966
    34  44 Ru   4.841 --    36 C    0.475    38 C    0.472    39 C    0.464
                            35 C    0.461    37 C    0.457    13 C    0.277
                            14 C    0.277     4 C    0.276     3 C    0.275
                             8 C    0.275     9 C    0.275
    35   6 C    3.983 --    39 C    1.254    36 C    1.218    40 H    0.931
                            34 Ru   0.461
    36   6 C    3.984 --    37 C    1.235    35 C    1.218    41 H    0.932
                            34 Ru   0.475
    37   6 C    3.983 --    38 C    1.243    36 C    1.235    42 H    0.931
                            34 Ru   0.457
    38   6 C    3.984 --    37 C    1.243    39 C    1.214    43 H    0.932
                            34 Ru   0.472
    39   6 C    3.983 --    35 C    1.254    38 C    1.214    44 H    0.931
                            34 Ru   0.464
    40   1 H    0.991 --    35 C    0.931
    41   1 H    0.991 --    36 C    0.932
    42   1 H    0.991 --    37 C    0.931
    43   1 H    0.991 --    38 C    0.932
    44   1 H    0.991 --    39 C    0.931
 ---------------------------------------------------------------------------

Topologies differ in total number of bonds
Writing topology from bond orders to xtbtopo.mol

molecular dipole:
                 x           y           z       tot (Debye)
 q only:       -0.027      -0.128      -1.965
   full:       -0.017      -0.084      -1.304       3.322
molecular quadrupole (traceless):
                xx          xy          yy          xz          yz          zz
 q only:        6.105       0.027       6.066      -0.303      -1.230     -12.172
  q+dip:        9.356       0.000       9.264      -0.410      -1.852     -18.621
   full:        6.577       0.031       6.537      -0.340      -1.332     -13.114

           -------------------------------------------------
          |                Geometry Summary                 |
           -------------------------------------------------

      molecular mass/u    :      430.4790663
   center of mass at/Å    :       -0.0059400      -0.0334695      -0.5230197
  moments of inertia/u·Å² :        0.1635489E+04   0.1635548E+04   0.2210048E+04
rotational constants/cm⁻¹ :        0.1030739E-01   0.1030702E-01   0.7627721E-02

 * 54 selected distances

     #   Z          #   Z                                           value/Å
     2   6 C        3   6 C                                       1.4068910
     3   6 C        4   6 C                                       1.3953458
     4   6 C        5   6 C                                       1.4067939
     4   6 C        8   6 C                                       1.4253040
     7   6 C        8   6 C                                       1.4068617
     8   6 C        9   6 C                                       1.3954404
     9   6 C       10   6 C                                       1.4069371
     9   6 C       13   6 C                                       1.4250343
    12   6 C       13   6 C                                       1.4067342
     3   6 C       14   6 C                                       1.4249050
    13   6 C       14   6 C                                       1.3951196
    14   6 C       15   6 C                                       1.4067580
    15   6 C       16   6 C                                       1.3836184
    12   6 C       17   6 C                                       1.3837337
    16   6 C       17   6 C                                       1.4336576
    10   6 C       18   6 C                                       1.3837509
     7   6 C       19   6 C                                       1.3840235
    18   6 C       19   6 C                                       1.4329411
     5   6 C       20   6 C                                       1.3840264
     2   6 C       21   6 C                                       1.3836392
    20   6 C       21   6 C                                       1.4331736
     1   6 C       22   1 H                                       1.0934827
     1   6 C       23   1 H                                       1.0887912
     6   6 C       24   1 H                                       1.0895651
     6   6 C       25   1 H                                       1.0931405
    11   6 C       26   1 H                                       1.0933804
    11   6 C       27   1 H                                       1.0890250
    16   6 C       28   1 H                                       1.0796863
    17   6 C       29   1 H                                       1.0797535
    18   6 C       30   1 H                                       1.0796365
    19   6 C       31   1 H                                       1.0797781
    20   6 C       32   1 H                                       1.0798200
    21   6 C       33   1 H                                       1.0796119 (min)
     3   6 C       34  44 Ru                                      2.2037558
     4   6 C       34  44 Ru                                      2.2035363
     8   6 C       34  44 Ru                                      2.2035596
     9   6 C       34  44 Ru                                      2.2037032
    13   6 C       34  44 Ru                                      2.2036303
    14   6 C       34  44 Ru                                      2.2037055
    34  44 Ru      35   6 C                                       2.2337288
    34  44 Ru      36   6 C                                       2.2300862
    35   6 C       36   6 C                                       1.4243318
    34  44 Ru      37   6 C                                       2.2367010 (max)
    36   6 C       37   6 C                                       1.4207190
    34  44 Ru      38   6 C                                       2.2298438
    37   6 C       38   6 C                                       1.4188792
    34  44 Ru      39   6 C                                       2.2318194
    35   6 C       39   6 C                                       1.4161618
    38   6 C       39   6 C                                       1.4253047
    35   6 C       40   1 H                                       1.0808652
    36   6 C       41   1 H                                       1.0801580
    37   6 C       42   1 H                                       1.0809087
    38   6 C       43   1 H                                       1.0803233
    39   6 C       44   1 H                                       1.0807598

 * 3 distinct bonds (by element types)

   Z      Z             #   av. dist./Å        max./Å        min./Å
   1 H    6 C          17     1.0840404     1.0934827     1.0796119
   6 C    6 C          26     1.4080802     1.4336576     1.3836184
   6 C   44 Ru         11     2.2167336     2.2367010     2.2035363


optimized geometry written to: xtbopt.xyz


           -------------------------------------------------
          | TOTAL ENERGY              -67.116816769301 Eh   |
          | GRADIENT NORM               0.000603228940 Eh/α |
          | HOMO-LUMO GAP               1.455466480077 eV   |
           -------------------------------------------------

------------------------------------------------------------------------
 * finished run on 2026/08/13 at 17:49:12.434     
------------------------------------------------------------------------
 total:
 * wall-time:     0 d,  0 h,  0 min,  7.737 sec
 *  cpu-time:     0 d,  0 h,  0 min, 28.803 sec
 * ratio c/w:     3.723 speedup
 SCF:
 * wall-time:     0 d,  0 h,  0 min,  1.769 sec
 *  cpu-time:     0 d,  0 h,  0 min,  5.997 sec
 * ratio c/w:     3.391 speedup
 ANC optimizer:
 * wall-time:     0 d,  0 h,  0 min,  5.846 sec
 *  cpu-time:     0 d,  0 h,  0 min, 22.316 sec
 * ratio c/w:     3.817 speedup

