44
 energy: -67.143022202764 gnorm: 0.000606443272 xtb: 6.5.1 (b24c23e)
C           -3.17967933515022        0.76196164750986        0.05375262114668
C           -2.01228917591522        1.73095016476611        0.23844399151212
C           -1.01521639048381        1.05007595482858        0.96707210491654
C            0.32891013763318        1.44944728979116        0.92698993686040
C            0.75132700107838        2.55200549168204        0.15591448691775
C            2.24612191330354        2.37402778388680       -0.10813639153529
C            2.49369814329600        0.90730676795037        0.24301118126143
C            1.37754907127250        0.45971216886121        0.97958947520473
C            1.05279663855790       -0.90199874008775        1.07073946434525
C            1.82601370698933       -1.89233669600656        0.43038885881058
C            0.93525479267726       -3.12249291971765        0.25970782398781
C           -0.47136621659497       -2.57482821392883        0.49905415974317
C           -0.32981806505692       -1.31266434714121        1.11187104061517
C           -1.34919700182475       -0.35036188552301        1.06080575741810
C           -2.56731123638288       -0.59632378732103        0.39421157212940
C           -2.74860181837040       -1.88014545790963       -0.07963397999468
C           -1.71613709162970       -2.85473232515224       -0.02801171483414
C            2.99059599805970       -1.45632263478575       -0.16890835804914
C            3.31949395576539       -0.07724601870763       -0.26120593231232
C           -0.25010043623743        3.29248322952831       -0.43942836549203
C           -1.61144512634647        2.88805430593877       -0.39875719549752
H           -4.00384424565421        1.00376966680968        0.73010042144446
H           -3.56825770732379        0.78652928715702       -0.96373868136899
H            2.50202924853387        2.59023453186214       -1.14478771706842
H            2.84027652915993        3.03721780500957        0.52617086974480
H            1.18676834528051       -3.89607313069907        0.99011760154356
H            1.03536954519268       -3.55939825911525       -0.73325394966680
H           -3.63643778072573       -2.12983698234316       -0.64070248180345
H           -1.88552330342235       -3.78258708723410       -0.55317235312446
H            3.60947888742168       -2.14987437858731       -0.71787350713257
H            4.16722608126688        0.18875302834741       -0.87438464750196
H           -0.00015644008910        4.12296686427568       -1.08225480123383
H           -2.30878739603159        3.43712333474117       -1.01327632902634
Ru           0.02888351576584        0.17399296835552        2.70151991295766
C           -0.02638215565460        1.49986329115303        4.48039852279756
C            1.17693037038149        0.73938192565714        4.51437535114289
C            0.82434978651631       -0.63847058276190        4.60711109578949
C           -0.59657078074237       -0.72805236486337        4.63044227933117
C           -1.12332660760405        0.59334254455656        4.55103387851796
H           -0.09463194323548        2.57905408786494        4.52108086511567
H            2.17846625932188        1.14174708421074        4.58997400397776
H            1.51320442641312       -1.45767604632469        4.76535740419458
H           -1.17133067677105       -1.62829402926626        4.80419848182309
H           -2.16406061264018        0.86722229273254        4.66233631239219
