      -----------------------------------------------------------      
     |                   =====================                   |     
     |                           x T B                           |     
     |                   =====================                   |     
     |                         S. Grimme                         |     
     |          Mulliken Center for Theoretical Chemistry        |     
     |                    University of Bonn                     |     
      -----------------------------------------------------------      

   * xtb version 6.5.1 (b24c23e) compiled by 'conda@728c89f4b128' on 2022-07-12

   xtb is free software: you can redistribute it and/or modify it under
   the terms of the GNU Lesser General Public License as published by
   the Free Software Foundation, either version 3 of the License, or
   (at your option) any later version.
   
   xtb is distributed in the hope that it will be useful,
   but WITHOUT ANY WARRANTY; without even the implied warranty of
   MERCHANTABILITY or FITNESS FOR A PARTICULAR PURPOSE.  See the
   GNU Lesser General Public License for more details.
   
   Cite this work as:
   * C. Bannwarth, E. Caldeweyher, S. Ehlert, A. Hansen, P. Pracht,
     J. Seibert, S. Spicher, S. Grimme, WIREs Comput. Mol. Sci., 2020, 11,
     e01493. DOI: 10.1002/wcms.1493
   
   for GFN2-xTB:
   * C. Bannwarth, S. Ehlert and S. Grimme., J. Chem. Theory Comput., 2019,
     15, 1652-1671. DOI: 10.1021/acs.jctc.8b01176
   for GFN1-xTB:
   * S. Grimme, C. Bannwarth, P. Shushkov, J. Chem. Theory Comput., 2017,
     13, 1989-2009. DOI: 10.1021/acs.jctc.7b00118
   for GFN0-xTB:
   * P. Pracht, E. Caldeweyher, S. Ehlert, S. Grimme, ChemRxiv, 2019, preprint.
     DOI: 10.26434/chemrxiv.8326202.v1
   for GFN-FF:
   * S. Spicher and S. Grimme, Angew. Chem. Int. Ed., 2020, 59, 15665-15673.
     DOI: 10.1002/anie.202004239
   
   for ALPB and GBSA implicit solvation:
   * S. Ehlert, M. Stahn, S. Spicher, S. Grimme, J. Chem. Theory Comput.,
     2021, 17, 4250-4261. DOI: 10.1021/acs.jctc.1c00471
   
   for DFT-D4:
   * E. Caldeweyher, C. Bannwarth and S. Grimme, J. Chem. Phys., 2017,
     147, 034112. DOI: 10.1063/1.4993215
   * E. Caldeweyher, S. Ehlert, A. Hansen, H. Neugebauer, S. Spicher,
     C. Bannwarth and S. Grimme, J. Chem. Phys., 2019, 150, 154122.
     DOI: 10.1063/1.5090222
   * E. Caldeweyher, J.-M. Mewes, S. Ehlert and S. Grimme, Phys. Chem. Chem. Phys.
     2020, 22, 8499-8512. DOI: 10.1039/D0CP00502A
   
   for sTDA-xTB:
   * S. Grimme and C. Bannwarth, J. Chem. Phys., 2016, 145, 054103.
     DOI: 10.1063/1.4959605
   
   in the mass-spec context:
   * V. Asgeirsson, C. Bauer and S. Grimme, Chem. Sci., 2017, 8, 4879.
     DOI: 10.1039/c7sc00601b
   * J. Koopman and S. Grimme, ACS Omega 2019, 4, 12, 15120-15133.
     DOI: 10.1021/acsomega.9b02011
   
   for metadynamics refer to:
   * S. Grimme, J. Chem. Theory Comput., 2019, 155, 2847-2862
     DOI: 10.1021/acs.jctc.9b00143
   
   for SPH calculations refer to:
   * S. Spicher and S. Grimme, J. Chem. Theory Comput., 2021, 17, 1701-1714
     DOI: 10.1021/acs.jctc.0c01306
   
   with help from (in alphabetical order)
   P. Atkinson, C. Bannwarth, F. Bohle, G. Brandenburg, E. Caldeweyher
   M. Checinski, S. Dohm, S. Ehlert, S. Ehrlich, I. Gerasimov, C. Hölzer
   A. Katbashev, J. Koopman, C. Lavigne, S. Lehtola, F. März, M. Müller,
   F. Musil, H. Neugebauer, J. Pisarek, C. Plett, P. Pracht, F. Pultar,
   J. Seibert, P. Shushkov, S. Spicher, M. Stahn, M. Steiner, T. Strunk,
   J. Stückrath, T. Rose, and J. Unsleber
   
 * started run on 2026/08/13 at 17:51:53.233     

           -------------------------------------------------
          |                Calculation Setup                |
           -------------------------------------------------

          program call               : /h/332/chchoi/miniconda3/envs/el-agente/bin/xtb CpRu_sumanene_peripheral_convex_init.xyz --opt --gfn 2 -P 4 --chrg 1 --uhf 0 --input detailed_input.inp
          coordinate file            : CpRu_sumanene_peripheral_convex_init.xyz
          omp threads                :                     4

   ID    Z sym.   atoms
    1    6 C      1-21, 35-39
    2    1 H      22-33, 40-44
    3   44 Ru     34
constraining bond 34 2 to    2.2000000 Å, actual value:    2.2646530 Å
constraining bond 34 3 to    2.2000000 Å, actual value:    2.1643702 Å
constraining bond 34 4 to    2.2000000 Å, actual value:    2.1643703 Å
constraining bond 34 5 to    2.2000000 Å, actual value:    2.2646530 Å
constraining bond 34 20 to    2.2000000 Å, actual value:    2.1690250 Å
constraining bond 34 21 to    2.2000000 Å, actual value:    2.1690251 Å
constraining bond 34 35 to    2.2200000 Å, actual value:    2.4921551 Å
constraining bond 34 36 to    2.2200000 Å, actual value:    2.4921497 Å
constraining bond 34 37 to    2.2200000 Å, actual value:    2.4921575 Å
constraining bond 34 38 to    2.2200000 Å, actual value:    2.4921575 Å
constraining bond 34 39 to    2.2200000 Å, actual value:    2.4921497 Å

           -------------------------------------------------
          |                 G F N 2 - x T B                 |
           -------------------------------------------------

        Reference                      10.1021/acs.jctc.8b01176
      * Hamiltonian:
        H0-scaling (s, p, d)           1.850000    2.230000    2.230000
        zeta-weighting                 0.500000
      * Dispersion:
        s8                             2.700000
        a1                             0.520000
        a2                             5.000000
        s9                             5.000000
      * Repulsion:
        kExp                           1.500000    1.000000
        rExp                           1.000000
      * Coulomb:
        alpha                          2.000000
        third order                    shell-resolved
        anisotropic                    true
        a3                             3.000000
        a5                             4.000000
        cn-shift                       1.200000
        cn-exp                         4.000000
        max-rad                        5.000000


          ...................................................
          :                      SETUP                      :
          :.................................................:
          :  # basis functions                 131          :
          :  # atomic orbitals                 130          :
          :  # shells                           72          :
          :  # electrons                       128          :
          :  max. iterations                   250          :
          :  Hamiltonian                  GFN2-xTB          :
          :  restarted?                      false          :
          :  GBSA solvation                  false          :
          :  PC potential                    false          :
          :  electronic temp.          300.0000000     K    :
          :  accuracy                    1.0000000          :
          :  -> integral cutoff          0.2500000E+02      :
          :  -> integral neglect         0.1000000E-07      :
          :  -> SCF convergence          0.1000000E-05 Eh   :
          :  -> wf. convergence          0.1000000E-03 e    :
          :  Broyden damping             0.4000000          :
          ...................................................

 iter      E             dE          RMSdq      gap      omega  full diag
   1    -65.7644169 -0.657644E+02  0.860E+00    0.73       0.0  T
   2    -58.5621782  0.720224E+01  0.118E+01    0.03       1.0  T
   3    -63.9651051 -0.540293E+01  0.709E+00    0.62       1.0  T
   4    -67.2304248 -0.326532E+01  0.477E+00    2.05       1.0  T
   5    -68.0829079 -0.852483E+00  0.261E+00    0.57       1.0  T
   6    -68.2747363 -0.191828E+00  0.836E-01    0.75       1.0  T
   7    -68.2789719 -0.423566E-02  0.754E-01    0.84       1.0  T
   8    -68.2808719 -0.189992E-02  0.536E-01    0.89       1.0  T
   9    -68.2893133 -0.844145E-02  0.270E-01    1.03       1.0  T
  10    -68.2930557 -0.374243E-02  0.120E-01    1.18       1.0  T
  11    -68.2936832 -0.627446E-03  0.989E-02    1.23       1.0  T
  12    -68.2942850 -0.601790E-03  0.516E-02    1.26       1.0  T
  13    -68.2943863 -0.101296E-03  0.323E-02    1.27       1.0  T
  14    -68.2943991 -0.128593E-04  0.114E-02    1.27       1.3  T
  15    -68.2944016 -0.248108E-05  0.474E-03    1.27       3.2  T
  16    -68.2944017 -0.743433E-07  0.278E-03    1.27       5.4  T
  17    -68.2944018 -0.162827E-06  0.165E-03    1.27       9.1  T
  18    -68.2944019 -0.655526E-07  0.682E-04    1.27      22.1  T
  19    -68.2944019 -0.138739E-07  0.495E-04    1.27      30.4  T

   *** convergence criteria satisfied after 19 iterations ***

         #    Occupation            Energy/Eh            Energy/eV
      -------------------------------------------------------------
         1        2.0000           -0.8402097             -22.8633
       ...           ...                  ...                  ...
        58        2.0000           -0.5256365             -14.3033
        59        2.0000           -0.5196099             -14.1393
        60        2.0000           -0.4978265             -13.5465
        61        2.0000           -0.4928895             -13.4122
        62        2.0000           -0.4886639             -13.2972
        63        2.0000           -0.4840210             -13.1709
        64        2.0000           -0.4826947             -13.1348 (HOMO)
        65                         -0.4359175             -11.8619 (LUMO)
        66                         -0.4272279             -11.6255
        67                         -0.3761169             -10.2347
        68                         -0.3730866             -10.1522
        69                         -0.3589852              -9.7685
       ...                                ...                  ...
       130                          3.3044627              89.9190
      -------------------------------------------------------------
                  HL-Gap            0.0467772 Eh            1.2729 eV
             Fermi-level           -0.4592007 Eh          -12.4955 eV

 SCC (total)                   0 d,  0 h,  0 min,  1.399 sec
 SCC setup                      ...        0 min,  0.000 sec (  0.029%)
 Dispersion                     ...        0 min,  0.004 sec (  0.294%)
 classical contributions        ...        0 min,  0.015 sec (  1.100%)
 integral evaluation            ...        0 min,  0.035 sec (  2.513%)
 iterations                     ...        0 min,  1.299 sec ( 92.883%)
 molecular gradient             ...        0 min,  0.044 sec (  3.132%)
 printout                       ...        0 min,  0.001 sec (  0.045%)

         :::::::::::::::::::::::::::::::::::::::::::::::::::::
         ::                     SUMMARY                     ::
         :::::::::::::::::::::::::::::::::::::::::::::::::::::
         :: total energy             -66.443603873880 Eh    ::
         :: gradient norm              2.625239183721 Eh/a0 ::
         :: HOMO-LUMO gap              1.272872174503 eV    ::
         ::.................................................::
         :: SCC energy               -68.294401927770 Eh    ::
         :: -> isotropic ES            0.049862781772 Eh    ::
         :: -> anisotropic ES         -0.008948874379 Eh    ::
         :: -> anisotropic XC          0.033869938380 Eh    ::
         :: -> dispersion             -0.061798201470 Eh    ::
         :: repulsion energy           1.165353527270 Eh    ::
         :: add. restraining           0.684138447634 Eh    ::
         :: total charge               1.000000000010 e     ::
         :::::::::::::::::::::::::::::::::::::::::::::::::::::

      ----------------------------------------------------------- 
     |                   =====================                   |
     |                        A N C O P T                        |
     |                   =====================                   |
     |               Approximate Normal Coordinate               |
     |                Rational Function Optimizer                |
      ----------------------------------------------------------- 

          ...................................................
          :                      SETUP                      :
          :.................................................:
          :   optimization level            normal          :
          :   max. optcycles                   200          :
          :   ANC micro-cycles                  20          :
          :   degrees of freedom               126          :
          :.................................................:
          :   RF solver                   davidson          :
          :   write xtbopt.log                true          :
          :   linear?                        false          :
          :   energy convergence         0.5000000E-05 Eh   :
          :   grad. convergence          0.1000000E-02 Eh/α :
          :   maximium RF displ.         1.0000000          :
          :   Hlow (freq-cutoff)         0.1000000E-01      :
          :   Hmax (freq-cutoff)         5.0000000          :
          :   S6 in model hess.         20.0000000          :
          ...................................................

generating ANC from model Hessian ...
Using Lindh-Hessian (1995)
 Shifting diagonal of input Hessian by    7.2434437493593745E-003
 Lowest  eigenvalues of input Hessian
    0.000000    0.000000    0.000000    0.000000    0.000000    0.000000
    0.010000    0.010490    0.013032    0.015465    0.019566    0.019767
    0.020916    0.021081    0.021596    0.022225    0.024795    0.028741
 Highest eigenvalues
    2.114464    2.426573    2.488478    3.594855    3.623176    8.992461


........................................................................
.............................. CYCLE    1 ..............................
........................................................................
   1    -68.2944019 -0.682944E+02  0.170E-04    1.27       0.0  T
   2    -68.2944019  0.683741E-09  0.359E-04    1.27      42.0  T
   3    -68.2944019 -0.274115E-08  0.145E-04    1.27     103.8  T
     SCC iter.                  ...        0 min,  0.177 sec
     gradient                   ...        0 min,  0.152 sec
 * total energy  :   -66.4436039 Eh     change       -0.1752279E-07 Eh
   gradient norm :     2.6252439 Eh/α   predicted     0.0000000E+00 (-100.00%)
   displ. norm   :     0.5248654 α      lambda       -0.1271784E+01
   maximum displ.:     0.3934298 α      in ANC's #126, #111, #77, ...

........................................................................
.............................. CYCLE    2 ..............................
........................................................................
   1    -68.3293798 -0.683294E+02  0.118E+00    1.69       0.0  T
   2    -68.3198924  0.948742E-02  0.837E-01    1.49       1.0  T
   3    -68.3137676  0.612482E-02  0.573E-01    1.63       1.0  T
   4    -68.3242385 -0.104710E-01  0.527E-01    1.54       1.0  T
   5    -68.3337171 -0.947859E-02  0.116E-01    1.57       1.0  T
   6    -68.3337769 -0.597618E-04  0.261E-02    1.57       1.0  T
   7    -68.3337764  0.518026E-06  0.169E-02    1.57       1.0  T
   8    -68.3337782 -0.180420E-05  0.786E-03    1.57       1.9  T
   9    -68.3337797 -0.151532E-05  0.332E-03    1.57       4.5  T
  10    -68.3337797  0.488959E-08  0.145E-03    1.57      10.4  T
  11    -68.3337797 -0.558366E-07  0.565E-04    1.57      26.7  T
  12    -68.3337798 -0.920312E-08  0.189E-04    1.57      79.9  T
     SCC iter.                  ...        0 min,  0.924 sec
     gradient                   ...        0 min,  0.122 sec
 * total energy  :   -66.9667056 Eh     change       -0.5231017E+00 Eh
   gradient norm :     1.0931961 Eh/α   predicted    -0.8110704E+00 (  55.05%)
   displ. norm   :     0.4581773 α      lambda       -0.2964341E+00
   maximum displ.:     0.2150175 α      in ANC's #77, #68, #74, ...

........................................................................
.............................. CYCLE    3 ..............................
........................................................................
   1    -68.3284826 -0.683285E+02  0.873E-01    1.92       0.0  T
   2    -68.3136382  0.148443E-01  0.690E-01    1.80       1.0  T
   3    -68.3151739 -0.153571E-02  0.580E-01    1.83       1.0  T
   4    -68.3318918 -0.167179E-01  0.175E-01    1.86       1.0  T
   5    -68.3323690 -0.477223E-03  0.717E-02    1.87       1.0  T
   6    -68.3324581 -0.891186E-04  0.251E-02    1.87       1.0  T
   7    -68.3324649 -0.676978E-05  0.102E-02    1.87       1.5  T
   8    -68.3324656 -0.719129E-06  0.435E-03    1.87       3.5  T
   9    -68.3324658 -0.207437E-06  0.233E-03    1.87       6.5  T
  10    -68.3324658 -0.291324E-07  0.786E-04    1.87      19.2  T
  11    -68.3324658 -0.108124E-07  0.317E-04    1.87      47.6  T
     SCC iter.                  ...        0 min,  0.725 sec
     gradient                   ...        0 min,  0.119 sec
 * total energy  :   -67.1376875 Eh     change       -0.1709819E+00 Eh
   gradient norm :     0.1119254 Eh/α   predicted    -0.1793492E+00 (   4.89%)
   displ. norm   :     0.3907171 α      lambda       -0.2696762E-01
   maximum displ.:     0.2137353 α      in ANC's #5, #4, #68, ...

........................................................................
.............................. CYCLE    4 ..............................
........................................................................
   1    -68.3353486 -0.683353E+02  0.262E-01    2.02       0.0  T
   2    -68.3346038  0.744828E-03  0.188E-01    2.01       1.0  T
   3    -68.3343381  0.265708E-03  0.178E-01    2.01       1.0  T
   4    -68.3356233 -0.128526E-02  0.575E-02    2.01       1.0  T
   5    -68.3355783  0.450283E-04  0.532E-02    2.01       1.0  T
   6    -68.3356359 -0.575678E-04  0.310E-03    2.01       4.9  T
   7    -68.3356359  0.174971E-07  0.209E-03    2.01       7.2  T
   8    -68.3356359 -0.525954E-07  0.986E-04    2.01      15.3  T
   9    -68.3356359 -0.207012E-07  0.659E-04    2.01      22.9  T
     SCC iter.                  ...        0 min,  0.509 sec
     gradient                   ...        0 min,  0.061 sec
 * total energy  :   -67.1547009 Eh     change       -0.1701347E-01 Eh
   gradient norm :     0.0337103 Eh/α   predicted    -0.1554227E-01 (  -8.65%)
   displ. norm   :     0.2911821 α      lambda       -0.4596771E-02
   maximum displ.:     0.1513744 α      in ANC's #1, #5, #26, ...

........................................................................
.............................. CYCLE    5 ..............................
........................................................................
   1    -68.3331795 -0.683332E+02  0.151E-01    2.06       0.0  T
   2    -68.3331703  0.920326E-05  0.127E-01    2.06       1.0  T
   3    -68.3331854 -0.150555E-04  0.723E-02    2.06       1.0  T
   4    -68.3329506  0.234772E-03  0.655E-02    2.06       1.0  T
   5    -68.3332141 -0.263472E-03  0.138E-02    2.06       1.1  T
   6    -68.3332178 -0.371126E-05  0.224E-03    2.06       6.7  T
   7    -68.3332179 -0.129723E-06  0.109E-03    2.06      13.8  T
   8    -68.3332179 -0.411890E-08  0.850E-04    2.06      17.7  T
   9    -68.3332179 -0.133162E-07  0.181E-04    2.06      83.1  T
     SCC iter.                  ...        0 min,  0.576 sec
     gradient                   ...        0 min,  0.169 sec
 * total energy  :   -67.1574373 Eh     change       -0.2736384E-02 Eh
   gradient norm :     0.0105321 Eh/α   predicted    -0.2493494E-02 (  -8.88%)
   displ. norm   :     0.1758680 α      lambda       -0.5172137E-03
   maximum displ.:     0.1362609 α      in ANC's #1, #3, #5, ...

........................................................................
.............................. CYCLE    6 ..............................
........................................................................
   1    -68.3326744 -0.683327E+02  0.853E-02    2.06       0.0  T
   2    -68.3326550  0.194156E-04  0.813E-02    2.06       1.0  T
   3    -68.3326706 -0.155662E-04  0.359E-02    2.06       1.0  T
   4    -68.3325645  0.106089E-03  0.442E-02    2.06       1.0  T
   5    -68.3326837 -0.119163E-03  0.685E-03    2.06       2.2  T
   6    -68.3326846 -0.977389E-06  0.878E-04    2.06      17.2  T
   7    -68.3326846 -0.112016E-07  0.452E-04    2.06      33.4  T
     SCC iter.                  ...        0 min,  0.468 sec
     gradient                   ...        0 min,  0.126 sec
 * total energy  :   -67.1577833 Eh     change       -0.3459768E-03 Eh
   gradient norm :     0.0060652 Eh/α   predicted    -0.2667428E-03 ( -22.90%)
   displ. norm   :     0.1348663 α      lambda       -0.1873877E-03
   maximum displ.:     0.1106010 α      in ANC's #1, #3, #16, ...

........................................................................
.............................. CYCLE    7 ..............................
........................................................................
   1    -68.3319433 -0.683319E+02  0.594E-02    2.06       0.0  T
   2    -68.3319378  0.552533E-05  0.600E-02    2.06       1.0  T
   3    -68.3319448 -0.699042E-05  0.227E-02    2.06       1.0  T
   4    -68.3319090  0.358001E-04  0.247E-02    2.06       1.0  T
   5    -68.3319471 -0.381926E-04  0.285E-03    2.06       5.3  T
   6    -68.3319473 -0.133320E-06  0.659E-04    2.06      22.9  T
   7    -68.3319473 -0.348948E-08  0.371E-04    2.06      40.6  T
     SCC iter.                  ...        0 min,  0.430 sec
     gradient                   ...        0 min,  0.121 sec
 * total energy  :   -67.1579160 Eh     change       -0.1327370E-03 Eh
   gradient norm :     0.0036327 Eh/α   predicted    -0.9541572E-04 ( -28.12%)
   displ. norm   :     0.1098409 α      lambda       -0.9106431E-04
   maximum displ.:     0.0881929 α      in ANC's #1, #3, #4, ...

........................................................................
.............................. CYCLE    8 ..............................
........................................................................
   1    -68.3322786 -0.683323E+02  0.441E-02    2.05       0.0  T
   2    -68.3322730  0.560611E-05  0.458E-02    2.05       1.0  T
   3    -68.3322786 -0.562817E-05  0.171E-02    2.05       1.0  T
   4    -68.3322492  0.293983E-04  0.227E-02    2.05       1.0  T
   5    -68.3322812 -0.319516E-04  0.155E-03    2.05       9.7  T
   6    -68.3322812 -0.264398E-07  0.321E-04    2.05      47.0  T
   7    -68.3322812 -0.454435E-09  0.157E-04    2.05      95.8  T
     SCC iter.                  ...        0 min,  0.358 sec
     gradient                   ...        0 min,  0.083 sec
 * total energy  :   -67.1579796 Eh     change       -0.6354795E-04 Eh
   gradient norm :     0.0022834 Eh/α   predicted    -0.4609816E-04 ( -27.46%)
   displ. norm   :     0.0810041 α      lambda       -0.4086148E-04
   maximum displ.:     0.0637075 α      in ANC's #1, #3, #4, ...

........................................................................
.............................. CYCLE    9 ..............................
........................................................................
   1    -68.3322369 -0.683322E+02  0.288E-02    2.05       0.0  T
   2    -68.3322362  0.698031E-06  0.325E-02    2.05       1.0  T
   3    -68.3322379 -0.168897E-05  0.918E-03    2.05       1.6  T
   4    -68.3322377  0.187800E-06  0.273E-03    2.05       5.5  T
   5    -68.3322378 -0.122326E-06  0.132E-03    2.05      11.4  T
   6    -68.3322379 -0.922978E-07  0.485E-04    2.05      31.1  T
   7    -68.3322379 -0.912065E-08  0.161E-04    2.05      93.9  T
     SCC iter.                  ...        0 min,  0.357 sec
     gradient                   ...        0 min,  0.085 sec
 * total energy  :   -67.1580082 Eh     change       -0.2864825E-04 Eh
   gradient norm :     0.0022697 Eh/α   predicted    -0.2056716E-04 ( -28.21%)
   displ. norm   :     0.0565331 α      lambda       -0.1993114E-04
   maximum displ.:     0.0444646 α      in ANC's #1, #3, #4, ...

........................................................................
.............................. CYCLE   10 ..............................
........................................................................
   1    -68.3324815 -0.683325E+02  0.193E-02    2.05       0.0  T
   2    -68.3324812  0.339038E-06  0.225E-02    2.05       1.0  T
   3    -68.3324820 -0.817836E-06  0.541E-03    2.05       2.8  T
   4    -68.3324819  0.779697E-07  0.166E-03    2.05       9.1  T
   5    -68.3324819  0.520413E-07  0.154E-03    2.05       9.8  T
   6    -68.3324820 -0.142683E-06  0.266E-04    2.05      56.6  T
   7    -68.3324820 -0.175970E-08  0.111E-04    2.05     136.4  T
     SCC iter.                  ...        0 min,  0.400 sec
     gradient                   ...        0 min,  0.143 sec
 * total energy  :   -67.1580225 Eh     change       -0.1421458E-04 Eh
   gradient norm :     0.0016196 Eh/α   predicted    -0.1000943E-04 ( -29.58%)
   displ. norm   :     0.0586142 α      lambda       -0.1023520E-04
   maximum displ.:     0.0462334 α      in ANC's #1, #9, #5, ...

........................................................................
.............................. CYCLE   11 ..............................
........................................................................
   1    -68.3325072 -0.683325E+02  0.214E-02    2.05       0.0  T
   2    -68.3325067  0.552655E-06  0.245E-02    2.05       1.0  T
   3    -68.3325078 -0.112927E-05  0.611E-03    2.05       2.5  T
   4    -68.3325063  0.150980E-05  0.521E-03    2.05       2.9  T
   5    -68.3325076 -0.134453E-05  0.223E-03    2.05       6.8  T
   6    -68.3325079 -0.260115E-06  0.341E-04    2.05      44.2  T
   7    -68.3325079 -0.212337E-08  0.112E-04    2.05     135.1  T
     SCC iter.                  ...        0 min,  0.336 sec
     gradient                   ...        0 min,  0.117 sec
 * total energy  :   -67.1580308 Eh     change       -0.8349190E-05 Eh
   gradient norm :     0.0009377 Eh/α   predicted    -0.5132717E-05 ( -38.52%)
   displ. norm   :     0.0161561 α      lambda       -0.2928083E-05
   maximum displ.:     0.0099066 α      in ANC's #1, #7, #3, ...

........................................................................
.............................. CYCLE   12 ..............................
........................................................................
   1    -68.3325295 -0.683325E+02  0.724E-03    2.05       0.0  T
   2    -68.3325295  0.409909E-07  0.678E-03    2.05       2.2  T
   3    -68.3325296 -0.690510E-07  0.281E-03    2.05       5.4  T
   4    -68.3325292  0.321441E-06  0.243E-03    2.05       6.2  T
   5    -68.3325296 -0.328312E-06  0.721E-04    2.05      20.9  T
   6    -68.3325296 -0.198199E-07  0.866E-05    2.05     174.0  T
     SCC iter.                  ...        0 min,  0.280 sec
     gradient                   ...        0 min,  0.056 sec
 * total energy  :   -67.1580344 Eh     change       -0.3641238E-05 Eh
   gradient norm :     0.0008912 Eh/α   predicted    -0.1465544E-05 ( -59.75%)
   displ. norm   :     0.0530731 α      lambda       -0.7808937E-05
   maximum displ.:     0.0328982 α      in ANC's #1, #7, #3, ...

   *** GEOMETRY OPTIMIZATION CONVERGED AFTER 12 ITERATIONS ***

------------------------------------------------------------------------
 total energy gain   :        -0.7144306 Eh     -448.3120 kcal/mol
 total RMSD          :         0.2270618 a0        0.1202 Å
 total power (kW/mol):      -156.3114348 (step) -235.8237 (real)
------------------------------------------------------------------------

 ANCopt (total)                0 d,  0 h,  0 min,  7.954 sec
 optimizer setup                ...        0 min,  0.000 sec (  0.005%)
 model hessian                  ...        0 min,  0.039 sec (  0.496%)
 ANC generation                 ...        0 min,  0.013 sec (  0.159%)
 coordinate transformation      ...        0 min,  0.032 sec (  0.399%)
 single point calculation       ...        0 min,  7.704 sec ( 96.852%)
 optimization log               ...        0 min,  0.002 sec (  0.020%)
 hessian update                 ...        0 min,  0.143 sec (  1.792%)
 rational function              ...        0 min,  0.019 sec (  0.236%)

================
 final structure:
================
44
 xtb: 6.5.1 (b24c23e)
C           -3.19170993454608        0.78607289003632        0.13533262895227
C           -2.01503300937826        1.76141368932908        0.32657832767114
C           -1.00291247364002        1.01644474563511        0.98982668880659
C            0.33900196208315        1.41496377906777        0.94857906075279
C            0.74209392766036        2.58004355602583        0.24234510465994
C            2.24771804678642        2.40195637722985       -0.02923163635737
C            2.48510424852653        0.91433722983069        0.25249191565201
C            1.37947901581842        0.44187444715962        0.96351017040102
C            1.04135938163890       -0.89877383743579        1.00253026666889
C            1.80969844720984       -1.86295469143418        0.34523947979053
C            0.92221324184905       -3.08885065965931        0.14966266616160
C           -0.47787789436512       -2.54247810596743        0.41412869283853
C           -0.32493035779598       -1.30465632411694        1.04376153508569
C           -1.34123588775524       -0.36639402640392        1.04592421164727
C           -2.56286729612523       -0.58525902131709        0.40497224603854
C           -2.77507119778304       -1.86677761346609       -0.07939880907731
C           -1.74527314521178       -2.83297289624365       -0.06986822732730
C            3.00135580434827       -1.42299824022572       -0.21273533025052
C            3.33500214704596       -0.05177724292404       -0.26348996508519
C           -0.25014902080803        3.32117451080489       -0.44418350769988
C           -1.62750829873169        2.91216009323109       -0.40219862986635
H           -4.00574626777059        0.98769876903737        0.83636071341492
H           -3.59696259375282        0.85549723592982       -0.87442518684088
H            2.49332907222309        2.66461872143175       -1.05846439152886
H            2.85634400657768        3.02709423277768        0.62926871894054
H            1.17813079516504       -3.87837352603816        0.86055045066321
H            1.01491408387900       -3.50262971734537       -0.85382376837452
H           -3.69249466978884       -2.11419007324324       -0.59189006681634
H           -1.93462763542931       -3.76814254993773       -0.57561973388380
H            3.64195135043425       -2.11170624206175       -0.74330449874110
H            4.20898695347291        0.23282505932923       -0.82977238576587
H            0.02931425815777        4.14353681685757       -1.09520518121032
H           -2.34608720348659        3.43778105579622       -1.02311770903257
Ru          -0.87387495861408        3.11115104672907        1.65529435649841
C           -1.76807769904576        4.91958135245461        2.58359309079212
C           -0.35953132944067        4.94839667941858        2.79126094937629
C           -0.00660465473082        3.81216683803991        3.57492383224956
C           -1.19695943455720        3.08193547846772        3.85161099681539
C           -2.28527852828445        3.76565464264992        3.23940403024131
H           -2.35611115820706        5.70554715947548        2.12919905011551
H            0.30244247501863        5.75921486315277        2.51831562671240
H            0.96966823062837        3.61090202932145        3.99516546775958
H           -1.27644799828029        2.22948656215635        4.51300954044787
H           -3.33276126099486        3.52606457644435        3.36380585870418

 Bond Distances (Angstroems)
 ---------------------------
C1-C2=1.5403         C1-C15=1.5325        C1-H22=1.0930        C1-H23=1.0903        C2-C1=1.5403         C2-C3=1.4210         
C2-C21=1.4162        C2-Ru34=2.2112       C3-C2=1.4210         C3-C4=1.4004         C3-C14=1.4247        C3-Ru34=2.2017       
C4-C3=1.4004         C4-C5=1.4208         C4-C8=1.4247         C4-Ru34=2.2017       C5-C4=1.4208         C5-C6=1.5403         
C5-C20=1.4160        C5-Ru34=2.2113       C6-C5=1.5403         C6-C7=1.5326         C6-H24=1.0902        C6-H25=1.0931        
C7-C6=1.5326         C7-C8=1.3968         C7-C19=1.3863        C8-C4=1.4247         C8-C7=1.3968         C8-C9=1.3832         
C9-C8=1.3832         C9-C10=1.3971        C9-C13=1.4259        C10-C9=1.3971        C10-C11=1.5260       C10-C18=1.3874       
C11-C10=1.5260       C11-C12=1.5260       C11-H26=1.0928       C11-H27=1.0894       C12-C11=1.5260       C12-C13=1.3972       
C12-C17=1.3874       C13-C9=1.4259        C13-C12=1.3972       C13-C14=1.3832       C14-C3=1.4247        C14-C13=1.3832       
C14-C15=1.3968       C15-C1=1.5325        C15-C14=1.3968       C15-C16=1.3863       C16-C15=1.3863       C16-C17=1.4121       
C16-H28=1.0796       C17-C12=1.3874       C17-C16=1.4121       C17-H29=1.0799       C18-C10=1.3874       C18-C19=1.4121       
C18-H30=1.0799       C19-C7=1.3863        C19-C18=1.4121       C19-H31=1.0796       C20-C5=1.4160        C20-C21=1.4374       
C20-H32=1.0855       C20-Ru34=2.2002      C21-C2=1.4162        C21-C20=1.4374       C21-H33=1.0854       C21-Ru34=2.2002      
H22-C1=1.0930        H23-C1=1.0903        H24-C6=1.0902        H25-C6=1.0931        H26-C11=1.0928       H27-C11=1.0894       
H28-C16=1.0796       H29-C17=1.0799       H30-C18=1.0799       H31-C19=1.0796       H32-C20=1.0855       H33-C21=1.0854       
Ru34-C2=2.2112       Ru34-C3=2.2017       Ru34-C4=2.2017       Ru34-C5=2.2113       Ru34-C20=2.2002      Ru34-C21=2.2002      
Ru34-C35=2.2208      Ru34-C36=2.2205      Ru34-C37=2.2200      Ru34-C38=2.2201      Ru34-C39=2.2203      C35-Ru34=2.2208      
C35-C36=1.4241       C35-C39=1.4245       C35-H40=1.0817       C36-Ru34=2.2205      C36-C35=1.4241       C36-C37=1.4247       
C36-H41=1.0817       C37-Ru34=2.2200      C37-C36=1.4247       C37-C38=1.4236       C37-H42=1.0818       C38-Ru34=2.2201      
C38-C37=1.4236       C38-C39=1.4236       C38-H43=1.0819       C39-Ru34=2.2203      C39-C35=1.4245       C39-C38=1.4236       
C39-H44=1.0817       H40-C35=1.0817       H41-C36=1.0817       H42-C37=1.0818       H43-C38=1.0819       H44-C39=1.0817       
 C  H  Rav=1.0851 sigma=0.0050  Rmin=1.0796  Rmax=1.0931    17
 C  C  Rav=1.4322 sigma=0.0507  Rmin=1.3832  Rmax=1.5403    32
 Ru C  Rav=2.2116 sigma=0.0087  Rmin=2.2002  Rmax=2.2208    11

 selected bond angles (degree)
 --------------------
C15-C1-C2=103.37               H22-C1-C2=111.87               H22-C1-C15=110.97              H23-C1-C2=111.02               
H23-C1-C15=111.87              H23-C1-H22=107.78              C3-C2-C1=105.67                C21-C2-C1=131.28               
C21-C2-C3=118.12               Ru34-C2-C1=148.80              Ru34-C2-C3= 70.85              Ru34-C2-C21= 70.85             
C4-C3-C2=121.30                C14-C3-C2=110.98               C14-C3-C4=120.32               Ru34-C3-C2= 71.58              
Ru34-C3-C4= 71.46              Ru34-C3-C14=157.74             C5-C4-C3=121.32                C8-C4-C3=120.34                
C8-C4-C5=110.98                Ru34-C4-C3= 71.45              Ru34-C4-C5= 71.59              Ru34-C4-C8=157.69              
C6-C5-C4=105.67                C20-C5-C4=118.12               C20-C5-C6=131.30               Ru34-C5-C4= 70.85              
Ru34-C5-C6=148.74              Ru34-C5-C20= 70.85             C7-C6-C5=103.37                H24-C6-C5=111.03               
H24-C6-C7=111.87               H25-C6-C5=111.83               H25-C6-C7=110.99               H25-C6-H24=107.79              
C8-C7-C6=107.41                C19-C7-C6=134.67               C19-C7-C8=116.04               C7-C8-C4=109.98                
C9-C8-C4=118.93                C9-C8-C7=122.39                C10-C9-C8=121.41               C13-C9-C8=120.73               
C13-C9-C10=110.13              C11-C10-C9=107.15              C18-C10-C9=116.28              C18-C10-C11=134.64             

 selected dihedral angles (degree)
 ---------------------------------
C3-C2-C1-C15=345.28           C3-C2-C1-H22=104.73           C3-C2-C1-H23=225.18           C21-C2-C1-C15=139.12          
C21-C2-C1-H22=258.57          C21-C2-C1-H23= 19.02          Ru34-C2-C1-C15=266.49         Ru34-C2-C1-H22= 25.94         
Ru34-C2-C1-H23=146.39         C4-C3-C2-C1=159.03            C4-C3-C2-C21=  1.10           C4-C3-C2-Ru34=306.50          
C14-C3-C2-C1=  9.03           C14-C3-C2-C21=211.09          C14-C3-C2-Ru34=156.49         Ru34-C3-C2-C1=212.54          
Ru34-C3-C2-C21= 54.60         C5-C4-C3-C2=  0.00            C5-C4-C3-C14=147.28           C5-C4-C3-Ru34=306.46          
C8-C4-C3-C2=212.68            C8-C4-C3-C14=359.94           C8-C4-C3-Ru34=159.12          Ru34-C4-C3-C2= 53.56          
Ru34-C4-C3-C14=200.83         C6-C5-C4-C3=200.87            C6-C5-C4-C8=350.95            C6-C5-C4-Ru34=147.39          
C20-C5-C4-C3=358.88           C20-C5-C4-C8=148.96           C20-C5-C4-Ru34=305.40         Ru34-C5-C4-C3= 53.48          
Ru34-C5-C4-C8=203.56          C7-C6-C5-C4= 14.74            C7-C6-C5-C20=220.82           C7-C6-C5-Ru34= 93.54          
H24-C6-C5-C4=134.85           H24-C6-C5-C20=340.93          H24-C6-C5-Ru34=213.65         H25-C6-C5-C4=255.29           
H25-C6-C5-C20=101.37          H25-C6-C5-Ru34=334.09         C8-C7-C6-C5=344.28            C8-C7-C6-H24=224.75           
C8-C7-C6-H25=104.32           C19-C7-C6-C5=147.40           C19-C7-C6-H24= 27.87          C19-C7-C6-H25=267.44          
C7-C8-C4-C3=149.25            C7-C8-C4-C5=358.84            C7-C8-C4-Ru34=266.35          C9-C8-C4-C3=  0.79            
C9-C8-C4-C5=210.38            C9-C8-C4-Ru34=117.89          C4-C8-C7-C6= 10.98            C4-C8-C7-C19=204.27           
C9-C8-C7-C6=158.15            C9-C8-C7-C19=351.43           C10-C9-C8-C4=145.55           C10-C9-C8-C7=  1.15           
C13-C9-C8-C4=359.24           C13-C9-C8-C7=214.85           C11-C10-C9-C8=200.57          C11-C10-C9-C13=350.05         
C18-C10-C9-C8=  7.10          C18-C10-C9-C13=156.58         
           -------------------------------------------------
          |                Final Singlepoint                |
           -------------------------------------------------

          ...................................................
          :                      SETUP                      :
          :.................................................:
          :  # basis functions                 131          :
          :  # atomic orbitals                 130          :
          :  # shells                           72          :
          :  # electrons                       128          :
          :  max. iterations                   250          :
          :  Hamiltonian                  GFN2-xTB          :
          :  restarted?                      false          :
          :  GBSA solvation                  false          :
          :  PC potential                    false          :
          :  electronic temp.          300.0000000     K    :
          :  accuracy                    1.0000000          :
          :  -> integral cutoff          0.2500000E+02      :
          :  -> integral neglect         0.1000000E-07      :
          :  -> SCF convergence          0.1000000E-05 Eh   :
          :  -> wf. convergence          0.1000000E-03 e    :
          :  Broyden damping             0.4000000          :
          ...................................................

 iter      E             dE          RMSdq      gap      omega  full diag
   1    -68.3325296 -0.683325E+02  0.421E-05    2.05       0.0  T
   2    -68.3325296  0.223537E-10  0.345E-05    2.05     436.4  T
   3    -68.3325296  0.657963E-11  0.340E-05    2.05     443.1  T

   *** convergence criteria satisfied after 3 iterations ***

         #    Occupation            Energy/Eh            Energy/eV
      -------------------------------------------------------------
         1        2.0000           -0.8439217             -22.9643
       ...           ...                  ...                  ...
        58        2.0000           -0.5264153             -14.3245
        59        2.0000           -0.5183706             -14.1056
        60        2.0000           -0.4967971             -13.5185
        61        2.0000           -0.4915118             -13.3747
        62        2.0000           -0.4887821             -13.3004
        63        2.0000           -0.4828416             -13.1388
        64        2.0000           -0.4810388             -13.0897 (HOMO)
        65                         -0.4056480             -11.0382 (LUMO)
        66                         -0.4043750             -11.0036
        67                         -0.3778305             -10.2813
        68                         -0.3775137             -10.2727
        69                         -0.3601348              -9.7998
       ...                                ...                  ...
       130                          3.9160341             106.5607
      -------------------------------------------------------------
                  HL-Gap            0.0753908 Eh            2.0515 eV
             Fermi-level           -0.4433434 Eh          -12.0640 eV

 SCC (total)                   0 d,  0 h,  0 min,  0.139 sec
 SCC setup                      ...        0 min,  0.013 sec (  9.260%)
 Dispersion                     ...        0 min,  0.004 sec (  2.577%)
 classical contributions        ...        0 min,  0.009 sec (  6.360%)
 integral evaluation            ...        0 min,  0.012 sec (  8.313%)
 iterations                     ...        0 min,  0.055 sec ( 39.376%)
 molecular gradient             ...        0 min,  0.042 sec ( 30.093%)
 printout                       ...        0 min,  0.006 sec (  4.002%)

         :::::::::::::::::::::::::::::::::::::::::::::::::::::
         ::                     SUMMARY                     ::
         :::::::::::::::::::::::::::::::::::::::::::::::::::::
         :: total energy             -67.158034448836 Eh    ::
         :: gradient norm              0.000891101468 Eh/a0 ::
         :: HOMO-LUMO gap              2.051487183583 eV    ::
         ::.................................................::
         :: SCC energy               -68.332529580593 Eh    ::
         :: -> isotropic ES            0.051835786282 Eh    ::
         :: -> anisotropic ES         -0.008302417077 Eh    ::
         :: -> anisotropic XC          0.036143170414 Eh    ::
         :: -> dispersion             -0.062083168318 Eh    ::
         :: repulsion energy           1.172747695754 Eh    ::
         :: add. restraining           0.000465049794 Eh    ::
         :: total charge               1.000000000000 e     ::
         :::::::::::::::::::::::::::::::::::::::::::::::::::::

           -------------------------------------------------
          |                Property Printout                |
           -------------------------------------------------

    * Orbital Energies and Occupations

         #    Occupation            Energy/Eh            Energy/eV
      -------------------------------------------------------------
         1        2.0000           -0.8439217             -22.9643
       ...           ...                  ...                  ...
        52        2.0000           -0.5472741             -14.8921
        53        2.0000           -0.5463924             -14.8681
        54        2.0000           -0.5399456             -14.6927
        55        2.0000           -0.5388352             -14.6625
        56        2.0000           -0.5364085             -14.5964
        57        2.0000           -0.5317546             -14.4698
        58        2.0000           -0.5264153             -14.3245
        59        2.0000           -0.5183706             -14.1056
        60        2.0000           -0.4967971             -13.5185
        61        2.0000           -0.4915118             -13.3747
        62        2.0000           -0.4887821             -13.3004
        63        2.0000           -0.4828416             -13.1388
        64        2.0000           -0.4810388             -13.0897 (HOMO)
        65                         -0.4056480             -11.0382 (LUMO)
        66                         -0.4043750             -11.0036
        67                         -0.3778305             -10.2813
        68                         -0.3775137             -10.2727
        69                         -0.3601348              -9.7998
        70                         -0.3329747              -9.0607
        71                         -0.3304405              -8.9917
        72                         -0.3118580              -8.4861
        73                         -0.3018224              -8.2130
        74                         -0.3003190              -8.1721
        75                         -0.2776404              -7.5550
       ...                                ...                  ...
       130                          3.9160341             106.5607
      -------------------------------------------------------------
                  HL-Gap            0.0753908 Eh            2.0515 eV
             Fermi-level           -0.4433434 Eh          -12.0640 eV

     #   Z          covCN         q      C6AA      α(0)
     1   6 C        3.851    -0.063    21.673     6.621
     2   6 C        3.825     0.033    20.002     6.364
     3   6 C        3.893     0.038    19.876     6.338
     4   6 C        3.893     0.039    19.875     6.338
     5   6 C        3.826     0.033    20.000     6.364
     6   6 C        3.851    -0.063    21.675     6.622
     7   6 C        3.018     0.004    27.908     8.666
     8   6 C        3.057    -0.005    28.103     8.694
     9   6 C        3.075     0.003    27.870     8.656
    10   6 C        3.023     0.013    27.698     8.633
    11   6 C        3.859    -0.068    21.768     6.635
    12   6 C        3.023     0.013    27.698     8.633
    13   6 C        3.075     0.003    27.872     8.656
    14   6 C        3.057    -0.006    28.103     8.694
    15   6 C        3.018     0.004    27.907     8.665
    16   6 C        2.922    -0.031    28.782     8.798
    17   6 C        2.922    -0.029    28.720     8.788
    18   6 C        2.922    -0.029    28.719     8.788
    19   6 C        2.922    -0.031    28.782     8.798
    20   6 C        3.740    -0.003    20.713     6.493
    21   6 C        3.740    -0.003    20.714     6.494
    22   1 H        0.924     0.087     1.912     2.163
    23   1 H        0.924     0.076     2.021     2.223
    24   1 H        0.924     0.076     2.021     2.223
    25   1 H        0.924     0.087     1.909     2.161
    26   1 H        0.924     0.089     1.893     2.151
    27   1 H        0.925     0.074     2.044     2.236
    28   1 H        0.926     0.059     2.206     2.323
    29   1 H        0.926     0.062     2.177     2.308
    30   1 H        0.926     0.062     2.177     2.307
    31   1 H        0.926     0.059     2.206     2.323
    32   1 H        0.925     0.082     1.959     2.189
    33   1 H        0.925     0.082     1.960     2.189
    34  44 Ru       9.147    -0.202   315.268    29.866
    35   6 C        3.814    -0.005    20.657     6.469
    36   6 C        3.815    -0.004    20.647     6.467
    37   6 C        3.815    -0.003    20.627     6.464
    38   6 C        3.815    -0.002    20.610     6.462
    39   6 C        3.815    -0.004    20.632     6.465
    40   1 H        0.925     0.096     1.825     2.112
    41   1 H        0.925     0.095     1.832     2.116
    42   1 H        0.925     0.094     1.836     2.119
    43   1 H        0.925     0.095     1.827     2.114
    44   1 H        0.925     0.094     1.842     2.122

 Mol. C6AA /au·bohr⁶  :      28476.878628
 Mol. C8AA /au·bohr⁸  :     893766.275120
 Mol. α(0) /au        :        262.307484


Wiberg/Mayer (AO) data.
largest (>0.10) Wiberg bond orders for each atom

 ---------------------------------------------------------------------------
     #   Z sym  total        # sym  WBO       # sym  WBO       # sym  WBO
 ---------------------------------------------------------------------------
     1   6 C    3.987 --    15 C    0.999     2 C    0.988    23 H    0.955
                            22 H    0.940
     2   6 C    3.983 --    21 C    1.259     3 C    1.152     1 C    0.988
                            34 Ru   0.406
     3   6 C    3.988 --     4 C    1.161     2 C    1.152    14 C    1.108
                            34 Ru   0.359
     4   6 C    3.988 --     3 C    1.161     5 C    1.152     8 C    1.108
                            34 Ru   0.358
     5   6 C    3.983 --    20 C    1.259     4 C    1.152     6 C    0.988
                            34 Ru   0.406
     6   6 C    3.987 --     7 C    0.999     5 C    0.988    24 H    0.955
                            25 H    0.940
     7   6 C    3.978 --    19 C    1.457     8 C    1.303     6 C    0.999
     8   6 C    3.978 --     9 C    1.310     7 C    1.303     4 C    1.108
     9   6 C    3.981 --     8 C    1.310    10 C    1.306    13 C    1.128
    10   6 C    3.979 --    18 C    1.454     9 C    1.306    11 C    1.008
    11   6 C    3.992 --    10 C    1.008    12 C    1.008    27 H    0.955
                            26 H    0.936
    12   6 C    3.979 --    17 C    1.454    13 C    1.306    11 C    1.008
    13   6 C    3.983 --    14 C    1.310    12 C    1.306     9 C    1.128
    14   6 C    3.978 --    13 C    1.310    15 C    1.304     3 C    1.108
    15   6 C    3.979 --    16 C    1.457    14 C    1.304     1 C    0.999
    16   6 C    3.974 --    15 C    1.457    17 C    1.385    28 H    0.967
    17   6 C    3.969 --    12 C    1.454    16 C    1.385    29 H    0.966
    18   6 C    3.969 --    10 C    1.454    19 C    1.384    30 H    0.966
    19   6 C    3.974 --     7 C    1.457    18 C    1.384    31 H    0.967
    20   6 C    3.982 --     5 C    1.259    21 C    1.216    32 H    0.939
                            34 Ru   0.421
    21   6 C    3.982 --     2 C    1.259    20 C    1.216    33 H    0.939
                            34 Ru   0.421
    22   1 H    0.992 --     1 C    0.940
    23   1 H    0.993 --     1 C    0.955
    24   1 H    0.993 --     6 C    0.955
    25   1 H    0.992 --     6 C    0.940
    26   1 H    0.991 --    11 C    0.936
    27   1 H    0.994 --    11 C    0.955
    28   1 H    0.995 --    16 C    0.967
    29   1 H    0.995 --    17 C    0.966
    30   1 H    0.995 --    18 C    0.966
    31   1 H    0.995 --    19 C    0.967
    32   1 H    0.992 --    20 C    0.939
    33   1 H    0.992 --    21 C    0.939
    34  44 Ru   5.204 --    36 C    0.491    35 C    0.491    39 C    0.488
                            37 C    0.487    38 C    0.483    20 C    0.421
                            21 C    0.421     2 C    0.406     5 C    0.406
                             3 C    0.359     4 C    0.358
    35   6 C    3.978 --    36 C    1.231    39 C    1.229    40 H    0.930
                            34 Ru   0.491
    36   6 C    3.979 --    35 C    1.231    37 C    1.229    41 H    0.930
                            34 Ru   0.491
    37   6 C    3.980 --    38 C    1.232    36 C    1.229    42 H    0.930
                            34 Ru   0.487
    38   6 C    3.982 --    39 C    1.232    37 C    1.232    43 H    0.930
                            34 Ru   0.483
    39   6 C    3.980 --    38 C    1.232    35 C    1.229    44 H    0.931
                            34 Ru   0.488
    40   1 H    0.990 --    35 C    0.930
    41   1 H    0.991 --    36 C    0.930
    42   1 H    0.991 --    37 C    0.930
    43   1 H    0.990 --    38 C    0.930
    44   1 H    0.991 --    39 C    0.931
 ---------------------------------------------------------------------------

Topologies differ in total number of bonds
Writing topology from bond orders to xtbtopo.mol

molecular dipole:
                 x           y           z       tot (Debye)
 q only:       -0.941       3.354       1.767
   full:       -0.977       3.436       1.430       9.779
molecular quadrupole (traceless):
                xx          xy          yy          xz          yz          zz
 q only:       -8.605     -10.211      25.370      -7.068      23.242     -16.765
  q+dip:       -5.240      -9.789      26.883      -6.013      18.825     -21.643
   full:       -7.567      -9.930      25.092      -6.108      19.789     -17.525

           -------------------------------------------------
          |                Geometry Summary                 |
           -------------------------------------------------

      molecular mass/u    :      430.4790663
   center of mass at/Å    :       -0.3758767       1.3721419       1.0511102
  moments of inertia/u·Å² :        0.1408318E+04   0.2999478E+04   0.3747902E+04
rotational constants/cm⁻¹ :        0.1197005E-01   0.5620188E-02   0.4497885E-02

 * 56 selected distances

     #   Z          #   Z                                           value/Å
     1   6 C        2   6 C                                       1.5402706
     2   6 C        3   6 C                                       1.4210086
     3   6 C        4   6 C                                       1.4004476
     4   6 C        5   6 C                                       1.4207958
     5   6 C        6   6 C                                       1.5402511
     4   6 C        8   6 C                                       1.4246820
     7   6 C        8   6 C                                       1.3968449
     8   6 C        9   6 C                                       1.3831795
     9   6 C       10   6 C                                       1.3971475
     9   6 C       13   6 C                                       1.4258992
    12   6 C       13   6 C                                       1.3971520
     3   6 C       14   6 C                                       1.4247291
    13   6 C       14   6 C                                       1.3831913
    14   6 C       15   6 C                                       1.3968196
    15   6 C       16   6 C                                       1.3863391
    12   6 C       17   6 C                                       1.3874189
    16   6 C       17   6 C                                       1.4121291
    10   6 C       18   6 C                                       1.3874239
     7   6 C       19   6 C                                       1.3863410
    18   6 C       19   6 C                                       1.4121414
     5   6 C       20   6 C                                       1.4160307
     2   6 C       21   6 C                                       1.4161599
    20   6 C       21   6 C                                       1.4374194
     1   6 C       22   1 H                                       1.0930456
     1   6 C       23   1 H                                       1.0902571
     6   6 C       24   1 H                                       1.0902461
     6   6 C       25   1 H                                       1.0930900
    11   6 C       26   1 H                                       1.0927954
    11   6 C       27   1 H                                       1.0893997
    16   6 C       28   1 H                                       1.0795954
    17   6 C       29   1 H                                       1.0798992
    18   6 C       30   1 H                                       1.0799006
    19   6 C       31   1 H                                       1.0795943 (min)
    20   6 C       32   1 H                                       1.0854533
    21   6 C       33   1 H                                       1.0854371
     2   6 C       34  44 Ru                                      2.2112259
     3   6 C       34  44 Ru                                      2.2016569
     4   6 C       34  44 Ru                                      2.2017196
     5   6 C       34  44 Ru                                      2.2113021
    20   6 C       34  44 Ru                                      2.2002164
    21   6 C       34  44 Ru                                      2.2001907
    34  44 Ru      35   6 C                                       2.2207562 (max)
    34  44 Ru      36   6 C                                       2.2204598
    35   6 C       36   6 C                                       1.4240644
    34  44 Ru      37   6 C                                       2.2200358
    36   6 C       37   6 C                                       1.4246766
    34  44 Ru      38   6 C                                       2.2201452
    37   6 C       38   6 C                                       1.4236357
    34  44 Ru      39   6 C                                       2.2203242
    35   6 C       39   6 C                                       1.4244760
    38   6 C       39   6 C                                       1.4236250
    35   6 C       40   1 H                                       1.0816653
    36   6 C       41   1 H                                       1.0817277
    37   6 C       42   1 H                                       1.0817669
    38   6 C       43   1 H                                       1.0818668
    39   6 C       44   1 H                                       1.0817114

 * 3 distinct bonds (by element types)

   Z      Z             #   av. dist./Å        max./Å        min./Å
   1 H    6 C          17     1.0851442     1.0930900     1.0795943
   6 C    6 C          28     1.4183679     1.5402706     1.3831795
   6 C   44 Ru         11     2.2116393     2.2207562     2.2001907


optimized geometry written to: xtbopt.xyz


           -------------------------------------------------
          | TOTAL ENERGY              -67.158034448836 Eh   |
          | GRADIENT NORM               0.000891101468 Eh/α |
          | HOMO-LUMO GAP               2.051487183583 eV   |
           -------------------------------------------------

------------------------------------------------------------------------
 * finished run on 2026/08/13 at 17:52:02.818     
------------------------------------------------------------------------
 total:
 * wall-time:     0 d,  0 h,  0 min,  9.585 sec
 *  cpu-time:     0 d,  0 h,  0 min, 36.562 sec
 * ratio c/w:     3.815 speedup
 SCF:
 * wall-time:     0 d,  0 h,  0 min,  1.400 sec
 *  cpu-time:     0 d,  0 h,  0 min,  5.277 sec
 * ratio c/w:     3.771 speedup
 ANC optimizer:
 * wall-time:     0 d,  0 h,  0 min,  8.100 sec
 *  cpu-time:     0 d,  0 h,  0 min, 30.979 sec
 * ratio c/w:     3.824 speedup

