44
 energy: -67.116816769301 gnorm: 0.000603228940 xtb: 6.5.1 (b24c23e)
C           -3.22809000162542        0.76724769719850       -0.00708232283144
C           -2.04083815609565        1.74366555593832        0.10456637729797
C           -1.01172311830417        1.02362060620223        0.73844291656908
C            0.32528129387788        1.42091407066739        0.69886357866755
C            0.75600786072051        2.57529326767409        0.01992914472075
C            2.27205660214234        2.39849510720294       -0.19175374318102
C            2.52279163332253        0.90743494598049        0.10667602239578
C            1.36111029311482        0.44321084134359        0.75030006529615
C            1.03800482815853       -0.91132711576783        0.84020696970934
C            1.84643267611743       -1.92604130428982        0.29589903567156
C            0.94453464898101       -3.17177768909440        0.19317465685914
C           -0.48230459540194       -2.61748351447509        0.36782979752579
C           -0.32756707018685       -1.31667852075421        0.88053199632874
C           -1.34137284362943       -0.35958709763106        0.83021093250672
C           -2.60321190734256       -0.61493402145486        0.26317670303736
C           -2.80848618654174       -1.93354052603391       -0.10225308389397
C           -1.76687331546708       -2.91726053912445       -0.05018399066800
C            3.05888807224852       -1.48349838339549       -0.20297353090245
C            3.39143571356291       -0.09267283188245       -0.29427594626072
C           -0.26929383232958        3.36372450044048       -0.47267757458921
C           -1.64225700358043        2.95456962051801       -0.43330104970345
H           -3.97663027570465        0.99733763359326        0.75610197187844
H           -3.72210181353857        0.81765635909547       -0.97603913849521
H            2.57910104792390        2.67278933271830       -1.20053437526014
H            2.83085622596586        3.02660330344655        0.50694437964558
H            1.17835258199140       -3.87410832249990        0.99787416151152
H            1.06904688518711       -3.70058280876801       -0.75066694874518
H           -3.73995554425484       -2.23905705070017       -0.55474273031716
H           -1.99595173099086       -3.88659241387799       -0.46706067791469
H            3.75382325300567       -2.17634145868861       -0.65313838210895
H            4.31113146973372        0.15092686891494       -0.80490235743105
H           -0.05130415937617        4.27096685763524       -1.01618730920050
H           -2.34903584175844        3.58488324141898       -0.95169287653593
Ru          -0.01042496680496       -0.05772522835380       -0.90004175831153
C            0.05961286878070        1.03095034232702       -2.84925273972977
C           -1.14477400534063        0.27277607252765       -2.79141816931380
C           -0.79123677524548       -1.10128008139257       -2.71777569681073
C            0.62462824664192       -1.19345414196581       -2.71085083360536
C            1.14991520218361        0.12869572937068       -2.79737539675071
H            0.12379244273267        2.09604421149382       -3.02166340672335
H           -2.14064566324682        0.66419983223973       -2.93895859407700
H           -1.47900673684499       -1.93362168450746       -2.76820645082938
H            1.20338160056776       -2.10295322712937       -2.78123637444441
H            2.19247565665045        0.38163089383957       -2.92826885098636
