33
 energy: -51.075483996211 gnorm: 0.000792813906 xtb: 6.5.1 (b24c23e)
C           -3.17190746553457        0.75655429793134        0.00135533180455
C           -1.99690365914517        1.72016576402214        0.17615345296006
C           -1.00020890943935        1.03034670619321        0.87039209221581
C            0.32251601855280        1.42330212844644        0.83054758851831
C            0.74131152749431        2.53363540031068        0.09367010761886
C            2.23993294669961        2.36430498699475       -0.16166571149221
C            2.47959001331542        0.89269299847805        0.17988663353617
C            1.35746682380306        0.44630406723527        0.88187985495344
C            1.03790499300569       -0.89364181300541        0.97147976815297
C            1.81805480915574       -1.88117174076046        0.36537012180220
C            0.93246719415279       -3.11799327628497        0.20492552257593
C           -0.47395941937259       -2.56208382821414        0.43441271744310
C           -0.32673364181037       -1.29904896948030        1.01258693782043
C           -1.32989682077711       -0.35205850699852        0.96283151879988
C           -2.55063943685377       -0.60168868812159        0.33141234798050
C           -2.76121948670552       -1.89986797478532       -0.10262721856857
C           -1.73373356397185       -2.86981943113190       -0.05166513887608
C            3.01255613564343       -1.45979070554101       -0.19463764750669
C            3.33986619053376       -0.08735623988647       -0.28640987977769
C           -0.25975076942511        3.31069766919503       -0.46494656198508
C           -1.61454678687375        2.90821448669972       -0.42413606371810
H           -3.98848666056118        0.99717571746592        0.68742727070363
H           -3.56722268097158        0.78290081652853       -1.01454381288156
H            2.49995782203352        2.58534042207899       -1.19730537077432
H            2.82949953564782        3.02266433578734        0.48204930861494
H            1.18231871534782       -3.88408825653014        0.94388939571593
H            1.03416516940174       -3.56082815307128       -0.78632332039782
H           -3.67559071843705       -2.16654536334988       -0.61461338641992
H           -1.92142642259817       -3.82248374469912       -0.52760963133274
H            3.66288756849301       -2.16349379870968       -0.69582755426747
H            4.22168398604536        0.17957915052700       -0.85250454584762
H           -0.01349558651338        4.17760662306579       -1.06256471752402
H           -2.32645542033533        3.49047191960996       -0.99289140984687
