      -----------------------------------------------------------      
     |                   =====================                   |     
     |                           x T B                           |     
     |                   =====================                   |     
     |                         S. Grimme                         |     
     |          Mulliken Center for Theoretical Chemistry        |     
     |                    University of Bonn                     |     
      -----------------------------------------------------------      

   * xtb version 6.5.1 (b24c23e) compiled by 'conda@728c89f4b128' on 2022-07-12

   xtb is free software: you can redistribute it and/or modify it under
   the terms of the GNU Lesser General Public License as published by
   the Free Software Foundation, either version 3 of the License, or
   (at your option) any later version.
   
   xtb is distributed in the hope that it will be useful,
   but WITHOUT ANY WARRANTY; without even the implied warranty of
   MERCHANTABILITY or FITNESS FOR A PARTICULAR PURPOSE.  See the
   GNU Lesser General Public License for more details.
   
   Cite this work as:
   * C. Bannwarth, E. Caldeweyher, S. Ehlert, A. Hansen, P. Pracht,
     J. Seibert, S. Spicher, S. Grimme, WIREs Comput. Mol. Sci., 2020, 11,
     e01493. DOI: 10.1002/wcms.1493
   
   for GFN2-xTB:
   * C. Bannwarth, S. Ehlert and S. Grimme., J. Chem. Theory Comput., 2019,
     15, 1652-1671. DOI: 10.1021/acs.jctc.8b01176
   for GFN1-xTB:
   * S. Grimme, C. Bannwarth, P. Shushkov, J. Chem. Theory Comput., 2017,
     13, 1989-2009. DOI: 10.1021/acs.jctc.7b00118
   for GFN0-xTB:
   * P. Pracht, E. Caldeweyher, S. Ehlert, S. Grimme, ChemRxiv, 2019, preprint.
     DOI: 10.26434/chemrxiv.8326202.v1
   for GFN-FF:
   * S. Spicher and S. Grimme, Angew. Chem. Int. Ed., 2020, 59, 15665-15673.
     DOI: 10.1002/anie.202004239
   
   for ALPB and GBSA implicit solvation:
   * S. Ehlert, M. Stahn, S. Spicher, S. Grimme, J. Chem. Theory Comput.,
     2021, 17, 4250-4261. DOI: 10.1021/acs.jctc.1c00471
   
   for DFT-D4:
   * E. Caldeweyher, C. Bannwarth and S. Grimme, J. Chem. Phys., 2017,
     147, 034112. DOI: 10.1063/1.4993215
   * E. Caldeweyher, S. Ehlert, A. Hansen, H. Neugebauer, S. Spicher,
     C. Bannwarth and S. Grimme, J. Chem. Phys., 2019, 150, 154122.
     DOI: 10.1063/1.5090222
   * E. Caldeweyher, J.-M. Mewes, S. Ehlert and S. Grimme, Phys. Chem. Chem. Phys.
     2020, 22, 8499-8512. DOI: 10.1039/D0CP00502A
   
   for sTDA-xTB:
   * S. Grimme and C. Bannwarth, J. Chem. Phys., 2016, 145, 054103.
     DOI: 10.1063/1.4959605
   
   in the mass-spec context:
   * V. Asgeirsson, C. Bauer and S. Grimme, Chem. Sci., 2017, 8, 4879.
     DOI: 10.1039/c7sc00601b
   * J. Koopman and S. Grimme, ACS Omega 2019, 4, 12, 15120-15133.
     DOI: 10.1021/acsomega.9b02011
   
   for metadynamics refer to:
   * S. Grimme, J. Chem. Theory Comput., 2019, 155, 2847-2862
     DOI: 10.1021/acs.jctc.9b00143
   
   for SPH calculations refer to:
   * S. Spicher and S. Grimme, J. Chem. Theory Comput., 2021, 17, 1701-1714
     DOI: 10.1021/acs.jctc.0c01306
   
   with help from (in alphabetical order)
   P. Atkinson, C. Bannwarth, F. Bohle, G. Brandenburg, E. Caldeweyher
   M. Checinski, S. Dohm, S. Ehlert, S. Ehrlich, I. Gerasimov, C. Hölzer
   A. Katbashev, J. Koopman, C. Lavigne, S. Lehtola, F. März, M. Müller,
   F. Musil, H. Neugebauer, J. Pisarek, C. Plett, P. Pracht, F. Pultar,
   J. Seibert, P. Shushkov, S. Spicher, M. Stahn, M. Steiner, T. Strunk,
   J. Stückrath, T. Rose, and J. Unsleber
   
 * started run on 2026/08/13 at 17:47:43.499     

           -------------------------------------------------
          |                Calculation Setup                |
           -------------------------------------------------

          program call               : /h/332/chchoi/miniconda3/envs/el-agente/bin/xtb sumanene.xyz --opt --gfn 2 -P 4 --chrg 0 --uhf 0
          coordinate file            : sumanene.xyz
          omp threads                :                     4

   ID    Z sym.   atoms
    1    6 C      1-21
    2    1 H      22-33

           -------------------------------------------------
          |                 G F N 2 - x T B                 |
           -------------------------------------------------

        Reference                      10.1021/acs.jctc.8b01176
      * Hamiltonian:
        H0-scaling (s, p, d)           1.850000    2.230000    2.230000
        zeta-weighting                 0.500000
      * Dispersion:
        s8                             2.700000
        a1                             0.520000
        a2                             5.000000
        s9                             5.000000
      * Repulsion:
        kExp                           1.500000    1.000000
        rExp                           1.000000
      * Coulomb:
        alpha                          2.000000
        third order                    shell-resolved
        anisotropic                    true
        a3                             3.000000
        a5                             4.000000
        cn-shift                       1.200000
        cn-exp                         4.000000
        max-rad                        5.000000


          ...................................................
          :                      SETUP                      :
          :.................................................:
          :  # basis functions                  96          :
          :  # atomic orbitals                  96          :
          :  # shells                           54          :
          :  # electrons                        96          :
          :  max. iterations                   250          :
          :  Hamiltonian                  GFN2-xTB          :
          :  restarted?                      false          :
          :  GBSA solvation                  false          :
          :  PC potential                    false          :
          :  electronic temp.          300.0000000     K    :
          :  accuracy                    1.0000000          :
          :  -> integral cutoff          0.2500000E+02      :
          :  -> integral neglect         0.1000000E-07      :
          :  -> SCF convergence          0.1000000E-05 Eh   :
          :  -> wf. convergence          0.1000000E-03 e    :
          :  Broyden damping             0.4000000          :
          ...................................................

 iter      E             dE          RMSdq      gap      omega  full diag
   1    -51.9951026 -0.519951E+02  0.368E+00    3.03       0.0  T
   2    -52.0112329 -0.161303E-01  0.215E+00    3.03       1.0  T
   3    -51.9972655  0.139673E-01  0.669E-01    2.96       1.0  T
   4    -52.0125166 -0.152511E-01  0.237E-01    3.01       1.0  T
   5    -52.0146901 -0.217349E-02  0.691E-02    3.00       1.0  T
   6    -52.0148122 -0.122060E-03  0.274E-02    3.00       1.0  T
   7    -52.0148151 -0.292868E-05  0.130E-02    3.00       1.3  T
   8    -52.0148166 -0.145117E-05  0.914E-04    3.00      19.1  T
   9    -52.0148166 -0.687911E-08  0.367E-04    3.00      47.5  T
  10    -52.0148166 -0.730488E-09  0.380E-05    3.00     458.1  T

   *** convergence criteria satisfied after 10 iterations ***

         #    Occupation            Energy/Eh            Energy/eV
      -------------------------------------------------------------
         1        2.0000           -0.6662006             -18.1282
       ...           ...                  ...                  ...
        42        2.0000           -0.4117321             -11.2038
        43        2.0000           -0.4117319             -11.2038
        44        2.0000           -0.4068061             -11.0698
        45        2.0000           -0.4068059             -11.0698
        46        2.0000           -0.3793979             -10.3239
        47        2.0000           -0.3603562              -9.8058
        48        2.0000           -0.3603560              -9.8058 (HOMO)
        49                         -0.2499766              -6.8022 (LUMO)
        50                         -0.2499764              -6.8022
        51                         -0.2412050              -6.5635
        52                         -0.2005859              -5.4582
        53                         -0.2005858              -5.4582
       ...                                ...                  ...
        96                          0.7752251              21.0949
      -------------------------------------------------------------
                  HL-Gap            0.1103794 Eh            3.0036 eV
             Fermi-level           -0.3051663 Eh           -8.3040 eV

 SCC (total)                   0 d,  0 h,  0 min,  0.539 sec
 SCC setup                      ...        0 min,  0.002 sec (  0.294%)
 Dispersion                     ...        0 min,  0.005 sec (  0.887%)
 classical contributions        ...        0 min,  0.002 sec (  0.450%)
 integral evaluation            ...        0 min,  0.024 sec (  4.465%)
 iterations                     ...        0 min,  0.470 sec ( 87.156%)
 molecular gradient             ...        0 min,  0.036 sec (  6.680%)
 printout                       ...        0 min,  0.000 sec (  0.059%)

         :::::::::::::::::::::::::::::::::::::::::::::::::::::
         ::                     SUMMARY                     ::
         :::::::::::::::::::::::::::::::::::::::::::::::::::::
         :: total energy             -51.048633607333 Eh    ::
         :: gradient norm              0.167637052954 Eh/a0 ::
         :: HOMO-LUMO gap              3.003576325434 eV    ::
         ::.................................................::
         :: SCC energy               -52.014816563032 Eh    ::
         :: -> isotropic ES            0.003311779561 Eh    ::
         :: -> anisotropic ES          0.005271208873 Eh    ::
         :: -> anisotropic XC          0.025860033951 Eh    ::
         :: -> dispersion             -0.046580387918 Eh    ::
         :: repulsion energy           0.965431853382 Eh    ::
         :: add. restraining           0.000000000000 Eh    ::
         :: total charge              -0.000000000000 e     ::
         :::::::::::::::::::::::::::::::::::::::::::::::::::::

      ----------------------------------------------------------- 
     |                   =====================                   |
     |                        A N C O P T                        |
     |                   =====================                   |
     |               Approximate Normal Coordinate               |
     |                Rational Function Optimizer                |
      ----------------------------------------------------------- 

          ...................................................
          :                      SETUP                      :
          :.................................................:
          :   optimization level            normal          :
          :   max. optcycles                   200          :
          :   ANC micro-cycles                  20          :
          :   degrees of freedom                93          :
          :.................................................:
          :   RF solver                   davidson          :
          :   write xtbopt.log                true          :
          :   linear?                        false          :
          :   energy convergence         0.5000000E-05 Eh   :
          :   grad. convergence          0.1000000E-02 Eh/α :
          :   maximium RF displ.         1.0000000          :
          :   Hlow (freq-cutoff)         0.1000000E-01      :
          :   Hmax (freq-cutoff)         5.0000000          :
          :   S6 in model hess.         20.0000000          :
          ...................................................

generating ANC from model Hessian ...
Using Lindh-Hessian (1995)
 Shifting diagonal of input Hessian by    6.9347611999123473E-003
 Lowest  eigenvalues of input Hessian
    0.000000    0.000000    0.000000    0.000000    0.000000    0.000000
    0.010000    0.010000    0.013040    0.015913    0.018997    0.020346
    0.020346    0.024867    0.024867    0.035399    0.035399    0.040845
 Highest eigenvalues
    1.928912    1.954977    1.954979    2.045263    2.231915    2.231915


........................................................................
.............................. CYCLE    1 ..............................
........................................................................
   1    -52.0148166 -0.520148E+02  0.681E-06    3.00       0.0  T
   2    -52.0148166 -0.468958E-12  0.530E-06    3.00    3281.4  T
   3    -52.0148166 -0.930811E-12  0.177E-06    3.00    9844.2  T
     SCC iter.                  ...        0 min,  0.086 sec
     gradient                   ...        0 min,  0.017 sec
 * total energy  :   -51.0486336 Eh     change       -0.1563194E-11 Eh
   gradient norm :     0.1676371 Eh/α   predicted     0.0000000E+00 (-100.00%)
   displ. norm   :     0.2936344 α      lambda       -0.2989289E-01
   maximum displ.:     0.1630754 α      in ANC's #4, #59, #20, ...

........................................................................
.............................. CYCLE    2 ..............................
........................................................................
   1    -52.0362792 -0.520363E+02  0.292E-01    3.11       0.0  T
   2    -52.0363796 -0.100311E-03  0.221E-01    3.12       1.0  T
   3    -52.0362941  0.854965E-04  0.107E-01    3.11       1.0  T
   4    -52.0367363 -0.442272E-03  0.797E-03    3.11       2.2  T
   5    -52.0367374 -0.109070E-05  0.355E-03    3.11       4.9  T
   6    -52.0367375 -0.656405E-07  0.154E-03    3.11      11.3  T
   7    -52.0367375 -0.313273E-07  0.613E-04    3.11      28.4  T
   8    -52.0367375 -0.674849E-08  0.507E-05    3.11     343.1  T
     SCC iter.                  ...        0 min,  0.157 sec
     gradient                   ...        0 min,  0.049 sec
 * total energy  :   -51.0682173 Eh     change       -0.1958373E-01 Eh
   gradient norm :     0.0601021 Eh/α   predicted    -0.1624822E-01 ( -17.03%)
   displ. norm   :     0.3462125 α      lambda       -0.6469651E-02
   maximum displ.:     0.3155974 α      in ANC's #4, #3, #20, ...

........................................................................
.............................. CYCLE    3 ..............................
........................................................................
   1    -52.0402597 -0.520403E+02  0.199E-01    3.17       0.0  T
   2    -52.0402743 -0.146641E-04  0.124E-01    3.18       1.0  T
   3    -52.0400536  0.220700E-03  0.702E-02    3.17       1.0  T
   4    -52.0403203 -0.266702E-03  0.336E-03    3.17       5.2  T
   5    -52.0403204 -0.116198E-06  0.183E-03    3.17       9.5  T
   6    -52.0403205 -0.204052E-07  0.484E-04    3.17      36.0  T
   7    -52.0403205 -0.386287E-08  0.164E-04    3.17     106.3  T
     SCC iter.                  ...        0 min,  0.402 sec
     gradient                   ...        0 min,  0.040 sec
 * total energy  :   -51.0724340 Eh     change       -0.4216614E-02 Eh
   gradient norm :     0.0166967 Eh/α   predicted    -0.3626731E-02 ( -13.99%)
   displ. norm   :     0.3771463 α      lambda       -0.2237806E-02
   maximum displ.:     0.3591354 α      in ANC's #4, #3, #23, ...

........................................................................
.............................. CYCLE    4 ..............................
........................................................................
   1    -52.0354701 -0.520355E+02  0.178E-01    3.20       0.0  T
   2    -52.0354751 -0.500491E-05  0.104E-01    3.20       1.0  T
   3    -52.0354430  0.321016E-04  0.268E-02    3.20       1.0  T
   4    -52.0354789 -0.359286E-04  0.328E-03    3.20       5.3  T
   5    -52.0354792 -0.310489E-06  0.150E-03    3.20      11.6  T
   6    -52.0354792 -0.731703E-08  0.594E-04    3.20      29.3  T
   7    -52.0354792 -0.735411E-08  0.159E-04    3.20     109.7  T
     SCC iter.                  ...        0 min,  0.292 sec
     gradient                   ...        0 min,  0.012 sec
 * total energy  :   -51.0741016 Eh     change       -0.1667657E-02 Eh
   gradient norm :     0.0124854 Eh/α   predicted    -0.1278060E-02 ( -23.36%)
   displ. norm   :     0.3631630 α      lambda       -0.1331418E-02
   maximum displ.:     0.3436459 α      in ANC's #4, #3, #23, ...

........................................................................
.............................. CYCLE    5 ..............................
........................................................................
   1    -52.0331027 -0.520331E+02  0.169E-01    3.21       0.0  T
   2    -52.0331074 -0.475684E-05  0.987E-02    3.21       1.0  T
   3    -52.0331052  0.215821E-05  0.101E-02    3.21       1.7  T
   4    -52.0331082 -0.296990E-05  0.261E-03    3.21       6.7  T
   5    -52.0331084 -0.174240E-06  0.137E-03    3.21      12.7  T
   6    -52.0331084 -0.116120E-07  0.470E-04    3.21      37.0  T
   7    -52.0331084 -0.886875E-08  0.150E-04    3.21     116.2  T
     SCC iter.                  ...        0 min,  0.571 sec
     gradient                   ...        0 min,  0.022 sec
 * total energy  :   -51.0750383 Eh     change       -0.9366988E-03 Eh
   gradient norm :     0.0121526 Eh/α   predicted    -0.7535120E-03 ( -19.56%)
   displ. norm   :     0.2235956 α      lambda       -0.4984479E-03
   maximum displ.:     0.2105234 α      in ANC's #4, #3, #23, ...

........................................................................
.............................. CYCLE    6 ..............................
........................................................................
   1    -52.0358679 -0.520359E+02  0.103E-01    3.21       0.0  T
   2    -52.0358689 -0.935272E-06  0.606E-02    3.21       1.0  T
   3    -52.0358687  0.191270E-06  0.360E-03    3.21       4.8  T
   4    -52.0358691 -0.400020E-06  0.153E-03    3.21      11.4  T
   5    -52.0358691 -0.336561E-07  0.687E-04    3.21      25.4  T
   6    -52.0358691 -0.575271E-08  0.229E-04    3.21      76.1  T
     SCC iter.                  ...        0 min,  0.339 sec
     gradient                   ...        0 min,  0.094 sec
 * total energy  :   -51.0753781 Eh     change       -0.3397401E-03 Eh
   gradient norm :     0.0075596 Eh/α   predicted    -0.2616920E-03 ( -22.97%)
   displ. norm   :     0.1197786 α      lambda       -0.1478146E-03
   maximum displ.:     0.1138508 α      in ANC's #4, #42, #3, ...

........................................................................
.............................. CYCLE    7 ..............................
........................................................................
   1    -52.0392277 -0.520392E+02  0.526E-02    3.21       0.0  T
   2    -52.0392279 -0.196989E-06  0.311E-02    3.21       1.0  T
   3    -52.0392279  0.234007E-07  0.189E-03    3.21       9.2  T
   4    -52.0392280 -0.841512E-07  0.699E-04    3.21      24.9  T
   5    -52.0392280 -0.452709E-08  0.272E-04    3.21      64.0  T
     SCC iter.                  ...        0 min,  0.232 sec
     gradient                   ...        0 min,  0.074 sec
 * total energy  :   -51.0754689 Eh     change       -0.9080416E-04 Eh
   gradient norm :     0.0028238 Eh/α   predicted    -0.7496829E-04 ( -17.44%)
   displ. norm   :     0.0360243 α      lambda       -0.1835758E-04
   maximum displ.:     0.0341848 α      in ANC's #4, #42, #20, ...

........................................................................
.............................. CYCLE    8 ..............................
........................................................................
   1    -52.0403066 -0.520403E+02  0.142E-02    3.21       0.0  T
   2    -52.0403067 -0.645660E-07  0.839E-03    3.21       2.1  T
   3    -52.0403065  0.208657E-06  0.253E-03    3.21       6.9  T
   4    -52.0403067 -0.240114E-06  0.354E-04    3.21      49.1  T
   5    -52.0403067 -0.349112E-08  0.173E-04    3.21     100.8  T
     SCC iter.                  ...        0 min,  0.229 sec
     gradient                   ...        0 min,  0.019 sec
 * total energy  :   -51.0754806 Eh     change       -0.1170651E-04 Eh
   gradient norm :     0.0011779 Eh/α   predicted    -0.9192128E-05 ( -21.48%)
   displ. norm   :     0.0214828 α      lambda       -0.4456777E-05
   maximum displ.:     0.0165484 α      in ANC's #4, #3, #20, ...

........................................................................
.............................. CYCLE    9 ..............................
........................................................................
   1    -52.0405540 -0.520406E+02  0.682E-03    3.21       0.0  T
   2    -52.0405540 -0.497159E-07  0.406E-03    3.21       4.3  T
   3    -52.0405539  0.118537E-06  0.220E-03    3.21       7.9  T
   4    -52.0405540 -0.155284E-06  0.312E-04    3.21      55.8  T
   5    -52.0405540 -0.331138E-08  0.126E-04    3.21     137.9  T
     SCC iter.                  ...        0 min,  0.170 sec
     gradient                   ...        0 min,  0.012 sec
 * total energy  :   -51.0754840 Eh     change       -0.3433246E-05 Eh
   gradient norm :     0.0007933 Eh/α   predicted    -0.2230732E-05 ( -35.03%)
   displ. norm   :     0.0220552 α      lambda        0.4086241E-05
   maximum displ.:     0.0168626 α      in ANC's #4, #3, #20, ...

   *** GEOMETRY OPTIMIZATION CONVERGED AFTER 9 ITERATIONS ***

------------------------------------------------------------------------
 total energy gain   :        -0.0268504 Eh      -16.8489 kcal/mol
 total RMSD          :         0.2877763 a0        0.1523 Å
 total power (kW/mol):        -7.8328540 (step)  -22.2828 (real)
------------------------------------------------------------------------

 ANCopt (total)                0 d,  0 h,  0 min,  3.164 sec
 optimizer setup                ...        0 min,  0.002 sec (  0.062%)
 model hessian                  ...        0 min,  0.023 sec (  0.719%)
 ANC generation                 ...        0 min,  0.016 sec (  0.499%)
 coordinate transformation      ...        0 min,  0.000 sec (  0.006%)
 single point calculation       ...        0 min,  3.063 sec ( 96.806%)
 optimization log               ...        0 min,  0.001 sec (  0.034%)
 hessian update                 ...        0 min,  0.039 sec (  1.229%)
 rational function              ...        0 min,  0.019 sec (  0.604%)

================
 final structure:
================
33
 xtb: 6.5.1 (b24c23e)
C           -3.17190746553457        0.75655429793134        0.00135533180455
C           -1.99690365914517        1.72016576402214        0.17615345296006
C           -1.00020890943935        1.03034670619321        0.87039209221581
C            0.32251601855280        1.42330212844644        0.83054758851831
C            0.74131152749431        2.53363540031068        0.09367010761886
C            2.23993294669961        2.36430498699475       -0.16166571149221
C            2.47959001331542        0.89269299847805        0.17988663353617
C            1.35746682380306        0.44630406723527        0.88187985495344
C            1.03790499300569       -0.89364181300541        0.97147976815297
C            1.81805480915574       -1.88117174076046        0.36537012180220
C            0.93246719415279       -3.11799327628497        0.20492552257593
C           -0.47395941937259       -2.56208382821414        0.43441271744310
C           -0.32673364181037       -1.29904896948030        1.01258693782043
C           -1.32989682077711       -0.35205850699852        0.96283151879988
C           -2.55063943685377       -0.60168868812159        0.33141234798050
C           -2.76121948670552       -1.89986797478532       -0.10262721856857
C           -1.73373356397185       -2.86981943113190       -0.05166513887608
C            3.01255613564343       -1.45979070554101       -0.19463764750669
C            3.33986619053376       -0.08735623988647       -0.28640987977769
C           -0.25975076942511        3.31069766919503       -0.46494656198508
C           -1.61454678687375        2.90821448669972       -0.42413606371810
H           -3.98848666056118        0.99717571746592        0.68742727070363
H           -3.56722268097158        0.78290081652853       -1.01454381288156
H            2.49995782203352        2.58534042207899       -1.19730537077432
H            2.82949953564782        3.02266433578734        0.48204930861494
H            1.18231871534782       -3.88408825653014        0.94388939571593
H            1.03416516940174       -3.56082815307128       -0.78632332039782
H           -3.67559071843705       -2.16654536334988       -0.61461338641992
H           -1.92142642259817       -3.82248374469912       -0.52760963133274
H            3.66288756849301       -2.16349379870968       -0.69582755426747
H            4.22168398604536        0.17957915052700       -0.85250454584762
H           -0.01349558651338        4.17760662306579       -1.06256471752402
H           -2.32645542033533        3.49047191960996       -0.99289140984687

 Bond Distances (Angstroems)
 ---------------------------
C1-C2=1.5296         C1-C15=1.5296        C1-H22=1.0933        C1-H23=1.0904        C2-C1=1.5296         C2-C3=1.3969         
C2-C21=1.3849        C3-C2=1.3969         C3-C4=1.3804         C3-C14=1.4242        C4-C3=1.3804         C4-C5=1.3969         
C4-C8=1.4242         C5-C4=1.3969         C5-C6=1.5296         C5-C20=1.3849        C6-C5=1.5296         C6-C7=1.5296         
C6-H24=1.0904        C6-H25=1.0933        C7-C6=1.5296         C7-C8=1.3969         C7-C19=1.3849        C8-C4=1.4242         
C8-C7=1.3969         C8-C9=1.3804         C9-C8=1.3804         C9-C10=1.3969        C9-C13=1.4242        C10-C9=1.3969        
C10-C11=1.5296       C10-C18=1.3849       C11-C10=1.5296       C11-C12=1.5296       C11-H26=1.0933       C11-H27=1.0904       
C12-C11=1.5296       C12-C13=1.3969       C12-C17=1.3849       C13-C9=1.4242        C13-C12=1.3969       C13-C14=1.3804       
C14-C3=1.4242        C14-C13=1.3804       C14-C15=1.3969       C15-C1=1.5296        C15-C14=1.3969       C15-C16=1.3849       
C16-C15=1.3849       C16-C17=1.4139       C16-H28=1.0814       C17-C12=1.3849       C17-C16=1.4139       C17-H29=1.0814       
C18-C10=1.3849       C18-C19=1.4139       C18-H30=1.0814       C19-C7=1.3849        C19-C18=1.4139       C19-H31=1.0814       
C20-C5=1.3849        C20-C21=1.4139       C20-H32=1.0814       C21-C2=1.3849        C21-C20=1.4139       C21-H33=1.0814       
H22-C1=1.0933        H23-C1=1.0904        H24-C6=1.0904        H25-C6=1.0933        H26-C11=1.0933       H27-C11=1.0904       
H28-C16=1.0814       H29-C17=1.0814       H30-C18=1.0814       H31-C19=1.0814       H32-C20=1.0814       H33-C21=1.0814       
 C  H  Rav=1.0866 sigma=0.0054  Rmin=1.0814  Rmax=1.0933    12
 C  C  Rav=1.4268 sigma=0.0565  Rmin=1.3804  Rmax=1.5296    27

 selected bond angles (degree)
 --------------------
C15-C1-C2=102.87               H22-C1-C2=111.31               H22-C1-C15=111.31              H23-C1-C2=111.70               
H23-C1-C15=111.70              H23-C1-H22=107.97              C3-C2-C1=107.09                C21-C2-C1=134.67               
C21-C2-C3=116.24               C4-C3-C2=121.92                C14-C3-C2=110.27               C14-C3-C4=120.00               
C5-C4-C3=121.92                C8-C4-C3=120.00                C8-C4-C5=110.27                C6-C5-C4=107.09                
C20-C5-C4=116.24               C20-C5-C6=134.67               C7-C6-C5=102.87                H24-C6-C5=111.70               
H24-C6-C7=111.70               H25-C6-C5=111.31               H25-C6-C7=111.31               H25-C6-H24=107.97              
C8-C7-C6=107.09                C19-C7-C6=134.67               C19-C7-C8=116.24               C7-C8-C4=110.27                
C9-C8-C4=120.00                C9-C8-C7=121.92                C10-C9-C8=121.92               C13-C9-C8=120.00               
C13-C9-C10=110.27              C11-C10-C9=107.09              C18-C10-C9=116.24              C18-C10-C11=134.67             

 selected dihedral angles (degree)
 ---------------------------------
C3-C2-C1-C15=345.21           C3-C2-C1-H22=104.50           C3-C2-C1-H23=225.27           C21-C2-C1-C15=147.78          
C21-C2-C1-H22=267.06          C21-C2-C1-H23= 27.83          C4-C3-C2-C1=158.86            C4-C3-C2-C21=352.61           
C14-C3-C2-C1=  9.77           C14-C3-C2-C21=203.51          C5-C4-C3-C2=  0.00            C5-C4-C3-C14=146.20           
C8-C4-C3-C2=213.80            C8-C4-C3-C14=  0.00           C6-C5-C4-C3=201.14            C6-C5-C4-C8=350.23            
C20-C5-C4-C3=  7.39           C20-C5-C4-C8=156.49           C7-C6-C5-C4= 14.79            C7-C6-C5-C20=212.22           
H24-C6-C5-C4=134.73           H24-C6-C5-C20=332.17          H25-C6-C5-C4=255.50           H25-C6-C5-C20= 92.94          
C8-C7-C6-C5=345.21            C8-C7-C6-H24=225.27           C8-C7-C6-H25=104.50           C19-C7-C6-C5=147.78           
C19-C7-C6-H24= 27.83          C19-C7-C6-H25=267.06          C7-C8-C4-C3=149.78            C7-C8-C4-C5=  0.00            
C9-C8-C4-C3=  0.00            C9-C8-C4-C5=210.22            C4-C8-C7-C6=  9.77            C4-C8-C7-C19=203.51           
C9-C8-C7-C6=158.86            C9-C8-C7-C19=352.61           C10-C9-C8-C4=146.20           C10-C9-C8-C7=  0.00           
C13-C9-C8-C4=  0.00           C13-C9-C8-C7=213.80           C11-C10-C9-C8=201.14          C11-C10-C9-C13=350.23         
C18-C10-C9-C8=  7.39          C18-C10-C9-C13=156.49         
           -------------------------------------------------
          |                Final Singlepoint                |
           -------------------------------------------------

          ...................................................
          :                      SETUP                      :
          :.................................................:
          :  # basis functions                  96          :
          :  # atomic orbitals                  96          :
          :  # shells                           54          :
          :  # electrons                        96          :
          :  max. iterations                   250          :
          :  Hamiltonian                  GFN2-xTB          :
          :  restarted?                      false          :
          :  GBSA solvation                  false          :
          :  PC potential                    false          :
          :  electronic temp.          300.0000000     K    :
          :  accuracy                    1.0000000          :
          :  -> integral cutoff          0.2500000E+02      :
          :  -> integral neglect         0.1000000E-07      :
          :  -> SCF convergence          0.1000000E-05 Eh   :
          :  -> wf. convergence          0.1000000E-03 e    :
          :  Broyden damping             0.4000000          :
          ...................................................

 iter      E             dE          RMSdq      gap      omega  full diag
   1    -52.0405540 -0.520406E+02  0.582E-05    3.21       0.0  T
   2    -52.0405540 -0.330544E-10  0.347E-05    3.21     502.3  T
   3    -52.0405540 -0.304894E-10  0.187E-05    3.21     930.1  T

   *** convergence criteria satisfied after 3 iterations ***

         #    Occupation            Energy/Eh            Energy/eV
      -------------------------------------------------------------
         1        2.0000           -0.6594327             -17.9441
       ...           ...                  ...                  ...
        42        2.0000           -0.4078496             -11.0982
        43        2.0000           -0.4078496             -11.0982
        44        2.0000           -0.4028385             -10.9618
        45        2.0000           -0.4028385             -10.9618
        46        2.0000           -0.3825933             -10.4109
        47        2.0000           -0.3635868              -9.8937
        48        2.0000           -0.3635867              -9.8937 (HOMO)
        49                         -0.2457645              -6.6876 (LUMO)
        50                         -0.2457645              -6.6876
        51                         -0.2334909              -6.3536
        52                         -0.1987780              -5.4090
        53                         -0.1987780              -5.4090
       ...                                ...                  ...
        96                          0.7623272              20.7440
      -------------------------------------------------------------
                  HL-Gap            0.1178222 Eh            3.2061 eV
             Fermi-level           -0.3046756 Eh           -8.2906 eV

 SCC (total)                   0 d,  0 h,  0 min,  0.150 sec
 SCC setup                      ...        0 min,  0.005 sec (  3.612%)
 Dispersion                     ...        0 min,  0.000 sec (  0.133%)
 classical contributions        ...        0 min,  0.000 sec (  0.031%)
 integral evaluation            ...        0 min,  0.005 sec (  3.651%)
 iterations                     ...        0 min,  0.101 sec ( 67.734%)
 molecular gradient             ...        0 min,  0.037 sec ( 24.629%)
 printout                       ...        0 min,  0.000 sec (  0.191%)

         :::::::::::::::::::::::::::::::::::::::::::::::::::::
         ::                     SUMMARY                     ::
         :::::::::::::::::::::::::::::::::::::::::::::::::::::
         :: total energy             -51.075483996211 Eh    ::
         :: gradient norm              0.000792813906 Eh/a0 ::
         :: HOMO-LUMO gap              3.206105630417 eV    ::
         ::.................................................::
         :: SCC energy               -52.040554049936 Eh    ::
         :: -> isotropic ES            0.003005850630 Eh    ::
         :: -> anisotropic ES          0.004853386343 Eh    ::
         :: -> anisotropic XC          0.024319613880 Eh    ::
         :: -> dispersion             -0.045928355965 Eh    ::
         :: repulsion energy           0.964448666199 Eh    ::
         :: add. restraining           0.000000000000 Eh    ::
         :: total charge               0.000000000000 e     ::
         :::::::::::::::::::::::::::::::::::::::::::::::::::::

           -------------------------------------------------
          |                Property Printout                |
           -------------------------------------------------

    * Orbital Energies and Occupations

         #    Occupation            Energy/Eh            Energy/eV
      -------------------------------------------------------------
         1        2.0000           -0.6594327             -17.9441
       ...           ...                  ...                  ...
        36        2.0000           -0.4538351             -12.3495
        37        2.0000           -0.4375426             -11.9061
        38        2.0000           -0.4311753             -11.7329
        39        2.0000           -0.4257362             -11.5849
        40        2.0000           -0.4257361             -11.5849
        41        2.0000           -0.4150617             -11.2944
        42        2.0000           -0.4078496             -11.0982
        43        2.0000           -0.4078496             -11.0982
        44        2.0000           -0.4028385             -10.9618
        45        2.0000           -0.4028385             -10.9618
        46        2.0000           -0.3825933             -10.4109
        47        2.0000           -0.3635868              -9.8937
        48        2.0000           -0.3635867              -9.8937 (HOMO)
        49                         -0.2457645              -6.6876 (LUMO)
        50                         -0.2457645              -6.6876
        51                         -0.2334909              -6.3536
        52                         -0.1987780              -5.4090
        53                         -0.1987780              -5.4090
        54                         -0.1850367              -5.0351
        55                         -0.1211146              -3.2957
        56                         -0.1211146              -3.2957
        57                         -0.0814659              -2.2168
        58                          0.0497502               1.3538
        59                          0.0497503               1.3538
       ...                                ...                  ...
        96                          0.7623272              20.7440
      -------------------------------------------------------------
                  HL-Gap            0.1178222 Eh            3.2061 eV
             Fermi-level           -0.3046756 Eh           -8.2906 eV

     #   Z          covCN         q      C6AA      α(0)
     1   6 C        3.857    -0.061    21.641     6.616
     2   6 C        3.021    -0.002    28.051     8.688
     3   6 C        3.077    -0.005    28.070     8.686
     4   6 C        3.077    -0.005    28.070     8.686
     5   6 C        3.021    -0.002    28.051     8.688
     6   6 C        3.857    -0.061    21.641     6.616
     7   6 C        3.021    -0.002    28.051     8.688
     8   6 C        3.077    -0.005    28.070     8.686
     9   6 C        3.077    -0.005    28.070     8.686
    10   6 C        3.021    -0.002    28.051     8.688
    11   6 C        3.857    -0.061    21.641     6.616
    12   6 C        3.021    -0.002    28.051     8.688
    13   6 C        3.077    -0.005    28.070     8.686
    14   6 C        3.077    -0.005    28.070     8.686
    15   6 C        3.021    -0.002    28.051     8.688
    16   6 C        2.922    -0.042    29.049     8.839
    17   6 C        2.922    -0.042    29.049     8.839
    18   6 C        2.922    -0.042    29.049     8.839
    19   6 C        2.922    -0.042    29.049     8.839
    20   6 C        2.922    -0.042    29.049     8.839
    21   6 C        2.922    -0.042    29.049     8.839
    22   1 H        0.924     0.057     2.233     2.337
    23   1 H        0.924     0.048     2.347     2.396
    24   1 H        0.924     0.048     2.347     2.396
    25   1 H        0.924     0.057     2.233     2.337
    26   1 H        0.924     0.057     2.233     2.337
    27   1 H        0.924     0.048     2.347     2.396
    28   1 H        0.925     0.028     2.619     2.531
    29   1 H        0.925     0.028     2.619     2.531
    30   1 H        0.925     0.028     2.619     2.531
    31   1 H        0.925     0.028     2.619     2.531
    32   1 H        0.925     0.028     2.619     2.531
    33   1 H        0.925     0.028     2.619     2.531

 Mol. C6AA /au·bohr⁶  :      16528.167885
 Mol. C8AA /au·bohr⁸  :     429956.456631
 Mol. α(0) /au        :        206.506794


Wiberg/Mayer (AO) data.
largest (>0.10) Wiberg bond orders for each atom

 ---------------------------------------------------------------------------
     #   Z sym  total        # sym  WBO       # sym  WBO       # sym  WBO
 ---------------------------------------------------------------------------
     1   6 C    3.995 --     2 C    1.002    15 C    1.002    23 H    0.962
                            22 H    0.948
     2   6 C    3.981 --    21 C    1.466     3 C    1.304     1 C    1.002
                             5 C    0.101
     3   6 C    3.984 --     4 C    1.320     2 C    1.304    14 C    1.127
     4   6 C    3.984 --     3 C    1.320     5 C    1.304     8 C    1.127
     5   6 C    3.981 --    20 C    1.466     4 C    1.304     6 C    1.002
                             2 C    0.101
     6   6 C    3.995 --     5 C    1.002     7 C    1.002    24 H    0.962
                            25 H    0.948
     7   6 C    3.981 --    19 C    1.466     8 C    1.304     6 C    1.002
                            10 C    0.101
     8   6 C    3.984 --     9 C    1.320     7 C    1.304     4 C    1.127
     9   6 C    3.984 --     8 C    1.320    10 C    1.304    13 C    1.127
    10   6 C    3.981 --    18 C    1.466     9 C    1.304    11 C    1.002
                             7 C    0.101
    11   6 C    3.995 --    10 C    1.002    12 C    1.002    27 H    0.962
                            26 H    0.948
    12   6 C    3.981 --    17 C    1.466    13 C    1.304    11 C    1.002
                            15 C    0.101
    13   6 C    3.984 --    14 C    1.320    12 C    1.304     9 C    1.127
    14   6 C    3.984 --    13 C    1.320    15 C    1.304     3 C    1.127
    15   6 C    3.981 --    16 C    1.466    14 C    1.304     1 C    1.002
                            12 C    0.101
    16   6 C    3.979 --    15 C    1.466    17 C    1.374    28 H    0.970
    17   6 C    3.979 --    12 C    1.466    16 C    1.374    29 H    0.970
    18   6 C    3.979 --    10 C    1.466    19 C    1.374    30 H    0.970
    19   6 C    3.979 --     7 C    1.466    18 C    1.374    31 H    0.970
    20   6 C    3.979 --     5 C    1.466    21 C    1.374    32 H    0.970
    21   6 C    3.979 --     2 C    1.466    20 C    1.374    33 H    0.970
    22   1 H    0.996 --     1 C    0.948
    23   1 H    0.997 --     1 C    0.962
    24   1 H    0.997 --     6 C    0.962
    25   1 H    0.996 --     6 C    0.948
    26   1 H    0.996 --    11 C    0.948
    27   1 H    0.997 --    11 C    0.962
    28   1 H    0.998 --    16 C    0.970
    29   1 H    0.998 --    17 C    0.970
    30   1 H    0.998 --    18 C    0.970
    31   1 H    0.998 --    19 C    0.970
    32   1 H    0.998 --    20 C    0.970
    33   1 H    0.998 --    21 C    0.970
 ---------------------------------------------------------------------------

Topologies differ in total number of bonds
Writing topology from bond orders to xtbtopo.mol

molecular dipole:
                 x           y           z       tot (Debye)
 q only:       -0.003      -0.015      -0.236
   full:       -0.005      -0.031      -0.487       1.239
molecular quadrupole (traceless):
                xx          xy          yy          xz          yz          zz
 q only:        2.035      -0.004       2.010      -0.067      -0.391      -4.045
  q+dip:        4.380      -0.009       4.328      -0.145      -0.841      -8.708
   full:        2.457      -0.005       2.427      -0.081      -0.472      -4.884

           -------------------------------------------------
          |                Geometry Summary                 |
           -------------------------------------------------

      molecular mass/u    :      264.3207429
   center of mass at/Å    :        0.0025878       0.0150562       0.2343922
  moments of inertia/u·Å² :        0.1079100E+04   0.1079100E+04   0.2028339E+04
rotational constants/cm⁻¹ :        0.1562193E-01   0.1562193E-01   0.8311052E-02

 * 33 selected distances

     #   Z          #   Z                                           value/Å
     2   6 C        3   6 C                                       1.3968602
     3   6 C        4   6 C                                       1.3804359
     4   6 C        5   6 C                                       1.3968602
     4   6 C        8   6 C                                       1.4241783 (max)
     7   6 C        8   6 C                                       1.3968602
     8   6 C        9   6 C                                       1.3804359
     9   6 C       10   6 C                                       1.3968602
     9   6 C       13   6 C                                       1.4241783
    12   6 C       13   6 C                                       1.3968601
     3   6 C       14   6 C                                       1.4241783
    13   6 C       14   6 C                                       1.3804359
    14   6 C       15   6 C                                       1.3968602
    15   6 C       16   6 C                                       1.3849203
    12   6 C       17   6 C                                       1.3849203
    16   6 C       17   6 C                                       1.4139062
    10   6 C       18   6 C                                       1.3849204
     7   6 C       19   6 C                                       1.3849204
    18   6 C       19   6 C                                       1.4139062
     5   6 C       20   6 C                                       1.3849204
     2   6 C       21   6 C                                       1.3849204
    20   6 C       21   6 C                                       1.4139062
     1   6 C       22   1 H                                       1.0933413
     1   6 C       23   1 H                                       1.0904217
     6   6 C       24   1 H                                       1.0904216
     6   6 C       25   1 H                                       1.0933412
    11   6 C       26   1 H                                       1.0933413
    11   6 C       27   1 H                                       1.0904218
    16   6 C       28   1 H                                       1.0813518
    17   6 C       29   1 H                                       1.0813516
    18   6 C       30   1 H                                       1.0813513
    19   6 C       31   1 H                                       1.0813512
    20   6 C       32   1 H                                       1.0813512 (min)
    21   6 C       33   1 H                                       1.0813512

 * 2 distinct bonds (by element types)

   Z      Z             #   av. dist./Å        max./Å        min./Å
   1 H    6 C          12     1.0866164     1.0933413     1.0813512
   6 C    6 C          21     1.3974402     1.4241783     1.3804359


optimized geometry written to: xtbopt.xyz


           -------------------------------------------------
          | TOTAL ENERGY              -51.075483996211 Eh   |
          | GRADIENT NORM               0.000792813906 Eh/α |
          | HOMO-LUMO GAP               3.206105630417 eV   |
           -------------------------------------------------

------------------------------------------------------------------------
 * finished run on 2026/08/13 at 17:47:47.423     
------------------------------------------------------------------------
 total:
 * wall-time:     0 d,  0 h,  0 min,  3.923 sec
 *  cpu-time:     0 d,  0 h,  0 min, 21.129 sec
 * ratio c/w:     5.385 speedup
 SCF:
 * wall-time:     0 d,  0 h,  0 min,  0.542 sec
 *  cpu-time:     0 d,  0 h,  0 min,  3.443 sec
 * ratio c/w:     6.357 speedup
 ANC optimizer:
 * wall-time:     0 d,  0 h,  0 min,  3.318 sec
 *  cpu-time:     0 d,  0 h,  0 min, 17.287 sec
 * ratio c/w:     5.209 speedup

