31
 energy: -37.643622454653 gnorm: 0.000947411587 xtb: 6.5.1 (b24c23e)
Zr          -1.27436695753221       -0.13929186726201        0.57956703629258
C           -1.05930138116755        1.23839893307632       -1.42879596314528
C            0.38315140645141       -1.94793971351255        0.58300171302027
C            0.05562483261343       -1.71405754383591       -0.77428602475753
C           -1.30684102010206       -2.04636447633968       -0.96179952858090
C           -1.82610110910950       -2.49127926109327        0.28308077834457
C           -0.77820114706172       -2.43704007492848        1.23530687566234
H            1.38291433728073       -1.92164091546666        1.00342581030336
H            0.76371063001790       -1.47972590748414       -1.56193565888204
H           -1.82054102144006       -2.09796851607734       -1.91447025641265
H           -2.78702114333915       -2.97069680389619        0.43526396906732
H           -0.81732449172790       -2.85502450057016        2.23553806164229
C           -0.28513874550081        0.15018570911438        2.80067459341587
C           -1.68305594852369        0.35545302134889        2.92393487663365
C           -2.00722518690078        1.54628117171650        2.22123159857498
C           -0.82290081224740        2.04967507022278        1.63843018065240
C            0.24240097036959        1.17820044738811        1.98249373844145
H            0.29859916955317       -0.57446280108039        3.35642255576413
H           -2.34466156226964       -0.18286847038122        3.59601696967365
H           -2.95431879932769        2.06966826830087        2.26994008269377
H           -0.71987781955176        3.01179515430498        1.15043527653216
H            1.29724716924208        1.36833536970478        1.80901624898458
H           -0.09290573285468        1.07085338327346       -0.88348291138406
H           -1.05195424951537        0.67746249028538       -2.36428432265874
H           -1.13212991642300        2.29858440636743       -1.65485253229957
C           -3.62799848246061        0.03224801435056       -0.05218888560466
C           -3.12327330210153        1.08975559176667       -0.85621070965245
H           -3.20716976130686        2.09753914243287       -0.45109552026168
H           -3.34746639379853        1.04193631058948       -1.91739465534440
H           -4.09508488873633        0.27863056495586        0.90274008787211
H           -4.04386900246334       -0.82710724720703       -0.57263916456475
