      -----------------------------------------------------------      
     |                   =====================                   |     
     |                           x T B                           |     
     |                   =====================                   |     
     |                         S. Grimme                         |     
     |          Mulliken Center for Theoretical Chemistry        |     
     |                    University of Bonn                     |     
      -----------------------------------------------------------      

   * xtb version 6.5.1 (b24c23e) compiled by 'conda@728c89f4b128' on 2022-07-12

   xtb is free software: you can redistribute it and/or modify it under
   the terms of the GNU Lesser General Public License as published by
   the Free Software Foundation, either version 3 of the License, or
   (at your option) any later version.
   
   xtb is distributed in the hope that it will be useful,
   but WITHOUT ANY WARRANTY; without even the implied warranty of
   MERCHANTABILITY or FITNESS FOR A PARTICULAR PURPOSE.  See the
   GNU Lesser General Public License for more details.
   
   Cite this work as:
   * C. Bannwarth, E. Caldeweyher, S. Ehlert, A. Hansen, P. Pracht,
     J. Seibert, S. Spicher, S. Grimme, WIREs Comput. Mol. Sci., 2020, 11,
     e01493. DOI: 10.1002/wcms.1493
   
   for GFN2-xTB:
   * C. Bannwarth, S. Ehlert and S. Grimme., J. Chem. Theory Comput., 2019,
     15, 1652-1671. DOI: 10.1021/acs.jctc.8b01176
   for GFN1-xTB:
   * S. Grimme, C. Bannwarth, P. Shushkov, J. Chem. Theory Comput., 2017,
     13, 1989-2009. DOI: 10.1021/acs.jctc.7b00118
   for GFN0-xTB:
   * P. Pracht, E. Caldeweyher, S. Ehlert, S. Grimme, ChemRxiv, 2019, preprint.
     DOI: 10.26434/chemrxiv.8326202.v1
   for GFN-FF:
   * S. Spicher and S. Grimme, Angew. Chem. Int. Ed., 2020, 59, 15665-15673.
     DOI: 10.1002/anie.202004239
   
   for ALPB and GBSA implicit solvation:
   * S. Ehlert, M. Stahn, S. Spicher, S. Grimme, J. Chem. Theory Comput.,
     2021, 17, 4250-4261. DOI: 10.1021/acs.jctc.1c00471
   
   for DFT-D4:
   * E. Caldeweyher, C. Bannwarth and S. Grimme, J. Chem. Phys., 2017,
     147, 034112. DOI: 10.1063/1.4993215
   * E. Caldeweyher, S. Ehlert, A. Hansen, H. Neugebauer, S. Spicher,
     C. Bannwarth and S. Grimme, J. Chem. Phys., 2019, 150, 154122.
     DOI: 10.1063/1.5090222
   * E. Caldeweyher, J.-M. Mewes, S. Ehlert and S. Grimme, Phys. Chem. Chem. Phys.
     2020, 22, 8499-8512. DOI: 10.1039/D0CP00502A
   
   for sTDA-xTB:
   * S. Grimme and C. Bannwarth, J. Chem. Phys., 2016, 145, 054103.
     DOI: 10.1063/1.4959605
   
   in the mass-spec context:
   * V. Asgeirsson, C. Bauer and S. Grimme, Chem. Sci., 2017, 8, 4879.
     DOI: 10.1039/c7sc00601b
   * J. Koopman and S. Grimme, ACS Omega 2019, 4, 12, 15120-15133.
     DOI: 10.1021/acsomega.9b02011
   
   for metadynamics refer to:
   * S. Grimme, J. Chem. Theory Comput., 2019, 155, 2847-2862
     DOI: 10.1021/acs.jctc.9b00143
   
   for SPH calculations refer to:
   * S. Spicher and S. Grimme, J. Chem. Theory Comput., 2021, 17, 1701-1714
     DOI: 10.1021/acs.jctc.0c01306
   
   with help from (in alphabetical order)
   P. Atkinson, C. Bannwarth, F. Bohle, G. Brandenburg, E. Caldeweyher
   M. Checinski, S. Dohm, S. Ehlert, S. Ehrlich, I. Gerasimov, C. Hölzer
   A. Katbashev, J. Koopman, C. Lavigne, S. Lehtola, F. März, M. Müller,
   F. Musil, H. Neugebauer, J. Pisarek, C. Plett, P. Pracht, F. Pultar,
   J. Seibert, P. Shushkov, S. Spicher, M. Stahn, M. Steiner, T. Strunk,
   J. Stückrath, T. Rose, and J. Unsleber
   
 * started run on 2026/08/03 at 12:00:31.769     

           -------------------------------------------------
          |                Calculation Setup                |
           -------------------------------------------------

          program call               : /h/332/chchoi/miniconda3/envs/el-agente/bin/xtb reactant_opt.xyz --opt --gfn 2 -P 4 --chrg 1 --uhf 0 --input detailed_input.inp
          coordinate file            : reactant_opt.xyz
          omp threads                :                     4

   ID    Z sym.   atoms
    1   40 Zr     1
    2    6 C      2-7, 13-17, 26, 27
    3    1 H      8-12, 18-25, 28-31
constraining bond 2 27 to    2.1500000 Å, actual value:    3.2810763 Å
constraining bond 1 2 to    2.4500000 Å, actual value:    2.2077984 Å
constraining bond 1 26 to    2.4500000 Å, actual value:    2.7402022 Å

molecular fragmentation (1/2 indicates fragments):
1111111111111111111111111222222
# atoms in fragment 1/2:    25     6
 fragment masses (1/2) :      236.44       28.05
CMA distance (Bohr)    :   5.992
constraining FC (au)   :  0.7000

           -------------------------------------------------
          |                 G F N 2 - x T B                 |
           -------------------------------------------------

        Reference                      10.1021/acs.jctc.8b01176
      * Hamiltonian:
        H0-scaling (s, p, d)           1.850000    2.230000    2.230000
        zeta-weighting                 0.500000
      * Dispersion:
        s8                             2.700000
        a1                             0.520000
        a2                             5.000000
        s9                             5.000000
      * Repulsion:
        kExp                           1.500000    1.000000
        rExp                           1.000000
      * Coulomb:
        alpha                          2.000000
        third order                    shell-resolved
        anisotropic                    true
        a3                             3.000000
        a5                             4.000000
        cn-shift                       1.200000
        cn-exp                         4.000000
        max-rad                        5.000000


          ...................................................
          :                      SETUP                      :
          :.................................................:
          :  # basis functions                  79          :
          :  # atomic orbitals                  78          :
          :  # shells                           46          :
          :  # electrons                        72          :
          :  max. iterations                   250          :
          :  Hamiltonian                  GFN2-xTB          :
          :  restarted?                      false          :
          :  GBSA solvation                  false          :
          :  PC potential                    false          :
          :  electronic temp.          300.0000000     K    :
          :  accuracy                    1.0000000          :
          :  -> integral cutoff          0.2500000E+02      :
          :  -> integral neglect         0.1000000E-07      :
          :  -> SCF convergence          0.1000000E-05 Eh   :
          :  -> wf. convergence          0.1000000E-03 e    :
          :  Broyden damping             0.4000000          :
          ...................................................

 iter      E             dE          RMSdq      gap      omega  full diag
   1    -38.1881272 -0.381881E+02  0.436E+00    1.17       0.0  T
   2    -38.2931262 -0.104999E+00  0.332E+00    2.21       1.0  T
   3    -38.3113658 -0.182395E-01  0.230E+00    1.76       1.0  T
   4    -38.3091961  0.216964E-02  0.517E-01    1.90       1.0  T
   5    -38.3106047 -0.140858E-02  0.436E-01    1.80       1.0  T
   6    -38.3131829 -0.257824E-02  0.188E-01    1.83       1.0  T
   7    -38.3132000 -0.170469E-04  0.124E-01    1.85       1.0  T
   8    -38.3132128 -0.127880E-04  0.268E-02    1.86       1.0  T
   9    -38.3132170 -0.427257E-05  0.149E-02    1.87       1.2  T
  10    -38.3132174 -0.337366E-06  0.948E-03    1.87       1.9  T
  11    -38.3132177 -0.339747E-06  0.312E-03    1.87       5.7  T
  12    -38.3132178 -0.591880E-07  0.113E-03    1.87      15.8  T
  13    -38.3132178 -0.496239E-08  0.538E-04    1.87      33.4  T
  14    -38.3132178 -0.275377E-08  0.219E-04    1.87      82.1  T

   *** convergence criteria satisfied after 14 iterations ***

         #    Occupation            Energy/Eh            Energy/eV
      -------------------------------------------------------------
         1        2.0000           -0.8631287             -23.4869
       ...           ...                  ...                  ...
        30        2.0000           -0.5762671             -15.6810
        31        2.0000           -0.5750815             -15.6488
        32        2.0000           -0.5222336             -14.2107
        33        2.0000           -0.5172913             -14.0762
        34        2.0000           -0.5077799             -13.8174
        35        2.0000           -0.5017705             -13.6539
        36        2.0000           -0.4953228             -13.4784 (HOMO)
        37                         -0.4266149             -11.6088 (LUMO)
        38                         -0.4168421             -11.3429
        39                         -0.4101907             -11.1619
        40                         -0.4044101             -11.0046
        41                         -0.3939087             -10.7188
       ...                                ...                  ...
        78                          2.4715419              67.2541
      -------------------------------------------------------------
                  HL-Gap            0.0687079 Eh            1.8696 eV
             Fermi-level           -0.4609689 Eh          -12.5436 eV

 SCC (total)                   0 d,  0 h,  0 min,  1.252 sec
 SCC setup                      ...        0 min,  0.019 sec (  1.553%)
 Dispersion                     ...        0 min,  0.040 sec (  3.183%)
 classical contributions        ...        0 min,  0.015 sec (  1.185%)
 integral evaluation            ...        0 min,  0.038 sec (  3.020%)
 iterations                     ...        0 min,  0.955 sec ( 76.312%)
 molecular gradient             ...        0 min,  0.184 sec ( 14.733%)
 printout                       ...        0 min,  0.000 sec (  0.013%)

         :::::::::::::::::::::::::::::::::::::::::::::::::::::
         ::                     SUMMARY                     ::
         :::::::::::::::::::::::::::::::::::::::::::::::::::::
         :: total energy             -34.105719163543 Eh    ::
         :: gradient norm              4.258555516993 Eh/a0 ::
         :: HOMO-LUMO gap              1.869636077001 eV    ::
         ::.................................................::
         :: SCC energy               -38.313217790515 Eh    ::
         :: -> isotropic ES            0.090971619437 Eh    ::
         :: -> anisotropic ES         -0.013151712168 Eh    ::
         :: -> anisotropic XC          0.022496052995 Eh    ::
         :: -> dispersion             -0.027967785647 Eh    ::
         :: repulsion energy           0.651599403108 Eh    ::
         :: add. restraining           3.555168608994 Eh    ::
         :: total charge               1.000000000000 e     ::
         :::::::::::::::::::::::::::::::::::::::::::::::::::::

      ----------------------------------------------------------- 
     |                   =====================                   |
     |                        A N C O P T                        |
     |                   =====================                   |
     |               Approximate Normal Coordinate               |
     |                Rational Function Optimizer                |
      ----------------------------------------------------------- 

          ...................................................
          :                      SETUP                      :
          :.................................................:
          :   optimization level            normal          :
          :   max. optcycles                   200          :
          :   ANC micro-cycles                  20          :
          :   degrees of freedom                87          :
          :.................................................:
          :   RF solver                   davidson          :
          :   write xtbopt.log                true          :
          :   linear?                        false          :
          :   energy convergence         0.5000000E-05 Eh   :
          :   grad. convergence          0.1000000E-02 Eh/α :
          :   maximium RF displ.         1.0000000          :
          :   Hlow (freq-cutoff)         0.1000000E-01      :
          :   Hmax (freq-cutoff)         5.0000000          :
          :   S6 in model hess.         20.0000000          :
          ...................................................

generating ANC from model Hessian ...
Using Lindh-Hessian (1995)
 Shifting diagonal of input Hessian by    8.9315729075831587E-002
 Lowest  eigenvalues of input Hessian
    0.010000    0.067926    0.000000    0.000000    0.000000    0.000000
    0.000000    0.000000    0.089777    0.090047    0.090916    0.091108
    0.091715    0.096210    0.096612    0.096992    0.097253    0.097495
 Highest eigenvalues
    1.820175    1.822180    2.289337    2.864412    2.941556    4.123436


........................................................................
.............................. CYCLE    1 ..............................
........................................................................
   1    -38.3132178 -0.383132E+02  0.107E-04    1.87       0.0  T
   2    -38.3132178 -0.621014E-10  0.883E-05    1.87     203.3  T
   3    -38.3132178 -0.616396E-10  0.562E-05    1.87     319.6  T
     SCC iter.                  ...        0 min,  0.293 sec
     gradient                   ...        0 min,  0.079 sec
 * total energy  :   -34.1057192 Eh     change       -0.9211476E-10 Eh
   gradient norm :     4.2585556 Eh/α   predicted     0.0000000E+00 (-100.00%)
   displ. norm   :     0.7107655 α      lambda       -0.2992085E+01
   maximum displ.:     0.5222915 α      in ANC's #86, #87, #85, ...

........................................................................
.............................. CYCLE    2 ..............................
........................................................................
   1    -38.2627555 -0.382628E+02  0.839E-01    1.64       0.0  T
   2    -38.2628860 -0.130507E-03  0.531E-01    1.64       1.0  T
   3    -38.2615507  0.133535E-02  0.296E-01    1.57       1.0  T
   4    -38.2630525 -0.150182E-02  0.959E-02    1.61       1.0  T
   5    -38.2630447  0.783522E-05  0.472E-02    1.62       1.0  T
   6    -38.2630662 -0.215546E-04  0.192E-02    1.62       1.0  T
   7    -38.2630683 -0.210137E-05  0.127E-02    1.62       1.4  T
   8    -38.2630691 -0.787055E-06  0.616E-03    1.62       2.9  T
   9    -38.2630692 -0.538317E-07  0.361E-03    1.62       5.0  T
  10    -38.2630692 -0.143102E-07  0.133E-03    1.62      13.5  T
  11    -38.2630692 -0.117276E-07  0.498E-04    1.62      36.1  T
  12    -38.2630692 -0.214653E-08  0.206E-04    1.62      87.2  T
     SCC iter.                  ...        0 min,  0.801 sec
     gradient                   ...        0 min,  0.119 sec
 * total energy  :   -36.4130102 Eh     change       -0.2307291E+01 Eh
   gradient norm :     2.3089463 Eh/α   predicted    -0.2251825E+01 (  -2.40%)
   displ. norm   :     0.5924013 α      lambda       -0.1338332E+01
   maximum displ.:     0.4272170 α      in ANC's #86, #87, #85, ...

........................................................................
.............................. CYCLE    3 ..............................
........................................................................
   1    -38.1656342 -0.381656E+02  0.116E+00    1.24       0.0  T
   2    -38.1616982  0.393603E-02  0.118E+00    1.79       1.0  T
   3    -38.1779315 -0.162333E-01  0.552E-01    1.55       1.0  T
   4    -38.1767942  0.113730E-02  0.250E-01    1.43       1.0  T
   5    -38.1781742 -0.138001E-02  0.922E-02    1.50       1.0  T
   6    -38.1782550 -0.807161E-04  0.516E-02    1.52       1.0  T
   7    -38.1782471  0.783442E-05  0.372E-02    1.53       1.0  T
   8    -38.1782588 -0.117184E-04  0.902E-03    1.52       2.0  T
   9    -38.1782596 -0.800134E-06  0.512E-03    1.52       3.5  T
  10    -38.1782597 -0.640434E-07  0.224E-03    1.52       8.0  T
  11    -38.1782597 -0.328699E-08  0.122E-03    1.52      14.7  T
  12    -38.1782597 -0.125675E-07  0.752E-04    1.52      23.9  T
  13    -38.1782597 -0.201538E-08  0.267E-04    1.52      67.3  T
     SCC iter.                  ...        0 min,  0.824 sec
     gradient                   ...        0 min,  0.083 sec
 * total energy  :   -37.3323014 Eh     change       -0.9192912E+00 Eh
   gradient norm :     0.8569377 Eh/α   predicted    -0.9040041E+00 (  -1.66%)
   displ. norm   :     0.4144638 α      lambda       -0.2972043E+00
   maximum displ.:     0.2280099 α      in ANC's #86, #65, #1, ...

........................................................................
.............................. CYCLE    4 ..............................
........................................................................
   1    -38.1215687 -0.381216E+02  0.107E+00    1.47       0.0  T
   2    -38.1117172  0.985144E-02  0.123E+00    1.84       1.0  T
   3    -38.1377812 -0.260639E-01  0.474E-01    1.64       1.0  T
   4    -38.1367535  0.102763E-02  0.230E-01    1.56       1.0  T
   5    -38.1380487 -0.129512E-02  0.824E-02    1.61       1.0  T
   6    -38.1380816 -0.329702E-04  0.378E-02    1.61       1.0  T
   7    -38.1380795  0.215138E-05  0.293E-02    1.62       1.0  T
   8    -38.1380864 -0.694365E-05  0.602E-03    1.61       3.0  T
   9    -38.1380868 -0.340987E-06  0.313E-03    1.61       5.7  T
  10    -38.1380868 -0.549364E-07  0.117E-03    1.61      15.3  T
  11    -38.1380868 -0.594532E-08  0.587E-04    1.61      30.6  T
  12    -38.1380868  0.336108E-09  0.384E-04    1.61      46.8  T
     SCC iter.                  ...        0 min,  0.726 sec
     gradient                   ...        0 min,  0.004 sec
 * total energy  :   -37.5084740 Eh     change       -0.1761726E+00 Eh
   gradient norm :     0.1568829 Eh/α   predicted    -0.1741468E+00 (  -1.15%)
   displ. norm   :     0.4583284 α      lambda       -0.4615065E-01
   maximum displ.:     0.1660822 α      in ANC's #15, #22, #1, ...

........................................................................
.............................. CYCLE    5 ..............................
........................................................................
   1    -38.1649075 -0.381649E+02  0.419E-01    1.66       0.0  T
   2    -38.1641942  0.713263E-03  0.439E-01    1.74       1.0  T
   3    -38.1665991 -0.240482E-02  0.201E-01    1.69       1.0  T
   4    -38.1664704  0.128680E-03  0.926E-02    1.70       1.0  T
   5    -38.1666238 -0.153377E-03  0.401E-02    1.69       1.0  T
   6    -38.1666233  0.427943E-06  0.225E-02    1.69       1.0  T
   7    -38.1666284 -0.507187E-05  0.814E-03    1.69       2.2  T
   8    -38.1666288 -0.354616E-06  0.279E-03    1.69       6.4  T
   9    -38.1666288 -0.402058E-07  0.173E-03    1.69      10.4  T
  10    -38.1666288 -0.101367E-07  0.113E-03    1.69      15.9  T
  11    -38.1666288 -0.462081E-08  0.322E-04    1.69      55.8  T
  12    -38.1666288 -0.103864E-08  0.119E-04    1.69     151.2  T
     SCC iter.                  ...        0 min,  0.830 sec
     gradient                   ...        0 min,  0.073 sec
 * total energy  :   -37.5458095 Eh     change       -0.3733555E-01 Eh
   gradient norm :     0.1163803 Eh/α   predicted    -0.2792267E-01 ( -25.21%)
   displ. norm   :     0.6842952 α      lambda       -0.5419176E-01
   maximum displ.:     0.2439349 α      in ANC's #22, #15, #7, ...

........................................................................
.............................. CYCLE    6 ..............................
........................................................................
   1    -38.1960199 -0.381960E+02  0.809E-01    1.63       0.0  T
   2    -38.1955942  0.425734E-03  0.641E-01    1.67       1.0  T
   3    -38.1996662 -0.407199E-02  0.329E-01    1.63       1.0  T
   4    -38.2002328 -0.566623E-03  0.173E-01    1.66       1.0  T
   5    -38.2006208 -0.388007E-03  0.702E-02    1.65       1.0  T
   6    -38.2006184  0.236198E-05  0.336E-02    1.65       1.0  T
   7    -38.2006293 -0.108321E-04  0.136E-02    1.65       1.3  T
   8    -38.2006298 -0.510080E-06  0.731E-03    1.65       2.5  T
   9    -38.2006301 -0.351070E-06  0.348E-03    1.65       5.2  T
  10    -38.2006302 -0.299050E-07  0.211E-03    1.65       8.5  T
  11    -38.2006302 -0.304729E-07  0.105E-03    1.65      17.2  T
  12    -38.2006302 -0.358733E-08  0.264E-04    1.65      68.0  T
  13    -38.2006302 -0.636554E-09  0.119E-04    1.65     150.8  T
     SCC iter.                  ...        0 min,  0.926 sec
     gradient                   ...        0 min,  0.159 sec
 * total energy  :   -37.5828121 Eh     change       -0.3700251E-01 Eh
   gradient norm :     0.1718707 Eh/α   predicted    -0.3978384E-01 (   7.52%)
   displ. norm   :     0.7895253 α      lambda       -0.4791979E-01
   maximum displ.:     0.5126734 α      in ANC's #1, #15, #26, ...

........................................................................
.............................. CYCLE    7 ..............................
........................................................................
   1    -38.2296433 -0.382296E+02  0.884E-01    1.57       0.0  T
   2    -38.2301920 -0.548621E-03  0.562E-01    1.52       1.0  T
   3    -38.2295866  0.605368E-03  0.298E-01    1.59       1.0  T
   4    -38.2305458 -0.959189E-03  0.905E-02    1.54       1.0  T
   5    -38.2305627 -0.168770E-04  0.533E-02    1.56       1.0  T
   6    -38.2305706 -0.798693E-05  0.280E-02    1.55       1.0  T
   7    -38.2305742 -0.352806E-05  0.146E-02    1.55       1.2  T
   8    -38.2305767 -0.257797E-05  0.558E-03    1.55       3.2  T
   9    -38.2305770 -0.254057E-06  0.255E-03    1.55       7.0  T
  10    -38.2305770 -0.810353E-08  0.126E-03    1.55      14.3  T
  11    -38.2305770 -0.186638E-07  0.455E-04    1.55      39.5  T
  12    -38.2305770 -0.176254E-08  0.192E-04    1.55      93.7  T
     SCC iter.                  ...        0 min,  0.685 sec
     gradient                   ...        0 min,  0.144 sec
 * total energy  :   -37.6006852 Eh     change       -0.1787316E-01 Eh
   gradient norm :     0.1769758 Eh/α   predicted    -0.3889532E-01 ( 117.62%)
   displ. norm   :     0.4028110 α      lambda       -0.2434581E-01
   maximum displ.:     0.2697073 α      in ANC's #1, #15, #60, ...

........................................................................
.............................. CYCLE    8 ..............................
........................................................................
   1    -38.2443780 -0.382444E+02  0.570E-01    1.57       0.0  T
   2    -38.2448068 -0.428863E-03  0.324E-01    1.53       1.0  T
   3    -38.2444758  0.331048E-03  0.251E-01    1.57       1.0  T
   4    -38.2451736 -0.697822E-03  0.116E-01    1.55       1.0  T
   5    -38.2452972 -0.123581E-03  0.576E-02    1.55       1.0  T
   6    -38.2452932  0.395164E-05  0.302E-02    1.55       1.0  T
   7    -38.2453051 -0.118276E-04  0.877E-03    1.55       2.0  T
   8    -38.2453054 -0.279853E-06  0.390E-03    1.55       4.6  T
   9    -38.2453055 -0.108555E-06  0.148E-03    1.55      12.1  T
  10    -38.2453055  0.138851E-08  0.103E-03    1.55      17.5  T
  11    -38.2453055 -0.704584E-08  0.551E-04    1.55      32.6  T
  12    -38.2453055 -0.121211E-09  0.295E-04    1.55      60.8  T
     SCC iter.                  ...        0 min,  1.078 sec
     gradient                   ...        0 min,  0.211 sec
 * total energy  :   -37.6158017 Eh     change       -0.1511646E-01 Eh
   gradient norm :     0.0893584 Eh/α   predicted    -0.1414806E-01 (  -6.41%)
   displ. norm   :     0.2675691 α      lambda       -0.1258358E-01
   maximum displ.:     0.1216494 α      in ANC's #60, #7, #13, ...

........................................................................
.............................. CYCLE    9 ..............................
........................................................................
   1    -38.2527854 -0.382528E+02  0.361E-01    1.56       0.0  T
   2    -38.2528483 -0.629072E-04  0.182E-01    1.51       1.0  T
   3    -38.2526744  0.173900E-03  0.160E-01    1.57       1.0  T
   4    -38.2529378 -0.263376E-03  0.285E-02    1.54       1.0  T
   5    -38.2529477 -0.992769E-05  0.187E-02    1.53       1.0  T
   6    -38.2529505 -0.282551E-05  0.842E-03    1.53       2.1  T
   7    -38.2529510 -0.454508E-06  0.485E-03    1.53       3.7  T
   8    -38.2529510  0.573598E-08  0.223E-03    1.53       8.1  T
   9    -38.2529510 -0.566541E-07  0.786E-04    1.53      22.8  T
  10    -38.2529511 -0.333447E-08  0.287E-04    1.53      62.6  T
     SCC iter.                  ...        0 min,  0.972 sec
     gradient                   ...        0 min,  0.213 sec
 * total energy  :   -37.6232221 Eh     change       -0.7420410E-02 Eh
   gradient norm :     0.0634163 Eh/α   predicted    -0.6742338E-02 (  -9.14%)
   displ. norm   :     0.1371711 α      lambda       -0.3172380E-02
   maximum displ.:     0.0438587 α      in ANC's #16, #6, #2, ...

........................................................................
.............................. CYCLE   10 ..............................
........................................................................
   1    -38.2559693 -0.382560E+02  0.179E-01    1.53       0.0  T
   2    -38.2559760 -0.667561E-05  0.158E-01    1.52       1.0  T
   3    -38.2560651 -0.890924E-04  0.850E-02    1.52       1.0  T
   4    -38.2560729 -0.776645E-05  0.239E-02    1.53       1.0  T
   5    -38.2560839 -0.109730E-04  0.115E-02    1.52       1.6  T
   6    -38.2560843 -0.458256E-06  0.489E-03    1.52       3.7  T
   7    -38.2560844 -0.797326E-07  0.218E-03    1.52       8.3  T
   8    -38.2560844 -0.347860E-07  0.958E-04    1.52      18.7  T
   9    -38.2560844 -0.685601E-08  0.283E-04    1.52      63.5  T
     SCC iter.                  ...        0 min,  1.081 sec
     gradient                   ...        0 min,  0.075 sec
 * total energy  :   -37.6257052 Eh     change       -0.2483159E-02 Eh
   gradient norm :     0.0341388 Eh/α   predicted    -0.1616072E-02 ( -34.92%)
   displ. norm   :     0.2789579 α      lambda       -0.3984891E-02
   maximum displ.:     0.1354078 α      in ANC's #8, #16, #2, ...

........................................................................
.............................. CYCLE   11 ..............................
........................................................................
   1    -38.2570552 -0.382571E+02  0.294E-01    1.51       0.0  T
   2    -38.2570716 -0.163998E-04  0.283E-01    1.51       1.0  T
   3    -38.2575195 -0.447924E-03  0.157E-01    1.50       1.0  T
   4    -38.2574922  0.273204E-04  0.371E-02    1.50       1.0  T
   5    -38.2575287 -0.365633E-04  0.171E-02    1.50       1.0  T
   6    -38.2575293 -0.546784E-06  0.678E-03    1.50       2.6  T
   7    -38.2575294 -0.168848E-06  0.401E-03    1.50       4.5  T
   8    -38.2575295 -0.821641E-07  0.138E-03    1.50      13.0  T
   9    -38.2575295 -0.647722E-08  0.534E-04    1.50      33.6  T
  10    -38.2575295 -0.219207E-08  0.360E-04    1.50      49.9  T
     SCC iter.                  ...        0 min,  1.072 sec
     gradient                   ...        0 min,  0.148 sec
 * total energy  :   -37.6283815 Eh     change       -0.2676307E-02 Eh
   gradient norm :     0.0249405 Eh/α   predicted    -0.2147505E-02 ( -19.76%)
   displ. norm   :     0.2840349 α      lambda       -0.2173016E-02
   maximum displ.:     0.1458620 α      in ANC's #8, #2, #16, ...

........................................................................
.............................. CYCLE   12 ..............................
........................................................................
   1    -38.2575317 -0.382575E+02  0.221E-01    1.49       0.0  T
   2    -38.2575431 -0.114539E-04  0.222E-01    1.49       1.0  T
   3    -38.2578272 -0.284051E-03  0.126E-01    1.48       1.0  T
   4    -38.2578053  0.218556E-04  0.311E-02    1.48       1.0  T
   5    -38.2578300 -0.246995E-04  0.129E-02    1.48       1.4  T
   6    -38.2578301 -0.116194E-06  0.557E-03    1.48       3.2  T
   7    -38.2578304 -0.237645E-06  0.298E-03    1.48       6.0  T
   8    -38.2578304 -0.235563E-07  0.136E-03    1.48      13.2  T
   9    -38.2578304 -0.863827E-08  0.626E-04    1.48      28.7  T
  10    -38.2578304 -0.168587E-08  0.419E-04    1.48      42.9  T
     SCC iter.                  ...        0 min,  1.203 sec
     gradient                   ...        0 min,  0.090 sec
 * total energy  :   -37.6300679 Eh     change       -0.1686372E-02 Eh
   gradient norm :     0.0345883 Eh/α   predicted    -0.1174179E-02 ( -30.37%)
   displ. norm   :     0.4321054 α      lambda       -0.2925347E-02
   maximum displ.:     0.2492400 α      in ANC's #8, #2, #16, ...

........................................................................
.............................. CYCLE   13 ..............................
........................................................................
   1    -38.2546380 -0.382546E+02  0.279E-01    1.48       0.0  T
   2    -38.2546517 -0.137371E-04  0.267E-01    1.48       1.0  T
   3    -38.2550707 -0.419002E-03  0.147E-01    1.48       1.0  T
   4    -38.2550437  0.270523E-04  0.416E-02    1.48       1.0  T
   5    -38.2550805 -0.368010E-04  0.192E-02    1.47       1.0  T
   6    -38.2550812 -0.707343E-06  0.881E-03    1.47       2.0  T
   7    -38.2550815 -0.344746E-06  0.437E-03    1.47       4.1  T
   8    -38.2550815 -0.228833E-07  0.261E-03    1.47       6.9  T
   9    -38.2550816 -0.205066E-07  0.120E-03    1.47      15.0  T
  10    -38.2550816 -0.191360E-08  0.502E-04    1.47      35.8  T
  11    -38.2550816 -0.377902E-09  0.241E-04    1.47      74.7  T
     SCC iter.                  ...        0 min,  1.178 sec
     gradient                   ...        0 min,  0.243 sec
 * total energy  :   -37.6320868 Eh     change       -0.2018840E-02 Eh
   gradient norm :     0.0350352 Eh/α   predicted    -0.1735795E-02 ( -14.02%)
   displ. norm   :     0.3550215 α      lambda       -0.2143124E-02
   maximum displ.:     0.1578146 α      in ANC's #8, #2, #16, ...

........................................................................
.............................. CYCLE   14 ..............................
........................................................................
   1    -38.2558329 -0.382558E+02  0.169E-01    1.48       0.0  T
   2    -38.2558444 -0.115074E-04  0.136E-01    1.47       1.0  T
   3    -38.2558330  0.113471E-04  0.694E-02    1.48       1.0  T
   4    -38.2558736 -0.405311E-04  0.286E-02    1.47       1.0  T
   5    -38.2558835 -0.996873E-05  0.155E-02    1.47       1.2  T
   6    -38.2558840 -0.423837E-06  0.511E-03    1.47       3.5  T
   7    -38.2558843 -0.279685E-06  0.233E-03    1.47       7.7  T
   8    -38.2558842  0.323411E-08  0.156E-03    1.47      11.5  T
   9    -38.2558843 -0.116029E-07  0.938E-04    1.47      19.2  T
  10    -38.2558843 -0.609251E-08  0.480E-04    1.47      37.4  T
     SCC iter.                  ...        0 min,  1.244 sec
     gradient                   ...        0 min,  0.283 sec
 * total energy  :   -37.6335300 Eh     change       -0.1443269E-02 Eh
   gradient norm :     0.0173254 Eh/α   predicted    -0.1206629E-02 ( -16.40%)
   displ. norm   :     0.2234394 α      lambda       -0.1341664E-02
   maximum displ.:     0.0951338 α      in ANC's #16, #23, #2, ...

........................................................................
.............................. CYCLE   15 ..............................
........................................................................
   1    -38.2604111 -0.382604E+02  0.108E-01    1.50       0.0  T
   2    -38.2604146 -0.344304E-05  0.639E-02    1.48       1.0  T
   3    -38.2603855  0.290727E-04  0.580E-02    1.50       1.0  T
   4    -38.2604259 -0.403917E-04  0.163E-02    1.49       1.1  T
   5    -38.2604251  0.752759E-06  0.149E-02    1.49       1.2  T
   6    -38.2604270 -0.185973E-05  0.249E-03    1.49       7.2  T
   7    -38.2604271 -0.734297E-07  0.103E-03    1.49      17.4  T
   8    -38.2604271 -0.206816E-08  0.663E-04    1.49      27.1  T
   9    -38.2604271 -0.114461E-08  0.443E-04    1.49      40.5  T
     SCC iter.                  ...        0 min,  1.238 sec
     gradient                   ...        0 min,  0.324 sec
 * total energy  :   -37.6345268 Eh     change       -0.9968163E-03 Eh
   gradient norm :     0.0167670 Eh/α   predicted    -0.7043262E-03 ( -29.34%)
   displ. norm   :     0.2576193 α      lambda       -0.1290062E-02
   maximum displ.:     0.1308880 α      in ANC's #16, #23, #15, ...

........................................................................
.............................. CYCLE   16 ..............................
........................................................................
   1    -38.2638290 -0.382638E+02  0.141E-01    1.52       0.0  T
   2    -38.2638399 -0.109064E-04  0.914E-02    1.50       1.0  T
   3    -38.2638101  0.298034E-04  0.642E-02    1.52       1.0  T
   4    -38.2638528 -0.426602E-04  0.153E-02    1.51       1.2  T
   5    -38.2638523  0.474426E-06  0.159E-02    1.51       1.1  T
   6    -38.2638543 -0.202988E-05  0.334E-03    1.51       5.4  T
   7    -38.2638545 -0.185965E-06  0.975E-04    1.51      18.4  T
   8    -38.2638545 -0.141407E-08  0.453E-04    1.51      39.7  T
     SCC iter.                  ...        0 min,  1.114 sec
     gradient                   ...        0 min,  0.300 sec
 * total energy  :   -37.6354375 Eh     change       -0.9107013E-03 Eh
   gradient norm :     0.0193559 Eh/α   predicted    -0.6878478E-03 ( -24.47%)
   displ. norm   :     0.2442943 α      lambda       -0.9894231E-03
   maximum displ.:     0.1292824 α      in ANC's #16, #23, #15, ...

........................................................................
.............................. CYCLE   17 ..............................
........................................................................
   1    -38.2667094 -0.382667E+02  0.138E-01    1.54       0.0  T
   2    -38.2667178 -0.844286E-05  0.931E-02    1.52       1.0  T
   3    -38.2666901  0.277442E-04  0.586E-02    1.54       1.0  T
   4    -38.2667266 -0.364717E-04  0.118E-02    1.53       1.5  T
   5    -38.2667267 -0.145568E-06  0.122E-02    1.53       1.5  T
   6    -38.2667281 -0.137644E-05  0.279E-03    1.53       6.4  T
   7    -38.2667282 -0.104359E-06  0.105E-03    1.53      17.1  T
   8    -38.2667282 -0.450826E-08  0.578E-04    1.53      31.1  T
   9    -38.2667282  0.363798E-11  0.422E-04    1.53      42.6  T
     SCC iter.                  ...        0 min,  1.106 sec
     gradient                   ...        0 min,  0.311 sec
 * total energy  :   -37.6361753 Eh     change       -0.7377967E-03 Eh
   gradient norm :     0.0165773 Eh/α   predicted    -0.5242481E-03 ( -28.94%)
   displ. norm   :     0.3355995 α      lambda       -0.1162213E-02
   maximum displ.:     0.1907389 α      in ANC's #16, #15, #23, ...

........................................................................
.............................. CYCLE   18 ..............................
........................................................................
   1    -38.2660214 -0.382660E+02  0.191E-01    1.55       0.0  T
   2    -38.2660297 -0.827548E-05  0.143E-01    1.54       1.0  T
   3    -38.2659256  0.104131E-03  0.662E-02    1.56       1.0  T
   4    -38.2660388 -0.113235E-03  0.203E-02    1.55       1.0  T
   5    -38.2660440 -0.513724E-05  0.106E-02    1.55       1.7  T
   6    -38.2660443 -0.318898E-06  0.331E-03    1.55       5.4  T
   7    -38.2660444 -0.945053E-07  0.168E-03    1.55      10.7  T
   8    -38.2660444 -0.835563E-08  0.785E-04    1.55      22.9  T
   9    -38.2660444  0.147566E-09  0.587E-04    1.55      30.6  T
     SCC iter.                  ...        0 min,  0.971 sec
     gradient                   ...        0 min,  0.230 sec
 * total energy  :   -37.6370678 Eh     change       -0.8924337E-03 Eh
   gradient norm :     0.0159614 Eh/α   predicted    -0.6465628E-03 ( -27.55%)
   displ. norm   :     0.3729109 α      lambda       -0.1531562E-02
   maximum displ.:     0.1990736 α      in ANC's #16, #15, #57, ...

........................................................................
.............................. CYCLE   19 ..............................
........................................................................
   1    -38.2688430 -0.382688E+02  0.190E-01    1.58       0.0  T
   2    -38.2688524 -0.938649E-05  0.138E-01    1.56       1.0  T
   3    -38.2687758  0.765940E-04  0.633E-02    1.58       1.0  T
   4    -38.2688570 -0.811758E-04  0.201E-02    1.57       1.0  T
   5    -38.2688636 -0.661919E-05  0.139E-02    1.57       1.3  T
   6    -38.2688645 -0.890045E-06  0.563E-03    1.57       3.2  T
   7    -38.2688646 -0.147990E-06  0.194E-03    1.57       9.2  T
   8    -38.2688646 -0.309167E-08  0.106E-03    1.57      16.9  T
   9    -38.2688646 -0.628133E-08  0.756E-04    1.57      23.7  T
  10    -38.2688646 -0.209664E-08  0.255E-04    1.57      70.3  T
     SCC iter.                  ...        0 min,  1.129 sec
     gradient                   ...        0 min,  0.290 sec
 * total energy  :   -37.6381366 Eh     change       -0.1068783E-02 Eh
   gradient norm :     0.0188301 Eh/α   predicted    -0.8722843E-03 ( -18.39%)
   displ. norm   :     0.3902568 α      lambda       -0.1194105E-02
   maximum displ.:     0.2116660 α      in ANC's #16, #15, #2, ...

........................................................................
.............................. CYCLE   20 ..............................
........................................................................
   1    -38.2630949 -0.382631E+02  0.223E-01    1.59       0.0  T
   2    -38.2630958 -0.915836E-06  0.177E-01    1.59       1.0  T
   3    -38.2630678  0.279557E-04  0.108E-01    1.59       1.0  T
   4    -38.2631908 -0.122944E-03  0.190E-02    1.59       1.0  T
   5    -38.2631923 -0.155650E-05  0.121E-02    1.59       1.5  T
   6    -38.2631933 -0.935404E-06  0.301E-03    1.59       6.0  T
   7    -38.2631933 -0.538792E-07  0.174E-03    1.59      10.3  T
   8    -38.2631933 -0.101704E-07  0.100E-03    1.59      17.9  T
   9    -38.2631933 -0.148484E-08  0.460E-04    1.59      39.1  T
  10    -38.2631933 -0.544453E-09  0.292E-04    1.59      61.6  T
     SCC iter.                  ...        0 min,  1.962 sec
     gradient                   ...        0 min,  0.266 sec
 * total energy  :   -37.6388549 Eh     change       -0.7183017E-03 Eh
   gradient norm :     0.0191105 Eh/α   predicted    -0.6879862E-03 (  -4.22%)
   displ. norm   :     0.1808329 α      lambda       -0.9959897E-03
   maximum displ.:     0.0738241 α      in ANC's #6, #8, #7, ...
 * RMSD in coord.:     0.8054624 α      energy gain  -0.3533136E+01 Eh

generating ANC from model Hessian ...
Using Lindh-Hessian (1995)
 Shifting diagonal of input Hessian by    1.0175339734267982E-002
 Lowest  eigenvalues of input Hessian
    0.010000    0.010068    0.000000    0.000000    0.000000    0.000000
    0.000000    0.000000    0.010585    0.011182    0.011378    0.011443
    0.012074    0.014424    0.015080    0.015763    0.018017    0.018284
 Highest eigenvalues
    1.733591    1.733965    1.741086    2.685908    3.144829    3.656069


........................................................................
.............................. CYCLE   21 ..............................
........................................................................
   1    -38.2684623 -0.382685E+02  0.121E-01    1.59       0.0  T
   2    -38.2684681 -0.582708E-05  0.732E-02    1.59       1.0  T
   3    -38.2684581  0.100060E-04  0.461E-02    1.60       1.0  T
   4    -38.2684709 -0.128186E-04  0.221E-02    1.60       1.0  T
   5    -38.2684679  0.305039E-05  0.191E-02    1.59       1.0  T
   6    -38.2684711 -0.319226E-05  0.391E-03    1.59       4.6  T
   7    -38.2684714 -0.292308E-06  0.166E-03    1.59      10.8  T
   8    -38.2684714 -0.375049E-08  0.984E-04    1.59      18.2  T
   9    -38.2684714 -0.953610E-08  0.539E-04    1.59      33.3  T
     SCC iter.                  ...        0 min,  1.172 sec
     gradient                   ...        0 min,  0.277 sec
 * total energy  :   -37.6393299 Eh     change       -0.4750562E-03 Eh
   gradient norm :     0.0108542 Eh/α   predicted     0.0000000E+00 (-100.00%)
   displ. norm   :     0.2154294 α      lambda       -0.1128539E-02
   maximum displ.:     0.1055051 α      in ANC's #17, #4, #2, ...

........................................................................
.............................. CYCLE   22 ..............................
........................................................................
   1    -38.2695536 -0.382696E+02  0.124E-01    1.61       0.0  T
   2    -38.2695572 -0.352568E-05  0.797E-02    1.61       1.0  T
   3    -38.2694945  0.627024E-04  0.654E-02    1.61       1.0  T
   4    -38.2695712 -0.767434E-04  0.178E-02    1.61       1.0  T
   5    -38.2695706  0.586882E-06  0.151E-02    1.61       1.2  T
   6    -38.2695721 -0.147537E-05  0.409E-03    1.61       4.4  T
   7    -38.2695722 -0.144233E-06  0.181E-03    1.61       9.9  T
   8    -38.2695722 -0.139580E-08  0.108E-03    1.61      16.7  T
   9    -38.2695722 -0.852604E-08  0.558E-04    1.61      32.2  T
  10    -38.2695722 -0.469853E-09  0.301E-04    1.61      59.8  T
     SCC iter.                  ...        0 min,  1.153 sec
     gradient                   ...        0 min,  0.309 sec
 * total energy  :   -37.6400139 Eh     change       -0.6839960E-03 Eh
   gradient norm :     0.0039412 Eh/α   predicted    -0.5904591E-03 ( -13.68%)
   displ. norm   :     0.2378791 α      lambda       -0.4957412E-03
   maximum displ.:     0.1257540 α      in ANC's #2, #4, #5, ...

........................................................................
.............................. CYCLE   23 ..............................
........................................................................
   1    -38.2689355 -0.382689E+02  0.152E-01    1.62       0.0  T
   2    -38.2689422 -0.670113E-05  0.979E-02    1.62       1.0  T
   3    -38.2689061  0.361185E-04  0.475E-02    1.62       1.0  T
   4    -38.2689447 -0.386111E-04  0.123E-02    1.62       1.5  T
   5    -38.2689470 -0.236667E-05  0.569E-03    1.62       3.2  T
   6    -38.2689471 -0.401862E-07  0.163E-03    1.62      11.0  T
   7    -38.2689471 -0.275632E-07  0.751E-04    1.62      23.9  T
   8    -38.2689471 -0.294269E-08  0.363E-04    1.62      49.5  T
     SCC iter.                  ...        0 min,  0.964 sec
     gradient                   ...        0 min,  0.252 sec
 * total energy  :   -37.6403341 Eh     change       -0.3201815E-03 Eh
   gradient norm :     0.0046785 Eh/α   predicted    -0.2618997E-03 ( -18.20%)
   displ. norm   :     0.2407920 α      lambda       -0.3069403E-03
   maximum displ.:     0.1403854 α      in ANC's #4, #5, #2, ...

........................................................................
.............................. CYCLE   24 ..............................
........................................................................
   1    -38.2675368 -0.382675E+02  0.109E-01    1.63       0.0  T
   2    -38.2675399 -0.305731E-05  0.667E-02    1.63       1.0  T
   3    -38.2675322  0.770169E-05  0.315E-02    1.63       1.0  T
   4    -38.2675415 -0.932183E-05  0.654E-03    1.63       2.7  T
   5    -38.2675415  0.316698E-07  0.442E-03    1.63       4.1  T
   6    -38.2675416 -0.168480E-06  0.134E-03    1.63      13.4  T
   7    -38.2675417 -0.333400E-07  0.694E-04    1.63      25.9  T
   8    -38.2675417 -0.273070E-08  0.428E-04    1.63      42.0  T
     SCC iter.                  ...        0 min,  0.710 sec
     gradient                   ...        0 min,  0.215 sec
 * total energy  :   -37.6405622 Eh     change       -0.2281039E-03 Eh
   gradient norm :     0.0046784 Eh/α   predicted    -0.1623723E-03 ( -28.82%)
   displ. norm   :     0.2704609 α      lambda       -0.2923488E-03
   maximum displ.:     0.1536056 α      in ANC's #4, #5, #2, ...

........................................................................
.............................. CYCLE   25 ..............................
........................................................................
   1    -38.2669282 -0.382669E+02  0.143E-01    1.64       0.0  T
   2    -38.2669318 -0.359726E-05  0.906E-02    1.63       1.0  T
   3    -38.2669034  0.284002E-04  0.527E-02    1.64       1.0  T
   4    -38.2669350 -0.315740E-04  0.105E-02    1.64       1.7  T
   5    -38.2669366 -0.155407E-05  0.538E-03    1.64       3.3  T
   6    -38.2669367 -0.170329E-06  0.169E-03    1.64      10.6  T
   7    -38.2669368 -0.229373E-07  0.776E-04    1.64      23.1  T
   8    -38.2669368 -0.992124E-09  0.563E-04    1.64      31.9  T
     SCC iter.                  ...        0 min,  0.686 sec
     gradient                   ...        0 min,  0.148 sec
 * total energy  :   -37.6407768 Eh     change       -0.2145884E-03 Eh
   gradient norm :     0.0047356 Eh/α   predicted    -0.1568684E-03 ( -26.90%)
   displ. norm   :     0.3012441 α      lambda       -0.2772119E-03
   maximum displ.:     0.1805597 α      in ANC's #4, #5, #2, ...

........................................................................
.............................. CYCLE   26 ..............................
........................................................................
   1    -38.2670920 -0.382671E+02  0.139E-01    1.65       0.0  T
   2    -38.2670959 -0.398828E-05  0.913E-02    1.64       1.0  T
   3    -38.2670592  0.367683E-04  0.633E-02    1.65       1.0  T
   4    -38.2671042 -0.449798E-04  0.121E-02    1.65       1.5  T
   5    -38.2671066 -0.247872E-05  0.647E-03    1.64       2.8  T
   6    -38.2671068 -0.210303E-06  0.236E-03    1.65       7.6  T
   7    -38.2671069 -0.367448E-07  0.922E-04    1.65      19.5  T
   8    -38.2671069 -0.135233E-08  0.644E-04    1.65      27.9  T
     SCC iter.                  ...        0 min,  0.753 sec
     gradient                   ...        0 min,  0.205 sec
 * total energy  :   -37.6409575 Eh     change       -0.1807068E-03 Eh
   gradient norm :     0.0052092 Eh/α   predicted    -0.1511857E-03 ( -16.34%)
   displ. norm   :     0.2615979 α      lambda       -0.2090845E-03
   maximum displ.:     0.1523897 α      in ANC's #4, #2, #5, ...

........................................................................
.............................. CYCLE   27 ..............................
........................................................................
   1    -38.2680557 -0.382681E+02  0.119E-01    1.65       0.0  T
   2    -38.2680574 -0.167656E-05  0.754E-02    1.65       1.0  T
   3    -38.2680241  0.333067E-04  0.496E-02    1.65       1.0  T
   4    -38.2680616 -0.375175E-04  0.102E-02    1.65       1.8  T
   5    -38.2680626 -0.987973E-06  0.505E-03    1.65       3.6  T
   6    -38.2680626 -0.572455E-08  0.145E-03    1.65      12.3  T
   7    -38.2680627 -0.253788E-07  0.692E-04    1.65      25.9  T
   8    -38.2680627 -0.145205E-08  0.390E-04    1.65      46.0  T
     SCC iter.                  ...        0 min,  0.694 sec
     gradient                   ...        0 min,  0.202 sec
 * total energy  :   -37.6411006 Eh     change       -0.1430866E-03 Eh
   gradient norm :     0.0038792 Eh/α   predicted    -0.1116993E-03 ( -21.94%)
   displ. norm   :     0.2573867 α      lambda       -0.1738914E-03
   maximum displ.:     0.1436915 α      in ANC's #4, #1, #2, ...

........................................................................
.............................. CYCLE   28 ..............................
........................................................................
   1    -38.2695594 -0.382696E+02  0.829E-02    1.66       0.0  T
   2    -38.2695605 -0.102242E-05  0.511E-02    1.65       1.0  T
   3    -38.2695452  0.152802E-04  0.327E-02    1.66       1.0  T
   4    -38.2695623 -0.171572E-04  0.737E-03    1.66       2.4  T
   5    -38.2695627 -0.321818E-06  0.436E-03    1.65       4.1  T
   6    -38.2695627 -0.180144E-07  0.118E-03    1.66      15.2  T
   7    -38.2695627 -0.188284E-07  0.444E-04    1.66      40.4  T
   8    -38.2695627 -0.101623E-08  0.264E-04    1.66      68.1  T
     SCC iter.                  ...        0 min,  0.892 sec
     gradient                   ...        0 min,  0.209 sec
 * total energy  :   -37.6412334 Eh     change       -0.1327799E-03 Eh
   gradient norm :     0.0025027 Eh/α   predicted    -0.9270737E-04 ( -30.18%)
   displ. norm   :     0.4138079 α      lambda       -0.1886921E-03
   maximum displ.:     0.2423684 α      in ANC's #4, #2, #1, ...

........................................................................
.............................. CYCLE   29 ..............................
........................................................................
   1    -38.2671045 -0.382671E+02  0.139E-01    1.66       0.0  T
   2    -38.2671065 -0.198907E-05  0.897E-02    1.66       1.0  T
   3    -38.2670649  0.415423E-04  0.447E-02    1.66       1.0  T
   4    -38.2671096 -0.446660E-04  0.129E-02    1.66       1.4  T
   5    -38.2671103 -0.727944E-06  0.735E-03    1.66       2.4  T
   6    -38.2671105 -0.126851E-06  0.199E-03    1.66       9.0  T
   7    -38.2671105 -0.188487E-07  0.115E-03    1.66      15.6  T
   8    -38.2671105 -0.468430E-08  0.522E-04    1.66      34.4  T
   9    -38.2671105 -0.144986E-08  0.270E-04    1.66      66.5  T
     SCC iter.                  ...        0 min,  1.068 sec
     gradient                   ...        0 min,  0.192 sec
 * total energy  :   -37.6413455 Eh     change       -0.1121648E-03 Eh
   gradient norm :     0.0064502 Eh/α   predicted    -0.1105050E-03 (  -1.48%)
   displ. norm   :     0.2976733 α      lambda       -0.2514503E-03
   maximum displ.:     0.1932511 α      in ANC's #1, #6, #2, ...

........................................................................
.............................. CYCLE   30 ..............................
........................................................................
   1    -38.2694248 -0.382694E+02  0.833E-02    1.66       0.0  T
   2    -38.2694277 -0.292425E-05  0.574E-02    1.66       1.0  T
   3    -38.2694180  0.974325E-05  0.236E-02    1.66       1.0  T
   4    -38.2694290 -0.109501E-04  0.957E-03    1.66       1.9  T
   5    -38.2694297 -0.721762E-06  0.509E-03    1.66       3.5  T
   6    -38.2694298 -0.115874E-06  0.117E-03    1.66      15.4  T
   7    -38.2694298 -0.480468E-08  0.546E-04    1.66      32.9  T
   8    -38.2694298 -0.236253E-08  0.352E-04    1.66      51.0  T
     SCC iter.                  ...        0 min,  1.289 sec
     gradient                   ...        0 min,  0.270 sec
 * total energy  :   -37.6415057 Eh     change       -0.1602138E-03 Eh
   gradient norm :     0.0046530 Eh/α   predicted    -0.1368668E-03 ( -14.57%)
   displ. norm   :     0.3531643 α      lambda       -0.1475454E-03
   maximum displ.:     0.1936979 α      in ANC's #1, #2, #4, ...

........................................................................
.............................. CYCLE   31 ..............................
........................................................................
   1    -38.2676117 -0.382676E+02  0.912E-02    1.67       0.0  T
   2    -38.2676131 -0.137256E-05  0.574E-02    1.67       1.0  T
   3    -38.2676024  0.107203E-04  0.267E-02    1.67       1.0  T
   4    -38.2676140 -0.116183E-04  0.715E-03    1.67       2.5  T
   5    -38.2676144 -0.392631E-06  0.491E-03    1.67       3.7  T
   6    -38.2676145 -0.113400E-06  0.137E-03    1.67      13.1  T
   7    -38.2676145 -0.107998E-07  0.607E-04    1.67      29.6  T
   8    -38.2676145 -0.135188E-09  0.374E-04    1.67      48.0  T
     SCC iter.                  ...        0 min,  1.252 sec
     gradient                   ...        0 min,  0.317 sec
 * total energy  :   -37.6416294 Eh     change       -0.1236473E-03 Eh
   gradient norm :     0.0051435 Eh/α   predicted    -0.8297623E-04 ( -32.89%)
   displ. norm   :     0.4143878 α      lambda       -0.2254642E-03
   maximum displ.:     0.2497549 α      in ANC's #1, #2, #6, ...

........................................................................
.............................. CYCLE   32 ..............................
........................................................................
   1    -38.2676117 -0.382676E+02  0.953E-02    1.67       0.0  T
   2    -38.2676139 -0.228245E-05  0.601E-02    1.67       1.0  T
   3    -38.2676043  0.961314E-05  0.244E-02    1.67       1.0  T
   4    -38.2676149 -0.106118E-04  0.878E-03    1.67       2.0  T
   5    -38.2676157 -0.716533E-06  0.464E-03    1.67       3.9  T
   6    -38.2676157 -0.536472E-07  0.127E-03    1.67      14.1  T
   7    -38.2676157 -0.737258E-08  0.619E-04    1.67      29.0  T
   8    -38.2676157 -0.251035E-10  0.432E-04    1.67      41.6  T
     SCC iter.                  ...        0 min,  1.279 sec
     gradient                   ...        0 min,  0.249 sec
 * total energy  :   -37.6418093 Eh     change       -0.1799019E-03 Eh
   gradient norm :     0.0043246 Eh/α   predicted    -0.1320928E-03 ( -26.58%)
   displ. norm   :     0.4432044 α      lambda       -0.2188631E-03
   maximum displ.:     0.2822120 α      in ANC's #1, #2, #6, ...

........................................................................
.............................. CYCLE   33 ..............................
........................................................................
   1    -38.2679287 -0.382679E+02  0.998E-02    1.67       0.0  T
   2    -38.2679302 -0.154888E-05  0.675E-02    1.66       1.0  T
   3    -38.2678891  0.411501E-04  0.391E-02    1.67       1.0  T
   4    -38.2679359 -0.468266E-04  0.115E-02    1.67       1.6  T
   5    -38.2679368 -0.881754E-06  0.528E-03    1.66       3.4  T
   6    -38.2679369 -0.710549E-07  0.129E-03    1.66      13.9  T
   7    -38.2679369 -0.946980E-08  0.637E-04    1.67      28.2  T
   8    -38.2679369 -0.476184E-09  0.434E-04    1.67      41.4  T
     SCC iter.                  ...        0 min,  1.070 sec
     gradient                   ...        0 min,  0.242 sec
 * total energy  :   -37.6419837 Eh     change       -0.1744473E-03 Eh
   gradient norm :     0.0045618 Eh/α   predicted    -0.1309321E-03 ( -24.94%)
   displ. norm   :     0.4589777 α      lambda       -0.2107919E-03
   maximum displ.:     0.2978226 α      in ANC's #1, #2, #6, ...

........................................................................
.............................. CYCLE   34 ..............................
........................................................................
   1    -38.2685933 -0.382686E+02  0.109E-01    1.66       0.0  T
   2    -38.2685953 -0.200214E-05  0.778E-02    1.66       1.0  T
   3    -38.2685433  0.520564E-04  0.434E-02    1.66       1.0  T
   4    -38.2686031 -0.598057E-04  0.121E-02    1.66       1.5  T
   5    -38.2686043 -0.119233E-05  0.576E-03    1.66       3.1  T
   6    -38.2686043 -0.866249E-07  0.157E-03    1.66      11.4  T
   7    -38.2686044 -0.179072E-07  0.619E-04    1.66      29.0  T
   8    -38.2686044 -0.743370E-09  0.398E-04    1.66      45.1  T
     SCC iter.                  ...        0 min,  0.952 sec
     gradient                   ...        0 min,  0.169 sec
 * total energy  :   -37.6421442 Eh     change       -0.1604152E-03 Eh
   gradient norm :     0.0048515 Eh/α   predicted    -0.1276040E-03 ( -20.45%)
   displ. norm   :     0.4630872 α      lambda       -0.1791159E-03
   maximum displ.:     0.2990251 α      in ANC's #1, #2, #6, ...

........................................................................
.............................. CYCLE   35 ..............................
........................................................................
   1    -38.2677054 -0.382677E+02  0.105E-01    1.66       0.0  T
   2    -38.2677077 -0.225682E-05  0.776E-02    1.66       1.0  T
   3    -38.2676705  0.371775E-04  0.416E-02    1.66       1.0  T
   4    -38.2677159 -0.453813E-04  0.116E-02    1.66       1.5  T
   5    -38.2677173 -0.144642E-05  0.602E-03    1.66       3.0  T
   6    -38.2677173 -0.397040E-07  0.160E-03    1.66      11.2  T
   7    -38.2677174 -0.288421E-07  0.772E-04    1.66      23.3  T
   8    -38.2677174 -0.739667E-08  0.484E-04    1.66      37.1  T
     SCC iter.                  ...        0 min,  1.069 sec
     gradient                   ...        0 min,  0.199 sec
 * total energy  :   -37.6422568 Eh     change       -0.1126455E-03 Eh
   gradient norm :     0.0052950 Eh/α   predicted    -0.1087697E-03 (  -3.44%)
   displ. norm   :     0.3561123 α      lambda       -0.2600818E-03
   maximum displ.:     0.2106704 α      in ANC's #1, #3, #8, ...

........................................................................
.............................. CYCLE   36 ..............................
........................................................................
   1    -38.2790130 -0.382790E+02  0.161E-01    1.66       0.0  T
   2    -38.2790229 -0.996555E-05  0.128E-01    1.66       1.0  T
   3    -38.2789554  0.674946E-04  0.613E-02    1.66       1.0  T
   4    -38.2790374 -0.819510E-04  0.206E-02    1.66       1.0  T
   5    -38.2790439 -0.650122E-05  0.909E-03    1.66       2.0  T
   6    -38.2790440 -0.147442E-06  0.323E-03    1.66       5.6  T
   7    -38.2790441 -0.509581E-07  0.155E-03    1.66      11.6  T
   8    -38.2790441 -0.216604E-08  0.720E-04    1.66      25.0  T
   9    -38.2790441 -0.294155E-08  0.339E-04    1.66      52.9  T
     SCC iter.                  ...        0 min,  1.078 sec
     gradient                   ...        0 min,  0.197 sec
 * total energy  :   -37.6421509 Eh     change        0.1059040E-03 Eh
   gradient norm :     0.0139549 Eh/α   predicted    -0.1465337E-03 (-238.36%)
   displ. norm   :     0.1899242 α      lambda       -0.4072510E-03
   maximum displ.:     0.1083536 α      in ANC's #4, #2, #6, ...

........................................................................
.............................. CYCLE   37 ..............................
........................................................................
   1    -38.2704190 -0.382704E+02  0.843E-02    1.66       0.0  T
   2    -38.2704195 -0.528760E-06  0.622E-02    1.66       1.0  T
   3    -38.2703909  0.286066E-04  0.396E-02    1.65       1.0  T
   4    -38.2704262 -0.353096E-04  0.965E-03    1.66       1.9  T
   5    -38.2704265 -0.317446E-06  0.507E-03    1.66       3.5  T
   6    -38.2704266 -0.831187E-07  0.175E-03    1.66      10.2  T
   7    -38.2704266 -0.118984E-07  0.822E-04    1.66      21.8  T
   8    -38.2704266 -0.375415E-09  0.540E-04    1.66      33.3  T
     SCC iter.                  ...        0 min,  0.987 sec
     gradient                   ...        0 min,  0.244 sec
 * total energy  :   -37.6423538 Eh     change       -0.2028718E-03 Eh
   gradient norm :     0.0043090 Eh/α   predicted    -0.2109709E-03 (   3.99%)
   displ. norm   :     0.0377091 α      lambda       -0.5049769E-04
   maximum displ.:     0.0149853 α      in ANC's #8, #10, #2, ...

........................................................................
.............................. CYCLE   38 ..............................
........................................................................
   1    -38.2710446 -0.382710E+02  0.295E-02    1.66       0.0  T
   2    -38.2710460 -0.143222E-05  0.156E-02    1.66       1.2  T
   3    -38.2710458  0.256271E-06  0.125E-02    1.66       1.4  T
   4    -38.2710468 -0.102567E-05  0.209E-03    1.66       8.6  T
   5    -38.2710468 -0.149391E-07  0.151E-03    1.66      11.9  T
   6    -38.2710468 -0.360581E-08  0.486E-04    1.66      37.0  T
   7    -38.2710468 -0.186373E-08  0.366E-04    1.66      49.1  T
     SCC iter.                  ...        0 min,  0.956 sec
     gradient                   ...        0 min,  0.205 sec
 * total energy  :   -37.6423706 Eh     change       -0.1680630E-04 Eh
   gradient norm :     0.0025259 Eh/α   predicted    -0.2528532E-04 (  50.45%)
   displ. norm   :     0.1457310 α      lambda       -0.2588007E-04
   maximum displ.:     0.0964210 α      in ANC's #1, #2, #3, ...

........................................................................
.............................. CYCLE   39 ..............................
........................................................................
   1    -38.2704826 -0.382705E+02  0.291E-02    1.66       0.0  T
   2    -38.2704829 -0.320132E-06  0.185E-02    1.66       1.0  T
   3    -38.2704812  0.166863E-05  0.114E-02    1.66       1.6  T
   4    -38.2704832 -0.193180E-05  0.264E-03    1.66       6.8  T
   5    -38.2704832 -0.636058E-07  0.225E-03    1.66       8.0  T
   6    -38.2704833 -0.207895E-07  0.786E-04    1.66      22.9  T
   7    -38.2704833 -0.887039E-08  0.204E-04    1.66      88.1  T
     SCC iter.                  ...        0 min,  0.959 sec
     gradient                   ...        0 min,  0.279 sec
 * total energy  :   -37.6423881 Eh     change       -0.1756556E-04 Eh
   gradient norm :     0.0026545 Eh/α   predicted    -0.1321530E-04 ( -24.77%)
   displ. norm   :     0.1163326 α      lambda       -0.2933070E-04
   maximum displ.:     0.0727401 α      in ANC's #1, #3, #2, ...

........................................................................
.............................. CYCLE   40 ..............................
........................................................................
   1    -38.2716145 -0.382716E+02  0.238E-02    1.66       0.0  T
   2    -38.2716146 -0.131485E-06  0.160E-02    1.66       1.1  T
   3    -38.2716153 -0.674829E-06  0.113E-02    1.66       1.6  T
   4    -38.2716168 -0.144064E-05  0.209E-03    1.66       8.6  T
   5    -38.2716168 -0.608578E-07  0.104E-03    1.66      17.3  T
   6    -38.2716168 -0.161983E-08  0.476E-04    1.66      37.7  T
   7    -38.2716168 -0.285468E-08  0.252E-04    1.66      71.3  T
     SCC iter.                  ...        0 min,  1.002 sec
     gradient                   ...        0 min,  0.249 sec
 * total energy  :   -37.6424027 Eh     change       -0.1454241E-04 Eh
   gradient norm :     0.0018991 Eh/α   predicted    -0.1486595E-04 (   2.22%)
   displ. norm   :     0.1601937 α      lambda       -0.1312591E-04
   maximum displ.:     0.1046285 α      in ANC's #1, #3, #2, ...

........................................................................
.............................. CYCLE   41 ..............................
........................................................................
   1    -38.2708225 -0.382708E+02  0.325E-02    1.66       0.0  T
   2    -38.2708229 -0.421470E-06  0.186E-02    1.66       1.0  T
   3    -38.2708205  0.245189E-05  0.147E-02    1.66       1.2  T
   4    -38.2708235 -0.297093E-05  0.328E-03    1.66       5.5  T
   5    -38.2708236 -0.974600E-07  0.175E-03    1.66      10.2  T
   6    -38.2708236 -0.319530E-08  0.412E-04    1.66      43.5  T
   7    -38.2708236 -0.399643E-08  0.186E-04    1.66      96.7  T
     SCC iter.                  ...        0 min,  1.087 sec
     gradient                   ...        0 min,  0.255 sec
 * total energy  :   -37.6424125 Eh     change       -0.9852037E-05 Eh
   gradient norm :     0.0016736 Eh/α   predicted    -0.6638599E-05 ( -32.62%)
   displ. norm   :     0.0474655 α      lambda       -0.1149338E-04
   maximum displ.:     0.0221728 α      in ANC's #8, #6, #4, ...

........................................................................
.............................. CYCLE   42 ..............................
........................................................................
   1    -38.2720948 -0.382721E+02  0.343E-02    1.66       0.0  T
   2    -38.2720956 -0.717491E-06  0.274E-02    1.66       1.0  T
   3    -38.2720946  0.919012E-06  0.127E-02    1.66       1.4  T
   4    -38.2720963 -0.169525E-05  0.507E-03    1.66       3.5  T
   5    -38.2720968 -0.429538E-06  0.181E-03    1.66       9.9  T
   6    -38.2720968 -0.336470E-08  0.598E-04    1.66      30.1  T
   7    -38.2720968 -0.291543E-08  0.269E-04    1.66      66.8  T
     SCC iter.                  ...        0 min,  0.806 sec
     gradient                   ...        0 min,  0.111 sec
 * total energy  :   -37.6424186 Eh     change       -0.6114905E-05 Eh
   gradient norm :     0.0022104 Eh/α   predicted    -0.5756541E-05 (  -5.86%)
   displ. norm   :     0.0361316 α      lambda       -0.1067615E-04
   maximum displ.:     0.0231700 α      in ANC's #3, #1, #2, ...
 * RMSD in coord.:     0.8246291 α      energy gain  -0.3563784E-02 Eh

generating ANC from model Hessian ...
Using Lindh-Hessian (1995)
 Shifting diagonal of input Hessian by    1.0109851537762764E-002
 Lowest  eigenvalues of input Hessian
    0.010000    0.010095    0.000000    0.000000    0.000000    0.000000
    0.000000    0.000000    0.010556    0.011052    0.011169    0.011379
    0.011674    0.014546    0.014743    0.015897    0.018180    0.018278
 Highest eigenvalues
    1.733431    1.736747    1.739813    2.719846    3.130378    3.644655


........................................................................
.............................. CYCLE   43 ..............................
........................................................................
   1    -38.2720265 -0.382720E+02  0.120E-02    1.66       0.0  T
   2    -38.2720265 -0.728681E-07  0.719E-03    1.66       2.5  T
   3    -38.2720264  0.145305E-06  0.492E-03    1.66       3.6  T
   4    -38.2720266 -0.205303E-06  0.952E-04    1.66      18.9  T
   5    -38.2720266 -0.395161E-08  0.772E-04    1.66      23.3  T
     SCC iter.                  ...        0 min,  0.556 sec
     gradient                   ...        0 min,  0.270 sec
 * total energy  :   -37.6424256 Eh     change       -0.6931764E-05 Eh
   gradient norm :     0.0016919 Eh/α   predicted     0.0000000E+00 (-100.00%)
   displ. norm   :     0.0354478 α      lambda       -0.6081669E-05
   maximum displ.:     0.0236102 α      in ANC's #4, #2, #8, ...

........................................................................
.............................. CYCLE   44 ..............................
........................................................................
   1    -38.2708410 -0.382708E+02  0.193E-02    1.66       0.0  T
   2    -38.2708414 -0.363694E-06  0.112E-02    1.66       1.6  T
   3    -38.2708412  0.147186E-06  0.770E-03    1.66       2.3  T
   4    -38.2708416 -0.367243E-06  0.112E-03    1.66      16.0  T
   5    -38.2708416 -0.265646E-08  0.862E-04    1.66      20.8  T
   6    -38.2708416 -0.206277E-08  0.423E-04    1.66      42.4  T
     SCC iter.                  ...        0 min,  0.704 sec
     gradient                   ...        0 min,  0.150 sec
 * total energy  :   -37.6424367 Eh     change       -0.1110434E-04 Eh
   gradient norm :     0.0006743 Eh/α   predicted    -0.5577767E-05 ( -49.77%)
   displ. norm   :     0.0674604 α      lambda       -0.1142289E-04
   maximum displ.:     0.0430553 α      in ANC's #4, #2, #8, ...

........................................................................
.............................. CYCLE   45 ..............................
........................................................................
   1    -38.2701314 -0.382701E+02  0.212E-02    1.66       0.0  T
   2    -38.2701314 -0.655228E-07  0.146E-02    1.66       1.2  T
   3    -38.2701300  0.142678E-05  0.840E-03    1.66       2.1  T
   4    -38.2701317 -0.172360E-05  0.202E-03    1.66       8.9  T
   5    -38.2701318 -0.451567E-07  0.114E-03    1.66      15.8  T
   6    -38.2701318 -0.184750E-08  0.304E-04    1.66      59.0  T
   7    -38.2701318 -0.112188E-08  0.146E-04    1.66     123.4  T
     SCC iter.                  ...        0 min,  0.691 sec
     gradient                   ...        0 min,  0.297 sec
 * total energy  :   -37.6424508 Eh     change       -0.1407861E-04 Eh
   gradient norm :     0.0016304 Eh/α   predicted    -0.5723857E-05 ( -59.34%)
   displ. norm   :     0.1974500 α      lambda       -0.3029780E-04
   maximum displ.:     0.1231422 α      in ANC's #4, #2, #8, ...

........................................................................
.............................. CYCLE   46 ..............................
........................................................................
   1    -38.2689296 -0.382689E+02  0.504E-02    1.66       0.0  T
   2    -38.2689298 -0.250105E-06  0.349E-02    1.66       1.0  T
   3    -38.2689211  0.875963E-05  0.204E-02    1.66       1.0  T
   4    -38.2689318 -0.107624E-04  0.442E-03    1.66       4.1  T
   5    -38.2689321 -0.211061E-06  0.243E-03    1.66       7.4  T
   6    -38.2689321 -0.118713E-07  0.991E-04    1.66      18.1  T
   7    -38.2689321 -0.865524E-08  0.339E-04    1.66      53.1  T
     SCC iter.                  ...        0 min,  0.847 sec
     gradient                   ...        0 min,  0.258 sec
 * total energy  :   -37.6424883 Eh     change       -0.3750661E-04 Eh
   gradient norm :     0.0040511 Eh/α   predicted    -0.1541125E-04 ( -58.91%)
   displ. norm   :     0.2238246 α      lambda       -0.5380581E-04
   maximum displ.:     0.1356429 α      in ANC's #4, #2, #8, ...

........................................................................
.............................. CYCLE   47 ..............................
........................................................................
   1    -38.2677296 -0.382677E+02  0.569E-02    1.66       0.0  T
   2    -38.2677300 -0.379528E-06  0.368E-02    1.66       1.0  T
   3    -38.2677211  0.881604E-05  0.181E-02    1.66       1.0  T
   4    -38.2677307 -0.959016E-05  0.510E-03    1.66       3.5  T
   5    -38.2677310 -0.246630E-06  0.293E-03    1.66       6.1  T
   6    -38.2677310 -0.181025E-07  0.105E-03    1.66      17.1  T
   7    -38.2677310 -0.945497E-08  0.319E-04    1.66      56.4  T
   8    -38.2677310 -0.571887E-09  0.162E-04    1.66     111.2  T
     SCC iter.                  ...        0 min,  1.009 sec
     gradient                   ...        0 min,  0.004 sec
 * total energy  :   -37.6425331 Eh     change       -0.4488172E-04 Eh
   gradient norm :     0.0062688 Eh/α   predicted    -0.2825185E-04 ( -37.05%)
   displ. norm   :     0.3325799 α      lambda       -0.8938093E-04
   maximum displ.:     0.2028857 α      in ANC's #4, #2, #8, ...

........................................................................
.............................. CYCLE   48 ..............................
........................................................................
   1    -38.2657282 -0.382657E+02  0.751E-02    1.66       0.0  T
   2    -38.2657288 -0.607553E-06  0.477E-02    1.66       1.0  T
   3    -38.2657180  0.107675E-04  0.197E-02    1.66       1.0  T
   4    -38.2657295 -0.114618E-04  0.674E-03    1.66       2.7  T
   5    -38.2657298 -0.348758E-06  0.411E-03    1.66       4.4  T
   6    -38.2657299 -0.266508E-07  0.155E-03    1.66      11.6  T
   7    -38.2657299 -0.206061E-07  0.468E-04    1.66      38.4  T
   8    -38.2657299 -0.129541E-08  0.191E-04    1.66      93.9  T
     SCC iter.                  ...        0 min,  0.803 sec
     gradient                   ...        0 min,  0.134 sec
 * total energy  :   -37.6425930 Eh     change       -0.5987516E-04 Eh
   gradient norm :     0.0106503 Eh/α   predicted    -0.4962955E-04 ( -17.11%)
   displ. norm   :     0.2150396 α      lambda       -0.1188303E-03
   maximum displ.:     0.1291234 α      in ANC's #4, #2, #3, ...

........................................................................
.............................. CYCLE   49 ..............................
........................................................................
   1    -38.2660284 -0.382660E+02  0.477E-02    1.66       0.0  T
   2    -38.2660286 -0.203221E-06  0.293E-02    1.66       1.0  T
   3    -38.2660269  0.165672E-05  0.789E-03    1.66       2.3  T
   4    -38.2660287 -0.176804E-05  0.372E-03    1.66       4.8  T
   5    -38.2660288 -0.640924E-07  0.221E-03    1.66       8.1  T
   6    -38.2660288 -0.832749E-09  0.686E-04    1.66      26.2  T
   7    -38.2660288 -0.486485E-08  0.216E-04    1.66      83.2  T
     SCC iter.                  ...        0 min,  0.728 sec
     gradient                   ...        0 min,  0.105 sec
 * total energy  :   -37.6426975 Eh     change       -0.1045228E-03 Eh
   gradient norm :     0.0091290 Eh/α   predicted    -0.6216219E-04 ( -40.53%)
   displ. norm   :     0.3467506 α      lambda       -0.4212513E-03
   maximum displ.:     0.1922248 α      in ANC's #4, #2, #3, ...

........................................................................
.............................. CYCLE   50 ..............................
........................................................................
   1    -38.2727950 -0.382728E+02  0.974E-02    1.65       0.0  T
   2    -38.2727980 -0.305271E-05  0.541E-02    1.65       1.0  T
   3    -38.2727952  0.287081E-05  0.297E-02    1.65       1.0  T
   4    -38.2727991 -0.389838E-05  0.113E-02    1.65       1.6  T
   5    -38.2727989  0.214034E-06  0.718E-03    1.65       2.5  T
   6    -38.2727990 -0.175276E-06  0.312E-03    1.65       5.8  T
   7    -38.2727992 -0.128246E-06  0.620E-04    1.65      29.0  T
   8    -38.2727992 -0.467097E-09  0.415E-04    1.65      43.3  T
     SCC iter.                  ...        0 min,  0.822 sec
     gradient                   ...        0 min,  0.162 sec
 * total energy  :   -37.6429216 Eh     change       -0.2240714E-03 Eh
   gradient norm :     0.0059911 Eh/α   predicted    -0.2359260E-03 (   5.29%)
   displ. norm   :     0.7052214 α      lambda       -0.3529735E-03
   maximum displ.:     0.4187738 α      in ANC's #4, #2, #3, ...

........................................................................
.............................. CYCLE   51 ..............................
........................................................................
   1    -38.2649029 -0.382649E+02  0.157E-01    1.63       0.0  T
   2    -38.2649086 -0.570719E-05  0.989E-02    1.64       1.0  T
   3    -38.2648952  0.134016E-04  0.321E-02    1.62       1.0  T
   4    -38.2649112 -0.160053E-04  0.110E-02    1.64       1.6  T
   5    -38.2649112  0.384531E-07  0.763E-03    1.63       2.4  T
   6    -38.2649114 -0.168079E-06  0.241E-03    1.64       7.4  T
   7    -38.2649114 -0.607184E-07  0.918E-04    1.64      19.6  T
   8    -38.2649114 -0.288404E-08  0.393E-04    1.64      45.7  T
     SCC iter.                  ...        0 min,  0.882 sec
     gradient                   ...        0 min,  0.122 sec
 * total energy  :   -37.6429754 Eh     change       -0.5375916E-04 Eh
   gradient norm :     0.0171901 Eh/α   predicted    -0.2642132E-03 ( 391.48%)
   displ. norm   :     0.2312521 α      lambda       -0.3724219E-03
   maximum displ.:     0.1529302 α      in ANC's #4, #2, #8, ...

........................................................................
.............................. CYCLE   52 ..............................
........................................................................
   1    -38.2710533 -0.382711E+02  0.620E-02    1.64       0.0  T
   2    -38.2710559 -0.262774E-05  0.352E-02    1.64       1.0  T
   3    -38.2710541  0.176471E-05  0.183E-02    1.64       1.0  T
   4    -38.2710568 -0.262446E-05  0.710E-03    1.64       2.5  T
   5    -38.2710567  0.500292E-07  0.517E-03    1.64       3.5  T
   6    -38.2710568 -0.600645E-07  0.214E-03    1.64       8.4  T
   7    -38.2710568 -0.616835E-07  0.841E-04    1.64      21.4  T
   8    -38.2710568 -0.159080E-08  0.562E-04    1.64      32.0  T
     SCC iter.                  ...        0 min,  0.813 sec
     gradient                   ...        0 min,  0.145 sec
 * total energy  :   -37.6431143 Eh     change       -0.1389177E-03 Eh
   gradient norm :     0.0025409 Eh/α   predicted    -0.1962127E-03 (  41.24%)
   displ. norm   :     0.1769874 α      lambda       -0.6830986E-04
   maximum displ.:     0.0948620 α      in ANC's #2, #4, #3, ...

........................................................................
.............................. CYCLE   53 ..............................
........................................................................
   1    -38.2711004 -0.382711E+02  0.447E-02    1.63       0.0  T
   2    -38.2711006 -0.205178E-06  0.309E-02    1.64       1.0  T
   3    -38.2710938  0.683105E-05  0.161E-02    1.63       1.1  T
   4    -38.2711013 -0.746490E-05  0.430E-03    1.63       4.2  T
   5    -38.2711014 -0.140396E-06  0.258E-03    1.64       6.9  T
   6    -38.2711014 -0.281125E-07  0.727E-04    1.63      24.7  T
   7    -38.2711014 -0.378748E-08  0.310E-04    1.64      57.9  T
     SCC iter.                  ...        0 min,  0.816 sec
     gradient                   ...        0 min,  0.241 sec
 * total energy  :   -37.6431727 Eh     change       -0.5837215E-04 Eh
   gradient norm :     0.0017062 Eh/α   predicted    -0.3522303E-04 ( -39.66%)
   displ. norm   :     0.8258917 α      lambda       -0.1594359E-03
   maximum displ.:     0.4467938 α      in ANC's #2, #4, #3, ...

........................................................................
.............................. CYCLE   54 ..............................
........................................................................
   1    -38.2634933 -0.382635E+02  0.206E-01    1.61       0.0  T
   2    -38.2634994 -0.614749E-05  0.142E-01    1.62       1.0  T
   3    -38.2634344  0.650453E-04  0.522E-02    1.60       1.0  T
   4    -38.2635026 -0.681918E-04  0.197E-02    1.62       1.0  T
   5    -38.2635055 -0.295844E-05  0.111E-02    1.62       1.6  T
   6    -38.2635057 -0.116398E-06  0.404E-03    1.62       4.4  T
   7    -38.2635059 -0.195713E-06  0.110E-03    1.62      16.3  T
   8    -38.2635059 -0.152913E-07  0.647E-04    1.62      27.7  T
   9    -38.2635059 -0.238916E-08  0.294E-04    1.62      61.0  T
     SCC iter.                  ...        0 min,  0.905 sec
     gradient                   ...        0 min,  0.252 sec
 * total energy  :   -37.6430904 Eh     change        0.8229553E-04 Eh
   gradient norm :     0.0154851 Eh/α   predicted    -0.1036515E-03 (-225.95%)
   displ. norm   :     0.2247258 α      lambda       -0.3639635E-03
   maximum displ.:     0.1312656 α      in ANC's #4, #2, #8, ...

........................................................................
.............................. CYCLE   55 ..............................
........................................................................
   1    -38.2702018 -0.382702E+02  0.531E-02    1.62       0.0  T
   2    -38.2702030 -0.129224E-05  0.345E-02    1.62       1.0  T
   3    -38.2701982  0.482620E-05  0.215E-02    1.63       1.0  T
   4    -38.2702047 -0.646565E-05  0.577E-03    1.62       3.1  T
   5    -38.2702050 -0.307631E-06  0.342E-03    1.62       5.3  T
   6    -38.2702050  0.240243E-07  0.195E-03    1.62       9.2  T
   7    -38.2702050 -0.364213E-07  0.430E-04    1.62      41.7  T
   8    -38.2702050 -0.161735E-08  0.194E-04    1.62      92.6  T
     SCC iter.                  ...        0 min,  0.748 sec
     gradient                   ...        0 min,  0.221 sec
 * total energy  :   -37.6432902 Eh     change       -0.1998700E-03 Eh
   gradient norm :     0.0046510 Eh/α   predicted    -0.1916768E-03 (  -4.10%)
   displ. norm   :     0.0540058 α      lambda       -0.3971770E-04
   maximum displ.:     0.0397751 α      in ANC's #1, #6, #2, ...

........................................................................
.............................. CYCLE   56 ..............................
........................................................................
   1    -38.2716307 -0.382716E+02  0.224E-02    1.62       0.0  T
   2    -38.2716309 -0.168685E-06  0.153E-02    1.62       1.2  T
   3    -38.2716296  0.127603E-05  0.745E-03    1.62       2.4  T
   4    -38.2716310 -0.137461E-05  0.239E-03    1.62       7.5  T
   5    -38.2716311 -0.618610E-07  0.112E-03    1.62      16.0  T
   6    -38.2716311 -0.179223E-08  0.291E-04    1.62      61.8  T
   7    -38.2716311 -0.218225E-08  0.117E-04    1.62     153.2  T
     SCC iter.                  ...        0 min,  0.673 sec
     gradient                   ...        0 min,  0.203 sec
 * total energy  :   -37.6433191 Eh     change       -0.2882656E-04 Eh
   gradient norm :     0.0018268 Eh/α   predicted    -0.1984216E-04 ( -31.17%)
   displ. norm   :     0.1789295 α      lambda       -0.4212591E-04
   maximum displ.:     0.1163911 α      in ANC's #1, #2, #6, ...

........................................................................
.............................. CYCLE   57 ..............................
........................................................................
   1    -38.2744681 -0.382745E+02  0.673E-02    1.62       0.0  T
   2    -38.2744687 -0.594952E-06  0.535E-02    1.62       1.0  T
   3    -38.2744558  0.128677E-04  0.282E-02    1.62       1.0  T
   4    -38.2744735 -0.176607E-04  0.634E-03    1.62       2.8  T
   5    -38.2744740 -0.482343E-06  0.289E-03    1.62       6.2  T
   6    -38.2744740 -0.162991E-07  0.945E-04    1.62      19.0  T
   7    -38.2744740 -0.808925E-08  0.540E-04    1.62      33.3  T
     SCC iter.                  ...        0 min,  0.689 sec
     gradient                   ...        0 min,  0.201 sec
 * total energy  :   -37.6433535 Eh     change       -0.3447028E-04 Eh
   gradient norm :     0.0039398 Eh/α   predicted    -0.2116899E-04 ( -38.59%)
   displ. norm   :     0.2037932 α      lambda       -0.5372198E-04
   maximum displ.:     0.1322626 α      in ANC's #1, #2, #6, ...

........................................................................
.............................. CYCLE   58 ..............................
........................................................................
   1    -38.2740773 -0.382741E+02  0.649E-02    1.62       0.0  T
   2    -38.2740776 -0.296854E-06  0.494E-02    1.62       1.0  T
   3    -38.2740585  0.191475E-04  0.270E-02    1.62       1.0  T
   4    -38.2740804 -0.219423E-04  0.470E-03    1.62       3.8  T
   5    -38.2740807 -0.255873E-06  0.296E-03    1.62       6.1  T
   6    -38.2740807 -0.239031E-07  0.639E-04    1.62      28.1  T
   7    -38.2740807 -0.386204E-08  0.385E-04    1.62      46.6  T
     SCC iter.                  ...        0 min,  0.652 sec
     gradient                   ...        0 min,  0.274 sec
 * total energy  :   -37.6433951 Eh     change       -0.4158731E-04 Eh
   gradient norm :     0.0059894 Eh/α   predicted    -0.2741995E-04 ( -34.07%)
   displ. norm   :     0.2048381 α      lambda       -0.5642086E-04
   maximum displ.:     0.1297419 α      in ANC's #1, #2, #3, ...

........................................................................
.............................. CYCLE   59 ..............................
........................................................................
   1    -38.2724296 -0.382724E+02  0.582E-02    1.61       0.0  T
   2    -38.2724300 -0.418196E-06  0.434E-02    1.62       1.0  T
   3    -38.2724154  0.146293E-04  0.219E-02    1.61       1.0  T
   4    -38.2724310 -0.155872E-04  0.535E-03    1.61       3.4  T
   5    -38.2724313 -0.323742E-06  0.282E-03    1.62       6.4  T
   6    -38.2724313 -0.658052E-08  0.840E-04    1.62      21.4  T
   7    -38.2724313 -0.700594E-08  0.339E-04    1.62      53.0  T
     SCC iter.                  ...        0 min,  0.906 sec
     gradient                   ...        0 min,  0.228 sec
 * total energy  :   -37.6434405 Eh     change       -0.4534390E-04 Eh
   gradient norm :     0.0041408 Eh/α   predicted    -0.2883632E-04 ( -36.41%)
   displ. norm   :     0.2260518 α      lambda       -0.5444155E-04
   maximum displ.:     0.1610083 α      in ANC's #1, #2, #6, ...

........................................................................
.............................. CYCLE   60 ..............................
........................................................................
   1    -38.2710908 -0.382711E+02  0.622E-02    1.61       0.0  T
   2    -38.2710910 -0.280045E-06  0.476E-02    1.61       1.0  T
   3    -38.2710721  0.189552E-04  0.254E-02    1.61       1.0  T
   4    -38.2710929 -0.207643E-04  0.511E-03    1.61       3.5  T
   5    -38.2710931 -0.233053E-06  0.308E-03    1.61       5.8  T
   6    -38.2710931 -0.605192E-08  0.106E-03    1.61      16.9  T
   7    -38.2710931 -0.108906E-07  0.426E-04    1.61      42.1  T
   8    -38.2710931 -0.999485E-09  0.296E-04    1.61      60.6  T
     SCC iter.                  ...        0 min,  0.858 sec
     gradient                   ...        0 min,  0.209 sec
 * total energy  :   -37.6434809 Eh     change       -0.4039860E-04 Eh
   gradient norm :     0.0019886 Eh/α   predicted    -0.2801667E-04 ( -30.65%)
   displ. norm   :     0.2468519 α      lambda       -0.4290731E-04
   maximum displ.:     0.2045720 α      in ANC's #1, #2, #6, ...

........................................................................
.............................. CYCLE   61 ..............................
........................................................................
   1    -38.2706000 -0.382706E+02  0.614E-02    1.61       0.0  T
   2    -38.2706005 -0.437730E-06  0.414E-02    1.61       1.0  T
   3    -38.2705981  0.236488E-05  0.117E-02    1.61       1.5  T
   4    -38.2706007 -0.262579E-05  0.354E-03    1.61       5.1  T
   5    -38.2706007  0.951269E-08  0.202E-03    1.61       8.9  T
   6    -38.2706007 -0.336928E-07  0.720E-04    1.61      24.9  T
   7    -38.2706008 -0.256398E-08  0.408E-04    1.61      44.0  T
     SCC iter.                  ...        0 min,  0.638 sec
     gradient                   ...        0 min,  0.091 sec
 * total energy  :   -37.6435278 Eh     change       -0.4692075E-04 Eh
   gradient norm :     0.0030094 Eh/α   predicted    -0.2192556E-04 ( -53.27%)
   displ. norm   :     0.1193687 α      lambda       -0.3552357E-04
   maximum displ.:     0.1011853 α      in ANC's #1, #8, #6, ...

........................................................................
.............................. CYCLE   62 ..............................
........................................................................
   1    -38.2712342 -0.382712E+02  0.300E-02    1.61       0.0  T
   2    -38.2712343 -0.138494E-06  0.180E-02    1.61       1.0  T
   3    -38.2712338  0.521294E-06  0.693E-03    1.61       2.6  T
   4    -38.2712344 -0.609389E-06  0.181E-03    1.61       9.9  T
   5    -38.2712344  0.582808E-08  0.112E-03    1.61      16.0  T
   6    -38.2712344 -0.963752E-08  0.407E-04    1.61      44.1  T
   7    -38.2712344 -0.260504E-08  0.205E-04    1.61      87.8  T
     SCC iter.                  ...        0 min,  0.638 sec
     gradient                   ...        0 min,  0.158 sec
 * total energy  :   -37.6435561 Eh     change       -0.2832662E-04 Eh
   gradient norm :     0.0022790 Eh/α   predicted    -0.1798753E-04 ( -36.50%)
   displ. norm   :     0.1147619 α      lambda       -0.2933647E-04
   maximum displ.:     0.0987282 α      in ANC's #1, #4, #8, ...

........................................................................
.............................. CYCLE   63 ..............................
........................................................................
   1    -38.2720671 -0.382721E+02  0.302E-02    1.62       0.0  T
   2    -38.2720672 -0.139951E-06  0.175E-02    1.61       1.0  T
   3    -38.2720644  0.282498E-05  0.160E-02    1.61       1.1  T
   4    -38.2720682 -0.379056E-05  0.327E-03    1.61       5.5  T
   5    -38.2720682 -0.371043E-07  0.182E-03    1.61       9.9  T
   6    -38.2720682 -0.567174E-08  0.555E-04    1.61      32.4  T
   7    -38.2720682 -0.620985E-08  0.165E-04    1.61     108.6  T
     SCC iter.                  ...        0 min,  0.608 sec
     gradient                   ...        0 min,  0.161 sec
 * total energy  :   -37.6435773 Eh     change       -0.2118429E-04 Eh
   gradient norm :     0.0011824 Eh/α   predicted    -0.1483754E-04 ( -29.96%)
   displ. norm   :     0.1506113 α      lambda       -0.1442939E-04
   maximum displ.:     0.1262912 α      in ANC's #1, #2, #3, ...

........................................................................
.............................. CYCLE   64 ..............................
........................................................................
   1    -38.2720782 -0.382721E+02  0.369E-02    1.62       0.0  T
   2    -38.2720784 -0.220316E-06  0.217E-02    1.62       1.0  T
   3    -38.2720752  0.316151E-05  0.153E-02    1.62       1.2  T
   4    -38.2720788 -0.355797E-05  0.325E-03    1.62       5.5  T
   5    -38.2720788 -0.480162E-07  0.181E-03    1.62       9.9  T
   6    -38.2720788 -0.290696E-08  0.508E-04    1.62      35.3  T
   7    -38.2720788 -0.584138E-08  0.167E-04    1.62     107.8  T
     SCC iter.                  ...        0 min,  0.601 sec
     gradient                   ...        0 min,  0.142 sec
 * total energy  :   -37.6435915 Eh     change       -0.1422894E-04 Eh
   gradient norm :     0.0010633 Eh/α   predicted    -0.7283961E-05 ( -48.81%)
   displ. norm   :     0.1542484 α      lambda       -0.1148198E-04
   maximum displ.:     0.1322994 α      in ANC's #1, #2, #6, ...

........................................................................
.............................. CYCLE   65 ..............................
........................................................................
   1    -38.2724976 -0.382725E+02  0.336E-02    1.62       0.0  T
   2    -38.2724978 -0.194211E-06  0.213E-02    1.62       1.0  T
   3    -38.2724967  0.112062E-05  0.943E-03    1.62       1.9  T
   4    -38.2724979 -0.122302E-05  0.251E-03    1.62       7.1  T
   5    -38.2724980 -0.176540E-07  0.220E-03    1.62       8.2  T
   6    -38.2724980 -0.437811E-07  0.401E-04    1.62      44.7  T
   7    -38.2724980 -0.147278E-08  0.272E-04    1.62      66.0  T
     SCC iter.                  ...        0 min,  0.559 sec
     gradient                   ...        0 min,  0.049 sec
 * total energy  :   -37.6436024 Eh     change       -0.1086955E-04 Eh
   gradient norm :     0.0013067 Eh/α   predicted    -0.5801043E-05 ( -46.63%)
   displ. norm   :     0.2345733 α      lambda       -0.1337452E-04
   maximum displ.:     0.1734259 α      in ANC's #1, #2, #6, ...

........................................................................
.............................. CYCLE   66 ..............................
........................................................................
   1    -38.2712233 -0.382712E+02  0.560E-02    1.62       0.0  T
   2    -38.2712236 -0.269854E-06  0.370E-02    1.62       1.0  T
   3    -38.2712224  0.115902E-05  0.802E-03    1.62       2.2  T
   4    -38.2712237 -0.126557E-05  0.331E-03    1.62       5.4  T
   5    -38.2712236  0.373521E-07  0.217E-03    1.62       8.3  T
   6    -38.2712237 -0.841626E-07  0.388E-04    1.62      46.3  T
   7    -38.2712237 -0.105084E-08  0.181E-04    1.62      99.3  T
     SCC iter.                  ...        0 min,  0.543 sec
     gradient                   ...        0 min,  0.145 sec
 * total energy  :   -37.6436120 Eh     change       -0.9580833E-05 Eh
   gradient norm :     0.0016893 Eh/α   predicted    -0.6842164E-05 ( -28.58%)
   displ. norm   :     0.0581344 α      lambda       -0.9684937E-05
   maximum displ.:     0.0354847 α      in ANC's #2, #1, #8, ...
 * RMSD in coord.:     0.7150599 α      energy gain  -0.1193334E-02 Eh

generating ANC from model Hessian ...
Using Lindh-Hessian (1995)
 Shifting diagonal of input Hessian by    1.0066237838598889E-002
 Lowest  eigenvalues of input Hessian
    0.010000    0.000000    0.000000    0.000000    0.000000    0.000000
    0.000000    0.010184    0.010537    0.011133    0.011219    0.011305
    0.011695    0.014480    0.015249    0.015702    0.018116    0.018204
 Highest eigenvalues
    1.732680    1.736273    1.736540    2.692075    3.136491    3.666766


........................................................................
.............................. CYCLE   67 ..............................
........................................................................
   1    -38.2722696 -0.382723E+02  0.219E-02    1.62       0.0  T
   2    -38.2722697 -0.936319E-07  0.150E-02    1.62       1.2  T
   3    -38.2722677  0.203298E-05  0.941E-03    1.62       1.9  T
   4    -38.2722701 -0.242114E-05  0.221E-03    1.62       8.1  T
   5    -38.2722701 -0.341660E-07  0.112E-03    1.62      16.0  T
   6    -38.2722701  0.278091E-08  0.810E-04    1.62      22.2  T
   7    -38.2722701 -0.420519E-08  0.145E-04    1.62     124.1  T
     SCC iter.                  ...        0 min,  0.436 sec
     gradient                   ...        0 min,  0.019 sec
 * total energy  :   -37.6436199 Eh     change       -0.7902355E-05 Eh
   gradient norm :     0.0018592 Eh/α   predicted     0.0000000E+00 (-100.00%)
   displ. norm   :     0.0267412 α      lambda        0.4542032E-06
   maximum displ.:     0.0201923 α      in ANC's #2, #9, #22, ...

........................................................................
.............................. CYCLE   68 ..............................
........................................................................
   1    -38.2724323 -0.382724E+02  0.203E-02    1.61       0.0  T
   2    -38.2724324 -0.120317E-06  0.132E-02    1.61       1.4  T
   3    -38.2724320  0.396372E-06  0.604E-03    1.61       3.0  T
   4    -38.2724324 -0.440426E-06  0.190E-03    1.61       9.5  T
   5    -38.2724325 -0.288956E-07  0.103E-03    1.61      17.4  T
   6    -38.2724325 -0.533504E-08  0.477E-04    1.61      37.6  T
   7    -38.2724325 -0.227251E-08  0.233E-04    1.61      77.1  T
     SCC iter.                  ...        0 min,  0.452 sec
     gradient                   ...        0 min,  0.101 sec
 * total energy  :   -37.6436225 Eh     change       -0.2574011E-05 Eh
   gradient norm :     0.0009479 Eh/α   predicted    -0.3463566E-05 (  34.56%)
   displ. norm   :     0.0191226 α      lambda       -0.4015748E-05
   maximum displ.:     0.0086158 α      in ANC's #11, #2, #14, ...

   *** GEOMETRY OPTIMIZATION CONVERGED AFTER 68 ITERATIONS ***

------------------------------------------------------------------------
 total energy gain   :        -3.5379033 Eh    -2220.0678 kcal/mol
 total RMSD          :         1.4924096 a0        0.7897 Å
 total power (kW/mol):      -136.5994679 (step) -109.1000 (real)
------------------------------------------------------------------------

 ANCopt (total)                0 d,  0 h,  1 min, 25.140 sec
 optimizer setup                ...        0 min,  0.000 sec (  0.000%)
 model hessian                  ...        0 min,  0.256 sec (  0.301%)
 ANC generation                 ...        0 min,  0.102 sec (  0.120%)
 coordinate transformation      ...        0 min,  0.001 sec (  0.001%)
 single point calculation       ...        1 min, 23.217 sec ( 97.742%)
 optimization log               ...        0 min,  0.026 sec (  0.031%)
 hessian update                 ...        0 min,  1.311 sec (  1.540%)
 rational function              ...        0 min,  0.205 sec (  0.241%)

================
 final structure:
================
31
 xtb: 6.5.1 (b24c23e)
Zr          -1.27436695753221       -0.13929186726201        0.57956703629258
C           -1.05930138116755        1.23839893307632       -1.42879596314528
C            0.38315140645141       -1.94793971351255        0.58300171302027
C            0.05562483261343       -1.71405754383591       -0.77428602475753
C           -1.30684102010206       -2.04636447633968       -0.96179952858090
C           -1.82610110910950       -2.49127926109327        0.28308077834457
C           -0.77820114706172       -2.43704007492848        1.23530687566234
H            1.38291433728073       -1.92164091546666        1.00342581030336
H            0.76371063001790       -1.47972590748414       -1.56193565888204
H           -1.82054102144006       -2.09796851607734       -1.91447025641265
H           -2.78702114333915       -2.97069680389619        0.43526396906732
H           -0.81732449172790       -2.85502450057016        2.23553806164229
C           -0.28513874550081        0.15018570911438        2.80067459341587
C           -1.68305594852369        0.35545302134889        2.92393487663365
C           -2.00722518690078        1.54628117171650        2.22123159857498
C           -0.82290081224740        2.04967507022278        1.63843018065240
C            0.24240097036959        1.17820044738811        1.98249373844145
H            0.29859916955317       -0.57446280108039        3.35642255576413
H           -2.34466156226964       -0.18286847038122        3.59601696967365
H           -2.95431879932769        2.06966826830087        2.26994008269377
H           -0.71987781955176        3.01179515430498        1.15043527653216
H            1.29724716924208        1.36833536970478        1.80901624898458
H           -0.09290573285468        1.07085338327346       -0.88348291138406
H           -1.05195424951537        0.67746249028538       -2.36428432265874
H           -1.13212991642300        2.29858440636743       -1.65485253229957
C           -3.62799848246061        0.03224801435056       -0.05218888560466
C           -3.12327330210153        1.08975559176667       -0.85621070965245
H           -3.20716976130686        2.09753914243287       -0.45109552026168
H           -3.34746639379853        1.04193631058948       -1.91739465534440
H           -4.09508488873633        0.27863056495586        0.90274008787211
H           -4.04386900246334       -0.82710724720703       -0.57263916456475

 Bond Distances (Angstroems)
 ---------------------------
Zr1-C2=2.4450        Zr1-C3=2.4533        Zr1-C4=2.4661        Zr1-C5=2.4523        Zr1-C6=2.4340        Zr1-C7=2.4405        
Zr1-C13=2.4486       Zr1-C14=2.4306       Zr1-C15=2.4644       Zr1-C16=2.4732       Zr1-C17=2.4504       Zr1-H23=2.2363       
Zr1-C26=2.4430       Zr1-C27=2.6439       C2-Zr1=2.4450        C2-H23=1.1222        C2-H24=1.0908        C2-H25=1.0865        
C3-Zr1=2.4533        C3-C4=1.4157         C3-C7=1.4190         C3-H8=1.0849         C4-Zr1=2.4661        C4-C3=1.4157         
C4-C5=1.4149         C4-H9=1.0848         C5-Zr1=2.4523        C5-C4=1.4149         C5-C6=1.4203         C5-H10=1.0836        
C6-Zr1=2.4340        C6-C5=1.4203         C6-C7=1.4170         C6-H11=1.0846        C7-Zr1=2.4405        C7-C3=1.4190         
C7-C6=1.4170         C7-H12=1.0848        H8-C3=1.0849         H9-C4=1.0848         H10-C5=1.0836        H11-C6=1.0846        
H12-C7=1.0848        C13-Zr1=2.4486       C13-C14=1.4183       C13-C17=1.4158       C13-H18=1.0838       C14-Zr1=2.4306       
C14-C13=1.4183       C14-C15=1.4202       C14-H19=1.0859       C15-Zr1=2.4644       C15-C14=1.4202       C15-C16=1.4127       
C15-H20=1.0832       C16-Zr1=2.4732       C16-C15=1.4127       C16-C17=1.4187       C16-H21=1.0837       C17-Zr1=2.4504       
C17-C13=1.4158       C17-C16=1.4187       C17-H22=1.0858       H18-C13=1.0838       H19-C14=1.0859       H20-C15=1.0832       
H21-C16=1.0837       H22-C17=1.0858       H23-Zr1=2.2363       H23-C2=1.1222        H24-C2=1.0908        H25-C2=1.0865        
C26-Zr1=2.4430       C26-C27=1.4211       C26-H30=1.0912       C26-H31=1.0873       C27-Zr1=2.6439       C27-C26=1.4211       
C27-H28=1.0894       C27-H29=1.0857       H28-C27=1.0894       H29-C27=1.0857       H30-C26=1.0912       H31-C26=1.0873       
 C  H  Rav=1.0881 sigma=0.0088  Rmin=1.0832  Rmax=1.1222    17
 C  C  Rav=1.4176 sigma=0.0025  Rmin=1.4127  Rmax=1.4211    11
 Zr H  Rav=2.2363 sigma=0.0000  Rmin=2.2363  Rmax=2.2363     1
 Zr C  Rav=2.4650 sigma=0.0530  Rmin=2.4306  Rmax=2.6439    13

 selected bond angles (degree)
 --------------------
C3-Zr1-C2=110.92               C4-Zr1-C2= 82.03               C4-Zr1-C3= 33.45               C5-Zr1-C2= 85.59               
C5-Zr1-C3= 55.70               C5-Zr1-C4= 33.44               C6-Zr1-C2=117.67               C6-Zr1-C3= 56.01               
C6-Zr1-C4= 55.83               C6-Zr1-C5= 33.79               C7-Zr1-C2=137.17               C7-Zr1-C3= 33.71               
C7-Zr1-C4= 55.71               C7-Zr1-C5= 55.90               C7-Zr1-C6= 33.80               C13-Zr1-C2=130.01              
C13-Zr1-C3= 79.22              C13-Zr1-C4=110.83              C13-Zr1-C5=131.87              C13-Zr1-C6=108.44              
C13-Zr1-C7= 77.61              C14-Zr1-C2=133.82              C14-Zr1-C3=105.21              C14-Zr1-C4=138.60              
C14-Zr1-C5=139.67              C14-Zr1-C6=106.03              C14-Zr1-C7= 88.09              C14-Zr1-C13= 33.79             
C15-Zr1-C2=100.83              C15-Zr1-C3=134.77              C15-Zr1-C4=164.33              C15-Zr1-C5=161.20              
C15-Zr1-C6=132.43              C15-Zr1-C7=121.70              C15-Zr1-C13= 55.60             C15-Zr1-C14= 33.72             
C16-Zr1-C2= 80.61              C16-Zr1-C3=121.91              C16-Zr1-C4=134.57              C16-Zr1-C5=163.70              
C16-Zr1-C6=161.59              C16-Zr1-C7=132.94              C16-Zr1-C13= 55.48             C16-Zr1-C14= 55.78             
C16-Zr1-C15= 33.25             C17-Zr1-C2= 96.48              C17-Zr1-C3= 88.70              C17-Zr1-C4=108.89              
C17-Zr1-C5=141.83              C17-Zr1-C6=136.85              C17-Zr1-C7=103.09              C17-Zr1-C13= 33.60             
C17-Zr1-C14= 56.11             C17-Zr1-C15= 55.59             C17-Zr1-C16= 33.49             H23-Zr1-C2= 27.28              
H23-Zr1-C3= 92.46              H23-Zr1-C4= 72.63              H23-Zr1-C5= 90.95              H23-Zr1-C6=124.26              
H23-Zr1-C7=125.30              H23-Zr1-C13=108.42             H23-Zr1-C14=127.57             H23-Zr1-C15=102.87             
H23-Zr1-C16= 72.82             H23-Zr1-C17= 75.91             C26-Zr1-C2= 80.37              C26-Zr1-C3=134.67              
C26-Zr1-C4=114.99              C26-Zr1-C5= 83.07              C26-Zr1-C6= 79.51              C26-Zr1-C7=109.36              
C26-Zr1-C13=127.99             C26-Zr1-C14= 94.19             C26-Zr1-C15= 80.66             C26-Zr1-C16=102.97             
C26-Zr1-C17=134.96             C26-Zr1-H23=107.57             C27-Zr1-C2= 49.72              C27-Zr1-C3=144.68              
C27-Zr1-C4=112.08              C27-Zr1-C5= 90.63              C27-Zr1-C6=102.98              C27-Zr1-C7=136.53              
C27-Zr1-C13=136.07             C27-Zr1-C14=108.15             C27-Zr1-C15= 80.55             C27-Zr1-C16= 87.06             
C27-Zr1-C17=119.59             C27-Zr1-H23= 76.27             C27-Zr1-C26= 32.14             H23-C2-Zr1= 65.95              
H24-C2-Zr1=114.54              H24-C2-H23=109.52              H25-C2-Zr1=135.63              H25-C2-H23=107.73              
H25-C2-H24=108.89              C4-C3-Zr1= 73.77               C7-C3-Zr1= 72.65               C7-C3-C4=107.96                
H8-C3-Zr1=127.25               H8-C3-C4=125.50                H8-C3-C7=125.76                C3-C4-Zr1= 72.78               
C5-C4-Zr1= 72.75               C5-C4-C3=108.12                H9-C4-Zr1=127.79               H9-C4-C3=125.51                
H9-C4-C5=125.67                C4-C5-Zr1= 73.82               C6-C5-Zr1= 72.39               C6-C5-C4=108.03                
H10-C5-Zr1=126.58              H10-C5-C4=125.75               H10-C5-C6=125.62               C5-C6-Zr1= 73.81               
C7-C6-Zr1= 73.35               C7-C6-C5=107.86                H11-C6-Zr1=127.65              H11-C6-C5=125.83               
H11-C6-C7=125.30               C3-C7-Zr1= 73.64               C6-C7-Zr1= 72.85               C6-C7-C3=108.03                
H12-C7-Zr1=127.10              H12-C7-C3=125.89               H12-C7-C6=125.33               

 selected dihedral angles (degree)
 ---------------------------------
H23-C2-Zr1-C3=309.89          H23-C2-Zr1-C4=292.73          H23-C2-Zr1-C5=259.28          H23-C2-Zr1-C6=248.27          
H23-C2-Zr1-C7=283.73          H23-C2-Zr1-C13= 43.30         H23-C2-Zr1-C14= 89.01         H23-C2-Zr1-C15= 97.12         
H23-C2-Zr1-C16= 70.58         H23-C2-Zr1-C17= 40.98         H23-C2-Zr1-C26=175.58         H23-C2-Zr1-C27=164.71         
H24-C2-Zr1-C3= 51.34          H24-C2-Zr1-C4= 34.18          H24-C2-Zr1-C5=  0.73          H24-C2-Zr1-C6=349.72          
H24-C2-Zr1-C7= 25.18          H24-C2-Zr1-C13=144.75         H24-C2-Zr1-C14=190.47         H24-C2-Zr1-C15=198.57         
H24-C2-Zr1-C16=172.03         H24-C2-Zr1-C17=142.43         H24-C2-Zr1-H23=101.45         H24-C2-Zr1-C26=277.03         
H24-C2-Zr1-C27=266.16         H25-C2-Zr1-C3=218.71          H25-C2-Zr1-C4=201.55          H25-C2-Zr1-C5=168.10          
H25-C2-Zr1-C6=157.09          H25-C2-Zr1-C7=192.55          H25-C2-Zr1-C13=312.12         H25-C2-Zr1-C14=357.83         
H25-C2-Zr1-C15=  5.93         H25-C2-Zr1-C16=339.40         H25-C2-Zr1-C17=309.80         H25-C2-Zr1-H23=268.82         
H25-C2-Zr1-C26= 84.39         H25-C2-Zr1-C27= 73.52         C4-C3-Zr1-C2=327.99           C4-C3-Zr1-C5= 36.86           
C4-C3-Zr1-C6= 77.98           C4-C3-Zr1-C7=115.30           C4-C3-Zr1-C13=199.09          C4-C3-Zr1-C14=177.29          
C4-C3-Zr1-C15=196.48          C4-C3-Zr1-C16=236.13          C4-C3-Zr1-C17=231.55          C4-C3-Zr1-H23=307.38          
C4-C3-Zr1-C26= 65.24          C4-C3-Zr1-C27= 16.88          C7-C3-Zr1-C2=212.69           C7-C3-Zr1-C4=244.70           
C7-C3-Zr1-C5=281.56           C7-C3-Zr1-C6=322.68           C7-C3-Zr1-C13= 83.79          C7-C3-Zr1-C14= 61.99          
C7-C3-Zr1-C15= 81.18          C7-C3-Zr1-C16=120.83          C7-C3-Zr1-C17=116.25          C7-C3-Zr1-H23=192.08          
C7-C3-Zr1-C26=309.94          C7-C3-Zr1-C27=261.58          H8-C3-Zr1-C2= 90.57           H8-C3-Zr1-C4=122.58           
H8-C3-Zr1-C5=159.44           H8-C3-Zr1-C6=200.56           H8-C3-Zr1-C7=237.88           H8-C3-Zr1-C13=321.68          
H8-C3-Zr1-C14=299.87          H8-C3-Zr1-C15=319.07          H8-C3-Zr1-C16=358.72          H8-C3-Zr1-C17=354.13          
H8-C3-Zr1-H23= 69.97          H8-C3-Zr1-C26=187.82          H8-C3-Zr1-C27=139.46          C3-C4-Zr1-C2=150.00           
C3-C4-Zr1-C5=244.07           C3-C4-Zr1-C6=281.44           C3-C4-Zr1-C7=322.61           C3-C4-Zr1-C13= 20.11          
C3-C4-Zr1-C14=356.04          C3-C4-Zr1-C15= 48.24          C3-C4-Zr1-C16= 81.66          C3-C4-Zr1-C17= 55.84          
C3-C4-Zr1-H23=123.72          C3-C4-Zr1-C26=225.44          C3-C4-Zr1-C27=190.43          C5-C4-Zr1-C2=265.93           
C5-C4-Zr1-C3=115.93           C5-C4-Zr1-C6= 37.37           C5-C4-Zr1-C7= 78.54           C5-C4-Zr1-C13=136.04          
C5-C4-Zr1-C14=111.97          C5-C4-Zr1-C15=164.17          C5-C4-Zr1-C16=197.59          C5-C4-Zr1-C17=171.77          
C5-C4-Zr1-H23=239.65          C5-C4-Zr1-C26=341.36          C5-C4-Zr1-C27=306.36          H9-C4-Zr1-C2= 28.06           
H9-C4-Zr1-C3=238.05           H9-C4-Zr1-C5=122.13           H9-C4-Zr1-C6=159.49           H9-C4-Zr1-C7=200.66           
H9-C4-Zr1-C13=258.16          H9-C4-Zr1-C14=234.09          H9-C4-Zr1-C15=286.30          H9-C4-Zr1-C16=319.71          
H9-C4-Zr1-C17=293.90          H9-C4-Zr1-H23=  1.77          H9-C4-Zr1-C26=103.49          H9-C4-Zr1-C27= 68.49          
Zr1-C4-C3-C7= 65.11           Zr1-C4-C3-H8=235.48           C5-C4-C3-Zr1=295.35           C5-C4-C3-C7=  0.46            
C5-C4-C3-H8=170.83            H9-C4-C3-Zr1=124.53           H9-C4-C3-C7=189.64            H9-C4-C3-H8=  0.00            
C4-C5-Zr1-C2= 82.22           C4-C5-Zr1-C3=323.13           C4-C5-Zr1-C6=244.52           C4-C5-Zr1-C7=282.08           
C4-C5-Zr1-C13=299.39          C4-C5-Zr1-C14=251.35          C4-C5-Zr1-C15=193.22          C4-C5-Zr1-C16= 50.09          
C4-C5-Zr1-C17=347.34          C4-C5-Zr1-H23= 55.46          C4-C5-Zr1-C26=163.04          C4-C5-Zr1-C27=131.73          
C6-C5-Zr1-C2=197.70           C6-C5-Zr1-C3= 78.60           C6-C5-Zr1-C4=115.48           C6-C5-Zr1-C7= 37.56           
C6-C5-Zr1-C13= 54.87          C6-C5-Zr1-C14=  6.83          C6-C5-Zr1-C15=308.69          C6-C5-Zr1-C16=165.57          
C6-C5-Zr1-C17=102.82          C6-C5-Zr1-H23=170.93          C6-C5-Zr1-C26=278.51          C6-C5-Zr1-C27=247.21          
H10-C5-Zr1-C2=319.39          H10-C5-Zr1-C3=200.30          H10-C5-Zr1-C4=237.17          H10-C5-Zr1-C6=121.69          
H10-C5-Zr1-C7=159.25          H10-C5-Zr1-C13=176.56         H10-C5-Zr1-C14=128.52         H10-C5-Zr1-C15= 70.39         
H10-C5-Zr1-C16=287.26         H10-C5-Zr1-C17=224.51         H10-C5-Zr1-H23=292.62         H10-C5-Zr1-C26= 40.20         
H10-C5-Zr1-C27=  8.90         Zr1-C5-C4-C3= 64.67           Zr1-C5-C4-H9=235.47           C6-C5-C4-Zr1=295.19           
C6-C5-C4-C3=359.86            C6-C5-C4-H9=170.66            H10-C5-C4-Zr1=123.76          H10-C5-C4-C3=188.43           
H10-C5-C4-H9=359.23           C5-C6-Zr1-C2= 20.01           C5-C6-Zr1-C3=282.38           C5-C6-Zr1-C4=323.04           
C5-C6-Zr1-C7=245.16           C5-C6-Zr1-C13=219.94          C5-C6-Zr1-C14=184.59          C5-C6-Zr1-C15=160.08          
C5-C6-Zr1-C16=192.79          C5-C6-Zr1-C17=241.78          C5-C6-Zr1-H23=349.01          C5-C6-Zr1-C26= 93.21          
C5-C6-Zr1-C27= 71.09          C7-C6-Zr1-C2=134.85           C7-C6-Zr1-C3= 37.22           C7-C6-Zr1-C4= 77.88           
C7-C6-Zr1-C5=114.84           C7-C6-Zr1-C13=334.78          C7-C6-Zr1-C14=299.43          C7-C6-Zr1-C15=274.92          
C7-C6-Zr1-C16=307.63          C7-C6-Zr1-C17=356.62          C7-C6-Zr1-H23=103.85          C7-C6-Zr1-C26=208.05          
C7-C6-Zr1-C27=185.93          H11-C6-Zr1-C2=256.93          H11-C6-Zr1-C3=159.30          H11-C6-Zr1-C4=199.96          
H11-C6-Zr1-C5=236.92          H11-C6-Zr1-C7=122.08          H11-C6-Zr1-C13= 96.86         H11-C6-Zr1-C14= 61.51         
H11-C6-Zr1-C15= 37.00         H11-C6-Zr1-C16= 69.71         H11-C6-Zr1-C17=118.70         H11-C6-Zr1-H23=225.92         
H11-C6-Zr1-C26=330.12         H11-C6-Zr1-C27=308.00         Zr1-C6-C5-C4= 65.75           Zr1-C6-C5-H10=237.20          
C7-C6-C5-Zr1=294.01           C7-C6-C5-C4=359.76            C7-C6-C5-H10=171.21           H11-C6-C5-Zr1=125.10          
H11-C6-C5-C4=190.84           H11-C6-C5-H10=  2.29          C3-C7-Zr1-C2= 47.91           C3-C7-Zr1-C4= 37.10           
C3-C7-Zr1-C5= 77.80           C3-C7-Zr1-C6=115.35           C3-C7-Zr1-C13=270.91          C3-C7-Zr1-C14=238.47          
C3-C7-Zr1-C15=235.55          C3-C7-Zr1-C16=275.38          C3-C7-Zr1-C17=292.98          C3-C7-Zr1-H23= 14.85          
C3-C7-Zr1-C26=144.70          C3-C7-Zr1-C27=123.77          C6-C7-Zr1-C2=292.55           C6-C7-Zr1-C3=244.65           
C6-C7-Zr1-C4=281.74           C6-C7-Zr1-C5=322.44           C6-C7-Zr1-C13=155.55          C6-C7-Zr1-C14=123.12          
C6-C7-Zr1-C15=120.19          C6-C7-Zr1-C16=160.02          C6-C7-Zr1-C17=177.63          C6-C7-Zr1-H23=259.50          
C6-C7-Zr1-C26= 29.34          C6-C7-Zr1-C27=  8.41          H12-C7-Zr1-C2=170.86          H12-C7-Zr1-C3=122.96          
H12-C7-Zr1-C4=160.05          H12-C7-Zr1-C5=200.75          H12-C7-Zr1-C6=238.31          H12-C7-Zr1-C13= 33.86         
H12-C7-Zr1-C14=  1.43         H12-C7-Zr1-C15=358.50         H12-C7-Zr1-C16= 38.33         H12-C7-Zr1-C17= 55.94         
H12-C7-Zr1-H23=137.81         H12-C7-Zr1-C26=267.65         H12-C7-Zr1-C27=246.72         Zr1-C7-C3-C4=294.14           
Zr1-C7-C3-H8=123.81           C6-C7-C3-Zr1= 65.24           C6-C7-C3-C4=359.39            C6-C7-C3-H8=189.06            
H12-C7-C3-Zr1=235.70          H12-C7-C3-C4=169.84           H12-C7-C3-H8=359.51           Zr1-C7-C6-C5= 66.29           
Zr1-C7-C6-H11=235.28          C3-C7-C6-Zr1=294.23           C3-C7-C6-C5=  0.53            C3-C7-C6-H11=169.52           
H12-C7-C6-Zr1=123.71          H12-C7-C6-C5=190.01           H12-C7-C6-H11=359.00          

 CMA Distance (Angstroems)
 ---------------------------
R(CMA):  2.8540
           -------------------------------------------------
          |                Final Singlepoint                |
           -------------------------------------------------

          ...................................................
          :                      SETUP                      :
          :.................................................:
          :  # basis functions                  79          :
          :  # atomic orbitals                  78          :
          :  # shells                           46          :
          :  # electrons                        72          :
          :  max. iterations                   250          :
          :  Hamiltonian                  GFN2-xTB          :
          :  restarted?                      false          :
          :  GBSA solvation                  false          :
          :  PC potential                    false          :
          :  electronic temp.          300.0000000     K    :
          :  accuracy                    1.0000000          :
          :  -> integral cutoff          0.2500000E+02      :
          :  -> integral neglect         0.1000000E-07      :
          :  -> SCF convergence          0.1000000E-05 Eh   :
          :  -> wf. convergence          0.1000000E-03 e    :
          :  Broyden damping             0.4000000          :
          ...................................................

 iter      E             dE          RMSdq      gap      omega  full diag
   1    -38.2724325 -0.382724E+02  0.177E-04    1.61       0.0  T
   2    -38.2724325 -0.102531E-10  0.124E-04    1.61     144.5  T
   3    -38.2724325  0.204778E-10  0.116E-04    1.61     154.9  T

   *** convergence criteria satisfied after 3 iterations ***

         #    Occupation            Energy/Eh            Energy/eV
      -------------------------------------------------------------
         1        2.0000           -0.8735724             -23.7711
       ...           ...                  ...                  ...
        30        2.0000           -0.5858584             -15.9420
        31        2.0000           -0.5760546             -15.6752
        32        2.0000           -0.5226009             -14.2207
        33        2.0000           -0.5223124             -14.2128
        34        2.0000           -0.5122476             -13.9390
        35        2.0000           -0.5071707             -13.8008
        36        2.0000           -0.4840319             -13.1712 (HOMO)
        37                         -0.4247061             -11.5568 (LUMO)
        38                         -0.4097516             -11.1499
        39                         -0.4041395             -10.9972
        40                         -0.4035115             -10.9801
        41                         -0.4020460             -10.9402
       ...                                ...                  ...
        78                          2.5131822              68.3872
      -------------------------------------------------------------
                  HL-Gap            0.0593258 Eh            1.6143 eV
             Fermi-level           -0.4543690 Eh          -12.3640 eV

 SCC (total)                   0 d,  0 h,  0 min,  0.251 sec
 SCC setup                      ...        0 min,  0.021 sec (  8.268%)
 Dispersion                     ...        0 min,  0.000 sec (  0.056%)
 classical contributions        ...        0 min,  0.002 sec (  0.769%)
 integral evaluation            ...        0 min,  0.010 sec (  3.806%)
 iterations                     ...        0 min,  0.186 sec ( 74.157%)
 molecular gradient             ...        0 min,  0.032 sec ( 12.863%)
 printout                       ...        0 min,  0.000 sec (  0.069%)

         :::::::::::::::::::::::::::::::::::::::::::::::::::::
         ::                     SUMMARY                     ::
         :::::::::::::::::::::::::::::::::::::::::::::::::::::
         :: total energy             -37.643622454653 Eh    ::
         :: gradient norm              0.000947411587 Eh/a0 ::
         :: HOMO-LUMO gap              1.614336852728 eV    ::
         ::.................................................::
         :: SCC energy               -38.272432461671 Eh    ::
         :: -> isotropic ES            0.087444271774 Eh    ::
         :: -> anisotropic ES         -0.013350421288 Eh    ::
         :: -> anisotropic XC          0.020586365440 Eh    ::
         :: -> dispersion             -0.027894255303 Eh    ::
         :: repulsion energy           0.627921088405 Eh    ::
         :: add. restraining           0.000208383406 Eh    ::
         :: total charge               1.000000000000 e     ::
         :::::::::::::::::::::::::::::::::::::::::::::::::::::

           -------------------------------------------------
          |                Property Printout                |
           -------------------------------------------------

    * Orbital Energies and Occupations

         #    Occupation            Energy/Eh            Energy/eV
      -------------------------------------------------------------
         1        2.0000           -0.8735724             -23.7711
       ...           ...                  ...                  ...
        24        2.0000           -0.5958646             -16.2143
        25        2.0000           -0.5941623             -16.1680
        26        2.0000           -0.5919739             -16.1084
        27        2.0000           -0.5917882             -16.1034
        28        2.0000           -0.5902922             -16.0627
        29        2.0000           -0.5898446             -16.0505
        30        2.0000           -0.5858584             -15.9420
        31        2.0000           -0.5760546             -15.6752
        32        2.0000           -0.5226009             -14.2207
        33        2.0000           -0.5223124             -14.2128
        34        2.0000           -0.5122476             -13.9390
        35        2.0000           -0.5071707             -13.8008
        36        2.0000           -0.4840319             -13.1712 (HOMO)
        37                         -0.4247061             -11.5568 (LUMO)
        38                         -0.4097516             -11.1499
        39                         -0.4041395             -10.9972
        40                         -0.4035115             -10.9801
        41                         -0.4020460             -10.9402
        42                         -0.3653582              -9.9419
        43                         -0.3081422              -8.3850
        44                         -0.3069475              -8.3525
        45                         -0.3064353              -8.3385
        46                         -0.3052627              -8.3066
        47                         -0.0609748              -1.6592
       ...                                ...                  ...
        78                          2.5131822              68.3872
      -------------------------------------------------------------
                  HL-Gap            0.0593258 Eh            1.6143 eV
             Fermi-level           -0.4543690 Eh          -12.3640 eV

     #   Z          covCN         q      C6AA      α(0)
     1  40 Zr      10.227     0.952   138.771    17.701
     2   6 C        3.742    -0.253    25.701     7.233
     3   6 C        3.759    -0.088    22.236     6.723
     4   6 C        3.754    -0.087    22.222     6.722
     5   6 C        3.760    -0.090    22.267     6.727
     6   6 C        3.765    -0.089    22.232     6.721
     7   6 C        3.764    -0.086    22.188     6.714
     8   1 H        0.925     0.081     1.964     2.191
     9   1 H        0.925     0.075     2.028     2.227
    10   1 H        0.925     0.085     1.930     2.173
    11   1 H        0.925     0.086     1.918     2.166
    12   1 H        0.925     0.086     1.921     2.168
    13   6 C        3.764    -0.083    22.120     6.704
    14   6 C        3.765    -0.092    22.294     6.730
    15   6 C        3.757    -0.089    22.249     6.725
    16   6 C        3.752    -0.089    22.262     6.729
    17   6 C        3.759    -0.092    22.302     6.733
    18   1 H        0.925     0.086     1.915     2.164
    19   1 H        0.925     0.082     1.958     2.188
    20   1 H        0.925     0.082     1.959     2.189
    21   1 H        0.925     0.079     1.988     2.205
    22   1 H        0.925     0.076     2.024     2.225
    23   1 H        1.418     0.082     1.941     2.175
    24   1 H        0.925     0.077     2.014     2.219
    25   1 H        0.925     0.080     1.975     2.198
    26   6 C        3.589    -0.208    25.391     7.303
    27   6 C        3.678    -0.071    22.088     6.733
    28   1 H        0.925     0.107     1.727     2.055
    29   1 H        0.925     0.114     1.666     2.019
    30   1 H        0.927     0.094     1.843     2.123
    31   1 H        0.925     0.092     1.857     2.131

 Mol. C6AA /au·bohr⁶  :       9443.242124
 Mol. C8AA /au·bohr⁸  :     320702.027760
 Mol. α(0) /au        :        143.009705


Wiberg/Mayer (AO) data.
largest (>0.10) Wiberg bond orders for each atom

 ---------------------------------------------------------------------------
     #   Z sym  total        # sym  WBO       # sym  WBO       # sym  WBO
 ---------------------------------------------------------------------------
     1  40 Zr   4.332 --    26 C    0.521     2 C    0.488    14 C    0.258
                             6 C    0.253     7 C    0.248    17 C    0.240
                             3 C    0.240     5 C    0.236    13 C    0.235
                            15 C    0.232     4 C    0.230    16 C    0.226
                            27 C    0.209    23 H    0.132
     2   6 C    3.907 --    25 H    0.965    24 H    0.950    23 H    0.812
                             1 Zr   0.488    27 C    0.431    26 C    0.160
     3   6 C    3.979 --     4 C    1.306     7 C    1.298     8 H    0.923
                             1 Zr   0.240
     4   6 C    3.981 --     5 C    1.312     3 C    1.306     9 H    0.926
                             1 Zr   0.230
     5   6 C    3.978 --     4 C    1.312     6 C    1.290    10 H    0.925
                             1 Zr   0.236
     6   6 C    3.981 --     7 C    1.298     5 C    1.290    11 H    0.920
                             1 Zr   0.253
     7   6 C    3.980 --     6 C    1.298     3 C    1.298    12 H    0.922
                             1 Zr   0.248
     8   1 H    0.991 --     3 C    0.923
     9   1 H    0.992 --     4 C    0.926
    10   1 H    0.990 --     5 C    0.925
    11   1 H    0.991 --     6 C    0.920
    12   1 H    0.990 --     7 C    0.922
    13   6 C    3.982 --    17 C    1.309    14 C    1.299    18 H    0.924
                             1 Zr   0.235
    14   6 C    3.979 --    13 C    1.299    15 C    1.287    19 H    0.918
                             1 Zr   0.258
    15   6 C    3.979 --    16 C    1.320    14 C    1.287    20 H    0.927
                             1 Zr   0.232
    16   6 C    3.979 --    15 C    1.320    17 C    1.295    21 H    0.928
                             1 Zr   0.226
    17   6 C    3.978 --    13 C    1.309    16 C    1.295    22 H    0.922
                             1 Zr   0.240
    18   1 H    0.990 --    13 C    0.924
    19   1 H    0.991 --    14 C    0.918
    20   1 H    0.991 --    15 C    0.927
    21   1 H    0.991 --    16 C    0.928
    22   1 H    0.992 --    17 C    0.922
    23   1 H    0.993 --     2 C    0.812     1 Zr   0.132
    24   1 H    0.993 --     2 C    0.950
    25   1 H    0.992 --     2 C    0.965
    26   6 C    3.921 --    27 C    1.342    31 H    0.920    30 H    0.888
                             1 Zr   0.521     2 C    0.160
    27   6 C    3.978 --    26 C    1.342    29 H    0.945    28 H    0.932
                             2 C    0.431     1 Zr   0.209
    28   1 H    0.987 --    27 C    0.932
    29   1 H    0.986 --    27 C    0.945
    30   1 H    0.990 --    26 C    0.888
    31   1 H    0.990 --    26 C    0.920
 ---------------------------------------------------------------------------

Topologies differ in total number of bonds
Writing topology from bond orders to xtbtopo.mol

molecular dipole:
                 x           y           z       tot (Debye)
 q only:       -2.976       0.094       0.641
   full:       -2.509       0.127       0.674       6.611
molecular quadrupole (traceless):
                xx          xy          yy          xz          yz          zz
 q only:       10.771      -1.467      -6.777      -1.136      -4.412      -3.994
  q+dip:       10.172      -0.304      -8.021      -1.727      -7.740      -2.152
   full:        9.803       0.155      -7.275      -2.912      -6.219      -2.529

           -------------------------------------------------
          |                Geometry Summary                 |
           -------------------------------------------------

      molecular mass/u    :      264.4982010
   center of mass at/Å    :       -1.2527743      -0.1802787       0.6563128
  moments of inertia/u·Å² :        0.5909394E+03   0.7221375E+03   0.9214882E+03
rotational constants/cm⁻¹ :        0.2852684E-01   0.2334408E-01   0.1829392E-01

 * 40 selected distances

     #   Z          #   Z                                           value/Å
     1  40 Zr       2   6 C                                       2.4449557
     1  40 Zr       3   6 C                                       2.4532809
     1  40 Zr       4   6 C                                       2.4661071
     3   6 C        4   6 C                                       1.4156994
     1  40 Zr       5   6 C                                       2.4523035
     4   6 C        5   6 C                                       1.4148861
     1  40 Zr       6   6 C                                       2.4339598
     5   6 C        6   6 C                                       1.4203195
     1  40 Zr       7   6 C                                       2.4404555
     3   6 C        7   6 C                                       1.4189649
     6   6 C        7   6 C                                       1.4169584
     3   6 C        8   1 H                                       1.0848844
     4   6 C        9   1 H                                       1.0847530
     5   6 C       10   1 H                                       1.0835739
     6   6 C       11   1 H                                       1.0846052
     7   6 C       12   1 H                                       1.0847600
     1  40 Zr      13   6 C                                       2.4486097
     1  40 Zr      14   6 C                                       2.4306092
    13   6 C       14   6 C                                       1.4182738
     1  40 Zr      15   6 C                                       2.4644069
    14   6 C       15   6 C                                       1.4201935
     1  40 Zr      16   6 C                                       2.4731741 (max)
    15   6 C       16   6 C                                       1.4126880
     1  40 Zr      17   6 C                                       2.4504235
    13   6 C       17   6 C                                       1.4158152
    16   6 C       17   6 C                                       1.4187022
    13   6 C       18   1 H                                       1.0838457
    14   6 C       19   1 H                                       1.0859128
    15   6 C       20   1 H                                       1.0831865 (min)
    16   6 C       21   1 H                                       1.0837103
    17   6 C       22   1 H                                       1.0857930
     2   6 C       23   1 H                                       1.1222115
     2   6 C       24   1 H                                       1.0907990
     2   6 C       25   1 H                                       1.0864617
     1  40 Zr      26   6 C                                       2.4429744
    26   6 C       27   6 C                                       1.4210986
    27   6 C       28   1 H                                       1.0893965
    27   6 C       29   1 H                                       1.0856615
    26   6 C       30   1 H                                       1.0912212
    26   6 C       31   1 H                                       1.0873401

 * 3 distinct bonds (by element types)

   Z      Z             #   av. dist./Å        max./Å        min./Å
   1 H    6 C          17     1.0881245     1.1222115     1.0831865
   6 C    6 C          11     1.4176000     1.4210986     1.4126880
   6 C   40 Zr         12     2.4501050     2.4731741     2.4306092


optimized geometry written to: xtbopt.xyz


           -------------------------------------------------
          | TOTAL ENERGY              -37.643622454653 Eh   |
          | GRADIENT NORM               0.000947411587 Eh/α |
          | HOMO-LUMO GAP               1.614336852728 eV   |
           -------------------------------------------------

------------------------------------------------------------------------
 * finished run on 2026/08/03 at 12:01:58.523     
------------------------------------------------------------------------
 total:
 * wall-time:     0 d,  0 h,  1 min, 26.754 sec
 *  cpu-time:     0 d,  0 h,  2 min, 34.713 sec
 * ratio c/w:     1.783 speedup
 SCF:
 * wall-time:     0 d,  0 h,  0 min,  1.252 sec
 *  cpu-time:     0 d,  0 h,  0 min,  3.305 sec
 * ratio c/w:     2.640 speedup
 ANC optimizer:
 * wall-time:     0 d,  0 h,  1 min, 25.399 sec
 *  cpu-time:     0 d,  0 h,  2 min, 31.178 sec
 * ratio c/w:     1.770 speedup

