      -----------------------------------------------------------      
     |                   =====================                   |     
     |                           x T B                           |     
     |                   =====================                   |     
     |                         S. Grimme                         |     
     |          Mulliken Center for Theoretical Chemistry        |     
     |                    University of Bonn                     |     
      -----------------------------------------------------------      

   * xtb version 6.5.1 (b24c23e) compiled by 'conda@728c89f4b128' on 2022-07-12

   xtb is free software: you can redistribute it and/or modify it under
   the terms of the GNU Lesser General Public License as published by
   the Free Software Foundation, either version 3 of the License, or
   (at your option) any later version.
   
   xtb is distributed in the hope that it will be useful,
   but WITHOUT ANY WARRANTY; without even the implied warranty of
   MERCHANTABILITY or FITNESS FOR A PARTICULAR PURPOSE.  See the
   GNU Lesser General Public License for more details.
   
   Cite this work as:
   * C. Bannwarth, E. Caldeweyher, S. Ehlert, A. Hansen, P. Pracht,
     J. Seibert, S. Spicher, S. Grimme, WIREs Comput. Mol. Sci., 2020, 11,
     e01493. DOI: 10.1002/wcms.1493
   
   for GFN2-xTB:
   * C. Bannwarth, S. Ehlert and S. Grimme., J. Chem. Theory Comput., 2019,
     15, 1652-1671. DOI: 10.1021/acs.jctc.8b01176
   for GFN1-xTB:
   * S. Grimme, C. Bannwarth, P. Shushkov, J. Chem. Theory Comput., 2017,
     13, 1989-2009. DOI: 10.1021/acs.jctc.7b00118
   for GFN0-xTB:
   * P. Pracht, E. Caldeweyher, S. Ehlert, S. Grimme, ChemRxiv, 2019, preprint.
     DOI: 10.26434/chemrxiv.8326202.v1
   for GFN-FF:
   * S. Spicher and S. Grimme, Angew. Chem. Int. Ed., 2020, 59, 15665-15673.
     DOI: 10.1002/anie.202004239
   
   for ALPB and GBSA implicit solvation:
   * S. Ehlert, M. Stahn, S. Spicher, S. Grimme, J. Chem. Theory Comput.,
     2021, 17, 4250-4261. DOI: 10.1021/acs.jctc.1c00471
   
   for DFT-D4:
   * E. Caldeweyher, C. Bannwarth and S. Grimme, J. Chem. Phys., 2017,
     147, 034112. DOI: 10.1063/1.4993215
   * E. Caldeweyher, S. Ehlert, A. Hansen, H. Neugebauer, S. Spicher,
     C. Bannwarth and S. Grimme, J. Chem. Phys., 2019, 150, 154122.
     DOI: 10.1063/1.5090222
   * E. Caldeweyher, J.-M. Mewes, S. Ehlert and S. Grimme, Phys. Chem. Chem. Phys.
     2020, 22, 8499-8512. DOI: 10.1039/D0CP00502A
   
   for sTDA-xTB:
   * S. Grimme and C. Bannwarth, J. Chem. Phys., 2016, 145, 054103.
     DOI: 10.1063/1.4959605
   
   in the mass-spec context:
   * V. Asgeirsson, C. Bauer and S. Grimme, Chem. Sci., 2017, 8, 4879.
     DOI: 10.1039/c7sc00601b
   * J. Koopman and S. Grimme, ACS Omega 2019, 4, 12, 15120-15133.
     DOI: 10.1021/acsomega.9b02011
   
   for metadynamics refer to:
   * S. Grimme, J. Chem. Theory Comput., 2019, 155, 2847-2862
     DOI: 10.1021/acs.jctc.9b00143
   
   for SPH calculations refer to:
   * S. Spicher and S. Grimme, J. Chem. Theory Comput., 2021, 17, 1701-1714
     DOI: 10.1021/acs.jctc.0c01306
   
   with help from (in alphabetical order)
   P. Atkinson, C. Bannwarth, F. Bohle, G. Brandenburg, E. Caldeweyher
   M. Checinski, S. Dohm, S. Ehlert, S. Ehrlich, I. Gerasimov, C. Hölzer
   A. Katbashev, J. Koopman, C. Lavigne, S. Lehtola, F. März, M. Müller,
   F. Musil, H. Neugebauer, J. Pisarek, C. Plett, P. Pracht, F. Pultar,
   J. Seibert, P. Shushkov, S. Spicher, M. Stahn, M. Steiner, T. Strunk,
   J. Stückrath, T. Rose, and J. Unsleber
   
 * started run on 2026/08/03 at 11:36:34.457     

           -------------------------------------------------
          |                Calculation Setup                |
           -------------------------------------------------

          program call               : /h/332/chchoi/miniconda3/envs/el-agente/bin/xtb product.xyz --opt --gfn 2 -P 4 --chrg 1
          coordinate file            : product.xyz
          omp threads                :                     4

   ID    Z sym.   atoms
    1   40 Zr     1
    2    6 C      2-7, 13-17, 25, 28
    3    1 H      8-12, 18-24, 26, 27, 29-31

           -------------------------------------------------
          |                 G F N 2 - x T B                 |
           -------------------------------------------------

        Reference                      10.1021/acs.jctc.8b01176
      * Hamiltonian:
        H0-scaling (s, p, d)           1.850000    2.230000    2.230000
        zeta-weighting                 0.500000
      * Dispersion:
        s8                             2.700000
        a1                             0.520000
        a2                             5.000000
        s9                             5.000000
      * Repulsion:
        kExp                           1.500000    1.000000
        rExp                           1.000000
      * Coulomb:
        alpha                          2.000000
        third order                    shell-resolved
        anisotropic                    true
        a3                             3.000000
        a5                             4.000000
        cn-shift                       1.200000
        cn-exp                         4.000000
        max-rad                        5.000000


          ...................................................
          :                      SETUP                      :
          :.................................................:
          :  # basis functions                  79          :
          :  # atomic orbitals                  78          :
          :  # shells                           46          :
          :  # electrons                        72          :
          :  max. iterations                   250          :
          :  Hamiltonian                  GFN2-xTB          :
          :  restarted?                      false          :
          :  GBSA solvation                  false          :
          :  PC potential                    false          :
          :  electronic temp.          300.0000000     K    :
          :  accuracy                    1.0000000          :
          :  -> integral cutoff          0.2500000E+02      :
          :  -> integral neglect         0.1000000E-07      :
          :  -> SCF convergence          0.1000000E-05 Eh   :
          :  -> wf. convergence          0.1000000E-03 e    :
          :  Broyden damping             0.4000000          :
          ...................................................

 iter      E             dE          RMSdq      gap      omega  full diag
   1    -37.8040350 -0.378040E+02  0.138E+01    0.31       0.0  T
   2    -37.9680515 -0.164016E+00  0.607E+00    2.60       1.0  T
   3    -37.6874105  0.280641E+00  0.884E+00    0.34       1.0  T
   4    -38.0986470 -0.411236E+00  0.195E+00    1.96       1.0  T
   5    -38.1186027 -0.199557E-01  0.121E+00    1.60       1.0  T
   6    -38.1233916 -0.478895E-02  0.918E-01    1.55       1.0  T
   7    -38.1279412 -0.454960E-02  0.130E-01    1.37       1.0  T
   8    -38.1284215 -0.480227E-03  0.605E-02    1.35       1.0  T
   9    -38.1284435 -0.219954E-04  0.315E-02    1.36       1.0  T
  10    -38.1284455 -0.200333E-05  0.176E-02    1.36       1.0  T
  11    -38.1284481 -0.264805E-05  0.688E-03    1.36       2.6  T
  12    -38.1284482 -0.136699E-06  0.287E-03    1.36       6.3  T
  13    -38.1284482 -0.902094E-08  0.146E-03    1.36      12.3  T
  14    -38.1284483 -0.223341E-07  0.732E-04    1.36      24.5  T
  15    -38.1284483  0.311644E-09  0.572E-04    1.36      31.4  T

   *** convergence criteria satisfied after 15 iterations ***

         #    Occupation            Energy/Eh            Energy/eV
      -------------------------------------------------------------
         1        2.0000           -0.8369216             -22.7738
       ...           ...                  ...                  ...
        30        2.0000           -0.5540994             -15.0778
        31        2.0000           -0.5483991             -14.9227
        32        2.0000           -0.5175890             -14.0843
        33        2.0000           -0.5152997             -14.0220
        34        2.0000           -0.5060292             -13.7698
        35        2.0000           -0.5021925             -13.6654
        36        2.0000           -0.5013468             -13.6423 (HOMO)
        37                         -0.4513822             -12.2827 (LUMO)
        38                         -0.4508992             -12.2696
        39                         -0.4502714             -12.2525
        40                         -0.4443230             -12.0906
        41                         -0.4373875             -11.9019
       ...                                ...                  ...
        78                          1.3350047              36.3273
      -------------------------------------------------------------
                  HL-Gap            0.0499647 Eh            1.3596 eV
             Fermi-level           -0.4765053 Eh          -12.9664 eV

 SCC (total)                   0 d,  0 h,  0 min,  0.985 sec
 SCC setup                      ...        0 min,  0.026 sec (  2.609%)
 Dispersion                     ...        0 min,  0.024 sec (  2.417%)
 classical contributions        ...        0 min,  0.026 sec (  2.599%)
 integral evaluation            ...        0 min,  0.003 sec (  0.308%)
 iterations                     ...        0 min,  0.818 sec ( 83.013%)
 molecular gradient             ...        0 min,  0.089 sec (  9.033%)
 printout                       ...        0 min,  0.000 sec (  0.018%)

         :::::::::::::::::::::::::::::::::::::::::::::::::::::
         ::                     SUMMARY                     ::
         :::::::::::::::::::::::::::::::::::::::::::::::::::::
         :: total energy             -37.584736776868 Eh    ::
         :: gradient norm              0.177840668390 Eh/a0 ::
         :: HOMO-LUMO gap              1.359607479213 eV    ::
         ::.................................................::
         :: SCC energy               -38.128448270140 Eh    ::
         :: -> isotropic ES            0.087464463803 Eh    ::
         :: -> anisotropic ES         -0.003262609774 Eh    ::
         :: -> anisotropic XC          0.015445901534 Eh    ::
         :: -> dispersion             -0.024096968683 Eh    ::
         :: repulsion energy           0.543221170669 Eh    ::
         :: add. restraining           0.000000000000 Eh    ::
         :: total charge               0.999999999996 e     ::
         :::::::::::::::::::::::::::::::::::::::::::::::::::::

      ----------------------------------------------------------- 
     |                   =====================                   |
     |                        A N C O P T                        |
     |                   =====================                   |
     |               Approximate Normal Coordinate               |
     |                Rational Function Optimizer                |
      ----------------------------------------------------------- 

          ...................................................
          :                      SETUP                      :
          :.................................................:
          :   optimization level            normal          :
          :   max. optcycles                   200          :
          :   ANC micro-cycles                  20          :
          :   degrees of freedom                87          :
          :.................................................:
          :   RF solver                   davidson          :
          :   write xtbopt.log                true          :
          :   linear?                        false          :
          :   energy convergence         0.5000000E-05 Eh   :
          :   grad. convergence          0.1000000E-02 Eh/α :
          :   maximium RF displ.         1.0000000          :
          :   Hlow (freq-cutoff)         0.1000000E-01      :
          :   Hmax (freq-cutoff)         5.0000000          :
          :   S6 in model hess.         20.0000000          :
          ...................................................

generating ANC from model Hessian ...
Using Lindh-Hessian (1995)
 Shifting diagonal of input Hessian by    1.6346972079977446E-002
 Lowest  eigenvalues of input Hessian
    0.010000    0.014542    0.016278    0.000000    0.000000    0.000000
    0.000000    0.000000    0.000000    0.016532    0.016569    0.016671
    0.016801    0.016847    0.016892    0.016997    0.017075    0.017465
 Highest eigenvalues
    1.496183    1.496261    1.497488    1.497531    1.497579    1.497598


........................................................................
.............................. CYCLE    1 ..............................
........................................................................
   1    -38.1284483 -0.381284E+02  0.221E-04    1.36       0.0  T
   2    -38.1284483 -0.545057E-10  0.135E-04    1.36     133.3  T
   3    -38.1284483 -0.151722E-09  0.893E-05    1.36     201.1  T
     SCC iter.                  ...        0 min,  0.156 sec
     gradient                   ...        0 min,  0.087 sec
 * total energy  :   -37.5847368 Eh     change       -0.1419934E-08 Eh
   gradient norm :     0.1778404 Eh/α   predicted     0.0000000E+00 (-100.00%)
   displ. norm   :     0.5968624 α      lambda       -0.6535606E-01
   maximum displ.:     0.3143511 α      in ANC's #3, #22, #57, ...

........................................................................
.............................. CYCLE    2 ..............................
........................................................................
   1    -38.2067618 -0.382068E+02  0.104E+00    1.66       0.0  T
   2    -38.2075305 -0.768685E-03  0.485E-01    1.43       1.0  T
   3    -38.2075643 -0.337755E-04  0.494E-01    1.62       1.0  T
   4    -38.2082224 -0.658108E-03  0.753E-02    1.49       1.0  T
   5    -38.2082927 -0.703356E-04  0.533E-02    1.52       1.0  T
   6    -38.2083089 -0.162082E-04  0.235E-02    1.52       1.0  T
   7    -38.2083119 -0.298942E-05  0.107E-02    1.52       1.7  T
   8    -38.2083119  0.449066E-07  0.741E-03    1.52       2.4  T
   9    -38.2083121 -0.279829E-06  0.348E-03    1.52       5.2  T
  10    -38.2083122 -0.239473E-07  0.152E-03    1.52      11.8  T
  11    -38.2083122 -0.912363E-08  0.350E-04    1.52      51.4  T
  12    -38.2083122 -0.329585E-09  0.158E-04    1.52     113.4  T
     SCC iter.                  ...        0 min,  0.621 sec
     gradient                   ...        0 min,  0.037 sec
 * total energy  :   -37.6334376 Eh     change       -0.4870081E-01 Eh
   gradient norm :     0.0669440 Eh/α   predicted    -0.4433496E-01 (  -8.96%)
   displ. norm   :     0.8011242 α      lambda       -0.4398311E-01
   maximum displ.:     0.5234514 α      in ANC's #22, #3, #57, ...

........................................................................
.............................. CYCLE    3 ..............................
........................................................................
   1    -38.2587252 -0.382587E+02  0.122E+00    1.86       0.0  T
   2    -38.2595491 -0.823924E-03  0.711E-01    1.64       1.0  T
   3    -38.2592766  0.272513E-03  0.504E-01    1.80       1.0  T
   4    -38.2598754 -0.598788E-03  0.125E-01    1.67       1.0  T
   5    -38.2599690 -0.936739E-04  0.740E-02    1.70       1.0  T
   6    -38.2600048 -0.357458E-04  0.296E-02    1.70       1.0  T
   7    -38.2600058 -0.102564E-05  0.135E-02    1.70       1.3  T
   8    -38.2600060 -0.228162E-06  0.766E-03    1.70       2.3  T
   9    -38.2600062 -0.173144E-06  0.315E-03    1.71       5.7  T
  10    -38.2600062 -0.219621E-07  0.124E-03    1.71      14.5  T
  11    -38.2600062 -0.319639E-08  0.358E-04    1.71      50.2  T
  12    -38.2600062 -0.742226E-09  0.188E-04    1.71      95.8  T
     SCC iter.                  ...        0 min,  0.623 sec
     gradient                   ...        0 min,  0.064 sec
 * total energy  :   -37.6522498 Eh     change       -0.1881224E-01 Eh
   gradient norm :     0.1005371 Eh/α   predicted    -0.3610573E-01 (  91.93%)
   displ. norm   :     0.6741258 α      lambda       -0.2461918E-01
   maximum displ.:     0.4805765 α      in ANC's #1, #3, #24, ...

........................................................................
.............................. CYCLE    4 ..............................
........................................................................
   1    -38.2600041 -0.382600E+02  0.870E-01    1.70       0.0  T
   2    -38.2612397 -0.123557E-02  0.770E-01    1.59       1.0  T
   3    -38.2614727 -0.233032E-03  0.534E-01    1.63       1.0  T
   4    -38.2610290  0.443714E-03  0.242E-01    1.56       1.0  T
   5    -38.2617193 -0.690292E-03  0.135E-01    1.61       1.0  T
   6    -38.2617305 -0.112590E-04  0.405E-02    1.62       1.0  T
   7    -38.2617383 -0.780205E-05  0.207E-02    1.62       1.0  T
   8    -38.2617395 -0.120541E-05  0.941E-03    1.62       1.9  T
   9    -38.2617397 -0.131384E-06  0.421E-03    1.62       4.3  T
  10    -38.2617397 -0.218081E-07  0.128E-03    1.62      14.0  T
  11    -38.2617397 -0.529069E-08  0.422E-04    1.62      42.6  T
  12    -38.2617397 -0.583938E-09  0.209E-04    1.62      85.8  T
     SCC iter.                  ...        0 min,  0.832 sec
     gradient                   ...        0 min,  0.009 sec
 * total energy  :   -37.6518858 Eh     change        0.3640232E-03 Eh
   gradient norm :     0.1013248 Eh/α   predicted    -0.1790364E-01 (*******%)
   displ. norm   :     0.5497824 α      lambda       -0.3985766E-01
   maximum displ.:     0.3412941 α      in ANC's #1, #3, #22, ...

........................................................................
.............................. CYCLE    5 ..............................
........................................................................
   1    -38.2624979 -0.382625E+02  0.610E-01    1.62       0.0  T
   2    -38.2633536 -0.855758E-03  0.529E-01    1.77       1.0  T
   3    -38.2635776 -0.224033E-03  0.394E-01    1.72       1.0  T
   4    -38.2636547 -0.771055E-04  0.144E-01    1.76       1.0  T
   5    -38.2636986 -0.438753E-04  0.912E-02    1.73       1.0  T
   6    -38.2637071 -0.844989E-05  0.294E-02    1.73       1.0  T
   7    -38.2637100 -0.289689E-05  0.133E-02    1.72       1.4  T
   8    -38.2637107 -0.688210E-06  0.676E-03    1.73       2.7  T
   9    -38.2637109 -0.200380E-06  0.343E-03    1.73       5.2  T
  10    -38.2637109 -0.274864E-07  0.124E-03    1.73      14.4  T
  11    -38.2637109 -0.323224E-08  0.443E-04    1.73      40.6  T
  12    -38.2637109 -0.872923E-09  0.196E-04    1.73      91.7  T
     SCC iter.                  ...        0 min,  0.897 sec
     gradient                   ...        0 min,  0.144 sec
 * total energy  :   -37.6642700 Eh     change       -0.1238417E-01 Eh
   gradient norm :     0.0927325 Eh/α   predicted    -0.2595254E-01 ( 109.56%)
   displ. norm   :     0.3921750 α      lambda       -0.1571425E-01
   maximum displ.:     0.2921949 α      in ANC's #3, #23, #22, ...

........................................................................
.............................. CYCLE    6 ..............................
........................................................................
   1    -38.2827965 -0.382828E+02  0.620E-01    1.78       0.0  T
   2    -38.2830152 -0.218768E-03  0.434E-01    1.66       1.0  T
   3    -38.2830239 -0.870695E-05  0.256E-01    1.73       1.0  T
   4    -38.2830820 -0.580377E-04  0.880E-02    1.67       1.0  T
   5    -38.2831069 -0.249635E-04  0.425E-02    1.69       1.0  T
   6    -38.2831129 -0.598902E-05  0.194E-02    1.69       1.0  T
   7    -38.2831143 -0.142892E-05  0.814E-03    1.70       2.2  T
   8    -38.2831144 -0.686828E-07  0.359E-03    1.70       5.0  T
   9    -38.2831145 -0.628261E-07  0.140E-03    1.70      12.8  T
  10    -38.2831145 -0.479640E-08  0.534E-04    1.70      33.7  T
  11    -38.2831145 -0.141937E-08  0.237E-04    1.70      75.8  T
     SCC iter.                  ...        0 min,  0.741 sec
     gradient                   ...        0 min,  0.187 sec
 * total energy  :   -37.6720708 Eh     change       -0.7800812E-02 Eh
   gradient norm :     0.0282659 Eh/α   predicted    -0.9065600E-02 (  16.21%)
   displ. norm   :     0.5022113 α      lambda       -0.7303084E-02
   maximum displ.:     0.4130258 α      in ANC's #3, #24, #2, ...

........................................................................
.............................. CYCLE    7 ..............................
........................................................................
   1    -38.2982955 -0.382983E+02  0.353E-01    1.87       0.0  T
   2    -38.2984305 -0.134953E-03  0.225E-01    1.85       1.0  T
   3    -38.2983201  0.110330E-03  0.167E-01    1.90       1.0  T
   4    -38.2985004 -0.180240E-03  0.514E-02    1.87       1.0  T
   5    -38.2985316 -0.312766E-04  0.278E-02    1.88       1.0  T
   6    -38.2985323 -0.610341E-06  0.129E-02    1.88       1.4  T
   7    -38.2985326 -0.359439E-06  0.653E-03    1.87       2.7  T
   8    -38.2985327 -0.136709E-06  0.221E-03    1.88       8.1  T
   9    -38.2985328 -0.133908E-07  0.128E-03    1.88      14.1  T
  10    -38.2985328 -0.146618E-08  0.511E-04    1.88      35.1  T
  11    -38.2985328 -0.131060E-08  0.109E-04    1.88     164.5  T
     SCC iter.                  ...        0 min,  0.804 sec
     gradient                   ...        0 min,  0.156 sec
 * total energy  :   -37.6756336 Eh     change       -0.3562761E-02 Eh
   gradient norm :     0.0298162 Eh/α   predicted    -0.4572521E-02 (  28.34%)
   displ. norm   :     0.5075231 α      lambda       -0.5955703E-02
   maximum displ.:     0.4372889 α      in ANC's #3, #8, #22, ...

........................................................................
.............................. CYCLE    8 ..............................
........................................................................
   1    -38.2977953 -0.382978E+02  0.422E-01    1.67       0.0  T
   2    -38.2978867 -0.914333E-04  0.302E-01    1.69       1.0  T
   3    -38.2977819  0.104820E-03  0.139E-01    1.64       1.0  T
   4    -38.2979259 -0.143969E-03  0.425E-02    1.68       1.0  T
   5    -38.2979242  0.163087E-05  0.366E-02    1.68       1.0  T
   6    -38.2979290 -0.476078E-05  0.146E-02    1.69       1.2  T
   7    -38.2979294 -0.390194E-06  0.573E-03    1.69       3.1  T
   8    -38.2979297 -0.341796E-06  0.250E-03    1.69       7.2  T
   9    -38.2979298 -0.121078E-07  0.109E-03    1.69      16.5  T
  10    -38.2979298 -0.137716E-08  0.372E-04    1.69      48.3  T
  11    -38.2979298 -0.149100E-09  0.172E-04    1.69     104.2  T
     SCC iter.                  ...        0 min,  0.755 sec
     gradient                   ...        0 min,  0.123 sec
 * total energy  :   -37.6776172 Eh     change       -0.1983679E-02 Eh
   gradient norm :     0.0317653 Eh/α   predicted    -0.3744884E-02 (  88.78%)
   displ. norm   :     0.2727166 α      lambda       -0.3444690E-02
   maximum displ.:     0.1352631 α      in ANC's #3, #8, #2, ...

........................................................................
.............................. CYCLE    9 ..............................
........................................................................
   1    -38.3020963 -0.383021E+02  0.178E-01    1.75       0.0  T
   2    -38.3021328 -0.365323E-04  0.146E-01    1.74       1.0  T
   3    -38.3021316  0.117130E-05  0.838E-02    1.76       1.0  T
   4    -38.3021446 -0.130009E-04  0.261E-02    1.75       1.0  T
   5    -38.3021472 -0.254375E-05  0.181E-02    1.75       1.0  T
   6    -38.3021484 -0.115880E-05  0.849E-03    1.75       2.1  T
   7    -38.3021486 -0.210063E-06  0.413E-03    1.75       4.3  T
   8    -38.3021486 -0.289106E-07  0.118E-03    1.75      15.2  T
   9    -38.3021486 -0.535272E-08  0.677E-04    1.75      26.5  T
  10    -38.3021486 -0.125438E-08  0.194E-04    1.75      92.5  T
     SCC iter.                  ...        0 min,  0.689 sec
     gradient                   ...        0 min,  0.082 sec
 * total energy  :   -37.6798302 Eh     change       -0.2212941E-02 Eh
   gradient norm :     0.0140558 Eh/α   predicted    -0.1850445E-02 ( -16.38%)
   displ. norm   :     0.3725911 α      lambda       -0.1548562E-02
   maximum displ.:     0.2065289 α      in ANC's #8, #3, #2, ...

........................................................................
.............................. CYCLE   10 ..............................
........................................................................
   1    -38.3035835 -0.383036E+02  0.210E-01    1.79       0.0  T
   2    -38.3035995 -0.160560E-04  0.128E-01    1.78       1.0  T
   3    -38.3035801  0.194249E-04  0.656E-02    1.80       1.0  T
   4    -38.3036070 -0.268845E-04  0.165E-02    1.80       1.1  T
   5    -38.3036071 -0.110322E-06  0.108E-02    1.80       1.7  T
   6    -38.3036078 -0.677395E-06  0.249E-03    1.80       7.2  T
   7    -38.3036078 -0.435312E-07  0.164E-03    1.80      10.9  T
   8    -38.3036078 -0.524012E-08  0.745E-04    1.80      24.1  T
   9    -38.3036078 -0.976470E-09  0.394E-04    1.80      45.6  T
     SCC iter.                  ...        0 min,  0.700 sec
     gradient                   ...        0 min,  0.024 sec
 * total energy  :   -37.6808258 Eh     change       -0.9956065E-03 Eh
   gradient norm :     0.0087246 Eh/α   predicted    -0.8817693E-03 ( -11.43%)
   displ. norm   :     0.3518548 α      lambda       -0.7673578E-03
   maximum displ.:     0.2113018 α      in ANC's #8, #3, #2, ...

........................................................................
.............................. CYCLE   11 ..............................
........................................................................
   1    -38.3024316 -0.383024E+02  0.159E-01    1.80       0.0  T
   2    -38.3024428 -0.111894E-04  0.951E-02    1.80       1.0  T
   3    -38.3024226  0.202455E-04  0.511E-02    1.81       1.0  T
   4    -38.3024490 -0.264100E-04  0.116E-02    1.81       1.5  T
   5    -38.3024500 -0.105597E-05  0.808E-03    1.81       2.2  T
   6    -38.3024502 -0.139189E-06  0.283E-03    1.81       6.3  T
   7    -38.3024502 -0.340555E-07  0.212E-03    1.81       8.5  T
   8    -38.3024502 -0.924163E-08  0.108E-03    1.81      16.6  T
   9    -38.3024502 -0.289849E-08  0.553E-04    1.81      32.5  T
  10    -38.3024502 -0.196832E-08  0.171E-04    1.81     104.9  T
     SCC iter.                  ...        0 min,  0.647 sec
     gradient                   ...        0 min,  0.044 sec
 * total energy  :   -37.6813202 Eh     change       -0.4943985E-03 Eh
   gradient norm :     0.0089467 Eh/α   predicted    -0.4311788E-03 ( -12.79%)
   displ. norm   :     0.3865896 α      lambda       -0.7466141E-03
   maximum displ.:     0.2489287 α      in ANC's #8, #6, #3, ...

........................................................................
.............................. CYCLE   12 ..............................
........................................................................
   1    -38.3022750 -0.383023E+02  0.304E-01    1.78       0.0  T
   2    -38.3022999 -0.248709E-04  0.200E-01    1.79       1.0  T
   3    -38.3021369  0.162953E-03  0.855E-02    1.78       1.0  T
   4    -38.3023227 -0.185789E-03  0.168E-02    1.80       1.1  T
   5    -38.3023242 -0.144937E-05  0.102E-02    1.79       1.8  T
   6    -38.3023242 -0.388140E-07  0.340E-03    1.79       5.3  T
   7    -38.3023243 -0.774664E-07  0.196E-03    1.79       9.2  T
   8    -38.3023243 -0.153154E-07  0.104E-03    1.79      17.3  T
   9    -38.3023243 -0.396882E-08  0.610E-04    1.79      29.5  T
  10    -38.3023243 -0.125942E-08  0.269E-04    1.79      66.7  T
     SCC iter.                  ...        0 min,  0.682 sec
     gradient                   ...        0 min,  0.190 sec
 * total energy  :   -37.6818085 Eh     change       -0.4883455E-03 Eh
   gradient norm :     0.0073382 Eh/α   predicted    -0.4290987E-03 ( -12.13%)
   displ. norm   :     0.3706676 α      lambda       -0.6100379E-03
   maximum displ.:     0.2199345 α      in ANC's #8, #6, #12, ...

........................................................................
.............................. CYCLE   13 ..............................
........................................................................
   1    -38.3051062 -0.383051E+02  0.180E-01    1.79       0.0  T
   2    -38.3051196 -0.133307E-04  0.113E-01    1.79       1.0  T
   3    -38.3050532  0.663491E-04  0.615E-02    1.79       1.0  T
   4    -38.3051322 -0.789860E-04  0.866E-03    1.80       2.1  T
   5    -38.3051325 -0.311505E-06  0.647E-03    1.79       2.8  T
   6    -38.3051326 -0.113689E-06  0.282E-03    1.79       6.4  T
   7    -38.3051326 -0.240762E-08  0.150E-03    1.79      12.0  T
   8    -38.3051327 -0.183368E-07  0.815E-04    1.79      22.1  T
   9    -38.3051327 -0.138719E-08  0.444E-04    1.79      40.5  T
     SCC iter.                  ...        0 min,  0.662 sec
     gradient                   ...        0 min,  0.100 sec
 * total energy  :   -37.6822214 Eh     change       -0.4128582E-03 Eh
   gradient norm :     0.0065588 Eh/α   predicted    -0.3469325E-03 ( -15.97%)
   displ. norm   :     0.4164579 α      lambda       -0.5842996E-03
   maximum displ.:     0.2133821 α      in ANC's #6, #8, #12, ...

........................................................................
.............................. CYCLE   14 ..............................
........................................................................
   1    -38.3061379 -0.383061E+02  0.323E-01    1.78       0.0  T
   2    -38.3061500 -0.121162E-04  0.218E-01    1.79       1.0  T
   3    -38.3060959  0.540972E-04  0.439E-02    1.78       1.0  T
   4    -38.3061562 -0.602300E-04  0.126E-02    1.79       1.4  T
   5    -38.3061571 -0.967879E-06  0.684E-03    1.79       2.6  T
   6    -38.3061572 -0.906217E-07  0.278E-03    1.79       6.5  T
   7    -38.3061573 -0.656787E-07  0.136E-03    1.79      13.2  T
   8    -38.3061573 -0.916756E-08  0.707E-04    1.79      25.4  T
   9    -38.3061573 -0.401501E-08  0.316E-04    1.79      56.8  T
     SCC iter.                  ...        0 min,  0.577 sec
     gradient                   ...        0 min,  0.004 sec
 * total energy  :   -37.6826130 Eh     change       -0.3916390E-03 Eh
   gradient norm :     0.0084615 Eh/α   predicted    -0.3428261E-03 ( -12.46%)
   displ. norm   :     0.4652444 α      lambda       -0.6341510E-03
   maximum displ.:     0.2250318 α      in ANC's #6, #12, #8, ...

........................................................................
.............................. CYCLE   15 ..............................
........................................................................
   1    -38.3053384 -0.383053E+02  0.268E-01    1.79       0.0  T
   2    -38.3053456 -0.723202E-05  0.181E-01    1.80       1.0  T
   3    -38.3053279  0.176723E-04  0.380E-02    1.79       1.0  T
   4    -38.3053481 -0.201658E-04  0.100E-02    1.80       1.8  T
   5    -38.3053482 -0.112769E-06  0.518E-03    1.80       3.5  T
   6    -38.3053483 -0.642497E-07  0.231E-03    1.79       7.8  T
   7    -38.3053483 -0.496008E-07  0.107E-03    1.80      16.8  T
   8    -38.3053483 -0.340452E-08  0.485E-04    1.80      37.0  T
   9    -38.3053483 -0.366207E-09  0.308E-04    1.80      58.4  T
     SCC iter.                  ...        0 min,  0.637 sec
     gradient                   ...        0 min,  0.159 sec
 * total energy  :   -37.6831166 Eh     change       -0.5036241E-03 Eh
   gradient norm :     0.0092340 Eh/α   predicted    -0.3857132E-03 ( -23.41%)
   displ. norm   :     0.5547083 α      lambda       -0.8064804E-03
   maximum displ.:     0.2466050 α      in ANC's #6, #12, #11, ...

........................................................................
.............................. CYCLE   16 ..............................
........................................................................
   1    -38.3052113 -0.383052E+02  0.310E-01    1.79       0.0  T
   2    -38.3052177 -0.632905E-05  0.204E-01    1.80       1.0  T
   3    -38.3051854  0.322585E-04  0.349E-02    1.80       1.0  T
   4    -38.3052201 -0.346985E-04  0.153E-02    1.80       1.2  T
   5    -38.3052218 -0.166982E-05  0.850E-03    1.80       2.1  T
   6    -38.3052219 -0.129172E-06  0.298E-03    1.80       6.0  T
   7    -38.3052219 -0.441426E-07  0.147E-03    1.80      12.2  T
   8    -38.3052219  0.244985E-08  0.805E-04    1.80      22.3  T
   9    -38.3052219 -0.450684E-08  0.561E-04    1.80      32.0  T
     SCC iter.                  ...        0 min,  0.863 sec
     gradient                   ...        0 min,  0.165 sec
 * total energy  :   -37.6837341 Eh     change       -0.6174342E-03 Eh
   gradient norm :     0.0094519 Eh/α   predicted    -0.5273278E-03 ( -14.59%)
   displ. norm   :     0.5457262 α      lambda       -0.7078083E-03
   maximum displ.:     0.2409361 α      in ANC's #4, #6, #12, ...

........................................................................
.............................. CYCLE   17 ..............................
........................................................................
   1    -38.3024854 -0.383025E+02  0.302E-01    1.81       0.0  T
   2    -38.3024945 -0.909593E-05  0.198E-01    1.80       1.0  T
   3    -38.3024142  0.802892E-04  0.540E-02    1.82       1.0  T
   4    -38.3025024 -0.882114E-04  0.136E-02    1.81       1.3  T
   5    -38.3025026 -0.163794E-06  0.802E-03    1.81       2.2  T
   6    -38.3025030 -0.399015E-06  0.256E-03    1.81       7.0  T
   7    -38.3025030 -0.312584E-07  0.127E-03    1.81      14.1  T
   8    -38.3025030 -0.469340E-08  0.600E-04    1.81      29.9  T
   9    -38.3025030 -0.909964E-09  0.398E-04    1.81      45.1  T
     SCC iter.                  ...        0 min,  0.475 sec
     gradient                   ...        0 min,  0.023 sec
 * total energy  :   -37.6842689 Eh     change       -0.5348530E-03 Eh
   gradient norm :     0.0094125 Eh/α   predicted    -0.4593105E-03 ( -14.12%)
   displ. norm   :     0.5269789 α      lambda       -0.6676927E-03
   maximum displ.:     0.2530694 α      in ANC's #4, #6, #12, ...

........................................................................
.............................. CYCLE   18 ..............................
........................................................................
   1    -38.3039143 -0.383039E+02  0.244E-01    1.81       0.0  T
   2    -38.3039199 -0.555681E-05  0.155E-01    1.80       1.0  T
   3    -38.3039046  0.153007E-04  0.419E-02    1.82       1.0  T
   4    -38.3039230 -0.184228E-04  0.126E-02    1.81       1.4  T
   5    -38.3039228  0.214364E-06  0.532E-03    1.81       3.4  T
   6    -38.3039231 -0.367290E-06  0.206E-03    1.81       8.7  T
   7    -38.3039232 -0.479122E-07  0.955E-04    1.81      18.8  T
   8    -38.3039232 -0.201631E-08  0.408E-04    1.81      44.0  T
     SCC iter.                  ...        0 min,  0.334 sec
     gradient                   ...        0 min,  0.067 sec
 * total energy  :   -37.6847728 Eh     change       -0.5038294E-03 Eh
   gradient norm :     0.0089797 Eh/α   predicted    -0.4265644E-03 ( -15.34%)
   displ. norm   :     0.5229835 α      lambda       -0.6244297E-03
   maximum displ.:     0.2741554 α      in ANC's #4, #6, #9, ...

........................................................................
.............................. CYCLE   19 ..............................
........................................................................
   1    -38.3040770 -0.383041E+02  0.207E-01    1.81       0.0  T
   2    -38.3040828 -0.581594E-05  0.134E-01    1.80       1.0  T
   3    -38.3040703  0.125300E-04  0.345E-02    1.81       1.0  T
   4    -38.3040860 -0.156816E-04  0.123E-02    1.81       1.5  T
   5    -38.3040861 -0.961440E-07  0.808E-03    1.80       2.2  T
   6    -38.3040866 -0.542179E-06  0.195E-03    1.81       9.2  T
   7    -38.3040866 -0.249252E-07  0.132E-03    1.80      13.6  T
   8    -38.3040866 -0.371296E-08  0.458E-04    1.81      39.2  T
   9    -38.3040866 -0.883631E-09  0.237E-04    1.81      75.7  T
     SCC iter.                  ...        0 min,  0.387 sec
     gradient                   ...        0 min,  0.026 sec
 * total energy  :   -37.6852398 Eh     change       -0.4670206E-03 Eh
   gradient norm :     0.0066495 Eh/α   predicted    -0.3976172E-03 ( -14.86%)
   displ. norm   :     0.4793559 α      lambda       -0.5293209E-03
   maximum displ.:     0.2629763 α      in ANC's #4, #6, #9, ...

........................................................................
.............................. CYCLE   20 ..............................
........................................................................
   1    -38.3066019 -0.383066E+02  0.153E-01    1.81       0.0  T
   2    -38.3066088 -0.691625E-05  0.968E-02    1.81       1.0  T
   3    -38.3065861  0.226878E-04  0.394E-02    1.81       1.0  T
   4    -38.3066139 -0.277461E-04  0.133E-02    1.81       1.4  T
   5    -38.3066143 -0.416613E-06  0.888E-03    1.81       2.0  T
   6    -38.3066147 -0.405334E-06  0.191E-03    1.81       9.4  T
   7    -38.3066147 -0.310060E-08  0.128E-03    1.81      14.1  T
   8    -38.3066147 -0.156763E-08  0.655E-04    1.81      27.4  T
   9    -38.3066147 -0.139127E-08  0.337E-04    1.81      53.3  T
     SCC iter.                  ...        0 min,  0.280 sec
     gradient                   ...        0 min,  0.015 sec
 * total energy  :   -37.6856217 Eh     change       -0.3818689E-03 Eh
   gradient norm :     0.0058291 Eh/α   predicted    -0.3254803E-03 ( -14.77%)
   displ. norm   :     0.4604813 α      lambda       -0.3572995E-03
   maximum displ.:     0.2568418 α      in ANC's #4, #6, #8, ...
 * RMSD in coord.:     1.1371748 α      energy gain  -0.1008849E+00 Eh

generating ANC from model Hessian ...
Using Lindh-Hessian (1995)
 Shifting diagonal of input Hessian by    9.7990798984292100E-003
 Lowest  eigenvalues of input Hessian
    0.000000    0.000000    0.000000    0.000000    0.000000    0.000000
    0.010000    0.010121    0.010189    0.010421    0.010899    0.011133
    0.011564    0.012340    0.017778    0.017830    0.018176    0.018600
 Highest eigenvalues
    1.664606    1.666460    1.710341    1.717004    1.717252    1.724080


........................................................................
.............................. CYCLE   21 ..............................
........................................................................
   1    -38.3052137 -0.383052E+02  0.142E-01    1.80       0.0  T
   2    -38.3052192 -0.543247E-05  0.909E-02    1.81       1.0  T
   3    -38.3051860  0.332128E-04  0.421E-02    1.79       1.0  T
   4    -38.3052249 -0.388903E-04  0.113E-02    1.80       1.6  T
   5    -38.3052248  0.317192E-07  0.681E-03    1.80       2.6  T
   6    -38.3052251 -0.249451E-06  0.141E-03    1.80      12.7  T
   7    -38.3052251 -0.861682E-08  0.907E-04    1.80      19.8  T
   8    -38.3052251 -0.111065E-08  0.506E-04    1.80      35.5  T
     SCC iter.                  ...        0 min,  0.317 sec
     gradient                   ...        0 min,  0.113 sec
 * total energy  :   -37.6858674 Eh     change       -0.2457467E-03 Eh
   gradient norm :     0.0062434 Eh/α   predicted     0.0000000E+00 (-100.00%)
   displ. norm   :     0.0998836 α      lambda       -0.2327547E-03
   maximum displ.:     0.0640903 α      in ANC's #3, #6, #13, ...

........................................................................
.............................. CYCLE   22 ..............................
........................................................................
   1    -38.3086948 -0.383087E+02  0.458E-02    1.81       0.0  T
   2    -38.3086957 -0.939524E-06  0.281E-02    1.80       1.0  T
   3    -38.3086941  0.158943E-05  0.106E-02    1.81       1.7  T
   4    -38.3086961 -0.195456E-05  0.310E-03    1.80       5.8  T
   5    -38.3086961 -0.325696E-07  0.198E-03    1.81       9.1  T
   6    -38.3086961 -0.734730E-08  0.958E-04    1.81      18.8  T
   7    -38.3086962 -0.752718E-08  0.302E-04    1.81      59.4  T
     SCC iter.                  ...        0 min,  0.329 sec
     gradient                   ...        0 min,  0.113 sec
 * total energy  :   -37.6860421 Eh     change       -0.1746502E-03 Eh
   gradient norm :     0.0022649 Eh/α   predicted    -0.1182994E-03 ( -32.26%)
   displ. norm   :     0.1737688 α      lambda       -0.1917309E-03
   maximum displ.:     0.1200869 α      in ANC's #3, #6, #13, ...

........................................................................
.............................. CYCLE   23 ..............................
........................................................................
   1    -38.3106024 -0.383106E+02  0.642E-02    1.80       0.0  T
   2    -38.3106033 -0.937357E-06  0.384E-02    1.81       1.0  T
   3    -38.3106010  0.229986E-05  0.142E-02    1.80       1.3  T
   4    -38.3106038 -0.280795E-05  0.376E-03    1.81       4.8  T
   5    -38.3106039 -0.127182E-07  0.253E-03    1.81       7.1  T
   6    -38.3106039 -0.156536E-07  0.114E-03    1.81      15.7  T
   7    -38.3106039 -0.622122E-08  0.492E-04    1.81      36.5  T
   8    -38.3106039 -0.492413E-09  0.229E-04    1.81      78.5  T
     SCC iter.                  ...        0 min,  0.374 sec
     gradient                   ...        0 min,  0.004 sec
 * total energy  :   -37.6861830 Eh     change       -0.1409657E-03 Eh
   gradient norm :     0.0022058 Eh/α   predicted    -0.9877641E-04 ( -29.93%)
   displ. norm   :     0.1816805 α      lambda       -0.1278972E-03
   maximum displ.:     0.1306457 α      in ANC's #3, #6, #5, ...

........................................................................
.............................. CYCLE   24 ..............................
........................................................................
   1    -38.3104239 -0.383104E+02  0.435E-02    1.81       0.0  T
   2    -38.3104246 -0.616928E-06  0.251E-02    1.81       1.0  T
   3    -38.3104234  0.120612E-05  0.109E-02    1.81       1.7  T
   4    -38.3104249 -0.153446E-05  0.286E-03    1.81       6.3  T
   5    -38.3104249 -0.877941E-08  0.196E-03    1.81       9.2  T
   6    -38.3104249 -0.837066E-08  0.831E-04    1.81      21.6  T
   7    -38.3104249 -0.297309E-08  0.368E-04    1.81      48.8  T
     SCC iter.                  ...        0 min,  0.315 sec
     gradient                   ...        0 min,  0.007 sec
 * total energy  :   -37.6862908 Eh     change       -0.1077928E-03 Eh
   gradient norm :     0.0031797 Eh/α   predicted    -0.6606008E-04 ( -38.72%)
   displ. norm   :     0.1955554 α      lambda       -0.1287571E-03
   maximum displ.:     0.1403845 α      in ANC's #3, #6, #2, ...

........................................................................
.............................. CYCLE   25 ..............................
........................................................................
   1    -38.3093768 -0.383094E+02  0.319E-02    1.81       0.0  T
   2    -38.3093774 -0.595203E-06  0.185E-02    1.81       1.0  T
   3    -38.3093768  0.582754E-06  0.762E-03    1.81       2.4  T
   4    -38.3093776 -0.795949E-06  0.150E-03    1.81      12.0  T
   5    -38.3093776 -0.106842E-07  0.100E-03    1.81      18.0  T
   6    -38.3093776 -0.278275E-08  0.671E-04    1.81      26.8  T
   7    -38.3093776 -0.154694E-08  0.271E-04    1.81      66.2  T
     SCC iter.                  ...        0 min,  0.296 sec
     gradient                   ...        0 min,  0.004 sec
 * total energy  :   -37.6864037 Eh     change       -0.1129209E-03 Eh
   gradient norm :     0.0027170 Eh/α   predicted    -0.6684067E-04 ( -40.81%)
   displ. norm   :     0.2229316 α      lambda       -0.1397926E-03
   maximum displ.:     0.1586236 α      in ANC's #3, #2, #6, ...

........................................................................
.............................. CYCLE   26 ..............................
........................................................................
   1    -38.3082619 -0.383083E+02  0.500E-02    1.81       0.0  T
   2    -38.3082626 -0.670001E-06  0.322E-02    1.81       1.0  T
   3    -38.3082616  0.101252E-05  0.715E-03    1.81       2.5  T
   4    -38.3082628 -0.118807E-05  0.202E-03    1.81       8.9  T
   5    -38.3082628 -0.243508E-07  0.117E-03    1.81      15.4  T
   6    -38.3082628 -0.394705E-08  0.365E-04    1.81      49.2  T
   7    -38.3082628 -0.342922E-09  0.157E-04    1.81     114.6  T
     SCC iter.                  ...        0 min,  0.311 sec
     gradient                   ...        0 min,  0.108 sec
 * total energy  :   -37.6865255 Eh     change       -0.1218196E-03 Eh
   gradient norm :     0.0021159 Eh/α   predicted    -0.7337061E-04 ( -39.77%)
   displ. norm   :     0.2477249 α      lambda       -0.1442968E-03
   maximum displ.:     0.1747847 α      in ANC's #3, #2, #1, ...

........................................................................
.............................. CYCLE   27 ..............................
........................................................................
   1    -38.3075034 -0.383075E+02  0.768E-02    1.80       0.0  T
   2    -38.3075042 -0.732694E-06  0.500E-02    1.81       1.0  T
   3    -38.3075029  0.131503E-05  0.808E-03    1.81       2.2  T
   4    -38.3075044 -0.150933E-05  0.308E-03    1.81       5.8  T
   5    -38.3075044 -0.345986E-07  0.188E-03    1.81       9.6  T
   6    -38.3075044 -0.168874E-07  0.665E-04    1.81      27.0  T
   7    -38.3075044 -0.217771E-08  0.341E-04    1.81      52.7  T
     SCC iter.                  ...        0 min,  0.359 sec
     gradient                   ...        0 min,  0.125 sec
 * total energy  :   -37.6866512 Eh     change       -0.1256236E-03 Eh
   gradient norm :     0.0025563 Eh/α   predicted    -0.7657638E-04 ( -39.04%)
   displ. norm   :     0.2780951 α      lambda       -0.1547587E-03
   maximum displ.:     0.1957108 α      in ANC's #3, #2, #1, ...

........................................................................
.............................. CYCLE   28 ..............................
........................................................................
   1    -38.3072284 -0.383072E+02  0.103E-01    1.80       0.0  T
   2    -38.3072293 -0.896506E-06  0.672E-02    1.81       1.0  T
   3    -38.3072275  0.179336E-05  0.977E-03    1.80       1.8  T
   4    -38.3072295 -0.205105E-05  0.429E-03    1.81       4.2  T
   5    -38.3072296 -0.637120E-07  0.257E-03    1.81       7.0  T
   6    -38.3072296 -0.415379E-07  0.975E-04    1.81      18.4  T
   7    -38.3072296 -0.286212E-08  0.478E-04    1.81      37.6  T
     SCC iter.                  ...        0 min,  0.299 sec
     gradient                   ...        0 min,  0.065 sec
 * total energy  :   -37.6867856 Eh     change       -0.1344671E-03 Eh
   gradient norm :     0.0033340 Eh/α   predicted    -0.8336861E-04 ( -38.00%)
   displ. norm   :     0.3360578 α      lambda       -0.1788104E-03
   maximum displ.:     0.2375857 α      in ANC's #3, #2, #1, ...

........................................................................
.............................. CYCLE   29 ..............................
........................................................................
   1    -38.3072581 -0.383073E+02  0.134E-01    1.80       0.0  T
   2    -38.3072595 -0.140418E-05  0.873E-02    1.81       1.0  T
   3    -38.3072563  0.319510E-05  0.130E-02    1.80       1.4  T
   4    -38.3072599 -0.361942E-05  0.579E-03    1.81       3.1  T
   5    -38.3072600 -0.131552E-06  0.330E-03    1.80       5.4  T
   6    -38.3072601 -0.629601E-07  0.131E-03    1.80      13.7  T
   7    -38.3072601 -0.475752E-08  0.623E-04    1.80      28.8  T
   8    -38.3072601 -0.545803E-09  0.322E-04    1.80      55.8  T
     SCC iter.                  ...        0 min,  0.369 sec
     gradient                   ...        0 min,  0.022 sec
 * total energy  :   -37.6869369 Eh     change       -0.1512927E-03 Eh
   gradient norm :     0.0037443 Eh/α   predicted    -0.9950505E-04 ( -34.23%)
   displ. norm   :     0.4090784 α      lambda       -0.1962598E-03
   maximum displ.:     0.2923846 α      in ANC's #3, #2, #1, ...

........................................................................
.............................. CYCLE   30 ..............................
........................................................................
   1    -38.3072871 -0.383073E+02  0.162E-01    1.80       0.0  T
   2    -38.3072893 -0.217587E-05  0.107E-01    1.81       1.0  T
   3    -38.3072839  0.542698E-05  0.171E-02    1.80       1.1  T
   4    -38.3072900 -0.607347E-05  0.746E-03    1.81       2.4  T
   5    -38.3072902 -0.236176E-06  0.411E-03    1.80       4.4  T
   6    -38.3072903 -0.881978E-07  0.161E-03    1.81      11.2  T
   7    -38.3072903 -0.897705E-08  0.759E-04    1.80      23.7  T
   8    -38.3072903 -0.984762E-09  0.383E-04    1.81      46.9  T
     SCC iter.                  ...        0 min,  0.376 sec
     gradient                   ...        0 min,  0.077 sec
 * total energy  :   -37.6870938 Eh     change       -0.1568511E-03 Eh
   gradient norm :     0.0036424 Eh/α   predicted    -0.1145521E-03 ( -26.97%)
   displ. norm   :     0.4506997 α      lambda       -0.1818923E-03
   maximum displ.:     0.3270325 α      in ANC's #3, #2, #1, ...

........................................................................
.............................. CYCLE   31 ..............................
........................................................................
   1    -38.3075100 -0.383075E+02  0.168E-01    1.80       0.0  T
   2    -38.3075127 -0.261068E-05  0.112E-01    1.81       1.0  T
   3    -38.3075050  0.761073E-05  0.204E-02    1.80       1.0  T
   4    -38.3075135 -0.842019E-05  0.834E-03    1.81       2.2  T
   5    -38.3075138 -0.299822E-06  0.460E-03    1.81       3.9  T
   6    -38.3075139 -0.103888E-06  0.168E-03    1.81      10.7  T
   7    -38.3075139 -0.114014E-07  0.795E-04    1.81      22.6  T
   8    -38.3075139 -0.129376E-08  0.400E-04    1.81      44.9  T
     SCC iter.                  ...        0 min,  0.407 sec
     gradient                   ...        0 min,  0.037 sec
 * total energy  :   -37.6872279 Eh     change       -0.1340728E-03 Eh
   gradient norm :     0.0031309 Eh/α   predicted    -0.1094258E-03 ( -18.38%)
   displ. norm   :     0.3256569 α      lambda       -0.1231419E-03
   maximum displ.:     0.2372179 α      in ANC's #3, #2, #1, ...

........................................................................
.............................. CYCLE   32 ..............................
........................................................................
   1    -38.3096952 -0.383097E+02  0.107E-01    1.80       0.0  T
   2    -38.3096964 -0.122738E-05  0.719E-02    1.81       1.0  T
   3    -38.3096919  0.456870E-05  0.148E-02    1.80       1.2  T
   4    -38.3096969 -0.498084E-05  0.572E-03    1.81       3.1  T
   5    -38.3096970 -0.186271E-06  0.314E-03    1.81       5.7  T
   6    -38.3096971 -0.420736E-07  0.102E-03    1.81      17.6  T
   7    -38.3096971 -0.361678E-08  0.487E-04    1.81      36.9  T
   8    -38.3096971 -0.714124E-09  0.245E-04    1.81      73.3  T
     SCC iter.                  ...        0 min,  0.323 sec
     gradient                   ...        0 min,  0.068 sec
 * total energy  :   -37.6873177 Eh     change       -0.8988006E-04 Eh
   gradient norm :     0.0014934 Eh/α   predicted    -0.6810284E-04 ( -24.23%)
   displ. norm   :     0.4835502 α      lambda       -0.7532090E-04
   maximum displ.:     0.3538583 α      in ANC's #3, #2, #4, ...

........................................................................
.............................. CYCLE   33 ..............................
........................................................................
   1    -38.3082619 -0.383083E+02  0.123E-01    1.80       0.0  T
   2    -38.3082649 -0.304276E-05  0.846E-02    1.81       1.0  T
   3    -38.3082545  0.104220E-04  0.238E-02    1.80       1.0  T
   4    -38.3082659 -0.113676E-04  0.716E-03    1.81       2.5  T
   5    -38.3082662 -0.331051E-06  0.427E-03    1.81       4.2  T
   6    -38.3082663 -0.435587E-07  0.125E-03    1.81      14.4  T
   7    -38.3082663 -0.215254E-07  0.517E-04    1.81      34.7  T
   8    -38.3082663 -0.111685E-08  0.268E-04    1.81      67.0  T
     SCC iter.                  ...        0 min,  0.384 sec
     gradient                   ...        0 min,  0.103 sec
 * total energy  :   -37.6873789 Eh     change       -0.6114439E-04 Eh
   gradient norm :     0.0026364 Eh/α   predicted    -0.4157954E-04 ( -32.00%)
   displ. norm   :     0.1021714 α      lambda       -0.6397045E-04
   maximum displ.:     0.0747164 α      in ANC's #4, #3, #7, ...

........................................................................
.............................. CYCLE   34 ..............................
........................................................................
   1    -38.3130720 -0.383131E+02  0.463E-02    1.81       0.0  T
   2    -38.3130725 -0.504615E-06  0.306E-02    1.81       1.0  T
   3    -38.3130717  0.774691E-06  0.762E-03    1.81       2.4  T
   4    -38.3130727 -0.946977E-06  0.312E-03    1.81       5.7  T
   5    -38.3130727 -0.160712E-07  0.161E-03    1.81      11.2  T
   6    -38.3130727 -0.255820E-08  0.625E-04    1.81      28.7  T
   7    -38.3130727 -0.595345E-08  0.360E-04    1.81      49.9  T
     SCC iter.                  ...        0 min,  0.328 sec
     gradient                   ...        0 min,  0.070 sec
 * total energy  :   -37.6874019 Eh     change       -0.2299582E-04 Eh
   gradient norm :     0.0025507 Eh/α   predicted    -0.3232009E-04 (  40.55%)
   displ. norm   :     0.0900180 α      lambda       -0.2464602E-04
   maximum displ.:     0.0695884 α      in ANC's #3, #2, #4, ...

........................................................................
.............................. CYCLE   35 ..............................
........................................................................
   1    -38.3113427 -0.383113E+02  0.198E-02    1.81       0.0  T
   2    -38.3113428 -0.148063E-06  0.132E-02    1.81       1.4  T
   3    -38.3113426  0.205096E-06  0.355E-03    1.81       5.1  T
   4    -38.3113429 -0.246288E-06  0.148E-03    1.81      12.1  T
   5    -38.3113429 -0.488792E-08  0.885E-04    1.81      20.3  T
   6    -38.3113429  0.554749E-09  0.213E-04    1.81      84.5  T
     SCC iter.                  ...        0 min,  0.605 sec
     gradient                   ...        0 min,  0.004 sec
 * total energy  :   -37.6874204 Eh     change       -0.1848941E-04 Eh
   gradient norm :     0.0014302 Eh/α   predicted    -0.1242550E-04 ( -32.80%)
   displ. norm   :     0.1770564 α      lambda       -0.2446684E-04
   maximum displ.:     0.1262162 α      in ANC's #3, #4, #2, ...

........................................................................
.............................. CYCLE   36 ..............................
........................................................................
   1    -38.3093784 -0.383094E+02  0.442E-02    1.80       0.0  T
   2    -38.3093790 -0.551839E-06  0.286E-02    1.80       1.0  T
   3    -38.3093780  0.939950E-06  0.867E-03    1.80       2.1  T
   4    -38.3093792 -0.113311E-05  0.321E-03    1.80       5.6  T
   5    -38.3093792 -0.871385E-08  0.147E-03    1.80      12.2  T
   6    -38.3093792 -0.102384E-07  0.442E-04    1.80      40.7  T
   7    -38.3093792 -0.213977E-08  0.220E-04    1.80      81.8  T
     SCC iter.                  ...        0 min,  0.384 sec
     gradient                   ...        0 min,  0.022 sec
 * total energy  :   -37.6874363 Eh     change       -0.1598202E-04 Eh
   gradient norm :     0.0015248 Eh/α   predicted    -0.1240409E-04 ( -22.39%)
   displ. norm   :     0.0360541 α      lambda       -0.8371520E-05
   maximum displ.:     0.0271577 α      in ANC's #4, #1, #5, ...

........................................................................
.............................. CYCLE   37 ..............................
........................................................................
   1    -38.3105713 -0.383106E+02  0.186E-02    1.81       0.0  T
   2    -38.3105714 -0.137007E-06  0.129E-02    1.80       1.4  T
   3    -38.3105711  0.250391E-06  0.434E-03    1.81       4.1  T
   4    -38.3105714 -0.280150E-06  0.116E-03    1.81      15.5  T
   5    -38.3105714 -0.102199E-07  0.614E-04    1.81      29.2  T
   6    -38.3105714  0.617824E-09  0.276E-04    1.81      65.2  T
     SCC iter.                  ...        0 min,  0.376 sec
     gradient                   ...        0 min,  0.058 sec
 * total energy  :   -37.6874443 Eh     change       -0.7969813E-05 Eh
   gradient norm :     0.0007121 Eh/α   predicted    -0.4188852E-05 ( -47.44%)
   displ. norm   :     0.0312574 α      lambda       -0.3534954E-05
   maximum displ.:     0.0232272 α      in ANC's #4, #1, #7, ...

........................................................................
.............................. CYCLE   38 ..............................
........................................................................
   1    -38.3113223 -0.383113E+02  0.154E-02    1.81       0.0  T
   2    -38.3113224 -0.511920E-07  0.985E-03    1.81       1.8  T
   3    -38.3113221  0.224457E-06  0.383E-03    1.81       4.7  T
   4    -38.3113224 -0.254538E-06  0.106E-03    1.81      17.0  T
   5    -38.3113224 -0.150520E-08  0.634E-04    1.81      28.3  T
   6    -38.3113224  0.486466E-09  0.201E-04    1.81      89.5  T
     SCC iter.                  ...        0 min,  0.318 sec
     gradient                   ...        0 min,  0.004 sec
 * total energy  :   -37.6874473 Eh     change       -0.2956436E-05 Eh
   gradient norm :     0.0004842 Eh/α   predicted    -0.1769834E-05 ( -40.14%)
   displ. norm   :     0.0409695 α      lambda       -0.1628834E-05
   maximum displ.:     0.0270961 α      in ANC's #3, #4, #2, ...

   *** GEOMETRY OPTIMIZATION CONVERGED AFTER 38 ITERATIONS ***

------------------------------------------------------------------------
 total energy gain   :        -0.1027105 Eh      -64.4518 kcal/mol
 total RMSD          :         1.5779723 a0        0.8350 Å
 total power (kW/mol):        -7.0964835 (step)  -11.3127 (real)
------------------------------------------------------------------------

 ANCopt (total)                0 d,  0 h,  0 min, 23.838 sec
 optimizer setup                ...        0 min,  0.000 sec (  0.002%)
 model hessian                  ...        0 min,  0.037 sec (  0.156%)
 ANC generation                 ...        0 min,  0.017 sec (  0.069%)
 coordinate transformation      ...        0 min,  0.001 sec (  0.002%)
 single point calculation       ...        0 min, 23.436 sec ( 98.315%)
 optimization log               ...        0 min,  0.004 sec (  0.015%)
 hessian update                 ...        0 min,  0.203 sec (  0.850%)
 rational function              ...        0 min,  0.137 sec (  0.573%)

================
 final structure:
================
31
 xtb: 6.5.1 (b24c23e)
Zr          -0.54624451123703       -0.65811691355896        0.19157447492153
C           -1.71347801889403       -2.40971579696225       -0.35812342287759
C            1.73475647475714        0.02252386491650        0.84446240569899
C            1.79583984717106       -0.49862518740430       -0.47086434774366
C            1.45101935204753       -1.87584326118506       -0.41263153058866
C            1.17210845483011       -2.19735705298134        0.94379156503296
C            1.32447726380626       -1.01719457331517        1.71694684015682
H            2.08045433290419        1.00345825146866        1.15021548916659
H            2.20603860514935        0.01310156005535       -1.33608428417518
H            1.56362378371878       -2.59138237116544       -1.22048039252441
H            1.02037882089816       -3.19677010781407        1.33570930919833
H            1.32864296123514       -0.96950531032669        2.80236012953170
C           -0.68541524531066        1.73090477696120       -0.34112130292032
C           -1.02951380948811        1.59835639066259        1.02757960523912
C           -2.22947500729502        0.84711672769949        1.10920187050562
C           -2.62863335143244        0.51699760542112       -0.21204637480356
C           -1.65789179485082        1.04358879185190       -1.11065960684030
H            0.10224882771092        2.36341541624274       -0.73644744961081
H           -0.56168245773218        2.12786739453904        1.85130025599858
H           -2.83178138702308        0.71297546588973        2.00263445864856
H           -3.58285257396677        0.09132279270794       -0.49808738185115
H           -1.76060619909663        1.08796774519773       -2.19098347180579
H           -1.12558657543882       -3.30939993149251       -0.60639556961477
H           -2.54034484314002       -2.35891205901653       -1.08243577736719
C           -2.29426368281684       -2.58217405836745        1.07599647007724
H           -1.63490533610219       -2.07714808242693        1.84678996995626
H           -3.29013278198310       -2.12136289773500        1.13675033675550
C           -2.42427686860965       -4.05691121391002        1.47537401310849
H           -1.44990302753794       -4.54313129620155        1.47721933177805
H           -2.85952062693471       -4.15735541107000        2.46677517546589
H           -3.06688755538224       -4.57497507863897        0.76722007150682

 Bond Distances (Angstroems)
 ---------------------------
Zr1-C2=2.1755        Zr1-C3=2.4683        Zr1-C4=2.4392        Zr1-C5=2.4160        Zr1-C6=2.4265        Zr1-C7=2.4403        
Zr1-C13=2.4516       Zr1-C14=2.4544       Zr1-C15=2.4374       Zr1-C16=2.4249       Zr1-C17=2.4140       Zr1-C25=2.7459       
Zr1-H26=2.4369       C2-Zr1=2.1755        C2-H23=1.1030        C2-H24=1.1004        C2-C25=1.5568        C3-Zr1=2.4683        
C3-C4=1.4161         C3-C7=1.4179         C3-H8=1.0841         C4-Zr1=2.4392        C4-C3=1.4161         C4-C5=1.4209         
C4-H9=1.0857         C5-Zr1=2.4160        C5-C4=1.4209         C5-C6=1.4216         C5-H10=1.0850        C6-Zr1=2.4265        
C6-C5=1.4216         C6-C7=1.4191         C6-H11=1.0842        C7-Zr1=2.4403        C7-C3=1.4179         C7-C6=1.4191         
C7-H12=1.0865        H8-C3=1.0841         H9-C4=1.0857         H10-C5=1.0850        H11-C6=1.0842        H12-C7=1.0865        
C13-Zr1=2.4516       C13-C14=1.4175       C13-C17=1.4179       C13-H18=1.0848       C14-Zr1=2.4544       C14-C13=1.4175       
C14-C15=1.4181       C14-H19=1.0852       C15-Zr1=2.4374       C15-C14=1.4181       C15-C16=1.4192       C15-H20=1.0858       
C16-Zr1=2.4249       C16-C15=1.4192       C16-C17=1.4238       C16-H21=1.0833       C17-Zr1=2.4140       C17-C13=1.4179       
C17-C16=1.4238       C17-H22=1.0861       H18-C13=1.0848       H19-C14=1.0852       H20-C15=1.0858       H21-C16=1.0833       
H22-C17=1.0861       H23-C2=1.1030        H24-C2=1.1004        C25-Zr1=2.7459       C25-C2=1.5568        C25-H26=1.1331       
C25-H27=1.0990       C25-C28=1.5334       H26-Zr1=2.4369       H26-C25=1.1331       H27-C25=1.0990       C28-C25=1.5334       
C28-H29=1.0890       C28-H30=1.0874       C28-H31=1.0876       H29-C28=1.0890       H30-C28=1.0874       H31-C28=1.0876       
 C  H  Rav=1.0912 sigma=0.0120  Rmin=1.0833  Rmax=1.1331    17
 C  C  Rav=1.4402 sigma=0.0472  Rmin=1.4161  Rmax=1.5568    12
 Zr H  Rav=2.4369 sigma=0.0000  Rmin=2.4369  Rmax=2.4369     1
 Zr C  Rav=2.4412 sigma=0.1177  Rmin=2.1755  Rmax=2.7459    12

 selected bond angles (degree)
 --------------------
C3-Zr1-C2=141.69               C4-Zr1-C2=119.95               C4-Zr1-C3= 33.54               C5-Zr1-C2= 88.54               
C5-Zr1-C3= 56.03               C5-Zr1-C4= 34.03               C6-Zr1-C2= 86.99               C6-Zr1-C3= 55.84               
C6-Zr1-C4= 56.34               C6-Zr1-C5= 34.14               C7-Zr1-C2=116.79               C7-Zr1-C3= 33.57               
C7-Zr1-C4= 56.17               C7-Zr1-C5= 56.53               C7-Zr1-C6= 33.90               C13-Zr1-C2=134.37              
C13-Zr1-C3= 80.86              C13-Zr1-C4= 86.09              C13-Zr1-C5=118.93              C13-Zr1-C6=136.53              
C13-Zr1-C7=108.83              C14-Zr1-C2=136.11              C14-Zr1-C3= 80.70              C14-Zr1-C4=102.79              
C14-Zr1-C5=135.34              C14-Zr1-C6=128.10              C14-Zr1-C7= 94.20              C14-Zr1-C13= 33.59             
C15-Zr1-C2=102.82              C15-Zr1-C3=111.61              C15-Zr1-C4=136.46              C15-Zr1-C5=167.50              
C15-Zr1-C6=139.83              C15-Zr1-C7=112.64              C15-Zr1-C13= 56.00             C15-Zr1-C14= 33.70             
C16-Zr1-C2= 83.53              C16-Zr1-C3=134.75              C16-Zr1-C4=138.39              C16-Zr1-C5=155.86              
C16-Zr1-C6=165.27              C16-Zr1-C7=146.48              C16-Zr1-C13= 56.14             C16-Zr1-C14= 56.09             
C16-Zr1-C15= 33.94             C17-Zr1-C2=100.61              C17-Zr1-C3=111.95              C17-Zr1-C4=104.45              
C17-Zr1-C5=126.95              C17-Zr1-C6=160.14              C17-Zr1-C7=142.55              C17-Zr1-C13= 33.87             
C17-Zr1-C14= 56.29             C17-Zr1-C15= 56.62             C17-Zr1-C16= 34.22             C25-Zr1-C2= 34.48              
C25-Zr1-C3=134.13              C25-Zr1-C4=138.12              C25-Zr1-C5=104.69              C25-Zr1-C6= 84.63              
C25-Zr1-C7=100.58              C25-Zr1-C13=135.78             C25-Zr1-C14=114.15             C25-Zr1-C15= 82.64             
C25-Zr1-C16= 81.17             C25-Zr1-C17=112.00             H26-Zr1-C2= 57.53              H26-Zr1-C3=113.19              
H26-Zr1-C4=130.65              H26-Zr1-C5=104.22              H26-Zr1-C6= 74.72              H26-Zr1-C7= 80.34              
H26-Zr1-C13=133.60             H26-Zr1-C14=102.48             H26-Zr1-C15= 78.19             H26-Zr1-C16= 90.67             
H26-Zr1-C17=124.83             H26-Zr1-C25= 24.33             H23-C2-Zr1=115.32              H24-C2-Zr1=122.16              
H24-C2-H23=106.86              C25-C2-Zr1= 93.24              C25-C2-H23=108.41              C25-C2-H24=109.34              
C4-C3-Zr1= 72.10               C7-C3-Zr1= 72.13               C7-C3-C4=108.31                H8-C3-Zr1=128.23               
H8-C3-C4=125.54                H8-C3-C7=125.61                C3-C4-Zr1= 74.36               C5-C4-Zr1= 72.09               
C5-C4-C3=107.95                H9-C4-Zr1=127.59               H9-C4-C3=125.66                H9-C4-C5=125.53                
C4-C5-Zr1= 73.88               C6-C5-Zr1= 73.33               C6-C5-C4=107.81                H10-C5-Zr1=127.18              
H10-C5-C4=125.70               H10-C5-C6=125.56               C5-C6-Zr1= 72.52               C7-C6-Zr1= 73.58               
C7-C6-C5=108.10                H11-C6-Zr1=126.71              H11-C6-C5=125.51               H11-C6-C7=125.78               
C3-C7-Zr1= 74.29               C6-C7-Zr1= 72.51               C6-C7-C3=107.80                H12-C7-Zr1=128.38              
H12-C7-C3=125.55               H12-C7-C6=125.54               

 selected dihedral angles (degree)
 ---------------------------------
H23-C2-Zr1-C3=345.97          H23-C2-Zr1-C4= 20.63          H23-C2-Zr1-C5=  6.90          H23-C2-Zr1-C6=332.76          
H23-C2-Zr1-C7=316.02          H23-C2-Zr1-C13=137.59         H23-C2-Zr1-C14=185.98         H23-C2-Zr1-C15=192.16         
H23-C2-Zr1-C16=164.06         H23-C2-Zr1-C17=134.27         H23-C2-Zr1-C25=247.87         H23-C2-Zr1-H26=258.99         
H24-C2-Zr1-C3=213.41          H24-C2-Zr1-C4=248.07          H24-C2-Zr1-C5=234.34          H24-C2-Zr1-C6=200.20          
H24-C2-Zr1-C7=183.46          H24-C2-Zr1-C13=  5.03         H24-C2-Zr1-C14= 53.42         H24-C2-Zr1-C15= 59.60         
H24-C2-Zr1-C16= 31.49         H24-C2-Zr1-C17=  1.71         H24-C2-Zr1-C25=115.30         H24-C2-Zr1-H26=126.43         
C25-C2-Zr1-C3= 98.10          C25-C2-Zr1-C4=132.76          C25-C2-Zr1-C5=119.03          C25-C2-Zr1-C6= 84.90          
C25-C2-Zr1-C7= 68.15          C25-C2-Zr1-C13=249.72         C25-C2-Zr1-C14=298.11         C25-C2-Zr1-C15=304.30         
C25-C2-Zr1-C16=276.19         C25-C2-Zr1-C17=246.40         C25-C2-Zr1-H26= 11.12         C4-C3-Zr1-C2= 63.12           
C4-C3-Zr1-C5= 37.61           C4-C3-Zr1-C6= 79.12           C4-C3-Zr1-C7=116.81           C4-C3-Zr1-C13=263.25          
C4-C3-Zr1-C14=229.21          C4-C3-Zr1-C15=215.54          C4-C3-Zr1-C16=245.79          C4-C3-Zr1-C17=276.96          
C4-C3-Zr1-C25=114.45          C4-C3-Zr1-H26=129.54          C7-C3-Zr1-C2=306.31           C7-C3-Zr1-C4=243.19           
C7-C3-Zr1-C5=280.80           C7-C3-Zr1-C6=322.32           C7-C3-Zr1-C13=146.44          C7-C3-Zr1-C14=112.40          
C7-C3-Zr1-C15= 98.73          C7-C3-Zr1-C16=128.99          C7-C3-Zr1-C17=160.15          C7-C3-Zr1-C25=357.65          
C7-C3-Zr1-H26= 12.73          H8-C3-Zr1-C2=184.66           H8-C3-Zr1-C4=121.54           H8-C3-Zr1-C5=159.15           
H8-C3-Zr1-C6=200.66           H8-C3-Zr1-C7=238.35           H8-C3-Zr1-C13= 24.79          H8-C3-Zr1-C14=350.75          
H8-C3-Zr1-C15=337.08          H8-C3-Zr1-C16=  7.34          H8-C3-Zr1-C17= 38.50          H8-C3-Zr1-C25=236.00          
H8-C3-Zr1-H26=251.08          C3-C4-Zr1-C2=219.65           C3-C4-Zr1-C5=244.74           C3-C4-Zr1-C6=282.49           
C3-C4-Zr1-C7=323.55           C3-C4-Zr1-C13= 79.34          C3-C4-Zr1-C14= 50.01          C3-C4-Zr1-C15= 51.68          
C3-C4-Zr1-C16=102.72          C3-C4-Zr1-C17=108.06          C3-C4-Zr1-C25=258.15          C3-C4-Zr1-H26=290.87          
C5-C4-Zr1-C2=334.91           C5-C4-Zr1-C3=115.26           C5-C4-Zr1-C6= 37.76           C5-C4-Zr1-C7= 78.81           
C5-C4-Zr1-C13=194.61          C5-C4-Zr1-C14=165.27          C5-C4-Zr1-C15=166.94          C5-C4-Zr1-C16=217.98          
C5-C4-Zr1-C17=223.32          C5-C4-Zr1-C25= 13.42          C5-C4-Zr1-H26= 46.13          H9-C4-Zr1-C2= 96.38           
H9-C4-Zr1-C3=236.73           H9-C4-Zr1-C5=121.47           H9-C4-Zr1-C6=159.22           H9-C4-Zr1-C7=200.28           
H9-C4-Zr1-C13=316.08          H9-C4-Zr1-C14=286.74          H9-C4-Zr1-C15=288.41          H9-C4-Zr1-C16=339.45          
H9-C4-Zr1-C17=344.79          H9-C4-Zr1-C25=134.88          H9-C4-Zr1-H26=167.60          Zr1-C4-C3-C7= 63.48           
Zr1-C4-C3-H8=235.36           C5-C4-C3-Zr1=295.24           C5-C4-C3-C7=358.72            C5-C4-C3-H8=170.59            
H9-C4-C3-Zr1=125.37           H9-C4-C3-C7=188.85            H9-C4-C3-H8=  0.72            C4-C5-Zr1-C2=158.44           
C4-C5-Zr1-C3=322.95           C4-C5-Zr1-C6=245.23           C4-C5-Zr1-C7=282.32           C4-C5-Zr1-C13= 16.71          
C4-C5-Zr1-C14=339.35          C4-C5-Zr1-C15=314.02          C4-C5-Zr1-C16= 87.85          C4-C5-Zr1-C17= 56.24          
C4-C5-Zr1-C25=189.21          C4-C5-Zr1-H26=214.35          C6-C5-Zr1-C2=273.21           C6-C5-Zr1-C3= 77.72           
C6-C5-Zr1-C4=114.77           C6-C5-Zr1-C7= 37.08           C6-C5-Zr1-C13=131.48          C6-C5-Zr1-C14= 94.12          
C6-C5-Zr1-C15= 68.79          C6-C5-Zr1-C16=202.62          C6-C5-Zr1-C17=171.00          C6-C5-Zr1-C25=303.98          
C6-C5-Zr1-H26=329.11          H10-C5-Zr1-C2= 35.54          H10-C5-Zr1-C3=200.06          H10-C5-Zr1-C4=237.11          
H10-C5-Zr1-C6=122.34          H10-C5-Zr1-C7=159.42          H10-C5-Zr1-C13=253.81         H10-C5-Zr1-C14=216.45         
H10-C5-Zr1-C15=191.13         H10-C5-Zr1-C16=324.95         H10-C5-Zr1-C17=293.34         H10-C5-Zr1-C25= 66.32         
H10-C5-Zr1-H26= 91.45         Zr1-C5-C4-C3= 66.26           Zr1-C5-C4-H9=236.15           C6-C5-C4-Zr1=293.98           
C6-C5-C4-C3=  0.25            C6-C5-C4-H9=170.13            H10-C5-C4-Zr1=124.54          H10-C5-C4-C3=190.81           
H10-C5-C4-H9=  0.69           C5-C6-Zr1-C2= 91.84           C5-C6-Zr1-C3=281.69           C5-C6-Zr1-C4=322.37           
C5-C6-Zr1-C7=244.38           C5-C6-Zr1-C13=287.62          C5-C6-Zr1-C14=242.98          C5-C6-Zr1-C15=198.22          
C5-C6-Zr1-C16=141.78          C5-C6-Zr1-C17=338.42          C5-C6-Zr1-C25=126.33          C5-C6-Zr1-H26=148.95          
C7-C6-Zr1-C2=207.45           C7-C6-Zr1-C3= 37.31           C7-C6-Zr1-C4= 77.99           C7-C6-Zr1-C5=115.62           
C7-C6-Zr1-C13= 43.23          C7-C6-Zr1-C14=358.60          C7-C6-Zr1-C15=313.84          C7-C6-Zr1-C16=257.40          
C7-C6-Zr1-C17= 94.03          C7-C6-Zr1-C25=241.94          C7-C6-Zr1-H26=264.56          H11-C6-Zr1-C2=330.18          
H11-C6-Zr1-C3=160.03          H11-C6-Zr1-C4=200.72          H11-C6-Zr1-C5=238.34          H11-C6-Zr1-C7=122.73          
H11-C6-Zr1-C13=165.96         H11-C6-Zr1-C14=121.32         H11-C6-Zr1-C15= 76.57         H11-C6-Zr1-C16= 20.13         
H11-C6-Zr1-C17=216.76         H11-C6-Zr1-C25=  4.67         H11-C6-Zr1-H26= 27.29         Zr1-C6-C5-C4= 66.38           
Zr1-C6-C5-H10=235.84          C7-C6-C5-Zr1=294.50           C7-C6-C5-C4=  0.88            C7-C6-C5-H10=170.34           
H11-C6-C5-Zr1=123.03          H11-C6-C5-C4=189.42           H11-C6-C5-H10=358.88          C3-C7-Zr1-C2=145.97           
C3-C7-Zr1-C4= 36.41           C3-C7-Zr1-C5= 77.57           C3-C7-Zr1-C6=114.93           C3-C7-Zr1-C13=324.79          
C3-C7-Zr1-C14=293.82          C3-C7-Zr1-C15=264.65          C3-C7-Zr1-C16=268.23          C3-C7-Zr1-C17=328.80          
C3-C7-Zr1-C25=178.28          C3-C7-Zr1-H26=191.86          C6-C7-Zr1-C2= 31.05           C6-C7-Zr1-C3=245.07           
C6-C7-Zr1-C4=281.49           C6-C7-Zr1-C5=322.65           C6-C7-Zr1-C13=209.86          C6-C7-Zr1-C14=178.89          
C6-C7-Zr1-C15=149.72          C6-C7-Zr1-C16=153.31          C6-C7-Zr1-C17=213.88          C6-C7-Zr1-C25= 63.36          
C6-C7-Zr1-H26= 76.93          H12-C7-Zr1-C2=269.19          H12-C7-Zr1-C3=123.21          H12-C7-Zr1-C4=159.63          
H12-C7-Zr1-C5=200.79          H12-C7-Zr1-C6=238.14          H12-C7-Zr1-C13= 88.00         H12-C7-Zr1-C14= 57.03         
H12-C7-Zr1-C15= 27.86         H12-C7-Zr1-C16= 31.45         H12-C7-Zr1-C17= 92.02         H12-C7-Zr1-C25=301.50         
H12-C7-Zr1-H26=315.07         Zr1-C7-C3-C4=296.54           Zr1-C7-C3-H8=124.67           C6-C7-C3-Zr1= 65.29           
C6-C7-C3-C4=  1.82            C6-C7-C3-H8=189.95            H12-C7-C3-Zr1=233.71          H12-C7-C3-C4=170.25           
H12-C7-C3-H8=358.38           Zr1-C7-C6-C5= 64.81           Zr1-C7-C6-H11=236.24          C3-C7-C6-Zr1=293.53           
C3-C7-C6-C5=358.33            C3-C7-C6-H11=169.77           H12-C7-C6-Zr1=125.10          H12-C7-C6-C5=189.91           
H12-C7-C6-H11=  1.34          
           -------------------------------------------------
          |                Final Singlepoint                |
           -------------------------------------------------

          ...................................................
          :                      SETUP                      :
          :.................................................:
          :  # basis functions                  79          :
          :  # atomic orbitals                  78          :
          :  # shells                           46          :
          :  # electrons                        72          :
          :  max. iterations                   250          :
          :  Hamiltonian                  GFN2-xTB          :
          :  restarted?                      false          :
          :  GBSA solvation                  false          :
          :  PC potential                    false          :
          :  electronic temp.          300.0000000     K    :
          :  accuracy                    1.0000000          :
          :  -> integral cutoff          0.2500000E+02      :
          :  -> integral neglect         0.1000000E-07      :
          :  -> SCF convergence          0.1000000E-05 Eh   :
          :  -> wf. convergence          0.1000000E-03 e    :
          :  Broyden damping             0.4000000          :
          ...................................................

 iter      E             dE          RMSdq      gap      omega  full diag
   1    -38.3113224 -0.383113E+02  0.597E-05    1.81       0.0  T
   2    -38.3113224 -0.737543E-11  0.338E-05    1.81     531.0  T
   3    -38.3113224 -0.132161E-11  0.269E-05    1.81     667.0  T

   *** convergence criteria satisfied after 3 iterations ***

         #    Occupation            Energy/Eh            Energy/eV
      -------------------------------------------------------------
         1        2.0000           -0.8733549             -23.7652
       ...           ...                  ...                  ...
        30        2.0000           -0.5664773             -15.4146
        31        2.0000           -0.5578168             -15.1790
        32        2.0000           -0.5326241             -14.4934
        33        2.0000           -0.5272394             -14.3469
        34        2.0000           -0.5178611             -14.0917
        35        2.0000           -0.5123642             -13.9421
        36        2.0000           -0.4943961             -13.4532 (HOMO)
        37                         -0.4280517             -11.6479 (LUMO)
        38                         -0.4224887             -11.4965
        39                         -0.4128490             -11.2342
        40                         -0.4047380             -11.0135
        41                         -0.3796010             -10.3295
       ...                                ...                  ...
        78                          2.5222776              68.6347
      -------------------------------------------------------------
                  HL-Gap            0.0663444 Eh            1.8053 eV
             Fermi-level           -0.4612239 Eh          -12.5505 eV

 SCC (total)                   0 d,  0 h,  0 min,  0.264 sec
 SCC setup                      ...        0 min,  0.001 sec (  0.411%)
 Dispersion                     ...        0 min,  0.023 sec (  8.859%)
 classical contributions        ...        0 min,  0.006 sec (  2.124%)
 integral evaluation            ...        0 min,  0.052 sec ( 19.725%)
 iterations                     ...        0 min,  0.157 sec ( 59.680%)
 molecular gradient             ...        0 min,  0.024 sec (  9.127%)
 printout                       ...        0 min,  0.000 sec (  0.063%)

         :::::::::::::::::::::::::::::::::::::::::::::::::::::
         ::                     SUMMARY                     ::
         :::::::::::::::::::::::::::::::::::::::::::::::::::::
         :: total energy             -37.687447275289 Eh    ::
         :: gradient norm              0.000483840040 Eh/a0 ::
         :: HOMO-LUMO gap              1.805322180604 eV    ::
         ::.................................................::
         :: SCC energy               -38.311322390201 Eh    ::
         :: -> isotropic ES            0.086477861519 Eh    ::
         :: -> anisotropic ES         -0.011044760336 Eh    ::
         :: -> anisotropic XC          0.016491157157 Eh    ::
         :: -> dispersion             -0.026353019980 Eh    ::
         :: repulsion energy           0.623342303971 Eh    ::
         :: add. restraining           0.000000000000 Eh    ::
         :: total charge               1.000000000000 e     ::
         :::::::::::::::::::::::::::::::::::::::::::::::::::::

           -------------------------------------------------
          |                Property Printout                |
           -------------------------------------------------

    * Orbital Energies and Occupations

         #    Occupation            Energy/Eh            Energy/eV
      -------------------------------------------------------------
         1        2.0000           -0.8733549             -23.7652
       ...           ...                  ...                  ...
        24        2.0000           -0.5985422             -16.2872
        25        2.0000           -0.5963580             -16.2277
        26        2.0000           -0.5962097             -16.2237
        27        2.0000           -0.5951595             -16.1951
        28        2.0000           -0.5948924             -16.1878
        29        2.0000           -0.5776100             -15.7176
        30        2.0000           -0.5664773             -15.4146
        31        2.0000           -0.5578168             -15.1790
        32        2.0000           -0.5326241             -14.4934
        33        2.0000           -0.5272394             -14.3469
        34        2.0000           -0.5178611             -14.0917
        35        2.0000           -0.5123642             -13.9421
        36        2.0000           -0.4943961             -13.4532 (HOMO)
        37                         -0.4280517             -11.6479 (LUMO)
        38                         -0.4224887             -11.4965
        39                         -0.4128490             -11.2342
        40                         -0.4047380             -11.0135
        41                         -0.3796010             -10.3295
        42                         -0.3138799              -8.5411
        43                         -0.3126191              -8.5068
        44                         -0.3117594              -8.4834
        45                         -0.3100305              -8.4364
        46                         -0.0933413              -2.5399
        47                         -0.0433663              -1.1801
       ...                                ...                  ...
        78                          2.5222776              68.6347
      -------------------------------------------------------------
                  HL-Gap            0.0663444 Eh            1.8053 eV
             Fermi-level           -0.4612239 Eh          -12.5505 eV

     #   Z          covCN         q      C6AA      α(0)
     1  40 Zr       9.168     0.944   139.003    17.716
     2   6 C        3.626    -0.283    26.843     7.464
     3   6 C        3.753    -0.080    22.085     6.702
     4   6 C        3.759    -0.086    22.189     6.715
     5   6 C        3.768    -0.084    22.134     6.705
     6   6 C        3.767    -0.084    22.144     6.707
     7   6 C        3.757    -0.090    22.265     6.727
     8   1 H        0.925     0.091     1.871     2.139
     9   1 H        0.925     0.084     1.935     2.175
    10   1 H        0.925     0.092     1.860     2.133
    11   1 H        0.925     0.093     1.853     2.129
    12   1 H        0.925     0.079     1.990     2.206
    13   6 C        3.757    -0.081    22.107     6.704
    14   6 C        3.756    -0.084    22.165     6.713
    15   6 C        3.759    -0.090    22.262     6.727
    16   6 C        3.768    -0.082    22.107     6.701
    17   6 C        3.766    -0.087    22.207     6.716
    18   1 H        0.925     0.090     1.883     2.146
    19   1 H        0.925     0.086     1.916     2.165
    20   1 H        0.925     0.081     1.967     2.193
    21   1 H        0.925     0.097     1.814     2.106
    22   1 H        0.925     0.086     1.920     2.167
    23   1 H        0.927     0.084     1.940     2.178
    24   1 H        0.925     0.077     2.006     2.215
    25   6 C        4.318    -0.054    21.450     6.578
    26   1 H        1.116     0.057     2.226     2.330
    27   1 H        0.923     0.077     2.009     2.216
    28   6 C        3.750    -0.115    22.767     6.805
    29   1 H        0.925     0.056     2.251     2.346
    30   1 H        0.925     0.056     2.241     2.341
    31   1 H        0.925     0.071     2.071     2.250

 Mol. C6AA /au·bohr⁶  :       9463.750072
 Mol. C8AA /au·bohr⁸  :     320575.328898
 Mol. α(0) /au        :        143.114903


Wiberg/Mayer (AO) data.
largest (>0.10) Wiberg bond orders for each atom

 ---------------------------------------------------------------------------
     #   Z sym  total        # sym  WBO       # sym  WBO       # sym  WBO
 ---------------------------------------------------------------------------
     1  40 Zr   4.279 --     2 C    0.866    17 C    0.280     5 C    0.276
                            16 C    0.260     6 C    0.256    15 C    0.254
                             4 C    0.252     7 C    0.251    14 C    0.240
                            13 C    0.232     3 C    0.228    25 C    0.164
                            26 H    0.127
     2   6 C    3.829 --    25 C    0.973    24 H    0.914    23 H    0.906
                             1 Zr   0.866
     3   6 C    3.981 --     4 C    1.313     7 C    1.305     8 H    0.924
                             1 Zr   0.228
     4   6 C    3.979 --     3 C    1.313     5 C    1.285     9 H    0.919
                             1 Zr   0.252
     5   6 C    3.981 --     6 C    1.286     4 C    1.285    10 H    0.918
                             1 Zr   0.276
     6   6 C    3.980 --     7 C    1.297     5 C    1.286    11 H    0.921
                             1 Zr   0.256
     7   6 C    3.979 --     3 C    1.305     6 C    1.297    12 H    0.917
                             1 Zr   0.251
     8   1 H    0.989 --     3 C    0.924
     9   1 H    0.991 --     4 C    0.919
    10   1 H    0.989 --     5 C    0.918
    11   1 H    0.989 --     6 C    0.921
    12   1 H    0.992 --     7 C    0.917
    13   6 C    3.980 --    14 C    1.310    17 C    1.303    18 H    0.922
                             1 Zr   0.232
    14   6 C    3.980 --    13 C    1.310    15 C    1.301    19 H    0.920
                             1 Zr   0.240
    15   6 C    3.979 --    14 C    1.301    16 C    1.297    20 H    0.919
                             1 Zr   0.254
    16   6 C    3.981 --    15 C    1.297    17 C    1.274    21 H    0.922
                             1 Zr   0.260
    17   6 C    3.980 --    13 C    1.303    16 C    1.274    22 H    0.916
                             1 Zr   0.280
    18   1 H    0.990 --    13 C    0.922
    19   1 H    0.991 --    14 C    0.920
    20   1 H    0.991 --    15 C    0.919
    21   1 H    0.987 --    16 C    0.922
    22   1 H    0.990 --    17 C    0.916
    23   1 H    0.992 --     2 C    0.906
    24   1 H    0.993 --     2 C    0.914
    25   6 C    3.981 --    28 C    1.004     2 C    0.973    27 H    0.946
                            26 H    0.831     1 Zr   0.164
    26   1 H    0.996 --    25 C    0.831     1 Zr   0.127
    27   1 H    0.993 --    25 C    0.946
    28   6 C    3.987 --    25 C    1.004    30 H    0.982    31 H    0.980
                            29 H    0.977
    29   1 H    0.996 --    28 C    0.977
    30   1 H    0.997 --    28 C    0.982
    31   1 H    0.994 --    28 C    0.980
 ---------------------------------------------------------------------------

Topologies differ in total number of bonds
Writing topology from bond orders to xtbtopo.mol

molecular dipole:
                 x           y           z       tot (Debye)
 q only:       -1.329      -1.631       0.686
   full:       -1.240      -1.463       0.801       5.283
molecular quadrupole (traceless):
                xx          xy          yy          xz          yz          zz
 q only:       -1.180       8.280       3.864      -3.472      -3.800      -2.684
  q+dip:       -3.137      11.704       3.011      -4.048      -3.021       0.126
   full:       -3.824       9.343       0.918      -4.775      -3.763       2.906

           -------------------------------------------------
          |                Geometry Summary                 |
           -------------------------------------------------

      molecular mass/u    :      264.4982010
   center of mass at/Å    :       -0.5771593      -0.7158826       0.3411238
  moments of inertia/u·Å² :        0.6564146E+03   0.7403288E+03   0.1113702E+04
rotational constants/cm⁻¹ :        0.2568138E-01   0.2277047E-01   0.1513658E-01

 * 40 selected distances

     #   Z          #   Z                                           value/Å
     1  40 Zr       2   6 C                                       2.1754773
     1  40 Zr       3   6 C                                       2.4682992 (max)
     1  40 Zr       4   6 C                                       2.4391849
     3   6 C        4   6 C                                       1.4161258
     1  40 Zr       5   6 C                                       2.4159856
     4   6 C        5   6 C                                       1.4209230
     1  40 Zr       6   6 C                                       2.4264849
     5   6 C        6   6 C                                       1.4216351
     1  40 Zr       7   6 C                                       2.4403481
     3   6 C        7   6 C                                       1.4179467
     6   6 C        7   6 C                                       1.4190734
     3   6 C        8   1 H                                       1.0840777
     4   6 C        9   1 H                                       1.0856947
     5   6 C       10   1 H                                       1.0850327
     6   6 C       11   1 H                                       1.0841808
     7   6 C       12   1 H                                       1.0864685
     1  40 Zr      13   6 C                                       2.4516441
     1  40 Zr      14   6 C                                       2.4544096
    13   6 C       14   6 C                                       1.4175032
     1  40 Zr      15   6 C                                       2.4374237
    14   6 C       15   6 C                                       1.4180728
     1  40 Zr      16   6 C                                       2.4249017
    15   6 C       16   6 C                                       1.4191558
     1  40 Zr      17   6 C                                       2.4139960
    13   6 C       17   6 C                                       1.4178517
    16   6 C       17   6 C                                       1.4237779
    13   6 C       18   1 H                                       1.0847891
    14   6 C       19   1 H                                       1.0852484
    15   6 C       20   1 H                                       1.0858125
    16   6 C       21   1 H                                       1.0833065 (min)
    17   6 C       22   1 H                                       1.0861029
     2   6 C       23   1 H                                       1.1030354
     2   6 C       24   1 H                                       1.1004174
     2   6 C       25   6 C                                       1.5568411
    25   6 C       26   1 H                                       1.1331053
    25   6 C       27   1 H                                       1.0989966
    25   6 C       28   6 C                                       1.5333806
    28   6 C       29   1 H                                       1.0889527
    28   6 C       30   1 H                                       1.0873834
    28   6 C       31   1 H                                       1.0875757

 * 3 distinct bonds (by element types)

   Z      Z             #   av. dist./Å        max./Å        min./Å
   1 H    6 C          17     1.0911871     1.1331053     1.0833065
   6 C    6 C          12     1.4401906     1.5568411     1.4161258
   6 C   40 Zr         11     2.4134687     2.4682992     2.1754773


optimized geometry written to: xtbopt.xyz


           -------------------------------------------------
          | TOTAL ENERGY              -37.687447275289 Eh   |
          | GRADIENT NORM               0.000483840040 Eh/α |
          | HOMO-LUMO GAP               1.805322180604 eV   |
           -------------------------------------------------

------------------------------------------------------------------------
 * finished run on 2026/08/03 at 11:36:59.719     
------------------------------------------------------------------------
 total:
 * wall-time:     0 d,  0 h,  0 min, 25.262 sec
 *  cpu-time:     0 d,  0 h,  1 min, 20.070 sec
 * ratio c/w:     3.170 speedup
 SCF:
 * wall-time:     0 d,  0 h,  0 min,  0.986 sec
 *  cpu-time:     0 d,  0 h,  0 min,  2.980 sec
 * ratio c/w:     3.023 speedup
 ANC optimizer:
 * wall-time:     0 d,  0 h,  0 min, 24.109 sec
 *  cpu-time:     0 d,  0 h,  1 min, 16.591 sec
 * ratio c/w:     3.177 speedup

