31
 energy: -37.640070840069 gnorm: 0.000880989162 xtb: 6.5.1 (b24c23e)
Zr          -1.31734799476784       -0.15735905771753        0.66122260178309
C           -1.68234507844682        1.49329369560187       -1.43815842070038
C            0.17354248832206       -2.09632040463881        0.85791487061997
C            0.44602975678775       -1.49544502807688       -0.39531210656007
C           -0.70325881107145       -1.65164618241306       -1.21130488633951
C           -1.68882483707315       -2.32491578627207       -0.45591787178222
C           -1.15753121639321       -2.58096918862426        0.83659426526638
H            0.90067292509691       -2.28442347191806        1.63901038192371
H            1.41926853821468       -1.15193145717719       -0.73232327429754
H           -0.75994145739704       -1.44091864380532       -2.27292541726190
H           -2.61589838238439       -2.72477387954428       -0.84724326816045
H           -1.61556405548241       -3.20720472385126        1.59587718289238
C           -0.46191099402824        0.12557544428940        2.93613228610913
C           -1.66232020973966        0.87255251850098        2.83973145754681
C           -1.44327358349183        1.93432138309296        1.92191798434670
C           -0.11025920260843        1.83919051167260        1.45313533409562
C            0.49651658476068        0.72509683848022        2.08015470208969
H           -0.26568504691040       -0.65670123421407        3.66167261581809
H           -2.52514297384114        0.76253330926793        3.48762746742627
H           -2.12493315505598        2.75591197643176        1.73523759684026
H            0.40751812683170        2.58635014964003        0.86061895356373
H            1.55124058595666        0.47624722862076        2.03739031694769
H           -0.67477341438063        1.09424515008986       -1.19190429983658
H           -1.87212998464376        1.42153163955857       -2.50075524964655
H           -1.82342121696487        2.51088127835491       -1.08720723497449
C           -3.54102546274628       -0.07947513783786        0.57042605933561
C           -3.50446726679713        0.48055342746946       -0.77229066243540
H           -4.06078825824087        1.39657849867525       -0.94572435889213
H           -3.58597360784116       -0.22216494933044       -1.59989250637629
H           -4.05273330405580        0.57371996799286        1.28443261638281
H           -3.93031985160219       -1.10479892232675        0.60494718426870
