      -----------------------------------------------------------      
     |                   =====================                   |     
     |                           x T B                           |     
     |                   =====================                   |     
     |                         S. Grimme                         |     
     |          Mulliken Center for Theoretical Chemistry        |     
     |                    University of Bonn                     |     
      -----------------------------------------------------------      

   * xtb version 6.5.1 (b24c23e) compiled by 'conda@728c89f4b128' on 2022-07-12

   xtb is free software: you can redistribute it and/or modify it under
   the terms of the GNU Lesser General Public License as published by
   the Free Software Foundation, either version 3 of the License, or
   (at your option) any later version.
   
   xtb is distributed in the hope that it will be useful,
   but WITHOUT ANY WARRANTY; without even the implied warranty of
   MERCHANTABILITY or FITNESS FOR A PARTICULAR PURPOSE.  See the
   GNU Lesser General Public License for more details.
   
   Cite this work as:
   * C. Bannwarth, E. Caldeweyher, S. Ehlert, A. Hansen, P. Pracht,
     J. Seibert, S. Spicher, S. Grimme, WIREs Comput. Mol. Sci., 2020, 11,
     e01493. DOI: 10.1002/wcms.1493
   
   for GFN2-xTB:
   * C. Bannwarth, S. Ehlert and S. Grimme., J. Chem. Theory Comput., 2019,
     15, 1652-1671. DOI: 10.1021/acs.jctc.8b01176
   for GFN1-xTB:
   * S. Grimme, C. Bannwarth, P. Shushkov, J. Chem. Theory Comput., 2017,
     13, 1989-2009. DOI: 10.1021/acs.jctc.7b00118
   for GFN0-xTB:
   * P. Pracht, E. Caldeweyher, S. Ehlert, S. Grimme, ChemRxiv, 2019, preprint.
     DOI: 10.26434/chemrxiv.8326202.v1
   for GFN-FF:
   * S. Spicher and S. Grimme, Angew. Chem. Int. Ed., 2020, 59, 15665-15673.
     DOI: 10.1002/anie.202004239
   
   for ALPB and GBSA implicit solvation:
   * S. Ehlert, M. Stahn, S. Spicher, S. Grimme, J. Chem. Theory Comput.,
     2021, 17, 4250-4261. DOI: 10.1021/acs.jctc.1c00471
   
   for DFT-D4:
   * E. Caldeweyher, C. Bannwarth and S. Grimme, J. Chem. Phys., 2017,
     147, 034112. DOI: 10.1063/1.4993215
   * E. Caldeweyher, S. Ehlert, A. Hansen, H. Neugebauer, S. Spicher,
     C. Bannwarth and S. Grimme, J. Chem. Phys., 2019, 150, 154122.
     DOI: 10.1063/1.5090222
   * E. Caldeweyher, J.-M. Mewes, S. Ehlert and S. Grimme, Phys. Chem. Chem. Phys.
     2020, 22, 8499-8512. DOI: 10.1039/D0CP00502A
   
   for sTDA-xTB:
   * S. Grimme and C. Bannwarth, J. Chem. Phys., 2016, 145, 054103.
     DOI: 10.1063/1.4959605
   
   in the mass-spec context:
   * V. Asgeirsson, C. Bauer and S. Grimme, Chem. Sci., 2017, 8, 4879.
     DOI: 10.1039/c7sc00601b
   * J. Koopman and S. Grimme, ACS Omega 2019, 4, 12, 15120-15133.
     DOI: 10.1021/acsomega.9b02011
   
   for metadynamics refer to:
   * S. Grimme, J. Chem. Theory Comput., 2019, 155, 2847-2862
     DOI: 10.1021/acs.jctc.9b00143
   
   for SPH calculations refer to:
   * S. Spicher and S. Grimme, J. Chem. Theory Comput., 2021, 17, 1701-1714
     DOI: 10.1021/acs.jctc.0c01306
   
   with help from (in alphabetical order)
   P. Atkinson, C. Bannwarth, F. Bohle, G. Brandenburg, E. Caldeweyher
   M. Checinski, S. Dohm, S. Ehlert, S. Ehrlich, I. Gerasimov, C. Hölzer
   A. Katbashev, J. Koopman, C. Lavigne, S. Lehtola, F. März, M. Müller,
   F. Musil, H. Neugebauer, J. Pisarek, C. Plett, P. Pracht, F. Pultar,
   J. Seibert, P. Shushkov, S. Spicher, M. Stahn, M. Steiner, T. Strunk,
   J. Stückrath, T. Rose, and J. Unsleber
   
 * started run on 2026/08/03 at 11:34:27.006     

           -------------------------------------------------
          |                Calculation Setup                |
           -------------------------------------------------

          program call               : /h/332/chchoi/miniconda3/envs/el-agente/bin/xtb reactant.xyz --opt --gfn 2 -P 4 --chrg 1 --input detailed_input.inp
          coordinate file            : reactant.xyz
          omp threads                :                     4

   ID    Z sym.   atoms
    1   40 Zr     1
    2    6 C      2-7, 13-17, 26, 27
    3    1 H      8-12, 18-25, 28-31
constraining bond 27 2 to    2.2000000 Å, actual value:    3.9015773 Å
constraining bond 1 2 to    2.7000000 Å, actual value:    2.4750002 Å

molecular fragmentation (1/2 indicates fragments):
1111111111111111111111111222222
# atoms in fragment 1/2:    25     6
 fragment masses (1/2) :      236.44       28.05
CMA distance (Bohr)    :   5.713
constraining FC (au)   :  0.8000

           -------------------------------------------------
          |                 G F N 2 - x T B                 |
           -------------------------------------------------

        Reference                      10.1021/acs.jctc.8b01176
      * Hamiltonian:
        H0-scaling (s, p, d)           1.850000    2.230000    2.230000
        zeta-weighting                 0.500000
      * Dispersion:
        s8                             2.700000
        a1                             0.520000
        a2                             5.000000
        s9                             5.000000
      * Repulsion:
        kExp                           1.500000    1.000000
        rExp                           1.000000
      * Coulomb:
        alpha                          2.000000
        third order                    shell-resolved
        anisotropic                    true
        a3                             3.000000
        a5                             4.000000
        cn-shift                       1.200000
        cn-exp                         4.000000
        max-rad                        5.000000


          ...................................................
          :                      SETUP                      :
          :.................................................:
          :  # basis functions                  79          :
          :  # atomic orbitals                  78          :
          :  # shells                           46          :
          :  # electrons                        72          :
          :  max. iterations                   250          :
          :  Hamiltonian                  GFN2-xTB          :
          :  restarted?                      false          :
          :  GBSA solvation                  false          :
          :  PC potential                    false          :
          :  electronic temp.          300.0000000     K    :
          :  accuracy                    1.0000000          :
          :  -> integral cutoff          0.2500000E+02      :
          :  -> integral neglect         0.1000000E-07      :
          :  -> SCF convergence          0.1000000E-05 Eh   :
          :  -> wf. convergence          0.1000000E-03 e    :
          :  Broyden damping             0.4000000          :
          ...................................................

 iter      E             dE          RMSdq      gap      omega  full diag
   1    -37.9358315 -0.379358E+02  0.428E+00    0.51       0.0  T
   2    -38.0423316 -0.106500E+00  0.369E+00    1.54       1.0  T
   3    -38.0982795 -0.559479E-01  0.295E+00    0.88       1.0  T
   4    -38.0959865  0.229300E-02  0.138E+00    0.94       1.0  T
   5    -38.0918736  0.411285E-02  0.808E-01    0.68       1.0  T
   6    -38.0992658 -0.739216E-02  0.397E-01    0.91       1.0  T
   7    -38.1004409 -0.117516E-02  0.248E-01    0.84       1.0  T
   8    -38.1004833 -0.423793E-04  0.144E-01    0.83       1.0  T
   9    -38.1004655  0.178148E-04  0.680E-02    0.87       1.0  T
  10    -38.1005093 -0.437925E-04  0.358E-02    0.86       1.0  T
  11    -38.1005263 -0.169736E-04  0.151E-02    0.85       1.2  T
  12    -38.1005272 -0.933394E-06  0.398E-03    0.85       4.5  T
  13    -38.1005273 -0.681398E-07  0.181E-03    0.85       9.9  T
  14    -38.1005273 -0.262446E-07  0.122E-03    0.85      14.8  T
  15    -38.1005273 -0.145466E-07  0.493E-04    0.85      36.4  T
  16    -38.1005273 -0.624851E-10  0.227E-04    0.85      79.0  T

   *** convergence criteria satisfied after 16 iterations ***

         #    Occupation            Energy/Eh            Energy/eV
      -------------------------------------------------------------
         1        2.0000           -0.8628382             -23.4790
       ...           ...                  ...                  ...
        30        2.0000           -0.5740484             -15.6207
        31        2.0000           -0.5511875             -14.9986
        32        2.0000           -0.5101738             -13.8825
        33        2.0000           -0.5045726             -13.7301
        34        2.0000           -0.4941790             -13.4473
        35        2.0000           -0.4918471             -13.3838
        36        2.0000           -0.4836941             -13.1620 (HOMO)
        37        0.0000           -0.4525088             -12.3134 (LUMO)
        38                         -0.4374614             -11.9039
        39                         -0.4348634             -11.8332
        40                         -0.4310524             -11.7295
        41                         -0.4230109             -11.5107
       ...                                ...                  ...
        78                          1.3654739              37.1564
      -------------------------------------------------------------
                  HL-Gap            0.0311853 Eh            0.8486 eV
             Fermi-level           -0.4681013 Eh          -12.7377 eV

 SCC (total)                   0 d,  0 h,  0 min,  1.800 sec
 SCC setup                      ...        0 min,  0.016 sec (  0.897%)
 Dispersion                     ...        0 min,  0.065 sec (  3.601%)
 classical contributions        ...        0 min,  0.030 sec (  1.691%)
 integral evaluation            ...        0 min,  0.073 sec (  4.071%)
 iterations                     ...        0 min,  1.423 sec ( 79.059%)
 molecular gradient             ...        0 min,  0.192 sec ( 10.665%)
 printout                       ...        0 min,  0.000 sec (  0.014%)

         :::::::::::::::::::::::::::::::::::::::::::::::::::::
         ::                     SUMMARY                     ::
         :::::::::::::::::::::::::::::::::::::::::::::::::::::
         :: total energy             -29.122099058834 Eh    ::
         :: gradient norm              6.991899506403 Eh/a0 ::
         :: HOMO-LUMO gap              0.848595247981 eV    ::
         ::.................................................::
         :: SCC energy               -38.100527322913 Eh    ::
         :: -> isotropic ES            0.097833142149 Eh    ::
         :: -> anisotropic ES         -0.000863661912 Eh    ::
         :: -> anisotropic XC          0.021668513651 Eh    ::
         :: -> dispersion             -0.027679947800 Eh    ::
         :: repulsion energy           0.561366578861 Eh    ::
         :: add. restraining           8.416255955672 Eh    ::
         :: total charge               1.000000000030 e     ::
         :::::::::::::::::::::::::::::::::::::::::::::::::::::

      ----------------------------------------------------------- 
     |                   =====================                   |
     |                        A N C O P T                        |
     |                   =====================                   |
     |               Approximate Normal Coordinate               |
     |                Rational Function Optimizer                |
      ----------------------------------------------------------- 

          ...................................................
          :                      SETUP                      :
          :.................................................:
          :   optimization level            normal          :
          :   max. optcycles                   200          :
          :   ANC micro-cycles                  20          :
          :   degrees of freedom                87          :
          :.................................................:
          :   RF solver                   davidson          :
          :   write xtbopt.log                true          :
          :   linear?                        false          :
          :   energy convergence         0.5000000E-05 Eh   :
          :   grad. convergence          0.1000000E-02 Eh/α :
          :   maximium RF displ.         1.0000000          :
          :   Hlow (freq-cutoff)         0.1000000E-01      :
          :   Hmax (freq-cutoff)         5.0000000          :
          :   S6 in model hess.         20.0000000          :
          ...................................................

generating ANC from model Hessian ...
Using Lindh-Hessian (1995)
 Shifting diagonal of input Hessian by   0.18746514545529105     
 Lowest  eigenvalues of input Hessian
    0.010000    0.037866    0.187329    0.000000    0.000000    0.000000
    0.000000    0.000000    0.000000    0.187757    0.187868    0.188054
    0.188136    0.188220    0.188581    0.188610    0.188746    0.189298
 Highest eigenvalues
    1.669501    1.669685    2.214585    2.616476    2.848773    5.021546


........................................................................
.............................. CYCLE    1 ..............................
........................................................................
   1    -38.1005273 -0.381005E+02  0.131E-04    0.85       0.0  T
   2    -38.1005273  0.685674E-11  0.133E-04    0.85     134.9  T
   3    -38.1005273 -0.170360E-09  0.612E-05    0.85     293.7  T
     SCC iter.                  ...        0 min,  0.272 sec
     gradient                   ...        0 min,  0.190 sec
 * total energy  :   -29.1220991 Eh     change       -0.3488267E-09 Eh
   gradient norm :     6.9918995 Eh/α   predicted     0.0000000E+00 (-100.00%)
   displ. norm   :     0.7777748 α      lambda       -0.5373893E+01
   maximum displ.:     0.5051767 α      in ANC's #87, #86, #85, ...

........................................................................
.............................. CYCLE    2 ..............................
........................................................................
   1    -38.0256435 -0.380256E+02  0.158E+00    0.30       0.0  T
   2    -38.0204580  0.518552E-02  0.140E+00    1.32       1.0  T
   3    -38.0540379 -0.335799E-01  0.531E-01    0.63       1.0  T
   4    -38.0513141  0.272374E-02  0.592E-01    0.38       1.0  T
   5    -38.0549651 -0.365098E-02  0.204E-01    0.49       1.0  T
   6    -38.0555802 -0.615126E-03  0.979E-02    0.52       1.0  T
   7    -38.0556493 -0.690338E-04  0.451E-02    0.51       1.0  T
   8    -38.0556797 -0.304257E-04  0.208E-02    0.50       1.0  T
   9    -38.0556815 -0.176404E-05  0.161E-02    0.50       1.1  T
  10    -38.0556781  0.337227E-05  0.128E-02    0.50       1.4  T
  11    -38.0556826 -0.452978E-05  0.317E-03    0.50       5.7  T
  12    -38.0556826 -0.196332E-07  0.203E-03    0.50       8.9  T
  13    -38.0556827 -0.252061E-07  0.110E-03    0.50      16.3  T
  14    -38.0556826  0.194688E-07  0.110E-03    0.50      16.4  T
  15    -38.0556827 -0.170311E-07  0.665E-04    0.50      27.0  T
  16    -38.0556827 -0.873520E-08  0.302E-04    0.50      59.5  T
     SCC iter.                  ...        0 min,  1.294 sec
     gradient                   ...        0 min,  0.169 sec
 * total energy  :   -33.5362780 Eh     change       -0.4414179E+01 Eh
   gradient norm :     4.4490237 Eh/α   predicted    -0.4312373E+01 (  -2.31%)
   displ. norm   :     0.7346498 α      lambda       -0.3204081E+01
   maximum displ.:     0.4010692 α      in ANC's #86, #87, #85, ...

........................................................................
.............................. CYCLE    3 ..............................
........................................................................
   1    -37.6719312 -0.376719E+02  0.318E+00    0.16       0.0  T
   2    -37.5929019  0.790293E-01  0.474E+00    1.45       1.0  T
   3    -37.8373606 -0.244459E+00  0.236E+00    1.41       1.0  T
   4    -37.9304516 -0.930910E-01  0.882E-01    0.64       1.0  T
   5    -37.9481703 -0.177187E-01  0.525E-01    0.43       1.0  T
   6    -37.9507605 -0.259024E-02  0.472E-01    0.34       1.0  T
   7    -37.9478927  0.286783E-02  0.429E-01    0.38       1.0  T
   8    -37.9503045 -0.241177E-02  0.171E-01    0.37       1.0  T
   9    -37.9510700 -0.765519E-03  0.405E-02    0.31       1.0  T
  10    -37.9510077  0.623304E-04  0.526E-02    0.30       1.0  T
  11    -37.9510799 -0.722143E-04  0.152E-02    0.32       1.2  T
  12    -37.9510840 -0.408779E-05  0.903E-03    0.31       2.0  T
  13    -37.9510842 -0.227763E-06  0.721E-03    0.31       2.5  T
  14    -37.9510838  0.425190E-06  0.613E-03    0.31       2.9  T
  15    -37.9510844 -0.576707E-06  0.327E-03    0.31       5.5  T
  16    -37.9510846 -0.242674E-06  0.586E-04    0.31      30.7  T
  17    -37.9510846 -0.431799E-08  0.347E-04    0.31      51.7  T
     SCC iter.                  ...        0 min,  1.378 sec
     gradient                   ...        0 min,  0.126 sec
 * total energy  :   -36.0212405 Eh     change       -0.2484962E+01 Eh
   gradient norm :     2.4169579 Eh/α   predicted    -0.2466680E+01 (  -0.74%)
   displ. norm   :     0.6447235 α      lambda       -0.1487054E+01
   maximum displ.:     0.3422317 α      in ANC's #86, #85, #87, ...

........................................................................
.............................. CYCLE    4 ..............................
........................................................................
   1    -37.7327596 -0.377328E+02  0.218E+00    0.43       0.0  T
   2    -37.4295257  0.303234E+00  0.390E+00    1.28       1.0  T
   3    -37.8014180 -0.371892E+00  0.162E+00    0.63       1.0  T
   4    -37.8494998 -0.480818E-01  0.525E-01    0.34       1.0  T
   5    -37.8464551  0.304473E-02  0.631E-01    0.46       1.0  T
   6    -37.8568231 -0.103680E-01  0.221E-01    0.40       1.0  T
   7    -37.8578217 -0.998601E-03  0.875E-02    0.44       1.0  T
   8    -37.8579633 -0.141601E-03  0.444E-02    0.41       1.0  T
   9    -37.8579514  0.119576E-04  0.401E-02    0.42       1.0  T
  10    -37.8579555 -0.410268E-05  0.313E-02    0.41       1.0  T
  11    -37.8579787 -0.232722E-04  0.141E-02    0.42       1.3  T
  12    -37.8579827 -0.394764E-05  0.530E-03    0.42       3.4  T
  13    -37.8579829 -0.241653E-06  0.272E-03    0.42       6.6  T
  14    -37.8579830 -0.333975E-07  0.153E-03    0.41      11.7  T
  15    -37.8579830 -0.149265E-07  0.107E-03    0.41      16.8  T
  16    -37.8579830 -0.199294E-07  0.424E-04    0.41      42.3  T
  17    -37.8579830 -0.328370E-08  0.129E-04    0.41     139.4  T
     SCC iter.                  ...        0 min,  1.539 sec
     gradient                   ...        0 min,  0.125 sec
 * total energy  :   -37.0671907 Eh     change       -0.1045950E+01 Eh
   gradient norm :     0.9412603 Eh/α   predicted    -0.1052602E+01 (   0.64%)
   displ. norm   :     0.5548789 α      lambda       -0.4061840E+00
   maximum displ.:     0.3695182 α      in ANC's #2, #86, #66, ...

........................................................................
.............................. CYCLE    5 ..............................
........................................................................
   1    -37.8191348 -0.378191E+02  0.126E+00    1.04       0.0  T
   2    -37.6089765  0.210158E+00  0.261E+00    1.47       1.0  T
   3    -37.8534361 -0.244460E+00  0.552E-01    1.10       1.0  T
   4    -37.8510221  0.241402E-02  0.398E-01    1.00       1.0  T
   5    -37.8544457 -0.342361E-02  0.184E-01    1.07       1.0  T
   6    -37.8546978 -0.252044E-03  0.674E-02    1.06       1.0  T
   7    -37.8546771  0.206490E-04  0.552E-02    1.07       1.0  T
   8    -37.8547159 -0.387574E-04  0.238E-02    1.06       1.0  T
   9    -37.8547190 -0.317207E-05  0.128E-02    1.06       1.4  T
  10    -37.8547212 -0.216819E-05  0.495E-03    1.06       3.6  T
  11    -37.8547213 -0.103608E-06  0.255E-03    1.06       7.0  T
  12    -37.8547213 -0.308322E-07  0.131E-03    1.06      13.7  T
  13    -37.8547214 -0.162863E-07  0.659E-04    1.06      27.3  T
  14    -37.8547214 -0.283481E-08  0.326E-04    1.06      55.1  T
     SCC iter.                  ...        0 min,  1.160 sec
     gradient                   ...        0 min,  0.180 sec
 * total energy  :   -37.3053164 Eh     change       -0.2381256E+00 Eh
   gradient norm :     0.2600187 Eh/α   predicted    -0.2656222E+00 (  11.55%)
   displ. norm   :     0.5547746 α      lambda       -0.9320670E-01
   maximum displ.:     0.2231944 α      in ANC's #36, #2, #1, ...

........................................................................
.............................. CYCLE    6 ..............................
........................................................................
   1    -37.8964516 -0.378965E+02  0.804E-01    0.90       0.0  T
   2    -37.8202424  0.762093E-01  0.151E+00    1.05       1.0  T
   3    -37.9008498 -0.806075E-01  0.534E-01    0.89       1.0  T
   4    -37.9059415 -0.509163E-02  0.260E-01    0.87       1.0  T
   5    -37.9064144 -0.472964E-03  0.973E-02    0.89       1.0  T
   6    -37.9064794 -0.649647E-04  0.855E-02    0.88       1.0  T
   7    -37.9065310 -0.515645E-04  0.274E-02    0.89       1.0  T
   8    -37.9065346 -0.357975E-05  0.153E-02    0.89       1.2  T
   9    -37.9065378 -0.326813E-05  0.692E-03    0.89       2.6  T
  10    -37.9065380 -0.194450E-06  0.470E-03    0.89       3.8  T
  11    -37.9065381 -0.747755E-07  0.318E-03    0.89       5.6  T
  12    -37.9065383 -0.175481E-06  0.596E-04    0.89      30.1  T
  13    -37.9065383 -0.146087E-08  0.600E-04    0.89      29.9  T
     SCC iter.                  ...        0 min,  1.168 sec
     gradient                   ...        0 min,  0.176 sec
 * total energy  :   -37.3464001 Eh     change       -0.4108371E-01 Eh
   gradient norm :     0.3913988 Eh/α   predicted    -0.6094705E-01 (  48.35%)
   displ. norm   :     0.7293950 α      lambda       -0.1157227E+00
   maximum displ.:     0.4274622 α      in ANC's #2, #36, #22, ...

........................................................................
.............................. CYCLE    7 ..............................
........................................................................
   1    -38.0238332 -0.380238E+02  0.846E-01    1.21       0.0  T
   2    -38.0243329 -0.499675E-03  0.547E-01    1.13       1.0  T
   3    -38.0228727  0.146016E-02  0.391E-01    1.22       1.0  T
   4    -38.0239573 -0.108455E-02  0.212E-01    1.15       1.0  T
   5    -38.0250939 -0.113664E-02  0.870E-02    1.15       1.0  T
   6    -38.0251309 -0.370505E-04  0.456E-02    1.17       1.0  T
   7    -38.0251585 -0.276044E-04  0.190E-02    1.16       1.0  T
   8    -38.0251595 -0.986068E-06  0.101E-02    1.16       1.8  T
   9    -38.0251597 -0.128192E-06  0.654E-03    1.16       2.7  T
  10    -38.0251598 -0.169145E-06  0.309E-03    1.16       5.8  T
  11    -38.0251599 -0.705433E-07  0.807E-04    1.16      22.3  T
  12    -38.0251599 -0.561878E-08  0.418E-04    1.16      43.0  T
     SCC iter.                  ...        0 min,  0.881 sec
     gradient                   ...        0 min,  0.136 sec
 * total energy  :   -37.4355255 Eh     change       -0.8912538E-01 Eh
   gradient norm :     0.2462675 Eh/α   predicted    -0.8864498E-01 (  -0.54%)
   displ. norm   :     0.7136235 α      lambda       -0.9249737E-01
   maximum displ.:     0.3225970 α      in ANC's #22, #26, #36, ...

........................................................................
.............................. CYCLE    8 ..............................
........................................................................
   1    -38.1354614 -0.381355E+02  0.795E-01    1.26       0.0  T
   2    -38.1354407  0.207470E-04  0.551E-01    1.23       1.0  T
   3    -38.1298696  0.557109E-02  0.477E-01    1.33       1.0  T
   4    -38.1353441 -0.547446E-02  0.176E-01    1.27       1.0  T
   5    -38.1359640 -0.619974E-03  0.722E-02    1.25       1.0  T
   6    -38.1359877 -0.236231E-04  0.399E-02    1.26       1.0  T
   7    -38.1359946 -0.689655E-05  0.193E-02    1.26       1.0  T
   8    -38.1359972 -0.262978E-05  0.640E-03    1.26       2.8  T
   9    -38.1359974 -0.215017E-06  0.357E-03    1.26       5.0  T
  10    -38.1359975 -0.827611E-07  0.199E-03    1.26       9.0  T
  11    -38.1359975 -0.719404E-08  0.926E-04    1.26      19.4  T
  12    -38.1359975 -0.336366E-08  0.387E-04    1.26      46.4  T
     SCC iter.                  ...        0 min,  0.817 sec
     gradient                   ...        0 min,  0.173 sec
 * total energy  :   -37.5076696 Eh     change       -0.7214412E-01 Eh
   gradient norm :     0.1621093 Eh/α   predicted    -0.6980128E-01 (  -3.25%)
   displ. norm   :     0.8273258 α      lambda       -0.8047637E-01
   maximum displ.:     0.3898924 α      in ANC's #22, #1, #26, ...

........................................................................
.............................. CYCLE    9 ..............................
........................................................................
   1    -38.2169801 -0.382170E+02  0.106E+00    1.11       0.0  T
   2    -38.2150800  0.190004E-02  0.794E-01    0.96       1.0  T
   3    -38.2123570  0.272301E-02  0.708E-01    1.14       1.0  T
   4    -38.2197136 -0.735658E-02  0.206E-01    1.05       1.0  T
   5    -38.2198980 -0.184402E-03  0.113E-01    1.03       1.0  T
   6    -38.2199155 -0.174662E-04  0.738E-02    1.06       1.0  T
   7    -38.2199618 -0.462922E-04  0.323E-02    1.04       1.0  T
   8    -38.2199676 -0.582660E-05  0.165E-02    1.05       1.1  T
   9    -38.2199678 -0.194905E-06  0.110E-02    1.05       1.6  T
  10    -38.2199689 -0.108009E-05  0.506E-03    1.05       3.6  T
  11    -38.2199689 -0.435715E-07  0.184E-03    1.05       9.7  T
  12    -38.2199689 -0.101847E-07  0.676E-04    1.05      26.6  T
  13    -38.2199689 -0.284922E-08  0.307E-04    1.05      58.5  T
     SCC iter.                  ...        0 min,  1.037 sec
     gradient                   ...        0 min,  0.050 sec
 * total energy  :   -37.5503212 Eh     change       -0.4265161E-01 Eh
   gradient norm :     0.2609874 Eh/α   predicted    -0.6778003E-01 (  58.92%)
   displ. norm   :     0.7384523 α      lambda       -0.6885234E-01
   maximum displ.:     0.4228144 α      in ANC's #1, #22, #26, ...

........................................................................
.............................. CYCLE   10 ..............................
........................................................................
   1    -38.2409386 -0.382409E+02  0.109E+00    1.20       0.0  T
   2    -38.2351876  0.575099E-02  0.115E+00    1.31       1.0  T
   3    -38.2500022 -0.148145E-01  0.673E-01    1.23       1.0  T
   4    -38.2497631  0.239075E-03  0.222E-01    1.28       1.0  T
   5    -38.2500051 -0.242016E-03  0.143E-01    1.23       1.0  T
   6    -38.2502520 -0.246877E-03  0.681E-02    1.25       1.0  T
   7    -38.2502758 -0.238039E-04  0.310E-02    1.24       1.0  T
   8    -38.2502783 -0.249265E-05  0.158E-02    1.24       1.1  T
   9    -38.2502796 -0.131993E-05  0.766E-03    1.24       2.3  T
  10    -38.2502798 -0.233967E-06  0.421E-03    1.24       4.3  T
  11    -38.2502799 -0.826450E-07  0.193E-03    1.24       9.3  T
  12    -38.2502799 -0.122208E-07  0.512E-04    1.24      35.1  T
  13    -38.2502799 -0.216742E-08  0.214E-04    1.24      84.0  T
     SCC iter.                  ...        0 min,  0.927 sec
     gradient                   ...        0 min,  0.036 sec
 * total energy  :   -37.5816284 Eh     change       -0.3130722E-01 Eh
   gradient norm :     0.1513271 Eh/α   predicted    -0.5319920E-01 (  69.93%)
   displ. norm   :     0.2645936 α      lambda       -0.2390164E-01
   maximum displ.:     0.1041963 α      in ANC's #26, #1, #22, ...

........................................................................
.............................. CYCLE   11 ..............................
........................................................................
   1    -38.2379232 -0.382379E+02  0.337E-01    1.18       0.0  T
   2    -38.2377374  0.185806E-03  0.322E-01    1.19       1.0  T
   3    -38.2384133 -0.675885E-03  0.188E-01    1.18       1.0  T
   4    -38.2383821  0.311804E-04  0.715E-02    1.19       1.0  T
   5    -38.2384788 -0.967129E-04  0.395E-02    1.18       1.0  T
   6    -38.2384860 -0.714552E-05  0.172E-02    1.19       1.0  T
   7    -38.2384869 -0.929793E-06  0.830E-03    1.18       2.2  T
   8    -38.2384870 -0.654274E-07  0.441E-03    1.19       4.1  T
   9    -38.2384871 -0.147291E-06  0.214E-03    1.19       8.4  T
  10    -38.2384872 -0.275886E-07  0.129E-03    1.19      13.9  T
  11    -38.2384872 -0.458839E-08  0.418E-04    1.19      42.9  T
  12    -38.2384872 -0.747050E-09  0.171E-04    1.19     105.1  T
     SCC iter.                  ...        0 min,  1.177 sec
     gradient                   ...        0 min,  0.172 sec
 * total energy  :   -37.5954998 Eh     change       -0.1387143E-01 Eh
   gradient norm :     0.1166418 Eh/α   predicted    -0.1278753E-01 (  -7.81%)
   displ. norm   :     0.3447799 α      lambda       -0.1261668E-01
   maximum displ.:     0.1458192 α      in ANC's #26, #22, #5, ...

........................................................................
.............................. CYCLE   12 ..............................
........................................................................
   1    -38.2364427 -0.382364E+02  0.398E-01    1.15       0.0  T
   2    -38.2363841  0.586383E-04  0.236E-01    1.13       1.0  T
   3    -38.2354370  0.947101E-03  0.259E-01    1.18       1.0  T
   4    -38.2366472 -0.121019E-02  0.371E-02    1.14       1.0  T
   5    -38.2366550 -0.785189E-05  0.245E-02    1.15       1.0  T
   6    -38.2366579 -0.287423E-05  0.153E-02    1.15       1.2  T
   7    -38.2366588 -0.849881E-06  0.555E-03    1.15       3.2  T
   8    -38.2366588 -0.455101E-07  0.283E-03    1.15       6.3  T
   9    -38.2366589 -0.458780E-07  0.143E-03    1.15      12.5  T
  10    -38.2366589 -0.141121E-07  0.754E-04    1.15      23.8  T
  11    -38.2366589 -0.129280E-08  0.275E-04    1.15      65.2  T
     SCC iter.                  ...        0 min,  0.817 sec
     gradient                   ...        0 min,  0.167 sec
 * total energy  :   -37.6026598 Eh     change       -0.7159962E-02 Eh
   gradient norm :     0.0344930 Eh/α   predicted    -0.7058245E-02 (  -1.42%)
   displ. norm   :     0.1539219 α      lambda       -0.2923434E-02
   maximum displ.:     0.0643414 α      in ANC's #5, #8, #26, ...

........................................................................
.............................. CYCLE   13 ..............................
........................................................................
   1    -38.2335814 -0.382336E+02  0.141E-01    1.20       0.0  T
   2    -38.2335622  0.192368E-04  0.125E-01    1.22       1.0  T
   3    -38.2336584 -0.962192E-04  0.674E-02    1.20       1.0  T
   4    -38.2336606 -0.220147E-05  0.373E-02    1.21       1.0  T
   5    -38.2336828 -0.222409E-04  0.123E-02    1.21       1.5  T
   6    -38.2336836 -0.731231E-06  0.682E-03    1.21       2.6  T
   7    -38.2336836 -0.659990E-07  0.263E-03    1.21       6.8  T
   8    -38.2336837 -0.616058E-07  0.110E-03    1.21      16.3  T
   9    -38.2336837 -0.145032E-08  0.840E-04    1.21      21.4  T
  10    -38.2336837 -0.326112E-08  0.541E-04    1.21      33.2  T
     SCC iter.                  ...        0 min,  0.757 sec
     gradient                   ...        0 min,  0.112 sec
 * total energy  :   -37.6050561 Eh     change       -0.2396298E-02 Eh
   gradient norm :     0.0301003 Eh/α   predicted    -0.1496378E-02 ( -37.55%)
   displ. norm   :     0.3553098 α      lambda       -0.5250545E-02
   maximum displ.:     0.1532286 α      in ANC's #5, #8, #16, ...

........................................................................
.............................. CYCLE   14 ..............................
........................................................................
   1    -38.2304433 -0.382304E+02  0.301E-01    1.32       0.0  T
   2    -38.2302774  0.165970E-03  0.293E-01    1.35       1.0  T
   3    -38.2310221 -0.744783E-03  0.153E-01    1.33       1.0  T
   4    -38.2309404  0.817798E-04  0.798E-02    1.35       1.0  T
   5    -38.2310596 -0.119269E-03  0.244E-02    1.33       1.0  T
   6    -38.2310620 -0.239127E-05  0.130E-02    1.34       1.4  T
   7    -38.2310623 -0.232820E-06  0.463E-03    1.33       3.9  T
   8    -38.2310625 -0.250605E-06  0.213E-03    1.34       8.4  T
   9    -38.2310625 -0.728619E-09  0.147E-03    1.34      12.2  T
  10    -38.2310625 -0.126121E-07  0.820E-04    1.34      21.9  T
  11    -38.2310625 -0.800931E-09  0.382E-04    1.34      47.0  T
     SCC iter.                  ...        0 min,  0.797 sec
     gradient                   ...        0 min,  0.146 sec
 * total energy  :   -37.6086655 Eh     change       -0.3609411E-02 Eh
   gradient norm :     0.0383965 Eh/α   predicted    -0.2956716E-02 ( -18.08%)
   displ. norm   :     0.2921710 α      lambda       -0.3036924E-02
   maximum displ.:     0.1292462 α      in ANC's #8, #5, #16, ...

........................................................................
.............................. CYCLE   15 ..............................
........................................................................
   1    -38.2315529 -0.382316E+02  0.231E-01    1.41       0.0  T
   2    -38.2314940  0.589215E-04  0.222E-01    1.42       1.0  T
   3    -38.2318144 -0.320341E-03  0.124E-01    1.41       1.0  T
   4    -38.2317553  0.591001E-04  0.618E-02    1.43       1.0  T
   5    -38.2318376 -0.823761E-04  0.152E-02    1.41       1.2  T
   6    -38.2318382 -0.604652E-06  0.761E-03    1.42       2.4  T
   7    -38.2318384 -0.135505E-06  0.329E-03    1.41       5.5  T
   8    -38.2318385 -0.968099E-07  0.182E-03    1.42       9.9  T
   9    -38.2318385 -0.240411E-08  0.799E-04    1.42      22.5  T
  10    -38.2318385 -0.678548E-08  0.352E-04    1.42      51.0  T
     SCC iter.                  ...        0 min,  0.797 sec
     gradient                   ...        0 min,  0.094 sec
 * total energy  :   -37.6110968 Eh     change       -0.2431282E-02 Eh
   gradient norm :     0.0391063 Eh/α   predicted    -0.1648103E-02 ( -32.21%)
   displ. norm   :     0.4315375 α      lambda       -0.4839987E-02
   maximum displ.:     0.2016911 α      in ANC's #8, #5, #16, ...

........................................................................
.............................. CYCLE   16 ..............................
........................................................................
   1    -38.2360581 -0.382361E+02  0.349E-01    1.51       0.0  T
   2    -38.2360952 -0.370808E-04  0.311E-01    1.50       1.0  T
   3    -38.2362592 -0.164011E-03  0.180E-01    1.50       1.0  T
   4    -38.2361828  0.764210E-04  0.901E-02    1.52       1.0  T
   5    -38.2363856 -0.202769E-03  0.198E-02    1.50       1.0  T
   6    -38.2363859 -0.353579E-06  0.902E-03    1.50       2.0  T
   7    -38.2363865 -0.573121E-06  0.467E-03    1.50       3.8  T
   8    -38.2363866 -0.110092E-06  0.217E-03    1.50       8.3  T
   9    -38.2363866 -0.165285E-07  0.912E-04    1.50      19.7  T
  10    -38.2363866 -0.535392E-08  0.503E-04    1.50      35.7  T
     SCC iter.                  ...        0 min,  0.768 sec
     gradient                   ...        0 min,  0.116 sec
 * total energy  :   -37.6149208 Eh     change       -0.3824017E-02 Eh
   gradient norm :     0.0336909 Eh/α   predicted    -0.2870679E-02 ( -24.93%)
   displ. norm   :     0.4549432 α      lambda       -0.4971819E-02
   maximum displ.:     0.2198627 α      in ANC's #8, #5, #3, ...

........................................................................
.............................. CYCLE   17 ..............................
........................................................................
   1    -38.2423503 -0.382424E+02  0.394E-01    1.58       0.0  T
   2    -38.2424536 -0.103310E-03  0.325E-01    1.56       1.0  T
   3    -38.2423522  0.101354E-03  0.142E-01    1.57       1.0  T
   4    -38.2424359 -0.836527E-04  0.636E-02    1.57       1.0  T
   5    -38.2425274 -0.914997E-04  0.196E-02    1.56       1.0  T
   6    -38.2425278 -0.399657E-06  0.110E-02    1.56       1.6  T
   7    -38.2425285 -0.699349E-06  0.509E-03    1.56       3.5  T
   8    -38.2425286 -0.145482E-06  0.221E-03    1.56       8.1  T
   9    -38.2425286 -0.131444E-07  0.108E-03    1.56      16.6  T
  10    -38.2425286 -0.578034E-08  0.612E-04    1.56      29.3  T
  11    -38.2425286 -0.117098E-08  0.195E-04    1.56      91.9  T
     SCC iter.                  ...        0 min,  0.962 sec
     gradient                   ...        0 min,  0.250 sec
 * total energy  :   -37.6186496 Eh     change       -0.3728825E-02 Eh
   gradient norm :     0.0268568 Eh/α   predicted    -0.3000442E-02 ( -19.53%)
   displ. norm   :     0.4012038 α      lambda       -0.3154430E-02
   maximum displ.:     0.1999536 α      in ANC's #8, #5, #3, ...

........................................................................
.............................. CYCLE   18 ..............................
........................................................................
   1    -38.2458869 -0.382459E+02  0.363E-01    1.63       0.0  T
   2    -38.2459565 -0.695923E-04  0.281E-01    1.61       1.0  T
   3    -38.2458367  0.119744E-03  0.103E-01    1.63       1.0  T
   4    -38.2459807 -0.144020E-03  0.254E-02    1.61       1.0  T
   5    -38.2459918 -0.111093E-04  0.189E-02    1.62       1.0  T
   6    -38.2459939 -0.200514E-05  0.776E-03    1.62       2.3  T
   7    -38.2459943 -0.436599E-06  0.371E-03    1.62       4.8  T
   8    -38.2459944 -0.832332E-07  0.187E-03    1.62       9.6  T
   9    -38.2459944 -0.145456E-07  0.105E-03    1.62      17.1  T
  10    -38.2459944  0.418325E-09  0.632E-04    1.62      28.4  T
  11    -38.2459944 -0.204965E-08  0.162E-04    1.62     111.2  T
     SCC iter.                  ...        0 min,  1.205 sec
     gradient                   ...        0 min,  0.109 sec
 * total energy  :   -37.6209200 Eh     change       -0.2270325E-02 Eh
   gradient norm :     0.0213698 Eh/α   predicted    -0.1831100E-02 ( -19.35%)
   displ. norm   :     0.3243259 α      lambda       -0.1762795E-02
   maximum displ.:     0.1631248 α      in ANC's #8, #5, #4, ...

........................................................................
.............................. CYCLE   19 ..............................
........................................................................
   1    -38.2477814 -0.382478E+02  0.282E-01    1.67       0.0  T
   2    -38.2478160 -0.346138E-04  0.205E-01    1.66       1.0  T
   3    -38.2476820  0.134042E-03  0.893E-02    1.67       1.0  T
   4    -38.2478231 -0.141147E-03  0.280E-02    1.66       1.0  T
   5    -38.2478412 -0.181053E-04  0.135E-02    1.66       1.3  T
   6    -38.2478417 -0.496952E-06  0.595E-03    1.66       3.0  T
   7    -38.2478420 -0.303305E-06  0.245E-03    1.66       7.3  T
   8    -38.2478421 -0.450933E-07  0.154E-03    1.66      11.7  T
   9    -38.2478421 -0.829395E-08  0.962E-04    1.66      18.7  T
  10    -38.2478421  0.620076E-09  0.637E-04    1.66      28.2  T
     SCC iter.                  ...        0 min,  1.068 sec
     gradient                   ...        0 min,  0.207 sec
 * total energy  :   -37.6222362 Eh     change       -0.1316260E-02 Eh
   gradient norm :     0.0177145 Eh/α   predicted    -0.9741298E-03 ( -25.99%)
   displ. norm   :     0.3062511 α      lambda       -0.1575817E-02
   maximum displ.:     0.1482934 α      in ANC's #8, #4, #5, ...

........................................................................
.............................. CYCLE   20 ..............................
........................................................................
   1    -38.2502914 -0.382503E+02  0.251E-01    1.69       0.0  T
   2    -38.2503165 -0.250875E-04  0.173E-01    1.69       1.0  T
   3    -38.2501887  0.127823E-03  0.821E-02    1.70       1.0  T
   4    -38.2503293 -0.140632E-03  0.223E-02    1.69       1.0  T
   5    -38.2503380 -0.865301E-05  0.119E-02    1.69       1.5  T
   6    -38.2503381 -0.105228E-06  0.623E-03    1.69       2.9  T
   7    -38.2503384 -0.333140E-06  0.228E-03    1.69       7.9  T
   8    -38.2503385 -0.562966E-07  0.144E-03    1.69      12.4  T
   9    -38.2503385 -0.402918E-08  0.859E-04    1.69      20.9  T
  10    -38.2503385 -0.978311E-09  0.497E-04    1.69      36.1  T
     SCC iter.                  ...        0 min,  1.106 sec
     gradient                   ...        0 min,  0.118 sec
 * total energy  :   -37.6234494 Eh     change       -0.1213226E-02 Eh
   gradient norm :     0.0162289 Eh/α   predicted    -0.8618169E-03 ( -28.96%)
   displ. norm   :     0.3204275 α      lambda       -0.1743715E-02
   maximum displ.:     0.1377861 α      in ANC's #8, #4, #13, ...
 * RMSD in coord.:     1.0654005 α      energy gain  -0.8501350E+01 Eh

generating ANC from model Hessian ...
Using Lindh-Hessian (1995)
 Shifting diagonal of input Hessian by    1.2922635046208591E-002
 Lowest  eigenvalues of input Hessian
    0.010000    0.011565    0.012577    0.000000    0.000000    0.000000
    0.000000    0.000000    0.000000    0.013293    0.013786    0.014102
    0.014619    0.014980    0.016034    0.016262    0.018862    0.019928
 Highest eigenvalues
    1.734743    1.737482    1.742283    1.743329    3.009093    4.107640


........................................................................
.............................. CYCLE   21 ..............................
........................................................................
   1    -38.2526568 -0.382527E+02  0.241E-01    1.71       0.0  T
   2    -38.2526808 -0.240455E-04  0.157E-01    1.70       1.0  T
   3    -38.2525683  0.112571E-03  0.794E-02    1.72       1.0  T
   4    -38.2527014 -0.133166E-03  0.184E-02    1.71       1.0  T
   5    -38.2527024 -0.976387E-06  0.120E-02    1.71       1.5  T
   6    -38.2527010  0.139014E-05  0.895E-03    1.71       2.0  T
   7    -38.2527025 -0.151167E-05  0.210E-03    1.71       8.6  T
   8    -38.2527026 -0.432281E-07  0.136E-03    1.71      13.2  T
   9    -38.2527026 -0.546856E-08  0.758E-04    1.71      23.7  T
  10    -38.2527026 -0.827043E-09  0.421E-04    1.71      42.7  T
     SCC iter.                  ...        0 min,  0.894 sec
     gradient                   ...        0 min,  0.210 sec
 * total energy  :   -37.6247596 Eh     change       -0.1310171E-02 Eh
   gradient norm :     0.0164298 Eh/α   predicted     0.0000000E+00 (-100.00%)
   displ. norm   :     0.3630375 α      lambda       -0.3141192E-02
   maximum displ.:     0.1649079 α      in ANC's #6, #5, #10, ...

........................................................................
.............................. CYCLE   22 ..............................
........................................................................
   1    -38.2530501 -0.382531E+02  0.225E-01    1.72       0.0  T
   2    -38.2530454  0.473827E-05  0.150E-01    1.71       1.0  T
   3    -38.2527885  0.256871E-03  0.125E-01    1.71       1.0  T
   4    -38.2531033 -0.314760E-03  0.212E-02    1.72       1.0  T
   5    -38.2531123 -0.901531E-05  0.927E-03    1.71       1.9  T
   6    -38.2531126 -0.280973E-06  0.475E-03    1.71       3.8  T
   7    -38.2531128 -0.219277E-06  0.164E-03    1.71      11.0  T
   8    -38.2531128 -0.133104E-07  0.114E-03    1.71      15.8  T
   9    -38.2531128 -0.338810E-08  0.503E-04    1.71      35.7  T
  10    -38.2531128 -0.263178E-09  0.352E-04    1.71      51.0  T
     SCC iter.                  ...        0 min,  0.954 sec
     gradient                   ...        0 min,  0.129 sec
 * total energy  :   -37.6272618 Eh     change       -0.2502164E-02 Eh
   gradient norm :     0.0078685 Eh/α   predicted    -0.1782474E-02 ( -28.76%)
   displ. norm   :     0.6120586 α      lambda       -0.3562720E-02
   maximum displ.:     0.2986579 α      in ANC's #6, #5, #17, ...

........................................................................
.............................. CYCLE   23 ..............................
........................................................................
   1    -38.2517696 -0.382518E+02  0.400E-01    1.74       0.0  T
   2    -38.2517833 -0.136830E-04  0.275E-01    1.72       1.0  T
   3    -38.2509452  0.838097E-03  0.220E-01    1.73       1.0  T
   4    -38.2518966 -0.951410E-03  0.487E-02    1.73       1.0  T
   5    -38.2519505 -0.538727E-04  0.223E-02    1.72       1.0  T
   6    -38.2519516 -0.117722E-05  0.955E-03    1.72       1.9  T
   7    -38.2519526 -0.972662E-06  0.304E-03    1.72       5.9  T
   8    -38.2519527 -0.406338E-07  0.167E-03    1.72      10.8  T
   9    -38.2519527 -0.322233E-08  0.857E-04    1.72      21.0  T
  10    -38.2519527 -0.309745E-08  0.562E-04    1.72      32.0  T
     SCC iter.                  ...        0 min,  0.769 sec
     gradient                   ...        0 min,  0.128 sec
 * total energy  :   -37.6296039 Eh     change       -0.2342095E-02 Eh
   gradient norm :     0.0160431 Eh/α   predicted    -0.2448686E-02 (   4.55%)
   displ. norm   :     0.4667808 α      lambda       -0.1654365E-02
   maximum displ.:     0.2836244 α      in ANC's #6, #1, #5, ...

........................................................................
.............................. CYCLE   24 ..............................
........................................................................
   1    -38.2505435 -0.382505E+02  0.259E-01    1.76       0.0  T
   2    -38.2504776  0.659028E-04  0.183E-01    1.75       1.0  T
   3    -38.2503296  0.147943E-03  0.148E-01    1.75       1.0  T
   4    -38.2506913 -0.361681E-03  0.212E-02    1.75       1.0  T
   5    -38.2506983 -0.704150E-05  0.102E-02    1.75       1.8  T
   6    -38.2506984 -0.661703E-07  0.419E-03    1.75       4.3  T
   7    -38.2506985 -0.124776E-06  0.246E-03    1.75       7.3  T
   8    -38.2506986 -0.188036E-07  0.123E-03    1.75      14.6  T
   9    -38.2506986 -0.111044E-07  0.468E-04    1.75      38.4  T
  10    -38.2506986 -0.688871E-09  0.276E-04    1.75      65.1  T
     SCC iter.                  ...        0 min,  0.811 sec
     gradient                   ...        0 min,  0.168 sec
 * total energy  :   -37.6306333 Eh     change       -0.1029435E-02 Eh
   gradient norm :     0.0163696 Eh/α   predicted    -0.1007420E-02 (  -2.14%)
   displ. norm   :     0.3335322 α      lambda       -0.1199273E-02
   maximum displ.:     0.2105229 α      in ANC's #6, #5, #8, ...

........................................................................
.............................. CYCLE   25 ..............................
........................................................................
   1    -38.2536917 -0.382537E+02  0.140E-01    1.77       0.0  T
   2    -38.2537009 -0.919641E-05  0.820E-02    1.77       1.0  T
   3    -38.2536691  0.318105E-04  0.518E-02    1.77       1.0  T
   4    -38.2537076 -0.385152E-04  0.117E-02    1.77       1.5  T
   5    -38.2537080 -0.396252E-06  0.994E-03    1.77       1.8  T
   6    -38.2537089 -0.976564E-06  0.321E-03    1.77       5.6  T
   7    -38.2537090 -0.102653E-06  0.103E-03    1.77      17.4  T
   8    -38.2537091 -0.898144E-08  0.638E-04    1.77      28.1  T
   9    -38.2537091 -0.901778E-09  0.304E-04    1.77      59.0  T
     SCC iter.                  ...        0 min,  0.657 sec
     gradient                   ...        0 min,  0.165 sec
 * total energy  :   -37.6315919 Eh     change       -0.9586359E-03 Eh
   gradient norm :     0.0142317 Eh/α   predicted    -0.6663549E-03 ( -30.49%)
   displ. norm   :     0.4425651 α      lambda       -0.1647107E-02
   maximum displ.:     0.2583955 α      in ANC's #6, #5, #10, ...

........................................................................
.............................. CYCLE   26 ..............................
........................................................................
   1    -38.2591406 -0.382591E+02  0.158E-01    1.77       0.0  T
   2    -38.2591339  0.674527E-05  0.113E-01    1.77       1.0  T
   3    -38.2590430  0.908931E-04  0.801E-02    1.78       1.0  T
   4    -38.2591710 -0.128033E-03  0.208E-02    1.77       1.0  T
   5    -38.2591765 -0.549937E-05  0.924E-03    1.78       1.9  T
   6    -38.2591767 -0.158847E-06  0.393E-03    1.78       4.6  T
   7    -38.2591767 -0.739621E-07  0.175E-03    1.78      10.3  T
   8    -38.2591767 -0.170806E-07  0.999E-04    1.78      18.0  T
   9    -38.2591767 -0.227885E-08  0.435E-04    1.78      41.3  T
     SCC iter.                  ...        0 min,  0.760 sec
     gradient                   ...        0 min,  0.162 sec
 * total energy  :   -37.6327896 Eh     change       -0.1197691E-02 Eh
   gradient norm :     0.0132132 Eh/α   predicted    -0.9848601E-03 ( -17.77%)
   displ. norm   :     0.5453526 α      lambda       -0.1276840E-02
   maximum displ.:     0.3235415 α      in ANC's #6, #5, #1, ...

........................................................................
.............................. CYCLE   27 ..............................
........................................................................
   1    -38.2546900 -0.382547E+02  0.252E-01    1.77       0.0  T
   2    -38.2547056 -0.155649E-04  0.150E-01    1.79       1.0  T
   3    -38.2546726  0.329314E-04  0.751E-02    1.76       1.0  T
   4    -38.2547108 -0.381183E-04  0.187E-02    1.78       1.0  T
   5    -38.2547125 -0.174326E-05  0.153E-02    1.78       1.2  T
   6    -38.2547132 -0.706537E-06  0.614E-03    1.78       2.9  T
   7    -38.2547139 -0.666194E-06  0.224E-03    1.78       8.0  T
   8    -38.2547139 -0.449927E-07  0.148E-03    1.78      12.1  T
   9    -38.2547139 -0.982432E-08  0.625E-04    1.78      28.7  T
  10    -38.2547139  0.268365E-09  0.389E-04    1.78      46.2  T
     SCC iter.                  ...        0 min,  0.817 sec
     gradient                   ...        0 min,  0.028 sec
 * total energy  :   -37.6335974 Eh     change       -0.8077111E-03 Eh
   gradient norm :     0.0202116 Eh/α   predicted    -0.8282951E-03 (   2.55%)
   displ. norm   :     0.4035412 α      lambda       -0.1710898E-02
   maximum displ.:     0.2062304 α      in ANC's #6, #5, #58, ...

........................................................................
.............................. CYCLE   28 ..............................
........................................................................
   1    -38.2606914 -0.382607E+02  0.186E-01    1.77       0.0  T
   2    -38.2605929  0.984150E-04  0.153E-01    1.76       1.0  T
   3    -38.2608570 -0.264034E-03  0.911E-02    1.77       1.0  T
   4    -38.2609184 -0.614675E-04  0.221E-02    1.76       1.0  T
   5    -38.2609233 -0.486981E-05  0.110E-02    1.77       1.6  T
   6    -38.2609234 -0.395116E-07  0.622E-03    1.77       2.9  T
   7    -38.2609236 -0.295459E-06  0.179E-03    1.77      10.0  T
   8    -38.2609237 -0.332491E-07  0.119E-03    1.77      15.1  T
   9    -38.2609237 -0.413595E-08  0.528E-04    1.77      34.0  T
  10    -38.2609237 -0.735710E-09  0.262E-04    1.77      68.6  T
     SCC iter.                  ...        0 min,  0.452 sec
     gradient                   ...        0 min,  0.125 sec
 * total energy  :   -37.6344934 Eh     change       -0.8960313E-03 Eh
   gradient norm :     0.0146619 Eh/α   predicted    -0.9947660E-03 (  11.02%)
   displ. norm   :     0.5017436 α      lambda       -0.1433020E-02
   maximum displ.:     0.2392741 α      in ANC's #1, #5, #6, ...

........................................................................
.............................. CYCLE   29 ..............................
........................................................................
   1    -38.2570043 -0.382570E+02  0.219E-01    1.76       0.0  T
   2    -38.2570215 -0.172810E-04  0.146E-01    1.77       1.0  T
   3    -38.2569403  0.812706E-04  0.623E-02    1.75       1.0  T
   4    -38.2570347 -0.944411E-04  0.229E-02    1.77       1.0  T
   5    -38.2570336  0.108727E-05  0.144E-02    1.77       1.2  T
   6    -38.2570357 -0.204262E-05  0.813E-03    1.76       2.2  T
   7    -38.2570365 -0.824475E-06  0.358E-03    1.77       5.0  T
   8    -38.2570365 -0.325829E-07  0.141E-03    1.76      12.8  T
   9    -38.2570365 -0.247047E-07  0.653E-04    1.76      27.5  T
  10    -38.2570365  0.296723E-10  0.334E-04    1.76      53.7  T
     SCC iter.                  ...        0 min,  0.723 sec
     gradient                   ...        0 min,  0.128 sec
 * total energy  :   -37.6351830 Eh     change       -0.6896515E-03 Eh
   gradient norm :     0.0226829 Eh/α   predicted    -0.8968926E-03 (  30.05%)
   displ. norm   :     0.1817232 α      lambda       -0.8761135E-03
   maximum displ.:     0.0904680 α      in ANC's #5, #6, #58, ...

........................................................................
.............................. CYCLE   30 ..............................
........................................................................
   1    -38.2607495 -0.382607E+02  0.100E-01    1.77       0.0  T
   2    -38.2607511 -0.157809E-05  0.764E-02    1.76       1.0  T
   3    -38.2607278  0.232595E-04  0.491E-02    1.76       1.0  T
   4    -38.2607593 -0.314896E-04  0.165E-02    1.77       1.1  T
   5    -38.2607660 -0.666660E-05  0.575E-03    1.76       3.1  T
   6    -38.2607660 -0.625191E-07  0.264E-03    1.76       6.8  T
   7    -38.2607661 -0.345102E-07  0.856E-04    1.76      21.0  T
   8    -38.2607661 -0.905496E-08  0.436E-04    1.76      41.2  T
     SCC iter.                  ...        0 min,  0.610 sec
     gradient                   ...        0 min,  0.184 sec
 * total energy  :   -37.6358135 Eh     change       -0.6305071E-03 Eh
   gradient norm :     0.0117490 Eh/α   predicted    -0.4525249E-03 ( -28.23%)
   displ. norm   :     0.4492133 α      lambda       -0.1226175E-02
   maximum displ.:     0.2804625 α      in ANC's #5, #6, #8, ...

........................................................................
.............................. CYCLE   31 ..............................
........................................................................
   1    -38.2603611 -0.382604E+02  0.231E-01    1.78       0.0  T
   2    -38.2603666 -0.545009E-05  0.163E-01    1.78       1.0  T
   3    -38.2600556  0.311014E-03  0.116E-01    1.77       1.0  T
   4    -38.2603888 -0.333248E-03  0.238E-02    1.78       1.0  T
   5    -38.2603999 -0.110599E-04  0.162E-02    1.78       1.1  T
   6    -38.2604012 -0.136112E-05  0.544E-03    1.78       3.3  T
   7    -38.2604014 -0.202944E-06  0.264E-03    1.78       6.8  T
   8    -38.2604015 -0.140063E-07  0.176E-03    1.78      10.2  T
   9    -38.2604015 -0.124187E-07  0.814E-04    1.78      22.1  T
  10    -38.2604015 -0.224256E-08  0.321E-04    1.78      56.0  T
     SCC iter.                  ...        0 min,  0.736 sec
     gradient                   ...        0 min,  0.149 sec
 * total energy  :   -37.6361302 Eh     change       -0.3166455E-03 Eh
   gradient norm :     0.0171208 Eh/α   predicted    -0.7368052E-03 ( 132.69%)
   displ. norm   :     0.2603039 α      lambda       -0.1118518E-02
   maximum displ.:     0.1202823 α      in ANC's #1, #7, #58, ...

........................................................................
.............................. CYCLE   32 ..............................
........................................................................
   1    -38.2658157 -0.382658E+02  0.136E-01    1.77       0.0  T
   2    -38.2658233 -0.759194E-05  0.968E-02    1.78       1.0  T
   3    -38.2657669  0.563787E-04  0.467E-02    1.78       1.0  T
   4    -38.2658237 -0.567660E-04  0.241E-02    1.77       1.0  T
   5    -38.2658302 -0.652857E-05  0.130E-02    1.78       1.4  T
   6    -38.2658309 -0.700557E-06  0.379E-03    1.77       4.7  T
   7    -38.2658310 -0.885538E-07  0.212E-03    1.77       8.5  T
   8    -38.2658310 -0.227845E-07  0.865E-04    1.77      20.8  T
   9    -38.2658310 -0.347846E-08  0.592E-04    1.77      30.3  T
     SCC iter.                  ...        0 min,  0.750 sec
     gradient                   ...        0 min,  0.244 sec
 * total energy  :   -37.6366633 Eh     change       -0.5331008E-03 Eh
   gradient norm :     0.0087524 Eh/α   predicted    -0.5971563E-03 (  12.02%)
   displ. norm   :     0.3085683 α      lambda       -0.4576323E-03
   maximum displ.:     0.1592652 α      in ANC's #5, #6, #1, ...

........................................................................
.............................. CYCLE   33 ..............................
........................................................................
   1    -38.2577410 -0.382577E+02  0.131E-01    1.76       0.0  T
   2    -38.2577432 -0.225848E-05  0.825E-02    1.77       1.0  T
   3    -38.2576702  0.730733E-04  0.661E-02    1.77       1.0  T
   4    -38.2577583 -0.881515E-04  0.228E-02    1.77       1.0  T
   5    -38.2577618 -0.345051E-05  0.130E-02    1.77       1.4  T
   6    -38.2577616  0.158208E-06  0.626E-03    1.77       2.9  T
   7    -38.2577618 -0.241623E-06  0.183E-03    1.77       9.8  T
   8    -38.2577619 -0.314610E-07  0.998E-04    1.77      18.0  T
   9    -38.2577619 -0.518764E-08  0.433E-04    1.77      41.5  T
     SCC iter.                  ...        0 min,  0.839 sec
     gradient                   ...        0 min,  0.161 sec
 * total energy  :   -37.6365597 Eh     change        0.1036147E-03 Eh
   gradient norm :     0.0198687 Eh/α   predicted    -0.2506031E-03 (-341.86%)
   displ. norm   :     0.1571839 α      lambda       -0.9083364E-03
   maximum displ.:     0.0881201 α      in ANC's #6, #3, #9, ...

........................................................................
.............................. CYCLE   34 ..............................
........................................................................
   1    -38.2671868 -0.382672E+02  0.164E-01    1.77       0.0  T
   2    -38.2671703  0.164953E-04  0.905E-02    1.74       1.0  T
   3    -38.2671129  0.573524E-04  0.107E-01    1.77       1.0  T
   4    -38.2672592 -0.146283E-03  0.241E-02    1.76       1.0  T
   5    -38.2672628 -0.357836E-05  0.127E-02    1.76       1.4  T
   6    -38.2672634 -0.627329E-06  0.680E-03    1.76       2.6  T
   7    -38.2672638 -0.373787E-06  0.225E-03    1.76       8.0  T
   8    -38.2672638 -0.175432E-07  0.122E-03    1.76      14.7  T
   9    -38.2672638 -0.152438E-08  0.446E-04    1.76      40.3  T
  10    -38.2672638 -0.314174E-09  0.231E-04    1.76      77.9  T
     SCC iter.                  ...        0 min,  0.730 sec
     gradient                   ...        0 min,  0.138 sec
 * total energy  :   -37.6368154 Eh     change       -0.2557405E-03 Eh
   gradient norm :     0.0177456 Eh/α   predicted    -0.4653923E-03 (  81.98%)
   displ. norm   :     0.1904047 α      lambda       -0.8300286E-03
   maximum displ.:     0.1083309 α      in ANC's #9, #6, #5, ...

........................................................................
.............................. CYCLE   35 ..............................
........................................................................
   1    -38.2668347 -0.382668E+02  0.183E-01    1.76       0.0  T
   2    -38.2667975  0.372126E-04  0.105E-01    1.77       1.0  T
   3    -38.2666976  0.998450E-04  0.129E-01    1.76       1.0  T
   4    -38.2669141 -0.216426E-03  0.176E-02    1.76       1.0  T
   5    -38.2669148 -0.724862E-06  0.129E-02    1.77       1.4  T
   6    -38.2669159 -0.107659E-05  0.406E-03    1.76       4.4  T
   7    -38.2669160 -0.969295E-07  0.182E-03    1.76       9.9  T
   8    -38.2669160 -0.882434E-08  0.102E-03    1.76      17.7  T
   9    -38.2669160 -0.383113E-08  0.538E-04    1.76      33.4  T
  10    -38.2669160 -0.212069E-09  0.258E-04    1.76      69.7  T
     SCC iter.                  ...        0 min,  0.801 sec
     gradient                   ...        0 min,  0.004 sec
 * total energy  :   -37.6367289 Eh     change        0.8651490E-04 Eh
   gradient norm :     0.0261000 Eh/α   predicted    -0.4300601E-03 (-597.09%)
   displ. norm   :     0.1095141 α      lambda       -0.7676884E-03
   maximum displ.:     0.0727970 α      in ANC's #1, #5, #9, ...

........................................................................
.............................. CYCLE   36 ..............................
........................................................................
   1    -38.2649418 -0.382649E+02  0.691E-02    1.77       0.0  T
   2    -38.2649422 -0.376214E-06  0.413E-02    1.77       1.0  T
   3    -38.2649208  0.213627E-04  0.450E-02    1.77       1.0  T
   4    -38.2649480 -0.271982E-04  0.803E-03    1.77       2.2  T
   5    -38.2649485 -0.504962E-06  0.680E-03    1.77       2.6  T
   6    -38.2649488 -0.261245E-06  0.212E-03    1.77       8.5  T
   7    -38.2649488 -0.304187E-07  0.812E-04    1.77      22.1  T
   8    -38.2649488 -0.856321E-08  0.411E-04    1.77      43.7  T
     SCC iter.                  ...        0 min,  0.620 sec
     gradient                   ...        0 min,  0.005 sec
 * total energy  :   -37.6371214 Eh     change       -0.3925392E-03 Eh
   gradient norm :     0.0046297 Eh/α   predicted    -0.3884496E-03 (  -1.04%)
   displ. norm   :     0.1282053 α      lambda       -0.1439109E-03
   maximum displ.:     0.0502869 α      in ANC's #5, #3, #1, ...

........................................................................
.............................. CYCLE   37 ..............................
........................................................................
   1    -38.2648950 -0.382649E+02  0.508E-02    1.77       0.0  T
   2    -38.2648916  0.336280E-05  0.322E-02    1.76       1.0  T
   3    -38.2648885  0.311551E-05  0.294E-02    1.77       1.0  T
   4    -38.2649018 -0.133323E-04  0.366E-03    1.76       4.9  T
   5    -38.2649020 -0.167525E-06  0.169E-03    1.76      10.6  T
   6    -38.2649020 -0.558575E-08  0.955E-04    1.76      18.8  T
   7    -38.2649020 -0.816463E-08  0.464E-04    1.76      38.7  T
     SCC iter.                  ...        0 min,  0.512 sec
     gradient                   ...        0 min,  0.044 sec
 * total energy  :   -37.6371804 Eh     change       -0.5893325E-04 Eh
   gradient norm :     0.0082727 Eh/α   predicted    -0.7314082E-04 (  24.11%)
   displ. norm   :     0.1590774 α      lambda       -0.1378030E-03
   maximum displ.:     0.0804035 α      in ANC's #5, #3, #8, ...

........................................................................
.............................. CYCLE   38 ..............................
........................................................................
   1    -38.2647044 -0.382647E+02  0.745E-02    1.77       0.0  T
   2    -38.2647035  0.889297E-06  0.499E-02    1.77       1.0  T
   3    -38.2646664  0.371331E-04  0.399E-02    1.76       1.0  T
   4    -38.2647071 -0.407053E-04  0.568E-03    1.77       3.2  T
   5    -38.2647073 -0.209693E-06  0.332E-03    1.77       5.4  T
   6    -38.2647074 -0.598142E-07  0.130E-03    1.77      13.8  T
   7    -38.2647074 -0.719752E-08  0.628E-04    1.77      28.6  T
   8    -38.2647074 -0.292282E-09  0.385E-04    1.77      46.6  T
     SCC iter.                  ...        0 min,  0.517 sec
     gradient                   ...        0 min,  0.048 sec
 * total energy  :   -37.6372911 Eh     change       -0.1106890E-03 Eh
   gradient norm :     0.0057947 Eh/α   predicted    -0.7064626E-04 ( -36.18%)
   displ. norm   :     0.3306301 α      lambda       -0.2119545E-03
   maximum displ.:     0.1793284 α      in ANC's #3, #5, #8, ...

........................................................................
.............................. CYCLE   39 ..............................
........................................................................
   1    -38.2645056 -0.382645E+02  0.143E-01    1.78       0.0  T
   2    -38.2644990  0.656502E-05  0.100E-01    1.78       1.0  T
   3    -38.2643640  0.134995E-03  0.811E-02    1.77       1.0  T
   4    -38.2645206 -0.156598E-03  0.100E-02    1.78       1.8  T
   5    -38.2645216 -0.999381E-06  0.658E-03    1.77       2.7  T
   6    -38.2645218 -0.127866E-06  0.246E-03    1.78       7.3  T
   7    -38.2645218 -0.420364E-07  0.156E-03    1.78      11.5  T
   8    -38.2645218 -0.126579E-08  0.102E-03    1.78      17.7  T
   9    -38.2645218 -0.518319E-08  0.323E-04    1.78      55.5  T
  10    -38.2645218 -0.434135E-09  0.138E-04    1.78     130.1  T
     SCC iter.                  ...        0 min,  0.646 sec
     gradient                   ...        0 min,  0.028 sec
 * total energy  :   -37.6374270 Eh     change       -0.1359032E-03 Eh
   gradient norm :     0.0029965 Eh/α   predicted    -0.1175635E-03 ( -13.49%)
   displ. norm   :     0.2423637 α      lambda       -0.1086007E-03
   maximum displ.:     0.1684874 α      in ANC's #3, #5, #8, ...

........................................................................
.............................. CYCLE   40 ..............................
........................................................................
   1    -38.2652389 -0.382652E+02  0.922E-02    1.78       0.0  T
   2    -38.2652402 -0.125131E-05  0.662E-02    1.78       1.0  T
   3    -38.2652071  0.331223E-04  0.351E-02    1.78       1.0  T
   4    -38.2652401 -0.330599E-04  0.138E-02    1.78       1.3  T
   5    -38.2652430 -0.292787E-05  0.685E-03    1.78       2.6  T
   6    -38.2652431 -0.756584E-07  0.229E-03    1.78       7.9  T
   7    -38.2652432 -0.627614E-07  0.108E-03    1.78      16.6  T
   8    -38.2652432 -0.441293E-08  0.598E-04    1.78      30.0  T
   9    -38.2652432 -0.902020E-09  0.256E-04    1.78      70.1  T
     SCC iter.                  ...        0 min,  0.708 sec
     gradient                   ...        0 min,  0.184 sec
 * total energy  :   -37.6374897 Eh     change       -0.6276438E-04 Eh
   gradient norm :     0.0060588 Eh/α   predicted    -0.5749391E-04 (  -8.40%)
   displ. norm   :     0.1802479 α      lambda       -0.7666339E-04
   maximum displ.:     0.1161008 α      in ANC's #3, #5, #8, ...

........................................................................
.............................. CYCLE   41 ..............................
........................................................................
   1    -38.2643702 -0.382644E+02  0.631E-02    1.78       0.0  T
   2    -38.2643700  0.146363E-06  0.441E-02    1.78       1.0  T
   3    -38.2643476  0.224324E-04  0.293E-02    1.78       1.0  T
   4    -38.2643712 -0.236583E-04  0.464E-03    1.78       3.9  T
   5    -38.2643715 -0.275959E-06  0.325E-03    1.78       5.5  T
   6    -38.2643716 -0.311297E-07  0.981E-04    1.78      18.3  T
   7    -38.2643716 -0.391272E-08  0.673E-04    1.78      26.7  T
     SCC iter.                  ...        0 min,  0.511 sec
     gradient                   ...        0 min,  0.146 sec
 * total energy  :   -37.6375440 Eh     change       -0.5426213E-04 Eh
   gradient norm :     0.0036941 Eh/α   predicted    -0.3957900E-04 ( -27.06%)
   displ. norm   :     0.1511224 α      lambda       -0.9177419E-04
   maximum displ.:     0.1204283 α      in ANC's #3, #5, #4, ...

........................................................................
.............................. CYCLE   42 ..............................
........................................................................
   1    -38.2662971 -0.382663E+02  0.479E-02    1.78       0.0  T
   2    -38.2662976 -0.461399E-06  0.316E-02    1.78       1.0  T
   3    -38.2662891  0.848411E-05  0.228E-02    1.78       1.0  T
   4    -38.2662981 -0.896263E-05  0.529E-03    1.78       3.4  T
   5    -38.2662985 -0.433693E-06  0.397E-03    1.78       4.5  T
   6    -38.2662986 -0.801234E-07  0.110E-03    1.78      16.4  T
   7    -38.2662986 -0.898844E-08  0.441E-04    1.78      40.7  T
   8    -38.2662986 -0.551779E-09  0.196E-04    1.78      91.8  T
     SCC iter.                  ...        0 min,  0.572 sec
     gradient                   ...        0 min,  0.110 sec
 * total energy  :   -37.6376081 Eh     change       -0.6410564E-04 Eh
   gradient norm :     0.0039504 Eh/α   predicted    -0.4693790E-04 ( -26.78%)
   displ. norm   :     0.2151522 α      lambda       -0.1107272E-03
   maximum displ.:     0.1566950 α      in ANC's #3, #5, #4, ...
 * RMSD in coord.:     0.8941747 α      energy gain  -0.1415865E-01 Eh

generating ANC from model Hessian ...
Using Lindh-Hessian (1995)
 Shifting diagonal of input Hessian by    1.1636449089230611E-002
 Lowest  eigenvalues of input Hessian
    0.010000    0.011451    0.000000    0.000000    0.000000    0.000000
    0.000000    0.000000    0.012001    0.012550    0.012813    0.013199
    0.013678    0.014854    0.015852    0.017534    0.018371    0.019598
 Highest eigenvalues
    1.733617    1.734453    1.737952    1.740218    2.999456    4.148044


........................................................................
.............................. CYCLE   43 ..............................
........................................................................
   1    -38.2661831 -0.382662E+02  0.572E-02    1.78       0.0  T
   2    -38.2661842 -0.114542E-05  0.337E-02    1.78       1.0  T
   3    -38.2661731  0.111495E-04  0.284E-02    1.78       1.0  T
   4    -38.2661857 -0.126370E-04  0.747E-03    1.78       2.4  T
   5    -38.2661864 -0.701024E-06  0.379E-03    1.78       4.7  T
   6    -38.2661865 -0.492037E-07  0.151E-03    1.78      11.9  T
   7    -38.2661865 -0.217827E-07  0.532E-04    1.78      33.7  T
   8    -38.2661865 -0.138847E-08  0.380E-04    1.78      47.2  T
     SCC iter.                  ...        0 min,  0.527 sec
     gradient                   ...        0 min,  0.047 sec
 * total energy  :   -37.6376919 Eh     change       -0.8377995E-04 Eh
   gradient norm :     0.0037990 Eh/α   predicted     0.0000000E+00 (-100.00%)
   displ. norm   :     0.0570429 α      lambda        0.2708631E-05
   maximum displ.:     0.0378539 α      in ANC's #2, #8, #4, ...

........................................................................
.............................. CYCLE   44 ..............................
........................................................................
   1    -38.2659686 -0.382660E+02  0.192E-02    1.77       0.0  T
   2    -38.2659689 -0.366129E-06  0.111E-02    1.77       1.6  T
   3    -38.2659688  0.158167E-06  0.692E-03    1.77       2.6  T
   4    -38.2659690 -0.267657E-06  0.231E-03    1.77       7.8  T
   5    -38.2659691 -0.576903E-07  0.144E-03    1.77      12.5  T
   6    -38.2659691  0.754348E-09  0.501E-04    1.77      35.8  T
   7    -38.2659691 -0.684900E-08  0.195E-04    1.77      92.0  T
     SCC iter.                  ...        0 min,  0.540 sec
     gradient                   ...        0 min,  0.158 sec
 * total energy  :   -37.6377376 Eh     change       -0.4573728E-04 Eh
   gradient norm :     0.0011825 Eh/α   predicted    -0.2757882E-04 ( -39.70%)
   displ. norm   :     0.2433298 α      lambda       -0.1081899E-03
   maximum displ.:     0.1597421 α      in ANC's #2, #8, #4, ...

........................................................................
.............................. CYCLE   45 ..............................
........................................................................
   1    -38.2649735 -0.382650E+02  0.683E-02    1.77       0.0  T
   2    -38.2649758 -0.230845E-05  0.430E-02    1.77       1.0  T
   3    -38.2649712  0.466281E-05  0.215E-02    1.77       1.0  T
   4    -38.2649764 -0.523109E-05  0.884E-03    1.77       2.0  T
   5    -38.2649774 -0.104114E-05  0.451E-03    1.77       4.0  T
   6    -38.2649774  0.724488E-07  0.244E-03    1.77       7.4  T
   7    -38.2649775 -0.100694E-06  0.107E-03    1.77      16.7  T
   8    -38.2649775 -0.241659E-08  0.452E-04    1.77      39.7  T
   9    -38.2649775 -0.141503E-08  0.247E-04    1.77      72.8  T
     SCC iter.                  ...        0 min,  0.742 sec
     gradient                   ...        0 min,  0.152 sec
 * total energy  :   -37.6378260 Eh     change       -0.8837130E-04 Eh
   gradient norm :     0.0058380 Eh/α   predicted    -0.5552287E-04 ( -37.17%)
   displ. norm   :     0.0831738 α      lambda       -0.5173903E-04
   maximum displ.:     0.0651133 α      in ANC's #2, #4, #8, ...

........................................................................
.............................. CYCLE   46 ..............................
........................................................................
   1    -38.2652811 -0.382653E+02  0.290E-02    1.77       0.0  T
   2    -38.2652812 -0.104820E-06  0.182E-02    1.77       1.0  T
   3    -38.2652785  0.273793E-05  0.127E-02    1.77       1.4  T
   4    -38.2652814 -0.291335E-05  0.337E-03    1.77       5.3  T
   5    -38.2652814 -0.266529E-07  0.245E-03    1.77       7.3  T
   6    -38.2652814 -0.267783E-07  0.508E-04    1.77      35.3  T
   7    -38.2652814 -0.428623E-08  0.241E-04    1.77      74.4  T
     SCC iter.                  ...        0 min,  0.687 sec
     gradient                   ...        0 min,  0.185 sec
 * total energy  :   -37.6378706 Eh     change       -0.4465340E-04 Eh
   gradient norm :     0.0043125 Eh/α   predicted    -0.2605136E-04 ( -41.66%)
   displ. norm   :     0.1424527 α      lambda       -0.9671436E-04
   maximum displ.:     0.1056377 α      in ANC's #2, #4, #5, ...

........................................................................
.............................. CYCLE   47 ..............................
........................................................................
   1    -38.2662163 -0.382662E+02  0.587E-02    1.77       0.0  T
   2    -38.2662165 -0.221782E-06  0.401E-02    1.77       1.0  T
   3    -38.2662078  0.874921E-05  0.205E-02    1.77       1.0  T
   4    -38.2662163 -0.853668E-05  0.589E-03    1.77       3.0  T
   5    -38.2662171 -0.739866E-06  0.242E-03    1.77       7.4  T
   6    -38.2662171 -0.113317E-07  0.673E-04    1.77      26.7  T
   7    -38.2662171 -0.601673E-08  0.263E-04    1.77      68.2  T
     SCC iter.                  ...        0 min,  0.551 sec
     gradient                   ...        0 min,  0.178 sec
 * total energy  :   -37.6379483 Eh     change       -0.7766041E-04 Eh
   gradient norm :     0.0013558 Eh/α   predicted    -0.4933771E-04 ( -36.47%)
   displ. norm   :     0.3196462 α      lambda       -0.9905710E-04
   maximum displ.:     0.2400853 α      in ANC's #2, #4, #5, ...

........................................................................
.............................. CYCLE   48 ..............................
........................................................................
   1    -38.2661819 -0.382662E+02  0.114E-01    1.77       0.0  T
   2    -38.2661831 -0.113957E-05  0.801E-02    1.77       1.0  T
   3    -38.2661601  0.229487E-04  0.301E-02    1.77       1.0  T
   4    -38.2661819 -0.218322E-04  0.110E-02    1.77       1.6  T
   5    -38.2661843 -0.239900E-05  0.434E-03    1.77       4.1  T
   6    -38.2661844 -0.128535E-07  0.127E-03    1.77      14.2  T
   7    -38.2661844 -0.299404E-07  0.439E-04    1.77      40.9  T
   8    -38.2661844 -0.131092E-08  0.273E-04    1.77      65.8  T
     SCC iter.                  ...        0 min,  0.614 sec
     gradient                   ...        0 min,  0.133 sec
 * total energy  :   -37.6380422 Eh     change       -0.9392627E-04 Eh
   gradient norm :     0.0057738 Eh/α   predicted    -0.5177974E-04 ( -44.87%)
   displ. norm   :     0.1601435 α      lambda       -0.7621141E-04
   maximum displ.:     0.1248908 α      in ANC's #2, #1, #5, ...

........................................................................
.............................. CYCLE   49 ..............................
........................................................................
   1    -38.2659523 -0.382660E+02  0.584E-02    1.77       0.0  T
   2    -38.2659524 -0.684782E-07  0.403E-02    1.77       1.0  T
   3    -38.2659419  0.104952E-04  0.196E-02    1.77       1.0  T
   4    -38.2659527 -0.107750E-04  0.455E-03    1.77       4.0  T
   5    -38.2659529 -0.214791E-06  0.235E-03    1.77       7.7  T
   6    -38.2659529 -0.205262E-07  0.609E-04    1.77      29.5  T
   7    -38.2659529 -0.142183E-08  0.391E-04    1.77      46.0  T
     SCC iter.                  ...        0 min,  0.672 sec
     gradient                   ...        0 min,  0.197 sec
 * total energy  :   -37.6381011 Eh     change       -0.5889476E-04 Eh
   gradient norm :     0.0057255 Eh/α   predicted    -0.3908353E-04 ( -33.64%)
   displ. norm   :     0.1071411 α      lambda       -0.6122913E-04
   maximum displ.:     0.0903085 α      in ANC's #2, #3, #5, ...

........................................................................
.............................. CYCLE   50 ..............................
........................................................................
   1    -38.2663649 -0.382664E+02  0.278E-02    1.77       0.0  T
   2    -38.2663652 -0.210571E-06  0.187E-02    1.77       1.0  T
   3    -38.2663634  0.178726E-05  0.825E-03    1.77       2.2  T
   4    -38.2663652 -0.181930E-05  0.383E-03    1.77       4.7  T
   5    -38.2663654 -0.173239E-06  0.172E-03    1.77      10.5  T
   6    -38.2663654 -0.267534E-08  0.791E-04    1.77      22.7  T
   7    -38.2663654 -0.684964E-08  0.256E-04    1.77      70.1  T
     SCC iter.                  ...        0 min,  0.635 sec
     gradient                   ...        0 min,  0.088 sec
 * total energy  :   -37.6381562 Eh     change       -0.5510851E-04 Eh
   gradient norm :     0.0024975 Eh/α   predicted    -0.3097079E-04 ( -43.80%)
   displ. norm   :     0.1398959 α      lambda       -0.7787361E-04
   maximum displ.:     0.1161007 α      in ANC's #2, #3, #5, ...

........................................................................
.............................. CYCLE   51 ..............................
........................................................................
   1    -38.2665640 -0.382666E+02  0.315E-02    1.77       0.0  T
   2    -38.2665642 -0.275916E-06  0.206E-02    1.77       1.0  T
   3    -38.2665601  0.417473E-05  0.150E-02    1.77       1.2  T
   4    -38.2665650 -0.489249E-05  0.613E-03    1.77       2.9  T
   5    -38.2665653 -0.397513E-06  0.246E-03    1.77       7.3  T
   6    -38.2665653  0.225996E-08  0.124E-03    1.77      14.4  T
   7    -38.2665654 -0.157669E-07  0.332E-04    1.77      54.1  T
   8    -38.2665654 -0.361446E-09  0.227E-04    1.77      79.1  T
     SCC iter.                  ...        0 min,  0.740 sec
     gradient                   ...        0 min,  0.248 sec
 * total energy  :   -37.6382255 Eh     change       -0.6922440E-04 Eh
   gradient norm :     0.0014523 Eh/α   predicted    -0.3969925E-04 ( -42.65%)
   displ. norm   :     0.2680125 α      lambda       -0.8469736E-04
   maximum displ.:     0.2133473 α      in ANC's #2, #3, #5, ...

........................................................................
.............................. CYCLE   52 ..............................
........................................................................
   1    -38.2662933 -0.382663E+02  0.629E-02    1.77       0.0  T
   2    -38.2662946 -0.128583E-05  0.409E-02    1.77       1.0  T
   3    -38.2662799  0.146747E-04  0.256E-02    1.77       1.0  T
   4    -38.2662957 -0.157827E-04  0.104E-02    1.77       1.7  T
   5    -38.2662970 -0.122821E-05  0.443E-03    1.77       4.1  T
   6    -38.2662969  0.112412E-07  0.219E-03    1.77       8.2  T
   7    -38.2662970 -0.512746E-07  0.610E-04    1.77      29.4  T
   8    -38.2662970 -0.510852E-09  0.409E-04    1.77      43.9  T
     SCC iter.                  ...        0 min,  0.741 sec
     gradient                   ...        0 min,  0.162 sec
 * total energy  :   -37.6383378 Eh     change       -0.1123801E-03 Eh
   gradient norm :     0.0046415 Eh/α   predicted    -0.4370293E-04 ( -61.11%)
   displ. norm   :     0.2236558 α      lambda       -0.9963911E-04
   maximum displ.:     0.1706415 α      in ANC's #2, #3, #1, ...

........................................................................
.............................. CYCLE   53 ..............................
........................................................................
   1    -38.2657897 -0.382658E+02  0.504E-02    1.77       0.0  T
   2    -38.2657901 -0.436770E-06  0.332E-02    1.77       1.0  T
   3    -38.2657792  0.109444E-04  0.209E-02    1.77       1.0  T
   4    -38.2657908 -0.116447E-04  0.686E-03    1.77       2.6  T
   5    -38.2657914 -0.568687E-06  0.308E-03    1.77       5.8  T
   6    -38.2657914 -0.102744E-08  0.143E-03    1.77      12.6  T
   7    -38.2657914 -0.228613E-07  0.438E-04    1.77      41.0  T
   8    -38.2657914 -0.882565E-10  0.323E-04    1.77      55.7  T
     SCC iter.                  ...        0 min,  0.891 sec
     gradient                   ...        0 min,  0.160 sec
 * total energy  :   -37.6384339 Eh     change       -0.9607233E-04 Eh
   gradient norm :     0.0050884 Eh/α   predicted    -0.5231295E-04 ( -45.55%)
   displ. norm   :     0.5222733 α      lambda       -0.2370177E-03
   maximum displ.:     0.3918357 α      in ANC's #2, #3, #1, ...

........................................................................
.............................. CYCLE   54 ..............................
........................................................................
   1    -38.2632118 -0.382632E+02  0.118E-01    1.77       0.0  T
   2    -38.2632144 -0.255714E-05  0.779E-02    1.77       1.0  T
   3    -38.2631684  0.459215E-04  0.415E-02    1.77       1.0  T
   4    -38.2632160 -0.475619E-04  0.153E-02    1.77       1.2  T
   5    -38.2632188 -0.281136E-05  0.695E-03    1.77       2.6  T
   6    -38.2632188 -0.469843E-08  0.285E-03    1.77       6.3  T
   7    -38.2632189 -0.119639E-06  0.897E-04    1.77      20.0  T
   8    -38.2632189 -0.120095E-08  0.623E-04    1.77      28.8  T
     SCC iter.                  ...        0 min,  0.734 sec
     gradient                   ...        0 min,  0.199 sec
 * total energy  :   -37.6386368 Eh     change       -0.2028706E-03 Eh
   gradient norm :     0.0064087 Eh/α   predicted    -0.1508320E-03 ( -25.65%)
   displ. norm   :     0.6196901 α      lambda       -0.2505056E-03
   maximum displ.:     0.4668029 α      in ANC's #2, #3, #5, ...

........................................................................
.............................. CYCLE   55 ..............................
........................................................................
   1    -38.2589101 -0.382589E+02  0.139E-01    1.77       0.0  T
   2    -38.2589129 -0.286027E-05  0.911E-02    1.77       1.0  T
   3    -38.2588416  0.713623E-04  0.526E-02    1.77       1.0  T
   4    -38.2589159 -0.743328E-04  0.175E-02    1.77       1.0  T
   5    -38.2589196 -0.374509E-05  0.774E-03    1.77       2.3  T
   6    -38.2589197 -0.834341E-08  0.311E-03    1.77       5.8  T
   7    -38.2589198 -0.151397E-06  0.104E-03    1.77      17.2  T
   8    -38.2589198 -0.228891E-08  0.755E-04    1.77      23.8  T
   9    -38.2589198 -0.241378E-09  0.315E-04    1.77      57.0  T
     SCC iter.                  ...        0 min,  0.899 sec
     gradient                   ...        0 min,  0.266 sec
 * total energy  :   -37.6387793 Eh     change       -0.1425413E-03 Eh
   gradient norm :     0.0116025 Eh/α   predicted    -0.1733496E-03 (  21.61%)
   displ. norm   :     0.1545563 α      lambda       -0.2127034E-03
   maximum displ.:     0.1153464 α      in ANC's #2, #5, #4, ...

........................................................................
.............................. CYCLE   56 ..............................
........................................................................
   1    -38.2629467 -0.382629E+02  0.416E-02    1.77       0.0  T
   2    -38.2629472 -0.418889E-06  0.275E-02    1.77       1.0  T
   3    -38.2629456  0.159893E-05  0.952E-03    1.78       1.9  T
   4    -38.2629472 -0.160055E-05  0.390E-03    1.77       4.6  T
   5    -38.2629474 -0.244366E-06  0.209E-03    1.77       8.6  T
   6    -38.2629474 -0.456901E-08  0.801E-04    1.77      22.4  T
   7    -38.2629474 -0.245066E-08  0.460E-04    1.77      39.1  T
     SCC iter.                  ...        0 min,  0.522 sec
     gradient                   ...        0 min,  0.181 sec
 * total energy  :   -37.6389378 Eh     change       -0.1584745E-03 Eh
   gradient norm :     0.0049019 Eh/α   predicted    -0.1088945E-03 ( -31.29%)
   displ. norm   :     0.4221820 α      lambda       -0.2069743E-03
   maximum displ.:     0.3129061 α      in ANC's #2, #5, #3, ...

........................................................................
.............................. CYCLE   57 ..............................
........................................................................
   1    -38.2645768 -0.382646E+02  0.870E-02    1.77       0.0  T
   2    -38.2645782 -0.138715E-05  0.564E-02    1.77       1.0  T
   3    -38.2645707  0.744209E-05  0.218E-02    1.77       1.0  T
   4    -38.2645780 -0.723633E-05  0.697E-03    1.77       2.6  T
   5    -38.2645787 -0.790004E-06  0.549E-03    1.77       3.3  T
   6    -38.2645790 -0.297866E-06  0.121E-03    1.77      14.9  T
   7    -38.2645790 -0.616990E-08  0.340E-04    1.77      52.8  T
   8    -38.2645790 -0.354241E-09  0.185E-04    1.77      97.0  T
     SCC iter.                  ...        0 min,  0.836 sec
     gradient                   ...        0 min,  0.156 sec
 * total energy  :   -37.6390949 Eh     change       -0.1571144E-03 Eh
   gradient norm :     0.0045923 Eh/α   predicted    -0.1219365E-03 ( -22.39%)
   displ. norm   :     0.3746924 α      lambda       -0.1518470E-03
   maximum displ.:     0.2617463 α      in ANC's #2, #5, #3, ...

........................................................................
.............................. CYCLE   58 ..............................
........................................................................
   1    -38.2658509 -0.382659E+02  0.689E-02    1.77       0.0  T
   2    -38.2658521 -0.124586E-05  0.420E-02    1.77       1.0  T
   3    -38.2658426  0.948065E-05  0.238E-02    1.77       1.0  T
   4    -38.2658526 -0.100047E-04  0.604E-03    1.77       3.0  T
   5    -38.2658533 -0.664073E-06  0.412E-03    1.77       4.4  T
   6    -38.2658534 -0.131359E-06  0.118E-03    1.77      15.2  T
   7    -38.2658534 -0.153693E-07  0.556E-04    1.77      32.3  T
   8    -38.2658534 -0.172928E-08  0.327E-04    1.77      54.9  T
     SCC iter.                  ...        0 min,  0.736 sec
     gradient                   ...        0 min,  0.021 sec
 * total energy  :   -37.6392047 Eh     change       -0.1098343E-03 Eh
   gradient norm :     0.0048288 Eh/α   predicted    -0.8658486E-04 ( -21.17%)
   displ. norm   :     0.3221680 α      lambda       -0.8709530E-04
   maximum displ.:     0.2192030 α      in ANC's #2, #5, #3, ...

........................................................................
.............................. CYCLE   59 ..............................
........................................................................
   1    -38.2659331 -0.382659E+02  0.632E-02    1.77       0.0  T
   2    -38.2659342 -0.109781E-05  0.395E-02    1.77       1.0  T
   3    -38.2659286  0.559969E-05  0.184E-02    1.77       1.0  T
   4    -38.2659344 -0.580278E-05  0.517E-03    1.77       3.5  T
   5    -38.2659348 -0.399952E-06  0.437E-03    1.77       4.1  T
   6    -38.2659350 -0.194133E-06  0.121E-03    1.77      14.9  T
   7    -38.2659351 -0.161449E-07  0.342E-04    1.77      52.5  T
   8    -38.2659351 -0.914270E-09  0.184E-04    1.77      97.6  T
     SCC iter.                  ...        0 min,  0.646 sec
     gradient                   ...        0 min,  0.182 sec
 * total energy  :   -37.6392646 Eh     change       -0.5986697E-04 Eh
   gradient norm :     0.0060625 Eh/α   predicted    -0.4807022E-04 ( -19.70%)
   displ. norm   :     0.1699072 α      lambda       -0.7607917E-04
   maximum displ.:     0.0895244 α      in ANC's #5, #2, #3, ...

........................................................................
.............................. CYCLE   60 ..............................
........................................................................
   1    -38.2698573 -0.382699E+02  0.464E-02    1.77       0.0  T
   2    -38.2698583 -0.985970E-06  0.292E-02    1.77       1.0  T
   3    -38.2698557  0.264375E-05  0.124E-02    1.77       1.4  T
   4    -38.2698589 -0.322834E-05  0.457E-03    1.77       3.9  T
   5    -38.2698590 -0.443443E-07  0.288E-03    1.77       6.2  T
   6    -38.2698590  0.117154E-07  0.177E-03    1.77      10.2  T
   7    -38.2698590 -0.598685E-07  0.701E-04    1.77      25.6  T
   8    -38.2698590 -0.858755E-09  0.432E-04    1.77      41.6  T
     SCC iter.                  ...        0 min,  0.772 sec
     gradient                   ...        0 min,  0.165 sec
 * total energy  :   -37.6392912 Eh     change       -0.2654907E-04 Eh
   gradient norm :     0.0048175 Eh/α   predicted    -0.3913952E-04 (  47.42%)
   displ. norm   :     0.3358029 α      lambda       -0.9531850E-04
   maximum displ.:     0.2211384 α      in ANC's #2, #3, #5, ...

........................................................................
.............................. CYCLE   61 ..............................
........................................................................
   1    -38.2656943 -0.382657E+02  0.557E-02    1.77       0.0  T
   2    -38.2656946 -0.224712E-06  0.355E-02    1.77       1.0  T
   3    -38.2656809  0.136277E-04  0.272E-02    1.77       1.0  T
   4    -38.2656973 -0.163308E-04  0.709E-03    1.77       2.5  T
   5    -38.2656980 -0.731462E-06  0.280E-03    1.77       6.4  T
   6    -38.2656980 -0.515966E-08  0.127E-03    1.77      14.2  T
   7    -38.2656980 -0.886516E-08  0.480E-04    1.77      37.4  T
   8    -38.2656980 -0.189624E-08  0.393E-04    1.77      45.7  T
     SCC iter.                  ...        0 min,  0.894 sec
     gradient                   ...        0 min,  0.141 sec
 * total energy  :   -37.6393427 Eh     change       -0.5158597E-04 Eh
   gradient norm :     0.0054916 Eh/α   predicted    -0.5303803E-04 (   2.81%)
   displ. norm   :     0.0844549 α      lambda       -0.6999492E-04
   maximum displ.:     0.0545674 α      in ANC's #3, #1, #2, ...

........................................................................
.............................. CYCLE   62 ..............................
........................................................................
   1    -38.2661704 -0.382662E+02  0.316E-02    1.77       0.0  T
   2    -38.2661707 -0.341045E-06  0.221E-02    1.77       1.0  T
   3    -38.2661668  0.392351E-05  0.132E-02    1.77       1.4  T
   4    -38.2661710 -0.420499E-05  0.521E-03    1.77       3.4  T
   5    -38.2661714 -0.412538E-06  0.240E-03    1.77       7.5  T
   6    -38.2661714 -0.166994E-07  0.944E-04    1.77      19.0  T
   7    -38.2661715 -0.797810E-08  0.429E-04    1.77      41.8  T
     SCC iter.                  ...        0 min,  0.728 sec
     gradient                   ...        0 min,  0.128 sec
 * total energy  :   -37.6393898 Eh     change       -0.4708905E-04 Eh
   gradient norm :     0.0050408 Eh/α   predicted    -0.3524868E-04 ( -25.14%)
   displ. norm   :     0.1623863 α      lambda       -0.9375071E-04
   maximum displ.:     0.1087829 α      in ANC's #3, #8, #4, ...

........................................................................
.............................. CYCLE   63 ..............................
........................................................................
   1    -38.2669304 -0.382669E+02  0.535E-02    1.77       0.0  T
   2    -38.2669304 -0.287482E-07  0.338E-02    1.77       1.0  T
   3    -38.2669165  0.139337E-04  0.299E-02    1.77       1.0  T
   4    -38.2669336 -0.170889E-04  0.573E-03    1.77       3.1  T
   5    -38.2669342 -0.650794E-06  0.249E-03    1.77       7.2  T
   6    -38.2669342 -0.178605E-07  0.959E-04    1.77      18.7  T
   7    -38.2669342 -0.766329E-08  0.420E-04    1.77      42.7  T
     SCC iter.                  ...        0 min,  0.565 sec
     gradient                   ...        0 min,  0.163 sec
 * total energy  :   -37.6394556 Eh     change       -0.6574794E-04 Eh
   gradient norm :     0.0048080 Eh/α   predicted    -0.4811404E-04 ( -26.82%)
   displ. norm   :     0.2748837 α      lambda       -0.7261889E-04
   maximum displ.:     0.1871732 α      in ANC's #3, #1, #2, ...

........................................................................
.............................. CYCLE   64 ..............................
........................................................................
   1    -38.2668081 -0.382668E+02  0.670E-02    1.77       0.0  T
   2    -38.2668086 -0.534671E-06  0.420E-02    1.78       1.0  T
   3    -38.2667877  0.208547E-04  0.347E-02    1.77       1.0  T
   4    -38.2668112 -0.234998E-04  0.700E-03    1.78       2.6  T
   5    -38.2668121 -0.878124E-06  0.353E-03    1.77       5.1  T
   6    -38.2668122 -0.657522E-07  0.154E-03    1.78      11.6  T
   7    -38.2668122 -0.204785E-07  0.438E-04    1.77      41.0  T
   8    -38.2668122 -0.143778E-09  0.303E-04    1.77      59.3  T
     SCC iter.                  ...        0 min,  0.425 sec
     gradient                   ...        0 min,  0.115 sec
 * total energy  :   -37.6395023 Eh     change       -0.4676845E-04 Eh
   gradient norm :     0.0034475 Eh/α   predicted    -0.3905541E-04 ( -16.49%)
   displ. norm   :     0.1592313 α      lambda       -0.5302301E-04
   maximum displ.:     0.1203844 α      in ANC's #3, #4, #1, ...

........................................................................
.............................. CYCLE   65 ..............................
........................................................................
   1    -38.2684964 -0.382685E+02  0.447E-02    1.78       0.0  T
   2    -38.2684967 -0.267981E-06  0.293E-02    1.77       1.0  T
   3    -38.2684906  0.613626E-05  0.166E-02    1.78       1.1  T
   4    -38.2684970 -0.639604E-05  0.392E-03    1.77       4.6  T
   5    -38.2684972 -0.275464E-06  0.182E-03    1.77       9.9  T
   6    -38.2684972 -0.781169E-08  0.637E-04    1.77      28.2  T
   7    -38.2684972 -0.692940E-08  0.195E-04    1.77      92.1  T
     SCC iter.                  ...        0 min,  0.411 sec
     gradient                   ...        0 min,  0.123 sec
 * total energy  :   -37.6395372 Eh     change       -0.3484504E-04 Eh
   gradient norm :     0.0067513 Eh/α   predicted    -0.2718745E-04 ( -21.98%)
   displ. norm   :     0.3544096 α      lambda       -0.7220117E-04
   maximum displ.:     0.2588216 α      in ANC's #3, #1, #8, ...

........................................................................
.............................. CYCLE   66 ..............................
........................................................................
   1    -38.2667098 -0.382667E+02  0.691E-02    1.77       0.0  T
   2    -38.2667109 -0.106245E-05  0.454E-02    1.77       1.0  T
   3    -38.2667018  0.910026E-05  0.200E-02    1.77       1.0  T
   4    -38.2667109 -0.914913E-05  0.685E-03    1.77       2.6  T
   5    -38.2667118 -0.851308E-06  0.361E-03    1.77       5.0  T
   6    -38.2667119 -0.650536E-07  0.810E-04    1.77      22.2  T
   7    -38.2667119 -0.597699E-08  0.446E-04    1.77      40.3  T
     SCC iter.                  ...        0 min,  0.328 sec
     gradient                   ...        0 min,  0.004 sec
 * total energy  :   -37.6395707 Eh     change       -0.3346492E-04 Eh
   gradient norm :     0.0040455 Eh/α   predicted    -0.4063621E-04 (  21.43%)
   displ. norm   :     0.1281649 α      lambda       -0.8107421E-04
   maximum displ.:     0.0803565 α      in ANC's #3, #2, #5, ...
 * RMSD in coord.:     0.9074149 α      energy gain  -0.1962561E-02 Eh

generating ANC from model Hessian ...
Using Lindh-Hessian (1995)
 Shifting diagonal of input Hessian by    1.2130762856162377E-002
 Lowest  eigenvalues of input Hessian
    0.010000    0.011933    0.000000    0.000000    0.000000    0.000000
    0.000000    0.000000    0.012572    0.013068    0.013257    0.013713
    0.013949    0.015303    0.016010    0.017689    0.017953    0.020005
 Highest eigenvalues
    1.734583    1.736697    1.739269    1.742123    2.998801    4.143871


........................................................................
.............................. CYCLE   67 ..............................
........................................................................
   1    -38.2691407 -0.382691E+02  0.314E-02    1.77       0.0  T
   2    -38.2691398  0.920192E-06  0.214E-02    1.77       1.0  T
   3    -38.2691390  0.799948E-06  0.175E-02    1.77       1.0  T
   4    -38.2691438 -0.480198E-05  0.378E-03    1.77       4.7  T
   5    -38.2691439 -0.135177E-06  0.254E-03    1.77       7.1  T
   6    -38.2691440 -0.112228E-07  0.115E-03    1.77      15.6  T
   7    -38.2691440 -0.143320E-07  0.350E-04    1.77      51.3  T
   8    -38.2691440 -0.489145E-09  0.235E-04    1.77      76.4  T
     SCC iter.                  ...        0 min,  0.494 sec
     gradient                   ...        0 min,  0.163 sec
 * total energy  :   -37.6396146 Eh     change       -0.4393205E-04 Eh
   gradient norm :     0.0034030 Eh/α   predicted     0.0000000E+00 (-100.00%)
   displ. norm   :     0.0545154 α      lambda       -0.5950069E-05
   maximum displ.:     0.0376674 α      in ANC's #1, #2, #3, ...

........................................................................
.............................. CYCLE   68 ..............................
........................................................................
   1    -38.2680811 -0.382681E+02  0.419E-02    1.77       0.0  T
   2    -38.2680814 -0.261784E-06  0.279E-02    1.77       1.0  T
   3    -38.2680798  0.156201E-05  0.878E-03    1.77       2.0  T
   4    -38.2680814 -0.163704E-05  0.452E-03    1.77       4.0  T
   5    -38.2680815 -0.108117E-06  0.250E-03    1.77       7.2  T
   6    -38.2680816 -0.153999E-07  0.111E-03    1.77      16.2  T
   7    -38.2680816 -0.204793E-07  0.544E-04    1.77      33.0  T
   8    -38.2680816 -0.279741E-09  0.308E-04    1.77      58.4  T
     SCC iter.                  ...        0 min,  0.505 sec
     gradient                   ...        0 min,  0.119 sec
 * total energy  :   -37.6396397 Eh     change       -0.2516058E-04 Eh
   gradient norm :     0.0011748 Eh/α   predicted    -0.2559330E-04 (   1.72%)
   displ. norm   :     0.0981854 α      lambda       -0.3975573E-04
   maximum displ.:     0.0486307 α      in ANC's #2, #3, #4, ...

........................................................................
.............................. CYCLE   69 ..............................
........................................................................
   1    -38.2664583 -0.382665E+02  0.488E-02    1.77       0.0  T
   2    -38.2664587 -0.390294E-06  0.317E-02    1.77       1.0  T
   3    -38.2664535  0.514949E-05  0.148E-02    1.77       1.2  T
   4    -38.2664589 -0.540091E-05  0.454E-03    1.77       4.0  T
   5    -38.2664591 -0.189403E-06  0.349E-03    1.77       5.2  T
   6    -38.2664592 -0.954324E-07  0.102E-03    1.77      17.5  T
   7    -38.2664592 -0.762692E-08  0.580E-04    1.77      31.0  T
   8    -38.2664592 -0.114643E-08  0.351E-04    1.77      51.1  T
     SCC iter.                  ...        0 min,  0.511 sec
     gradient                   ...        0 min,  0.065 sec
 * total energy  :   -37.6396661 Eh     change       -0.2640117E-04 Eh
   gradient norm :     0.0035675 Eh/α   predicted    -0.1996379E-04 ( -24.38%)
   displ. norm   :     0.0513687 α      lambda       -0.2359020E-04
   maximum displ.:     0.0302287 α      in ANC's #3, #2, #4, ...

........................................................................
.............................. CYCLE   70 ..............................
........................................................................
   1    -38.2668124 -0.382668E+02  0.220E-02    1.77       0.0  T
   2    -38.2668125 -0.540328E-07  0.141E-02    1.77       1.3  T
   3    -38.2668122  0.275861E-06  0.402E-03    1.77       4.5  T
   4    -38.2668125 -0.305307E-06  0.107E-03    1.77      16.7  T
   5    -38.2668125  0.518867E-09  0.836E-04    1.77      21.5  T
   6    -38.2668125 -0.488927E-08  0.369E-04    1.77      48.6  T
     SCC iter.                  ...        0 min,  0.184 sec
     gradient                   ...        0 min,  0.004 sec
 * total energy  :   -37.6396859 Eh     change       -0.1978616E-04 Eh
   gradient norm :     0.0018152 Eh/α   predicted    -0.1183823E-04 ( -40.17%)
   displ. norm   :     0.1839686 α      lambda       -0.4419281E-04
   maximum displ.:     0.1121155 α      in ANC's #2, #3, #4, ...

........................................................................
.............................. CYCLE   71 ..............................
........................................................................
   1    -38.2682659 -0.382683E+02  0.644E-02    1.77       0.0  T
   2    -38.2682663 -0.334894E-06  0.413E-02    1.77       1.0  T
   3    -38.2682611  0.516051E-05  0.155E-02    1.77       1.2  T
   4    -38.2682665 -0.534484E-05  0.451E-03    1.77       4.0  T
   5    -38.2682667 -0.211626E-06  0.214E-03    1.77       8.4  T
   6    -38.2682667 -0.140400E-07  0.740E-04    1.77      24.3  T
   7    -38.2682667 -0.864381E-08  0.254E-04    1.77      70.7  T
     SCC iter.                  ...        0 min,  0.216 sec
     gradient                   ...        0 min,  0.027 sec
 * total energy  :   -37.6397280 Eh     change       -0.4205275E-04 Eh
   gradient norm :     0.0034848 Eh/α   predicted    -0.2242890E-04 ( -46.66%)
   displ. norm   :     0.1055912 α      lambda       -0.2778852E-04
   maximum displ.:     0.0650683 α      in ANC's #2, #3, #4, ...

........................................................................
.............................. CYCLE   72 ..............................
........................................................................
   1    -38.2683015 -0.382683E+02  0.357E-02    1.77       0.0  T
   2    -38.2683017 -0.156878E-06  0.235E-02    1.77       1.0  T
   3    -38.2683007  0.964840E-06  0.726E-03    1.77       2.5  T
   4    -38.2683017 -0.971132E-06  0.224E-03    1.77       8.0  T
   5    -38.2683018 -0.777392E-07  0.136E-03    1.77      13.2  T
   6    -38.2683018 -0.916219E-08  0.462E-04    1.77      38.9  T
   7    -38.2683018 -0.520330E-08  0.174E-04    1.77     103.5  T
     SCC iter.                  ...        0 min,  0.217 sec
     gradient                   ...        0 min,  0.023 sec
 * total energy  :   -37.6397531 Eh     change       -0.2512258E-04 Eh
   gradient norm :     0.0028163 Eh/α   predicted    -0.1404965E-04 ( -44.08%)
   displ. norm   :     0.2393082 α      lambda       -0.6724244E-04
   maximum displ.:     0.1503149 α      in ANC's #2, #3, #4, ...

........................................................................
.............................. CYCLE   73 ..............................
........................................................................
   1    -38.2678404 -0.382678E+02  0.686E-02    1.77       0.0  T
   2    -38.2678408 -0.472240E-06  0.463E-02    1.77       1.0  T
   3    -38.2678391  0.178682E-05  0.908E-03    1.76       2.0  T
   4    -38.2678410 -0.193771E-05  0.400E-03    1.77       4.5  T
   5    -38.2678410  0.223905E-07  0.257E-03    1.77       7.0  T
   6    -38.2678411 -0.110290E-06  0.955E-04    1.77      18.8  T
   7    -38.2678411 -0.131277E-07  0.437E-04    1.77      41.1  T
     SCC iter.                  ...        0 min,  0.313 sec
     gradient                   ...        0 min,  0.030 sec
 * total energy  :   -37.6398113 Eh     change       -0.5819365E-04 Eh
   gradient norm :     0.0014761 Eh/α   predicted    -0.3554688E-04 ( -38.92%)
   displ. norm   :     0.4705043 α      lambda       -0.7450744E-04
   maximum displ.:     0.2964237 α      in ANC's #2, #3, #4, ...

........................................................................
.............................. CYCLE   74 ..............................
........................................................................
   1    -38.2654869 -0.382655E+02  0.124E-01    1.76       0.0  T
   2    -38.2654885 -0.153662E-05  0.862E-02    1.77       1.0  T
   3    -38.2654694  0.190768E-04  0.266E-02    1.76       1.0  T
   4    -38.2654875 -0.180971E-04  0.117E-02    1.76       1.5  T
   5    -38.2654897 -0.221092E-05  0.569E-03    1.76       3.2  T
   6    -38.2654898 -0.950539E-07  0.146E-03    1.76      12.3  T
   7    -38.2654898 -0.249928E-07  0.752E-04    1.76      23.9  T
   8    -38.2654898 -0.318458E-09  0.493E-04    1.76      36.4  T
     SCC iter.                  ...        0 min,  0.282 sec
     gradient                   ...        0 min,  0.067 sec
 * total energy  :   -37.6398788 Eh     change       -0.6744937E-04 Eh
   gradient norm :     0.0037968 Eh/α   predicted    -0.4092004E-04 ( -39.33%)
   displ. norm   :     0.1022747 α      lambda       -0.3481786E-04
   maximum displ.:     0.0682622 α      in ANC's #2, #3, #5, ...

........................................................................
.............................. CYCLE   75 ..............................
........................................................................
   1    -38.2666178 -0.382666E+02  0.226E-02    1.76       0.0  T
   2    -38.2666179 -0.108450E-06  0.152E-02    1.76       1.2  T
   3    -38.2666163  0.159027E-05  0.851E-03    1.76       2.1  T
   4    -38.2666179 -0.160578E-05  0.307E-03    1.76       5.8  T
   5    -38.2666181 -0.161573E-06  0.133E-03    1.76      13.5  T
   6    -38.2666181 -0.281062E-08  0.340E-04    1.76      52.8  T
   7    -38.2666181 -0.565592E-09  0.115E-04    1.76     156.0  T
     SCC iter.                  ...        0 min,  0.173 sec
     gradient                   ...        0 min,  0.007 sec
 * total energy  :   -37.6399080 Eh     change       -0.2920098E-04 Eh
   gradient norm :     0.0029786 Eh/α   predicted    -0.1759255E-04 ( -39.75%)
   displ. norm   :     0.3176192 α      lambda       -0.7238408E-04
   maximum displ.:     0.2175665 α      in ANC's #2, #3, #4, ...

........................................................................
.............................. CYCLE   76 ..............................
........................................................................
   1    -38.2674373 -0.382674E+02  0.635E-02    1.76       0.0  T
   2    -38.2674382 -0.884381E-06  0.435E-02    1.76       1.0  T
   3    -38.2674317  0.650789E-05  0.169E-02    1.76       1.1  T
   4    -38.2674380 -0.630526E-05  0.756E-03    1.76       2.4  T
   5    -38.2674389 -0.887826E-06  0.363E-03    1.76       4.9  T
   6    -38.2674389 -0.372529E-07  0.651E-04    1.76      27.6  T
   7    -38.2674389 -0.255797E-08  0.286E-04    1.76      62.9  T
     SCC iter.                  ...        0 min,  0.197 sec
     gradient                   ...        0 min,  0.007 sec
 * total energy  :   -37.6399629 Eh     change       -0.5492660E-04 Eh
   gradient norm :     0.0022164 Eh/α   predicted    -0.3984518E-04 ( -27.46%)
   displ. norm   :     0.3021372 α      lambda       -0.5223705E-04
   maximum displ.:     0.2121439 α      in ANC's #2, #3, #5, ...

........................................................................
.............................. CYCLE   77 ..............................
........................................................................
   1    -38.2673581 -0.382674E+02  0.580E-02    1.76       0.0  T
   2    -38.2673587 -0.596812E-06  0.382E-02    1.76       1.0  T
   3    -38.2673550  0.367616E-05  0.157E-02    1.76       1.1  T
   4    -38.2673587 -0.375052E-05  0.505E-03    1.76       3.6  T
   5    -38.2673590 -0.224420E-06  0.403E-03    1.76       4.5  T
   6    -38.2673591 -0.152702E-06  0.494E-04    1.76      36.4  T
   7    -38.2673591 -0.112870E-08  0.326E-04    1.76      55.2  T
     SCC iter.                  ...        0 min,  0.193 sec
     gradient                   ...        0 min,  0.014 sec
 * total energy  :   -37.6400038 Eh     change       -0.4092969E-04 Eh
   gradient norm :     0.0018299 Eh/α   predicted    -0.2850358E-04 ( -30.36%)
   displ. norm   :     0.3897092 α      lambda       -0.5032940E-04
   maximum displ.:     0.2796142 α      in ANC's #2, #3, #8, ...

........................................................................
.............................. CYCLE   78 ..............................
........................................................................
   1    -38.2685268 -0.382685E+02  0.754E-02    1.76       0.0  T
   2    -38.2685271 -0.316202E-06  0.451E-02    1.76       1.0  T
   3    -38.2685062  0.209301E-04  0.375E-02    1.76       1.0  T
   4    -38.2685291 -0.229313E-04  0.917E-03    1.76       2.0  T
   5    -38.2685293 -0.144619E-06  0.636E-03    1.76       2.8  T
   6    -38.2685295 -0.183429E-06  0.875E-04    1.76      20.5  T
   7    -38.2685295 -0.641654E-08  0.633E-04    1.76      28.4  T
     SCC iter.                  ...        0 min,  0.181 sec
     gradient                   ...        0 min,  0.012 sec
 * total energy  :   -37.6400462 Eh     change       -0.4243682E-04 Eh
   gradient norm :     0.0018981 Eh/α   predicted    -0.2686418E-04 ( -36.70%)
   displ. norm   :     0.2842124 α      lambda       -0.1940876E-04
   maximum displ.:     0.2038981 α      in ANC's #2, #3, #5, ...

........................................................................
.............................. CYCLE   79 ..............................
........................................................................
   1    -38.2655984 -0.382656E+02  0.668E-02    1.76       0.0  T
   2    -38.2655988 -0.368222E-06  0.435E-02    1.76       1.0  T
   3    -38.2655981  0.653691E-06  0.827E-03    1.76       2.2  T
   4    -38.2655989 -0.817935E-06  0.392E-03    1.76       4.6  T
   5    -38.2655989  0.444738E-08  0.197E-03    1.76       9.1  T
   6    -38.2655989 -0.152849E-07  0.991E-04    1.76      18.1  T
   7    -38.2655989 -0.149019E-07  0.474E-04    1.76      37.9  T
     SCC iter.                  ...        0 min,  0.208 sec
     gradient                   ...        0 min,  0.074 sec
 * total energy  :   -37.6400448 Eh     change        0.1454999E-05 Eh
   gradient norm :     0.0033815 Eh/α   predicted    -0.1005485E-04 (-791.06%)
   displ. norm   :     0.0724242 α      lambda       -0.3590589E-04
   maximum displ.:     0.0457390 α      in ANC's #3, #2, #4, ...

........................................................................
.............................. CYCLE   80 ..............................
........................................................................
   1    -38.2675976 -0.382676E+02  0.206E-02    1.76       0.0  T
   2    -38.2675979 -0.275848E-06  0.144E-02    1.76       1.2  T
   3    -38.2675974  0.499825E-06  0.591E-03    1.76       3.0  T
   4    -38.2675979 -0.549068E-06  0.266E-03    1.76       6.8  T
   5    -38.2675981 -0.116952E-06  0.143E-03    1.76      12.6  T
   6    -38.2675981 -0.663277E-08  0.445E-04    1.76      40.4  T
   7    -38.2675981 -0.151931E-08  0.226E-04    1.76      79.4  T
     SCC iter.                  ...        0 min,  0.202 sec
     gradient                   ...        0 min,  0.015 sec
 * total energy  :   -37.6400668 Eh     change       -0.2205572E-04 Eh
   gradient norm :     0.0012926 Eh/α   predicted    -0.1805083E-04 ( -18.16%)
   displ. norm   :     0.0387723 α      lambda       -0.6004100E-05
   maximum displ.:     0.0188809 α      in ANC's #8, #4, #14, ...

........................................................................
.............................. CYCLE   81 ..............................
........................................................................
   1    -38.2684031 -0.382684E+02  0.158E-02    1.76       0.0  T
   2    -38.2684033 -0.156518E-06  0.102E-02    1.76       1.8  T
   3    -38.2684029  0.328398E-06  0.483E-03    1.76       3.7  T
   4    -38.2684033 -0.390619E-06  0.182E-03    1.76       9.9  T
   5    -38.2684034 -0.418324E-07  0.939E-04    1.76      19.1  T
   6    -38.2684034 -0.169109E-08  0.402E-04    1.76      44.7  T
     SCC iter.                  ...        0 min,  0.146 sec
     gradient                   ...        0 min,  0.005 sec
 * total energy  :   -37.6400708 Eh     change       -0.3989802E-05 Eh
   gradient norm :     0.0008768 Eh/α   predicted    -0.3005273E-05 ( -24.68%)
   displ. norm   :     0.0193202 α      lambda       -0.1573962E-05
   maximum displ.:     0.0138011 α      in ANC's #2, #5, #4, ...

   *** GEOMETRY OPTIMIZATION CONVERGED AFTER 81 ITERATIONS ***

------------------------------------------------------------------------
 total energy gain   :        -8.5179718 Eh    -5345.1080 kcal/mol
 total RMSD          :         1.8905709 a0        1.0004 Å
 total power (kW/mol):      -276.0979240 (step) -308.9015 (real)
------------------------------------------------------------------------

 ANCopt (total)                0 d,  0 h,  1 min, 12.398 sec
 optimizer setup                ...        0 min,  0.000 sec (  0.001%)
 model hessian                  ...        0 min,  0.156 sec (  0.216%)
 ANC generation                 ...        0 min,  0.073 sec (  0.101%)
 coordinate transformation      ...        0 min,  0.001 sec (  0.002%)
 single point calculation       ...        1 min, 10.990 sec ( 98.055%)
 optimization log               ...        0 min,  0.038 sec (  0.052%)
 hessian update                 ...        0 min,  0.877 sec (  1.212%)
 rational function              ...        0 min,  0.252 sec (  0.348%)

================
 final structure:
================
31
 xtb: 6.5.1 (b24c23e)
Zr          -1.31734799476784       -0.15735905771753        0.66122260178309
C           -1.68234507844682        1.49329369560187       -1.43815842070038
C            0.17354248832206       -2.09632040463881        0.85791487061997
C            0.44602975678775       -1.49544502807688       -0.39531210656007
C           -0.70325881107145       -1.65164618241306       -1.21130488633951
C           -1.68882483707315       -2.32491578627207       -0.45591787178222
C           -1.15753121639321       -2.58096918862426        0.83659426526638
H            0.90067292509691       -2.28442347191806        1.63901038192371
H            1.41926853821468       -1.15193145717719       -0.73232327429754
H           -0.75994145739704       -1.44091864380532       -2.27292541726190
H           -2.61589838238439       -2.72477387954428       -0.84724326816045
H           -1.61556405548241       -3.20720472385126        1.59587718289238
C           -0.46191099402824        0.12557544428940        2.93613228610913
C           -1.66232020973966        0.87255251850098        2.83973145754681
C           -1.44327358349183        1.93432138309296        1.92191798434670
C           -0.11025920260843        1.83919051167260        1.45313533409562
C            0.49651658476068        0.72509683848022        2.08015470208969
H           -0.26568504691040       -0.65670123421407        3.66167261581809
H           -2.52514297384114        0.76253330926793        3.48762746742627
H           -2.12493315505598        2.75591197643176        1.73523759684026
H            0.40751812683170        2.58635014964003        0.86061895356373
H            1.55124058595666        0.47624722862076        2.03739031694769
H           -0.67477341438063        1.09424515008986       -1.19190429983658
H           -1.87212998464376        1.42153163955857       -2.50075524964655
H           -1.82342121696487        2.51088127835491       -1.08720723497449
C           -3.54102546274628       -0.07947513783786        0.57042605933561
C           -3.50446726679713        0.48055342746946       -0.77229066243540
H           -4.06078825824087        1.39657849867525       -0.94572435889213
H           -3.58597360784116       -0.22216494933044       -1.59989250637629
H           -4.05273330405580        0.57371996799286        1.28443261638281
H           -3.93031985160219       -1.10479892232675        0.60494718426870

 Bond Distances (Angstroems)
 ---------------------------
Zr1-C2=2.6954        Zr1-C3=2.4538        Zr1-C4=2.4528        Zr1-C5=2.4731        Zr1-C6=2.4666        Zr1-C7=2.4352        
Zr1-C13=2.4468       Zr1-C14=2.4343       Zr1-C15=2.4455       Zr1-C16=2.4638       Zr1-C17=2.4662       Zr1-H23=2.3267       
Zr1-C26=2.2269       Zr1-C27=2.6917       C2-Zr1=2.6954        C2-H23=1.1113        C2-H24=1.0818        C2-H25=1.0856        
C3-Zr1=2.4538        C3-C4=1.4163         C3-C7=1.4167         C3-H8=1.0836         C4-Zr1=2.4528        C4-C3=1.4163         
C4-C5=1.4181         C4-H9=1.0857         C5-Zr1=2.4731        C5-C4=1.4181         C5-C6=1.4125         C5-H10=1.0838        
C6-Zr1=2.4666        C6-C5=1.4125         C6-C7=1.4207         C6-H11=1.0828        C7-Zr1=2.4352        C7-C3=1.4167         
C7-C6=1.4207         C7-H12=1.0856        H8-C3=1.0836         H9-C4=1.0857         H10-C5=1.0838        H11-C6=1.0828        
H12-C7=1.0856        C13-Zr1=2.4468       C13-C14=1.4171       C13-C17=1.4180       C13-H18=1.0848       C14-Zr1=2.4343       
C14-C13=1.4171       C14-C15=1.4205       C14-H19=1.0846       C15-Zr1=2.4455       C15-C14=1.4205       C15-C16=1.4162       
C15-H20=1.0838       C16-Zr1=2.4638       C16-C15=1.4162       C16-C17=1.4151       C16-H21=1.0851       C17-Zr1=2.4662       
C17-C13=1.4180       C17-C16=1.4151       C17-H22=1.0845       H18-C13=1.0848       H19-C14=1.0846       H20-C15=1.0838       
H21-C16=1.0851       H22-C17=1.0845       H23-Zr1=2.3267       H23-C2=1.1113        H24-C2=1.0818        H25-C2=1.0856        
C26-Zr1=2.2269       C26-C27=1.4553       C26-H30=1.0947       C26-H31=1.0973       C27-Zr1=2.6917       C27-C26=1.4553       
C27-H28=1.0857       C27-H29=1.0888       H28-C27=1.0857       H29-C27=1.0888       H30-C26=1.0947       H31-C26=1.0973       
 C  H  Rav=1.0876 sigma=0.0071  Rmin=1.0818  Rmax=1.1113    17
 C  C  Rav=1.4206 sigma=0.0112  Rmin=1.4125  Rmax=1.4553    11
 Zr H  Rav=2.3267 sigma=0.0000  Rmin=2.3267  Rmax=2.3267     1
 Zr C  Rav=2.4732 sigma=0.1120  Rmin=2.2269  Rmax=2.6954    13

 selected bond angles (degree)
 --------------------
C3-Zr1-C2=128.95               C4-Zr1-C2= 95.51               C4-Zr1-C3= 33.55               C5-Zr1-C2= 79.28               
C5-Zr1-C3= 55.42               C5-Zr1-C4= 33.46               C6-Zr1-C2= 99.50               C6-Zr1-C3= 55.49               
C6-Zr1-C4= 55.51               C6-Zr1-C5= 33.23               C7-Zr1-C2=132.41               C7-Zr1-C3= 33.69               
C7-Zr1-C4= 56.01               C7-Zr1-C5= 55.73               C7-Zr1-C6= 33.69               C13-Zr1-C2=134.48              
C13-Zr1-C3= 78.72              C13-Zr1-C4=102.25              C13-Zr1-C5=133.39              C13-Zr1-C6=125.12              
C13-Zr1-C7= 91.44              C14-Zr1-C2=114.76              C14-Zr1-C3=110.41              C14-Zr1-C4=135.90              
C14-Zr1-C5=165.56              C14-Zr1-C6=139.09              C14-Zr1-C7=111.46              C14-Zr1-C13= 33.75             
C15-Zr1-C2= 82.57              C15-Zr1-C3=131.75              C15-Zr1-C4=136.53              C15-Zr1-C5=156.91              
C15-Zr1-C6=167.78              C15-Zr1-C7=144.84              C15-Zr1-C13= 55.93             C15-Zr1-C14= 33.85             
C16-Zr1-C2= 79.66              C16-Zr1-C3=108.48              C16-Zr1-C4=103.20              C16-Zr1-C5=127.69              
C16-Zr1-C6=158.66              C16-Zr1-C7=138.69              C16-Zr1-C13= 55.68             C16-Zr1-C14= 55.87             
C16-Zr1-C15= 33.53             C17-Zr1-C2=109.18              C17-Zr1-C3= 77.86              C17-Zr1-C4= 85.08              
C17-Zr1-C5=117.98              C17-Zr1-C6=133.30              C17-Zr1-C7=105.45              C17-Zr1-C13= 33.55             
C17-Zr1-C14= 55.80             C17-Zr1-C15= 55.61             C17-Zr1-C16= 33.36             H23-Zr1-C2= 24.17              
H23-Zr1-C3=108.73              H23-Zr1-C4= 75.63              H23-Zr1-C5= 69.72              H23-Zr1-C6= 98.83              
H23-Zr1-C7=125.07              H23-Zr1-C13=125.57             H23-Zr1-C14=121.62             H23-Zr1-C15= 87.98             
H23-Zr1-C16= 71.63             H23-Zr1-C17= 93.59             C26-Zr1-C2= 79.14              C26-Zr1-C3=129.61              
C26-Zr1-C4=136.01              C26-Zr1-C5=103.78              C26-Zr1-C6= 82.06              C26-Zr1-C7= 95.93              
C26-Zr1-C13=112.52             C26-Zr1-C14= 83.12             C26-Zr1-C15= 86.54             C26-Zr1-C16=118.29             
C26-Zr1-C17=138.19             C26-Zr1-H23=102.97             C27-Zr1-C2= 47.94              C27-Zr1-C3=136.36              
C27-Zr1-C4=118.95              C27-Zr1-C5= 86.66              C27-Zr1-C6= 81.07              C27-Zr1-C7=109.12              
C27-Zr1-C13=138.75             C27-Zr1-C14=105.14             C27-Zr1-C15= 91.72             C27-Zr1-C16=112.16             
C27-Zr1-C17=145.01             C27-Zr1-H23= 70.90             C27-Zr1-C26= 32.72             H23-C2-Zr1= 58.99              
H24-C2-Zr1=138.43              H24-C2-H23=110.66              H25-C2-Zr1=109.87              H25-C2-H23=112.50              
H25-C2-H24=110.91              C4-C3-Zr1= 73.19               C7-C3-Zr1= 72.44               C7-C3-C4=108.21                
H8-C3-Zr1=127.06               H8-C3-C4=125.62                H8-C3-C7=125.59                C3-C4-Zr1= 73.26               
C5-C4-Zr1= 74.06               C5-C4-C3=107.85                H9-C4-Zr1=127.27               H9-C4-C3=125.55                
H9-C4-C5=125.64                C4-C5-Zr1= 72.48               C6-C5-Zr1= 73.13               C6-C5-C4=108.07                
H10-C5-Zr1=127.67              H10-C5-C4=125.77               H10-C5-C6=125.45               C5-C6-Zr1= 73.64               
C7-C6-Zr1= 71.94               C7-C6-C5=108.15                H11-C6-Zr1=128.11              H11-C6-C5=125.46               
H11-C6-C7=125.62               C3-C7-Zr1= 73.88               C6-C7-Zr1= 74.37               C6-C7-C3=107.66                
H12-C7-Zr1=126.64              H12-C7-C3=125.68               H12-C7-C6=125.63               

 selected dihedral angles (degree)
 ---------------------------------
H23-C2-Zr1-C3=322.45          H23-C2-Zr1-C4=325.47          H23-C2-Zr1-C5=296.08          H23-C2-Zr1-C6=269.57          
H23-C2-Zr1-C7=277.75          H23-C2-Zr1-C13= 78.64         H23-C2-Zr1-C14=112.50         H23-C2-Zr1-C15=101.74         
H23-C2-Zr1-C16= 67.92         H23-C2-Zr1-C17= 52.16         H23-C2-Zr1-C26=189.63         H23-C2-Zr1-C27=200.86         
H24-C2-Zr1-C3= 49.16          H24-C2-Zr1-C4= 52.18          H24-C2-Zr1-C5= 22.79          H24-C2-Zr1-C6=356.28          
H24-C2-Zr1-C7=  4.46          H24-C2-Zr1-C13=165.35         H24-C2-Zr1-C14=199.21         H24-C2-Zr1-C15=188.46         
H24-C2-Zr1-C16=154.63         H24-C2-Zr1-C17=138.88         H24-C2-Zr1-H23= 86.71         H24-C2-Zr1-C26=276.34         
H24-C2-Zr1-C27=287.57         H25-C2-Zr1-C3=217.52          H25-C2-Zr1-C4=220.54          H25-C2-Zr1-C5=191.15          
H25-C2-Zr1-C6=164.64          H25-C2-Zr1-C7=172.82          H25-C2-Zr1-C13=333.71         H25-C2-Zr1-C14=  7.57         
H25-C2-Zr1-C15=356.81         H25-C2-Zr1-C16=322.99         H25-C2-Zr1-C17=307.24         H25-C2-Zr1-H23=255.07         
H25-C2-Zr1-C26= 84.70         H25-C2-Zr1-C27= 95.93         C4-C3-Zr1-C2=  5.44           C4-C3-Zr1-C5= 37.46           
C4-C3-Zr1-C6= 78.08           C4-C3-Zr1-C7=115.99           C4-C3-Zr1-C13=226.20          C4-C3-Zr1-C14=214.37          
C4-C3-Zr1-C15=245.53          C4-C3-Zr1-C16=273.91          C4-C3-Zr1-C17=260.47          C4-C3-Zr1-H23=350.17          
C4-C3-Zr1-C26=116.21          C4-C3-Zr1-C27= 71.82          C7-C3-Zr1-C2=249.45           C7-C3-Zr1-C4=244.01           
C7-C3-Zr1-C5=281.47           C7-C3-Zr1-C6=322.10           C7-C3-Zr1-C13=110.21          C7-C3-Zr1-C14= 98.38          
C7-C3-Zr1-C15=129.55          C7-C3-Zr1-C16=157.93          C7-C3-Zr1-C17=144.48          C7-C3-Zr1-H23=234.18          
C7-C3-Zr1-C26=  0.22          C7-C3-Zr1-C27=315.83          H8-C3-Zr1-C2=127.73           H8-C3-Zr1-C4=122.29           
H8-C3-Zr1-C5=159.74           H8-C3-Zr1-C6=200.37           H8-C3-Zr1-C7=238.27           H8-C3-Zr1-C13=348.48          
H8-C3-Zr1-C14=336.66          H8-C3-Zr1-C15=  7.82          H8-C3-Zr1-C16= 36.20          H8-C3-Zr1-C17= 22.76          
H8-C3-Zr1-H23=112.45          H8-C3-Zr1-C26=238.49          H8-C3-Zr1-C27=194.11          C3-C4-Zr1-C2=184.25           
C3-C4-Zr1-C5=245.24           C3-C4-Zr1-C6=282.00           C3-C4-Zr1-C7=323.03           C3-C4-Zr1-C13= 46.41          
C3-C4-Zr1-C14= 49.50          C3-C4-Zr1-C15= 99.24          C3-C4-Zr1-C16=103.61          C3-C4-Zr1-C17= 75.40          
C3-C4-Zr1-H23=170.39          C3-C4-Zr1-C26=264.31          C3-C4-Zr1-C27=228.53          C5-C4-Zr1-C2=299.01           
C5-C4-Zr1-C3=114.76           C5-C4-Zr1-C6= 36.76           C5-C4-Zr1-C7= 77.79           C5-C4-Zr1-C13=161.17          
C5-C4-Zr1-C14=164.25          C5-C4-Zr1-C15=214.00          C5-C4-Zr1-C16=218.37          C5-C4-Zr1-C17=190.16          
C5-C4-Zr1-H23=285.15          C5-C4-Zr1-C26= 19.06          C5-C4-Zr1-C27=343.29          H9-C4-Zr1-C2= 61.97           
H9-C4-Zr1-C3=237.72           H9-C4-Zr1-C5=122.97           H9-C4-Zr1-C6=159.72           H9-C4-Zr1-C7=200.76           
H9-C4-Zr1-C13=284.13          H9-C4-Zr1-C14=287.22          H9-C4-Zr1-C15=336.97          H9-C4-Zr1-C16=341.33          
H9-C4-Zr1-C17=313.12          H9-C4-Zr1-H23= 48.11          H9-C4-Zr1-C26=142.03          H9-C4-Zr1-C27=106.26          
Zr1-C4-C3-C7= 64.45           Zr1-C4-C3-H8=236.08           C5-C4-C3-Zr1=293.47           C5-C4-C3-C7=357.92            
C5-C4-C3-H8=169.55            H9-C4-C3-Zr1=124.21           H9-C4-C3-C7=188.66            H9-C4-C3-H8=  0.30            
C4-C5-Zr1-C2=117.62           C4-C5-Zr1-C3=322.44           C4-C5-Zr1-C6=244.17           C4-C5-Zr1-C7=281.31           
C4-C5-Zr1-C13=334.27          C4-C5-Zr1-C14=310.76          C4-C5-Zr1-C15= 78.86          C4-C5-Zr1-C16= 49.79          
C4-C5-Zr1-C17= 11.48          C4-C5-Zr1-H23= 94.55          C4-C5-Zr1-C26=193.51          C4-C5-Zr1-C27=165.40          
C6-C5-Zr1-C2=233.45           C6-C5-Zr1-C3= 78.26           C6-C5-Zr1-C4=115.83           C6-C5-Zr1-C7= 37.13           
C6-C5-Zr1-C13= 90.10          C6-C5-Zr1-C14= 66.59          C6-C5-Zr1-C15=194.69          C6-C5-Zr1-C16=165.61          
C6-C5-Zr1-C17=127.31          C6-C5-Zr1-H23=210.37          C6-C5-Zr1-C26=309.34          C6-C5-Zr1-C27=281.23          
H10-C5-Zr1-C2=355.57          H10-C5-Zr1-C3=200.38          H10-C5-Zr1-C4=237.94          H10-C5-Zr1-C6=122.11          
H10-C5-Zr1-C7=159.25          H10-C5-Zr1-C13=212.21         H10-C5-Zr1-C14=188.70         H10-C5-Zr1-C15=316.80         
H10-C5-Zr1-C16=287.73         H10-C5-Zr1-C17=249.42         H10-C5-Zr1-H23=332.49         H10-C5-Zr1-C26= 71.45         
H10-C5-Zr1-C27= 43.35         Zr1-C5-C4-C3= 66.00           Zr1-C5-C4-H9=235.24           C6-C5-C4-Zr1=295.03           
C6-C5-C4-C3=  1.03            C6-C5-C4-H9=170.27            H10-C5-C4-Zr1=124.23          H10-C5-C4-C3=190.23           
H10-C5-C4-H9=359.47           C5-C6-Zr1-C2= 53.16           C5-C6-Zr1-C3=281.98           C5-C6-Zr1-C4=322.98           
C5-C6-Zr1-C7=244.07           C5-C6-Zr1-C13=242.68          C5-C6-Zr1-C14=200.45          C5-C6-Zr1-C15=151.98          
C5-C6-Zr1-C16=327.29          C5-C6-Zr1-C17=285.18          C5-C6-Zr1-H23= 28.68          C5-C6-Zr1-C26=130.67          
C5-C6-Zr1-C27= 97.60          C7-C6-Zr1-C2=169.08           C7-C6-Zr1-C3= 37.90           C7-C6-Zr1-C4= 78.91           
C7-C6-Zr1-C5=115.93           C7-C6-Zr1-C13=358.60          C7-C6-Zr1-C14=316.37          C7-C6-Zr1-C15=267.90          
C7-C6-Zr1-C16= 83.22          C7-C6-Zr1-C17= 41.10          C7-C6-Zr1-H23=144.61          C7-C6-Zr1-C26=246.60          
C7-C6-Zr1-C27=213.53          H11-C6-Zr1-C2=290.60          H11-C6-Zr1-C3=159.42          H11-C6-Zr1-C4=200.43          
H11-C6-Zr1-C5=237.45          H11-C6-Zr1-C7=121.52          H11-C6-Zr1-C13=120.12         H11-C6-Zr1-C14= 77.89         
H11-C6-Zr1-C15= 29.42         H11-C6-Zr1-C16=204.74         H11-C6-Zr1-C17=162.62         H11-C6-Zr1-H23=266.13         
H11-C6-Zr1-C26=  8.12         H11-C6-Zr1-C27=335.05         Zr1-C6-C5-C4= 64.55           Zr1-C6-C5-H10=235.38          
C7-C6-C5-Zr1=295.86           C7-C6-C5-C4=  0.41            C7-C6-C5-H10=171.24           H11-C6-C5-Zr1=125.49          
H11-C6-C5-C4=190.03           H11-C6-C5-H10=  0.87          C3-C7-Zr1-C2= 99.48           C3-C7-Zr1-C4= 36.82           
C3-C7-Zr1-C5= 77.52           C3-C7-Zr1-C6=114.13           C3-C7-Zr1-C13=292.99          C3-C7-Zr1-C14=265.09          
C3-C7-Zr1-C15=272.58          C3-C7-Zr1-C16=327.32          C3-C7-Zr1-C17=323.89          C3-C7-Zr1-H23= 69.77          
C3-C7-Zr1-C26=180.17          C3-C7-Zr1-C27=149.41          C6-C7-Zr1-C2=345.34           C6-C7-Zr1-C3=245.87           
C6-C7-Zr1-C4=282.69           C6-C7-Zr1-C5=323.39           C6-C7-Zr1-C13=178.86          C6-C7-Zr1-C14=150.96          
C6-C7-Zr1-C15=158.45          C6-C7-Zr1-C16=213.19          C6-C7-Zr1-C17=209.76          C6-C7-Zr1-H23=315.63          
C6-C7-Zr1-C26= 66.04          C6-C7-Zr1-C27= 35.28          H12-C7-Zr1-C2=222.27          H12-C7-Zr1-C3=122.79          
H12-C7-Zr1-C4=159.61          H12-C7-Zr1-C5=200.31          H12-C7-Zr1-C6=236.92          H12-C7-Zr1-C13= 55.78         
H12-C7-Zr1-C14= 27.88         H12-C7-Zr1-C15= 35.38         H12-C7-Zr1-C16= 90.11         H12-C7-Zr1-C17= 86.69         
H12-C7-Zr1-H23=192.56         H12-C7-Zr1-C26=302.96         H12-C7-Zr1-C27=272.20         Zr1-C7-C3-C4=295.06           
Zr1-C7-C3-H8=123.42           C6-C7-C3-Zr1= 67.27           C6-C7-C3-C4=  2.33            C6-C7-C3-H8=190.69            
H12-C7-C3-Zr1=236.14          H12-C7-C3-C4=171.20           H12-C7-C3-H8=359.56           Zr1-C7-C6-C5= 65.25           
Zr1-C7-C6-H11=235.60          C3-C7-C6-Zr1=293.06           C3-C7-C6-C5=358.31            C3-C7-C6-H11=168.67           
H12-C7-C6-Zr1=124.19          H12-C7-C6-C5=189.44           H12-C7-C6-H11=359.79          

 CMA Distance (Angstroems)
 ---------------------------
R(CMA):  2.8027
           -------------------------------------------------
          |                Final Singlepoint                |
           -------------------------------------------------

          ...................................................
          :                      SETUP                      :
          :.................................................:
          :  # basis functions                  79          :
          :  # atomic orbitals                  78          :
          :  # shells                           46          :
          :  # electrons                        72          :
          :  max. iterations                   250          :
          :  Hamiltonian                  GFN2-xTB          :
          :  restarted?                      false          :
          :  GBSA solvation                  false          :
          :  PC potential                    false          :
          :  electronic temp.          300.0000000     K    :
          :  accuracy                    1.0000000          :
          :  -> integral cutoff          0.2500000E+02      :
          :  -> integral neglect         0.1000000E-07      :
          :  -> SCF convergence          0.1000000E-05 Eh   :
          :  -> wf. convergence          0.1000000E-03 e    :
          :  Broyden damping             0.4000000          :
          ...................................................

 iter      E             dE          RMSdq      gap      omega  full diag
   1    -38.2684034 -0.382684E+02  0.171E-04    1.76       0.0  T
   2    -38.2684034 -0.310010E-10  0.121E-04    1.76     147.9  T
   3    -38.2684034  0.254659E-10  0.109E-04    1.76     165.5  T

   *** convergence criteria satisfied after 3 iterations ***

         #    Occupation            Energy/Eh            Energy/eV
      -------------------------------------------------------------
         1        2.0000           -0.8720146             -23.7287
       ...           ...                  ...                  ...
        30        2.0000           -0.5837483             -15.8846
        31        2.0000           -0.5720276             -15.5657
        32        2.0000           -0.5224452             -14.2165
        33        2.0000           -0.5219058             -14.2018
        34        2.0000           -0.5118634             -13.9285
        35        2.0000           -0.5065667             -13.7844
        36        2.0000           -0.4898634             -13.3299 (HOMO)
        37                         -0.4251237             -11.5682 (LUMO)
        38                         -0.4112857             -11.1917
        39                         -0.4096099             -11.1461
        40                         -0.4034247             -10.9777
        41                         -0.4005839             -10.9004
       ...                                ...                  ...
        78                          2.4967252              67.9394
      -------------------------------------------------------------
                  HL-Gap            0.0647397 Eh            1.7617 eV
             Fermi-level           -0.4574935 Eh          -12.4490 eV

 SCC (total)                   0 d,  0 h,  0 min,  0.156 sec
 SCC setup                      ...        0 min,  0.000 sec (  0.063%)
 Dispersion                     ...        0 min,  0.002 sec (  1.568%)
 classical contributions        ...        0 min,  0.000 sec (  0.018%)
 integral evaluation            ...        0 min,  0.001 sec (  0.842%)
 iterations                     ...        0 min,  0.080 sec ( 51.427%)
 molecular gradient             ...        0 min,  0.072 sec ( 45.971%)
 printout                       ...        0 min,  0.000 sec (  0.098%)

         :::::::::::::::::::::::::::::::::::::::::::::::::::::
         ::                     SUMMARY                     ::
         :::::::::::::::::::::::::::::::::::::::::::::::::::::
         :: total energy             -37.640070840069 Eh    ::
         :: gradient norm              0.000880989162 Eh/a0 ::
         :: HOMO-LUMO gap              1.761655764603 eV    ::
         ::.................................................::
         :: SCC energy               -38.268403361226 Eh    ::
         :: -> isotropic ES            0.086812529964 Eh    ::
         :: -> anisotropic ES         -0.012546802402 Eh    ::
         :: -> anisotropic XC          0.020608741986 Eh    ::
         :: -> dispersion             -0.027824169654 Eh    ::
         :: repulsion energy           0.627210298242 Eh    ::
         :: add. restraining           0.000443508178 Eh    ::
         :: total charge               1.000000000000 e     ::
         :::::::::::::::::::::::::::::::::::::::::::::::::::::

           -------------------------------------------------
          |                Property Printout                |
           -------------------------------------------------

    * Orbital Energies and Occupations

         #    Occupation            Energy/Eh            Energy/eV
      -------------------------------------------------------------
         1        2.0000           -0.8720146             -23.7287
       ...           ...                  ...                  ...
        24        2.0000           -0.5955608             -16.2060
        25        2.0000           -0.5936657             -16.1545
        26        2.0000           -0.5915977             -16.0982
        27        2.0000           -0.5912334             -16.0883
        28        2.0000           -0.5900064             -16.0549
        29        2.0000           -0.5896748             -16.0459
        30        2.0000           -0.5837483             -15.8846
        31        2.0000           -0.5720276             -15.5657
        32        2.0000           -0.5224452             -14.2165
        33        2.0000           -0.5219058             -14.2018
        34        2.0000           -0.5118634             -13.9285
        35        2.0000           -0.5065667             -13.7844
        36        2.0000           -0.4898634             -13.3299 (HOMO)
        37                         -0.4251237             -11.5682 (LUMO)
        38                         -0.4112857             -11.1917
        39                         -0.4096099             -11.1461
        40                         -0.4034247             -10.9777
        41                         -0.4005839             -10.9004
        42                         -0.3659808              -9.9588
        43                         -0.3072496              -8.3607
        44                         -0.3065631              -8.3420
        45                         -0.3060707              -8.3286
        46                         -0.3051198              -8.3027
        47                         -0.0652150              -1.7746
       ...                                ...                  ...
        78                          2.4967252              67.9394
      -------------------------------------------------------------
                  HL-Gap            0.0647397 Eh            1.7617 eV
             Fermi-level           -0.4574935 Eh          -12.4490 eV

     #   Z          covCN         q      C6AA      α(0)
     1  40 Zr       9.906     0.958   138.620    17.691
     2   6 C        3.514    -0.214    26.457     7.599
     3   6 C        3.762    -0.083    22.127     6.705
     4   6 C        3.759    -0.092    22.314     6.734
     5   6 C        3.752    -0.090    22.286     6.732
     6   6 C        3.757    -0.087    22.207     6.719
     7   6 C        3.764    -0.091    22.281     6.728
     8   1 H        0.925     0.086     1.914     2.163
     9   1 H        0.925     0.077     2.013     2.219
    10   1 H        0.925     0.079     1.994     2.208
    11   1 H        0.925     0.083     1.952     2.185
    12   1 H        0.925     0.082     1.960     2.189
    13   6 C        3.761    -0.087    22.210     6.718
    14   6 C        3.765    -0.086    22.191     6.714
    15   6 C        3.763    -0.090    22.265     6.726
    16   6 C        3.754    -0.090    22.266     6.729
    17   6 C        3.755    -0.086    22.201     6.718
    18   1 H        0.925     0.085     1.931     2.173
    19   1 H        0.925     0.086     1.917     2.165
    20   1 H        0.925     0.085     1.925     2.170
    21   1 H        0.925     0.076     2.021     2.223
    22   1 H        0.925     0.083     1.947     2.182
    23   1 H        1.277     0.079     1.973     2.193
    24   1 H        0.925     0.082     1.963     2.191
    25   1 H        0.925     0.078     1.996     2.209
    26   6 C        3.631    -0.247    25.974     7.338
    27   6 C        3.574    -0.066    22.593     6.910
    28   1 H        0.925     0.104     1.746     2.066
    29   1 H        0.925     0.098     1.802     2.099
    30   1 H        0.926     0.092     1.864     2.135
    31   1 H        0.932     0.097     1.811     2.104

 Mol. C6AA /au·bohr⁶  :       9485.640286
 Mol. C8AA /au·bohr⁸  :     321887.910656
 Mol. α(0) /au        :        143.638247


Wiberg/Mayer (AO) data.
largest (>0.10) Wiberg bond orders for each atom

 ---------------------------------------------------------------------------
     #   Z sym  total        # sym  WBO       # sym  WBO       # sym  WBO
 ---------------------------------------------------------------------------
     1  40 Zr   4.305 --    26 C    0.646     2 C    0.365     7 C    0.261
                            14 C    0.257    13 C    0.247    15 C    0.243
                             4 C    0.237     6 C    0.235    17 C    0.234
                            16 C    0.232     3 C    0.231     5 C    0.229
                            27 C    0.187    23 H    0.124
     2   6 C    3.946 --    24 H    0.975    25 H    0.957    23 H    0.831
                            27 C    0.595     1 Zr   0.365    26 C    0.126
     3   6 C    3.981 --     4 C    1.308     7 C    1.303     8 H    0.924
                             1 Zr   0.231
     4   6 C    3.978 --     3 C    1.308     5 C    1.297     9 H    0.921
                             1 Zr   0.237
     5   6 C    3.979 --     6 C    1.318     4 C    1.297    10 H    0.927
                             1 Zr   0.229
     6   6 C    3.980 --     5 C    1.318     7 C    1.283    11 H    0.927
                             1 Zr   0.235
     7   6 C    3.979 --     3 C    1.303     6 C    1.283    12 H    0.919
                             1 Zr   0.261
     8   1 H    0.990 --     3 C    0.924
     9   1 H    0.993 --     4 C    0.921
    10   1 H    0.991 --     5 C    0.927
    11   1 H    0.991 --     6 C    0.927
    12   1 H    0.991 --     7 C    0.919
    13   6 C    3.980 --    17 C    1.302    14 C    1.297    18 H    0.921
                             1 Zr   0.247
    14   6 C    3.981 --    13 C    1.297    15 C    1.289    19 H    0.921
                             1 Zr   0.257
    15   6 C    3.979 --    16 C    1.307    14 C    1.289    20 H    0.924
                             1 Zr   0.243
    16   6 C    3.980 --    17 C    1.308    15 C    1.307    21 H    0.924
                             1 Zr   0.232
    17   6 C    3.980 --    16 C    1.308    13 C    1.302    22 H    0.925
                             1 Zr   0.234
    18   1 H    0.990 --    13 C    0.921
    19   1 H    0.990 --    14 C    0.921
    20   1 H    0.990 --    15 C    0.924
    21   1 H    0.992 --    16 C    0.924
    22   1 H    0.990 --    17 C    0.925
    23   1 H    0.994 --     2 C    0.831     1 Zr   0.124
    24   1 H    0.992 --     2 C    0.975
    25   1 H    0.992 --     2 C    0.957
    26   6 C    3.874 --    27 C    1.200    30 H    0.909    31 H    0.878
                             1 Zr   0.646     2 C    0.126
    27   6 C    3.976 --    26 C    1.200    28 H    0.952    29 H    0.940
                             2 C    0.595     1 Zr   0.187
    28   1 H    0.988 --    27 C    0.952
    29   1 H    0.989 --    27 C    0.940
    30   1 H    0.991 --    26 C    0.909
    31   1 H    0.990 --    26 C    0.878
 ---------------------------------------------------------------------------

Topologies differ in total number of bonds
Writing topology from bond orders to xtbtopo.mol

molecular dipole:
                 x           y           z       tot (Debye)
 q only:       -3.051      -0.018       0.763
   full:       -2.738       0.007       0.681       7.172
molecular quadrupole (traceless):
                xx          xy          yy          xz          yz          zz
 q only:       11.322      -0.700      -7.882      -1.264      -4.241      -3.440
  q+dip:       11.844      -0.272      -8.861      -1.237      -7.897      -2.983
   full:       10.315       0.561      -7.751      -2.325      -6.977      -2.564

           -------------------------------------------------
          |                Geometry Summary                 |
           -------------------------------------------------

      molecular mass/u    :      264.4982010
   center of mass at/Å    :       -1.2258468      -0.1765283       0.6686956
  moments of inertia/u·Å² :        0.6019497E+03   0.7219793E+03   0.9318234E+03
rotational constants/cm⁻¹ :        0.2800505E-01   0.2334919E-01   0.1809102E-01

 * 39 selected distances

     #   Z          #   Z                                           value/Å
     1  40 Zr       3   6 C                                       2.4537756
     1  40 Zr       4   6 C                                       2.4528029
     3   6 C        4   6 C                                       1.4162905
     1  40 Zr       5   6 C                                       2.4731275 (max)
     4   6 C        5   6 C                                       1.4181353
     1  40 Zr       6   6 C                                       2.4666376
     5   6 C        6   6 C                                       1.4125304
     1  40 Zr       7   6 C                                       2.4351969
     3   6 C        7   6 C                                       1.4167204
     6   6 C        7   6 C                                       1.4207126
     3   6 C        8   1 H                                       1.0836106
     4   6 C        9   1 H                                       1.0857127
     5   6 C       10   1 H                                       1.0838161
     6   6 C       11   1 H                                       1.0828147
     7   6 C       12   1 H                                       1.0855763
     1  40 Zr      13   6 C                                       2.4468428
     1  40 Zr      14   6 C                                       2.4342608
    13   6 C       14   6 C                                       1.4171276
     1  40 Zr      15   6 C                                       2.4454730
    14   6 C       15   6 C                                       1.4204635
     1  40 Zr      16   6 C                                       2.4638183
    15   6 C       16   6 C                                       1.4162397
     1  40 Zr      17   6 C                                       2.4662122
    13   6 C       17   6 C                                       1.4179941
    16   6 C       17   6 C                                       1.4151096
    13   6 C       18   1 H                                       1.0848366
    14   6 C       19   1 H                                       1.0845906
    15   6 C       20   1 H                                       1.0837530
    16   6 C       21   1 H                                       1.0850884
    17   6 C       22   1 H                                       1.0845266
     2   6 C       23   1 H                                       1.1113423
     2   6 C       24   1 H                                       1.0817950 (min)
     2   6 C       25   1 H                                       1.0856122
     1  40 Zr      26   6 C                                       2.2268930
    26   6 C       27   6 C                                       1.4552859
    27   6 C       28   1 H                                       1.0856677
    27   6 C       29   1 H                                       1.0887522
    26   6 C       30   1 H                                       1.0946755
    26   6 C       31   1 H                                       1.0972834

 * 3 distinct bonds (by element types)

   Z      Z             #   av. dist./Å        max./Å        min./Å
   1 H    6 C          17     1.0876149     1.1113423     1.0817950
   6 C    6 C          11     1.4206009     1.4552859     1.4125304
   6 C   40 Zr         11     2.4331855     2.4731275     2.2268930


optimized geometry written to: xtbopt.xyz


           -------------------------------------------------
          | TOTAL ENERGY              -37.640070840069 Eh   |
          | GRADIENT NORM               0.000880989162 Eh/α |
          | HOMO-LUMO GAP               1.761655764603 eV   |
           -------------------------------------------------

------------------------------------------------------------------------
 * finished run on 2026/08/03 at 11:35:41.538     
------------------------------------------------------------------------
 total:
 * wall-time:     0 d,  0 h,  1 min, 14.531 sec
 *  cpu-time:     0 d,  0 h,  3 min, 21.418 sec
 * ratio c/w:     2.702 speedup
 SCF:
 * wall-time:     0 d,  0 h,  0 min,  1.801 sec
 *  cpu-time:     0 d,  0 h,  0 min,  4.461 sec
 * ratio c/w:     2.477 speedup
 ANC optimizer:
 * wall-time:     0 d,  0 h,  1 min, 12.565 sec
 *  cpu-time:     0 d,  0 h,  3 min, 16.487 sec
 * ratio c/w:     2.708 speedup

