77
Co porphyrin with four meso phenyl substitutions
Co       0.00213612       0.13787848       0.09524498
N       -1.98277208       0.27020450       0.12851130
N        1.98698421       0.00559604       0.06164614
N        0.13337154       2.12219088       0.03510295
N       -0.12911804      -1.84635142       0.15548049
C       -2.88845897      -0.76359753       0.17543220
H       -5.13244254      -0.88651031       0.22059519
C       -2.74447649       1.41499025       0.10918090
C       -4.15126504       1.09686010       0.14451062
H       -4.95253607       1.83443491       0.13782295
C       -4.24109246      -0.26170451       0.18579335
C       -2.24965136       2.70894874       0.06230173
C        1.27802652       2.88308906      -0.00850144
C        0.95904831       4.28968904      -0.04360884
H        1.69636618       5.09036142      -0.08085817
C       -0.39990775       4.38022203      -0.02080383
H       -1.02538144       5.27166657      -0.03519997
C       -0.90118557       3.02819900       0.02798516
C       -2.56834625      -2.11188080       0.20906685
H        1.02960706      -4.99581576       0.22656209
C        0.40414276      -4.10437090       0.21200056
C        0.90542573      -2.75237790       0.16263305
H       -1.69213381      -4.81447120       0.27263218
C       -1.27378045      -2.60722756       0.19946839
C       -0.95480627      -4.01381857       0.23501181
C        2.57258107       2.38771270      -0.01842927
H        4.95673549      -1.55866098       0.05083505
C        4.15546561      -0.82107541       0.04461107
C        4.24528105       0.53749658       0.00355315
H        5.13661938       1.16230354      -0.03148740
C        2.89266143       1.03940517       0.01458137
C        2.74869036      -1.13919981       0.08047596
C        2.25388287      -2.43315432       0.12767337
C       -3.68592391      -3.09002148       0.25863485
C       -4.23396153      -3.58511854      -0.92717402
C       -5.28460486      -4.50467610      -0.88057476
C       -5.78721058      -4.92913659       0.35183336
C       -5.23917296      -4.43403952       1.53764223
C       -4.18852963      -3.51448197       1.49104298
H       -3.84432517      -3.25606292      -1.88257702
H       -5.70946150      -4.88849150      -1.79985250
H       -6.60170358      -5.64200762       0.38795863
H       -5.62880932      -4.76309515       2.49304523
H       -3.76367299      -3.13066656       2.41032072
C        3.23281248      -3.55105142       0.14177637
C        3.71572225      -4.04133871       1.35751710
C        4.63602149      -5.09228235       1.37077544
C        5.07341096      -5.65293869       0.16829304
C        4.59050119      -5.16265140      -1.04744769
C        3.67020195      -4.11170776      -1.06070603
H        3.37664366      -3.60669961       2.28972071
H        5.01038890      -5.47236906       2.31325733
H        5.78685697      -6.46766451       0.17857133
H        4.92957978      -5.59729050      -1.97965130
H        3.29583454      -3.73162105      -2.00318793
C        3.69018439       3.36583097      -0.06786059
C        4.19288571       3.79035404      -1.30020816
C        5.24355317       4.70989053      -1.34667892
C        5.79151931       5.20490395      -0.16080211
C        5.28881799       4.78038088       1.07154547
C        4.23815053       3.86084439       1.11801623
H        3.76808447       3.40660348      -2.21953858
H        5.63326364       5.03899467      -2.30203499
H        6.60603102       5.91775866      -0.19682776
H        5.71361923       5.16413144       1.99087589
H        3.84844006       3.53174025       2.07337229
C       -3.22859025       3.82683490       0.04797763
C       -3.66610286       4.38762175       1.25035437
C       -4.58641083       5.43855510       1.23688818
C       -5.06920618       5.92870161       0.02104524
C       -4.63169356       5.36791477      -1.18133150
C       -3.71138560       4.31698141      -1.16786530
H       -3.29182415       4.00764418       2.19291551
H       -4.92558488       5.87329537       2.16900988
H       -5.78265895       6.74341946       0.01060581
H       -5.00597228       5.74789234      -2.12389263
H       -3.37221155       3.88224115      -2.09998700
