      -----------------------------------------------------------      
     |                   =====================                   |     
     |                           x T B                           |     
     |                   =====================                   |     
     |                         S. Grimme                         |     
     |          Mulliken Center for Theoretical Chemistry        |     
     |                    University of Bonn                     |     
      -----------------------------------------------------------      

   * xtb version 6.5.1 (b24c23e) compiled by 'conda@728c89f4b128' on 2022-07-12

   xtb is free software: you can redistribute it and/or modify it under
   the terms of the GNU Lesser General Public License as published by
   the Free Software Foundation, either version 3 of the License, or
   (at your option) any later version.
   
   xtb is distributed in the hope that it will be useful,
   but WITHOUT ANY WARRANTY; without even the implied warranty of
   MERCHANTABILITY or FITNESS FOR A PARTICULAR PURPOSE.  See the
   GNU Lesser General Public License for more details.
   
   Cite this work as:
   * C. Bannwarth, E. Caldeweyher, S. Ehlert, A. Hansen, P. Pracht,
     J. Seibert, S. Spicher, S. Grimme, WIREs Comput. Mol. Sci., 2020, 11,
     e01493. DOI: 10.1002/wcms.1493
   
   for GFN2-xTB:
   * C. Bannwarth, S. Ehlert and S. Grimme., J. Chem. Theory Comput., 2019,
     15, 1652-1671. DOI: 10.1021/acs.jctc.8b01176
   for GFN1-xTB:
   * S. Grimme, C. Bannwarth, P. Shushkov, J. Chem. Theory Comput., 2017,
     13, 1989-2009. DOI: 10.1021/acs.jctc.7b00118
   for GFN0-xTB:
   * P. Pracht, E. Caldeweyher, S. Ehlert, S. Grimme, ChemRxiv, 2019, preprint.
     DOI: 10.26434/chemrxiv.8326202.v1
   for GFN-FF:
   * S. Spicher and S. Grimme, Angew. Chem. Int. Ed., 2020, 59, 15665-15673.
     DOI: 10.1002/anie.202004239
   
   for ALPB and GBSA implicit solvation:
   * S. Ehlert, M. Stahn, S. Spicher, S. Grimme, J. Chem. Theory Comput.,
     2021, 17, 4250-4261. DOI: 10.1021/acs.jctc.1c00471
   
   for DFT-D4:
   * E. Caldeweyher, C. Bannwarth and S. Grimme, J. Chem. Phys., 2017,
     147, 034112. DOI: 10.1063/1.4993215
   * E. Caldeweyher, S. Ehlert, A. Hansen, H. Neugebauer, S. Spicher,
     C. Bannwarth and S. Grimme, J. Chem. Phys., 2019, 150, 154122.
     DOI: 10.1063/1.5090222
   * E. Caldeweyher, J.-M. Mewes, S. Ehlert and S. Grimme, Phys. Chem. Chem. Phys.
     2020, 22, 8499-8512. DOI: 10.1039/D0CP00502A
   
   for sTDA-xTB:
   * S. Grimme and C. Bannwarth, J. Chem. Phys., 2016, 145, 054103.
     DOI: 10.1063/1.4959605
   
   in the mass-spec context:
   * V. Asgeirsson, C. Bauer and S. Grimme, Chem. Sci., 2017, 8, 4879.
     DOI: 10.1039/c7sc00601b
   * J. Koopman and S. Grimme, ACS Omega 2019, 4, 12, 15120-15133.
     DOI: 10.1021/acsomega.9b02011
   
   for metadynamics refer to:
   * S. Grimme, J. Chem. Theory Comput., 2019, 155, 2847-2862
     DOI: 10.1021/acs.jctc.9b00143
   
   for SPH calculations refer to:
   * S. Spicher and S. Grimme, J. Chem. Theory Comput., 2021, 17, 1701-1714
     DOI: 10.1021/acs.jctc.0c01306
   
   with help from (in alphabetical order)
   P. Atkinson, C. Bannwarth, F. Bohle, G. Brandenburg, E. Caldeweyher
   M. Checinski, S. Dohm, S. Ehlert, S. Ehrlich, I. Gerasimov, C. Hölzer
   A. Katbashev, J. Koopman, C. Lavigne, S. Lehtola, F. März, M. Müller,
   F. Musil, H. Neugebauer, J. Pisarek, C. Plett, P. Pracht, F. Pultar,
   J. Seibert, P. Shushkov, S. Spicher, M. Stahn, M. Steiner, T. Strunk,
   J. Stückrath, T. Rose, and J. Unsleber
   
 * started run on 2026/08/03 at 11:35:03.417     

           -------------------------------------------------
          |                Calculation Setup                |
           -------------------------------------------------

          program call               : /h/332/chchoi/miniconda3/envs/el-agente/bin/xtb product_noCl.xyz --opt --gfn 2 -P 4 --chrg 1
          coordinate file            : product_noCl.xyz
          omp threads                :                     4

   ID    Z sym.   atoms
    1   40 Zr     1
    2    6 C      2-7, 13-17, 25, 28
    3    1 H      8-12, 18-24, 26, 27, 29-31

           -------------------------------------------------
          |                 G F N 2 - x T B                 |
           -------------------------------------------------

        Reference                      10.1021/acs.jctc.8b01176
      * Hamiltonian:
        H0-scaling (s, p, d)           1.850000    2.230000    2.230000
        zeta-weighting                 0.500000
      * Dispersion:
        s8                             2.700000
        a1                             0.520000
        a2                             5.000000
        s9                             5.000000
      * Repulsion:
        kExp                           1.500000    1.000000
        rExp                           1.000000
      * Coulomb:
        alpha                          2.000000
        third order                    shell-resolved
        anisotropic                    true
        a3                             3.000000
        a5                             4.000000
        cn-shift                       1.200000
        cn-exp                         4.000000
        max-rad                        5.000000


          ...................................................
          :                      SETUP                      :
          :.................................................:
          :  # basis functions                  79          :
          :  # atomic orbitals                  78          :
          :  # shells                           46          :
          :  # electrons                        72          :
          :  max. iterations                   250          :
          :  Hamiltonian                  GFN2-xTB          :
          :  restarted?                      false          :
          :  GBSA solvation                  false          :
          :  PC potential                    false          :
          :  electronic temp.          300.0000000     K    :
          :  accuracy                    1.0000000          :
          :  -> integral cutoff          0.2500000E+02      :
          :  -> integral neglect         0.1000000E-07      :
          :  -> SCF convergence          0.1000000E-05 Eh   :
          :  -> wf. convergence          0.1000000E-03 e    :
          :  Broyden damping             0.4000000          :
          ...................................................

 iter      E             dE          RMSdq      gap      omega  full diag
   1    -37.6270844 -0.376271E+02  0.115E+01    0.18       0.0  T
   2    -37.8338950 -0.206811E+00  0.529E+00    2.99       1.0  T
   3    -37.9691194 -0.135224E+00  0.543E+00    0.58       1.0  T
   4    -38.0598077 -0.906882E-01  0.200E+00    0.83       1.0  T
   5    -38.0957795 -0.359719E-01  0.522E-01    1.13       1.0  T
   6    -38.0941524  0.162709E-02  0.486E-01    1.30       1.0  T
   7    -38.0963625 -0.221003E-02  0.309E-01    1.26       1.0  T
   8    -38.0968597 -0.497245E-03  0.985E-02    1.14       1.0  T
   9    -38.0969344 -0.746669E-04  0.582E-02    1.16       1.0  T
  10    -38.0969371 -0.270222E-05  0.369E-02    1.18       1.0  T
  11    -38.0969477 -0.106313E-04  0.104E-02    1.17       1.7  T
  12    -38.0969479 -0.183426E-06  0.640E-03    1.17       2.8  T
  13    -38.0969481 -0.250460E-06  0.259E-03    1.17       6.9  T
  14    -38.0969482 -0.195498E-07  0.154E-03    1.17      11.7  T
  15    -38.0969482 -0.111292E-07  0.447E-04    1.17      40.2  T
  16    -38.0969482 -0.332129E-09  0.997E-05    1.17     180.1  T

   *** convergence criteria satisfied after 16 iterations ***

         #    Occupation            Energy/Eh            Energy/eV
      -------------------------------------------------------------
         1        2.0000           -0.8387695             -22.8241
       ...           ...                  ...                  ...
        30        2.0000           -0.5559509             -15.1282
        31        2.0000           -0.5502896             -14.9741
        32        2.0000           -0.5171987             -14.0737
        33        2.0000           -0.5123410             -13.9415
        34        2.0000           -0.5006175             -13.6225
        35        2.0000           -0.4996670             -13.5966
        36        2.0000           -0.4901008             -13.3363 (HOMO)
        37                         -0.4469523             -12.1622 (LUMO)
        38                         -0.4452081             -12.1147
        39                         -0.4425541             -12.0425
        40                         -0.4407687             -11.9939
        41                         -0.4334099             -11.7937
       ...                                ...                  ...
        78                          1.1127967              30.2807
      -------------------------------------------------------------
                  HL-Gap            0.0431485 Eh            1.1741 eV
             Fermi-level           -0.4686012 Eh          -12.7513 eV

 SCC (total)                   0 d,  0 h,  0 min,  1.184 sec
 SCC setup                      ...        0 min,  0.028 sec (  2.396%)
 Dispersion                     ...        0 min,  0.041 sec (  3.433%)
 classical contributions        ...        0 min,  0.005 sec (  0.414%)
 integral evaluation            ...        0 min,  0.065 sec (  5.518%)
 iterations                     ...        0 min,  1.009 sec ( 85.181%)
 molecular gradient             ...        0 min,  0.036 sec (  3.041%)
 printout                       ...        0 min,  0.000 sec (  0.015%)

         :::::::::::::::::::::::::::::::::::::::::::::::::::::
         ::                     SUMMARY                     ::
         :::::::::::::::::::::::::::::::::::::::::::::::::::::
         :: total energy             -37.551639968614 Eh    ::
         :: gradient norm              0.198462030947 Eh/a0 ::
         :: HOMO-LUMO gap              1.174129113674 eV    ::
         ::.................................................::
         :: SCC energy               -38.096948172659 Eh    ::
         :: -> isotropic ES            0.086708926409 Eh    ::
         :: -> anisotropic ES         -0.000491760105 Eh    ::
         :: -> anisotropic XC          0.006505758387 Eh    ::
         :: -> dispersion             -0.025141771546 Eh    ::
         :: repulsion energy           0.544850653488 Eh    ::
         :: add. restraining           0.000000000000 Eh    ::
         :: total charge               0.999999999953 e     ::
         :::::::::::::::::::::::::::::::::::::::::::::::::::::

      ----------------------------------------------------------- 
     |                   =====================                   |
     |                        A N C O P T                        |
     |                   =====================                   |
     |               Approximate Normal Coordinate               |
     |                Rational Function Optimizer                |
      ----------------------------------------------------------- 

          ...................................................
          :                      SETUP                      :
          :.................................................:
          :   optimization level            normal          :
          :   max. optcycles                   200          :
          :   ANC micro-cycles                  20          :
          :   degrees of freedom                87          :
          :.................................................:
          :   RF solver                   davidson          :
          :   write xtbopt.log                true          :
          :   linear?                        false          :
          :   energy convergence         0.5000000E-05 Eh   :
          :   grad. convergence          0.1000000E-02 Eh/α :
          :   maximium RF displ.         1.0000000          :
          :   Hlow (freq-cutoff)         0.1000000E-01      :
          :   Hmax (freq-cutoff)         5.0000000          :
          :   S6 in model hess.         20.0000000          :
          ...................................................

generating ANC from model Hessian ...
Using Lindh-Hessian (1995)
 Shifting diagonal of input Hessian by    1.5297533452748095E-002
 Lowest  eigenvalues of input Hessian
    0.010000    0.014965    0.000000    0.000000    0.000000    0.000000
    0.000000    0.000000    0.015540    0.015631    0.015744    0.015852
    0.016115    0.016208    0.016573    0.016585    0.016655    0.016938
 Highest eigenvalues
    1.495624    1.495670    1.497075    1.497208    1.497301    1.497496


........................................................................
.............................. CYCLE    1 ..............................
........................................................................
   1    -38.0969482 -0.380969E+02  0.649E-05    1.17       0.0  T
   2    -38.0969482 -0.493117E-11  0.673E-05    1.17     266.8  T
   3    -38.0969482 -0.237463E-10  0.505E-05    1.17     355.6  T
     SCC iter.                  ...        0 min,  0.308 sec
     gradient                   ...        0 min,  0.115 sec
 * total energy  :   -37.5516400 Eh     change       -0.8147083E-10 Eh
   gradient norm :     0.1984620 Eh/α   predicted     0.0000000E+00 (-100.00%)
   displ. norm   :     0.7319742 α      lambda       -0.1021023E+00
   maximum displ.:     0.3981192 α      in ANC's #23, #2, #14, ...

........................................................................
.............................. CYCLE    2 ..............................
........................................................................
   1    -38.2021873 -0.382022E+02  0.832E-01    1.60       0.0  T
   2    -38.2034619 -0.127457E-02  0.781E-01    1.47       1.0  T
   3    -38.2047693 -0.130743E-02  0.493E-01    1.58       1.0  T
   4    -38.2042226  0.546771E-03  0.284E-01    1.51       1.0  T
   5    -38.2048140 -0.591443E-03  0.144E-01    1.56       1.0  T
   6    -38.2048305 -0.165001E-04  0.444E-02    1.58       1.0  T
   7    -38.2048538 -0.233105E-04  0.168E-02    1.57       1.1  T
   8    -38.2048540 -0.170300E-06  0.839E-03    1.58       2.1  T
   9    -38.2048546 -0.639408E-06  0.436E-03    1.58       4.1  T
  10    -38.2048547 -0.524859E-07  0.191E-03    1.58       9.4  T
  11    -38.2048547 -0.684569E-08  0.537E-04    1.58      33.4  T
  12    -38.2048547 -0.580506E-09  0.310E-04    1.58      58.0  T
     SCC iter.                  ...        0 min,  0.848 sec
     gradient                   ...        0 min,  0.168 sec
 * total energy  :   -37.6253803 Eh     change       -0.7374032E-01 Eh
   gradient norm :     0.0737960 Eh/α   predicted    -0.7843005E-01 (   6.36%)
   displ. norm   :     0.6262459 α      lambda       -0.3539062E-01
   maximum displ.:     0.4163496 α      in ANC's #2, #23, #14, ...

........................................................................
.............................. CYCLE    3 ..............................
........................................................................
   1    -38.2524201 -0.382524E+02  0.755E-01    1.84       0.0  T
   2    -38.2530282 -0.608078E-03  0.548E-01    1.63       1.0  T
   3    -38.2532975 -0.269341E-03  0.332E-01    1.75       1.0  T
   4    -38.2533607 -0.632332E-04  0.156E-01    1.67       1.0  T
   5    -38.2535310 -0.170262E-03  0.963E-02    1.69       1.0  T
   6    -38.2535421 -0.110914E-04  0.275E-02    1.70       1.0  T
   7    -38.2535467 -0.464009E-05  0.119E-02    1.71       1.5  T
   8    -38.2535472 -0.519352E-06  0.607E-03    1.71       3.0  T
   9    -38.2535473 -0.925907E-07  0.194E-03    1.71       9.3  T
  10    -38.2535474 -0.270575E-07  0.128E-03    1.71      14.0  T
  11    -38.2535474 -0.521204E-08  0.452E-04    1.71      39.7  T
  12    -38.2535474 -0.820449E-09  0.230E-04    1.71      78.2  T
     SCC iter.                  ...        0 min,  1.163 sec
     gradient                   ...        0 min,  0.114 sec
 * total energy  :   -37.6473089 Eh     change       -0.2192856E-01 Eh
   gradient norm :     0.0411444 Eh/α   predicted    -0.2463516E-01 (  12.34%)
   displ. norm   :     0.6659720 α      lambda       -0.1596203E-01
   maximum displ.:     0.3638410 α      in ANC's #13, #2, #14, ...

........................................................................
.............................. CYCLE    4 ..............................
........................................................................
   1    -38.2672240 -0.382672E+02  0.382E-01    1.83       0.0  T
   2    -38.2674384 -0.214379E-03  0.207E-01    1.84       1.0  T
   3    -38.2673749  0.634475E-04  0.169E-01    1.85       1.0  T
   4    -38.2676172 -0.242238E-03  0.280E-02    1.85       1.0  T
   5    -38.2676305 -0.133576E-04  0.169E-02    1.85       1.1  T
   6    -38.2676311 -0.614526E-06  0.682E-03    1.86       2.6  T
   7    -38.2676314 -0.302896E-06  0.370E-03    1.86       4.9  T
   8    -38.2676315 -0.342486E-07  0.159E-03    1.86      11.3  T
   9    -38.2676315 -0.204048E-07  0.102E-03    1.86      17.5  T
  10    -38.2676315 -0.298564E-08  0.471E-04    1.86      38.1  T
  11    -38.2676315 -0.281467E-09  0.107E-04    1.86     167.5  T
     SCC iter.                  ...        0 min,  0.757 sec
     gradient                   ...        0 min,  0.004 sec
 * total energy  :   -37.6570216 Eh     change       -0.9712703E-02 Eh
   gradient norm :     0.0374342 Eh/α   predicted    -0.1152077E-01 (  18.62%)
   displ. norm   :     0.6934999 α      lambda       -0.1391937E-01
   maximum displ.:     0.5391716 α      in ANC's #2, #14, #13, ...

........................................................................
.............................. CYCLE    5 ..............................
........................................................................
   1    -38.2673982 -0.382674E+02  0.475E-01    1.57       0.0  T
   2    -38.2676642 -0.265996E-03  0.362E-01    1.57       1.0  T
   3    -38.2674220  0.242137E-03  0.196E-01    1.52       1.0  T
   4    -38.2677733 -0.351270E-03  0.765E-02    1.56       1.0  T
   5    -38.2677829 -0.964665E-05  0.745E-02    1.55       1.0  T
   6    -38.2677954 -0.124189E-04  0.184E-02    1.56       1.0  T
   7    -38.2677970 -0.161896E-05  0.997E-03    1.56       1.8  T
   8    -38.2677983 -0.129099E-05  0.293E-03    1.56       6.1  T
   9    -38.2677983 -0.314019E-07  0.284E-03    1.56       6.3  T
  10    -38.2677983 -0.443908E-07  0.904E-04    1.56      19.9  T
  11    -38.2677983 -0.291644E-08  0.419E-04    1.56      42.8  T
     SCC iter.                  ...        0 min,  0.913 sec
     gradient                   ...        0 min,  0.213 sec
 * total energy  :   -37.6629645 Eh     change       -0.5942986E-02 Eh
   gradient norm :     0.0458185 Eh/α   predicted    -0.1030690E-01 (  73.43%)
   displ. norm   :     0.4838119 α      lambda       -0.8486693E-02
   maximum displ.:     0.2939336 α      in ANC's #13, #2, #14, ...

........................................................................
.............................. CYCLE    6 ..............................
........................................................................
   1    -38.2842099 -0.382842E+02  0.308E-01    1.71       0.0  T
   2    -38.2844004 -0.190514E-03  0.142E-01    1.68       1.0  T
   3    -38.2844270 -0.265799E-04  0.137E-01    1.72       1.0  T
   4    -38.2845414 -0.114333E-03  0.253E-02    1.71       1.0  T
   5    -38.2845426 -0.122660E-05  0.149E-02    1.71       1.2  T
   6    -38.2845449 -0.233194E-05  0.597E-03    1.70       3.0  T
   7    -38.2845450 -0.119813E-06  0.220E-03    1.70       8.2  T
   8    -38.2845450 -0.492849E-08  0.121E-03    1.70      14.9  T
   9    -38.2845451 -0.642986E-08  0.665E-04    1.70      27.0  T
  10    -38.2845451 -0.865384E-09  0.295E-04    1.70      60.8  T
     SCC iter.                  ...        0 min,  0.795 sec
     gradient                   ...        0 min,  0.005 sec
 * total energy  :   -37.6687816 Eh     change       -0.5817059E-02 Eh
   gradient norm :     0.0347536 Eh/α   predicted    -0.5236605E-02 (  -9.98%)
   displ. norm   :     0.5780918 α      lambda       -0.6745282E-02
   maximum displ.:     0.3857127 α      in ANC's #2, #13, #7, ...

........................................................................
.............................. CYCLE    7 ..............................
........................................................................
   1    -38.2980550 -0.382981E+02  0.278E-01    1.83       0.0  T
   2    -38.2981589 -0.103910E-03  0.193E-01    1.79       1.0  T
   3    -38.2981806 -0.216740E-04  0.126E-01    1.83       1.0  T
   4    -38.2981982 -0.175632E-04  0.476E-02    1.81       1.0  T
   5    -38.2982012 -0.305801E-05  0.262E-02    1.81       1.0  T
   6    -38.2982021 -0.830711E-06  0.118E-02    1.81       1.5  T
   7    -38.2982029 -0.858309E-06  0.524E-03    1.81       3.4  T
   8    -38.2982030 -0.579586E-07  0.186E-03    1.82       9.6  T
   9    -38.2982030 -0.678055E-08  0.122E-03    1.82      14.7  T
  10    -38.2982030 -0.156842E-08  0.400E-04    1.82      44.9  T
  11    -38.2982030 -0.271456E-09  0.236E-04    1.82      76.3  T
     SCC iter.                  ...        0 min,  0.807 sec
     gradient                   ...        0 min,  0.004 sec
 * total energy  :   -37.6720328 Eh     change       -0.3251186E-02 Eh
   gradient norm :     0.0310402 Eh/α   predicted    -0.4499749E-02 (  38.40%)
   displ. norm   :     0.7241296 α      lambda       -0.1053073E-01
   maximum displ.:     0.4178792 α      in ANC's #1, #2, #13, ...

........................................................................
.............................. CYCLE    8 ..............................
........................................................................
   1    -38.2936957 -0.382937E+02  0.706E-01    1.81       0.0  T
   2    -38.2948223 -0.112651E-02  0.679E-01    1.67       1.0  T
   3    -38.2950385 -0.216212E-03  0.545E-01    1.69       1.0  T
   4    -38.2951462 -0.107765E-03  0.177E-01    1.65       1.0  T
   5    -38.2952699 -0.123646E-03  0.985E-02    1.69       1.0  T
   6    -38.2952773 -0.738123E-05  0.288E-02    1.71       1.0  T
   7    -38.2952821 -0.481312E-05  0.142E-02    1.71       1.3  T
   8    -38.2952836 -0.151201E-05  0.561E-03    1.71       3.2  T
   9    -38.2952837 -0.998049E-07  0.340E-03    1.71       5.3  T
  10    -38.2952837 -0.220331E-07  0.119E-03    1.71      15.1  T
  11    -38.2952837 -0.431114E-08  0.407E-04    1.71      44.1  T
  12    -38.2952837 -0.719965E-09  0.195E-04    1.71      92.3  T
     SCC iter.                  ...        0 min,  0.842 sec
     gradient                   ...        0 min,  0.180 sec
 * total energy  :   -37.6551987 Eh     change        0.1683411E-01 Eh
   gradient norm :     0.1220462 Eh/α   predicted    -0.8026334E-02 (-147.68%)
   displ. norm   :     0.3514982 α      lambda       -0.3744064E-01
   maximum displ.:     0.2938482 α      in ANC's #1, #46, #24, ...

........................................................................
.............................. CYCLE    9 ..............................
........................................................................
   1    -38.2932316 -0.382932E+02  0.521E-01    1.74       0.0  T
   2    -38.2938539 -0.622291E-03  0.484E-01    1.81       1.0  T
   3    -38.2940041 -0.150150E-03  0.377E-01    1.77       1.0  T
   4    -38.2940189 -0.148136E-04  0.114E-01    1.80       1.0  T
   5    -38.2941048 -0.859046E-04  0.799E-02    1.78       1.0  T
   6    -38.2941181 -0.133256E-04  0.290E-02    1.78       1.0  T
   7    -38.2941244 -0.625163E-05  0.101E-02    1.78       1.8  T
   8    -38.2941247 -0.325768E-06  0.410E-03    1.78       4.4  T
   9    -38.2941248 -0.114372E-06  0.271E-03    1.78       6.6  T
  10    -38.2941248 -0.209936E-07  0.166E-03    1.78      10.8  T
  11    -38.2941248 -0.601639E-08  0.333E-04    1.78      53.9  T
  12    -38.2941248 -0.286775E-09  0.137E-04    1.78     131.3  T
     SCC iter.                  ...        0 min,  0.842 sec
     gradient                   ...        0 min,  0.014 sec
 * total energy  :   -37.6758188 Eh     change       -0.2062012E-01 Eh
   gradient norm :     0.0187519 Eh/α   predicted    -0.2103323E-01 (   2.00%)
   displ. norm   :     0.4634458 α      lambda       -0.3300257E-02
   maximum displ.:     0.3046761 α      in ANC's #2, #6, #13, ...

........................................................................
.............................. CYCLE   10 ..............................
........................................................................
   1    -38.2976064 -0.382976E+02  0.297E-01    1.80       0.0  T
   2    -38.2976673 -0.609165E-04  0.211E-01    1.79       1.0  T
   3    -38.2976311  0.362122E-04  0.816E-02    1.80       1.0  T
   4    -38.2976862 -0.550950E-04  0.436E-02    1.79       1.0  T
   5    -38.2976973 -0.111352E-04  0.251E-02    1.79       1.0  T
   6    -38.2976992 -0.180711E-05  0.102E-02    1.80       1.8  T
   7    -38.2976995 -0.382253E-06  0.368E-03    1.80       4.9  T
   8    -38.2976996 -0.590498E-07  0.207E-03    1.80       8.7  T
   9    -38.2976996 -0.159102E-07  0.145E-03    1.80      12.4  T
  10    -38.2976996 -0.802558E-09  0.654E-04    1.80      27.4  T
  11    -38.2976996 -0.190316E-08  0.306E-04    1.80      58.7  T
     SCC iter.                  ...        0 min,  0.726 sec
     gradient                   ...        0 min,  0.171 sec
 * total energy  :   -37.6778144 Eh     change       -0.1995580E-02 Eh
   gradient norm :     0.0205488 Eh/α   predicted    -0.2004556E-02 (   0.45%)
   displ. norm   :     0.5107282 α      lambda       -0.2631701E-02
   maximum displ.:     0.2638048 α      in ANC's #10, #6, #2, ...

........................................................................
.............................. CYCLE   11 ..............................
........................................................................
   1    -38.2995870 -0.382996E+02  0.192E-01    1.77       0.0  T
   2    -38.2996092 -0.222037E-04  0.119E-01    1.77       1.0  T
   3    -38.2995553  0.539093E-04  0.804E-02    1.76       1.0  T
   4    -38.2996277 -0.724220E-04  0.190E-02    1.77       1.0  T
   5    -38.2996289 -0.121196E-05  0.170E-02    1.77       1.1  T
   6    -38.2996299 -0.908947E-06  0.414E-03    1.77       4.3  T
   7    -38.2996299 -0.716146E-07  0.215E-03    1.77       8.4  T
   8    -38.2996299 -0.164332E-07  0.125E-03    1.77      14.4  T
   9    -38.2996299 -0.866928E-08  0.704E-04    1.77      25.5  T
  10    -38.2996299 -0.115540E-08  0.293E-04    1.77      61.3  T
     SCC iter.                  ...        0 min,  0.783 sec
     gradient                   ...        0 min,  0.175 sec
 * total energy  :   -37.6799709 Eh     change       -0.2156547E-02 Eh
   gradient norm :     0.0151318 Eh/α   predicted    -0.1659084E-02 ( -23.07%)
   displ. norm   :     0.7221520 α      lambda       -0.3280280E-02
   maximum displ.:     0.4204182 α      in ANC's #10, #6, #2, ...

........................................................................
.............................. CYCLE   12 ..............................
........................................................................
   1    -38.2986064 -0.382986E+02  0.269E-01    1.77       0.0  T
   2    -38.2986343 -0.278454E-04  0.178E-01    1.78       1.0  T
   3    -38.2985651  0.691373E-04  0.829E-02    1.76       1.0  T
   4    -38.2986562 -0.910561E-04  0.263E-02    1.78       1.0  T
   5    -38.2986562 -0.745269E-07  0.157E-02    1.78       1.1  T
   6    -38.2986577 -0.142055E-05  0.575E-03    1.78       3.1  T
   7    -38.2986578 -0.140726E-06  0.294E-03    1.78       6.1  T
   8    -38.2986579 -0.502350E-07  0.131E-03    1.78      13.7  T
   9    -38.2986579 -0.758281E-08  0.826E-04    1.78      21.7  T
  10    -38.2986579 -0.687940E-09  0.372E-04    1.78      48.3  T
     SCC iter.                  ...        0 min,  0.662 sec
     gradient                   ...        0 min,  0.190 sec
 * total energy  :   -37.6824344 Eh     change       -0.2463460E-02 Eh
   gradient norm :     0.0133894 Eh/α   predicted    -0.2495480E-02 (   1.30%)
   displ. norm   :     0.7206383 α      lambda       -0.2629454E-02
   maximum displ.:     0.3744087 α      in ANC's #10, #2, #6, ...

........................................................................
.............................. CYCLE   13 ..............................
........................................................................
   1    -38.2965304 -0.382965E+02  0.394E-01    1.80       0.0  T
   2    -38.2965591 -0.286358E-04  0.250E-01    1.80       1.0  T
   3    -38.2964402  0.118837E-03  0.792E-02    1.80       1.0  T
   4    -38.2965758 -0.135586E-03  0.245E-02    1.80       1.0  T
   5    -38.2965790 -0.320868E-05  0.162E-02    1.80       1.1  T
   6    -38.2965797 -0.683199E-06  0.368E-03    1.80       4.9  T
   7    -38.2965797 -0.315655E-07  0.291E-03    1.80       6.2  T
   8    -38.2965798 -0.305372E-07  0.137E-03    1.80      13.1  T
   9    -38.2965798 -0.433353E-08  0.619E-04    1.80      29.0  T
  10    -38.2965798 -0.158695E-08  0.322E-04    1.80      55.9  T
     SCC iter.                  ...        0 min,  0.868 sec
     gradient                   ...        0 min,  0.180 sec
 * total energy  :   -37.6841094 Eh     change       -0.1674996E-02 Eh
   gradient norm :     0.0193742 Eh/α   predicted    -0.1997494E-02 (  19.25%)
   displ. norm   :     0.5659638 α      lambda       -0.1898252E-02
   maximum displ.:     0.3194622 α      in ANC's #2, #10, #6, ...

........................................................................
.............................. CYCLE   14 ..............................
........................................................................
   1    -38.3042787 -0.383043E+02  0.281E-01    1.81       0.0  T
   2    -38.3042935 -0.147890E-04  0.178E-01    1.80       1.0  T
   3    -38.3042803  0.131524E-04  0.481E-02    1.82       1.0  T
   4    -38.3043017 -0.213594E-04  0.174E-02    1.81       1.0  T
   5    -38.3043019 -0.247019E-06  0.969E-03    1.81       1.9  T
   6    -38.3043021 -0.198508E-06  0.372E-03    1.81       4.8  T
   7    -38.3043023 -0.194864E-06  0.224E-03    1.81       8.0  T
   8    -38.3043023 -0.155087E-07  0.101E-03    1.81      17.7  T
   9    -38.3043023 -0.996124E-09  0.617E-04    1.81      29.1  T
  10    -38.3043023 -0.524679E-09  0.253E-04    1.81      71.0  T
     SCC iter.                  ...        0 min,  0.713 sec
     gradient                   ...        0 min,  0.145 sec
 * total energy  :   -37.6853971 Eh     change       -0.1287681E-02 Eh
   gradient norm :     0.0138482 Eh/α   predicted    -0.1253147E-02 (  -2.68%)
   displ. norm   :     0.4916298 α      lambda       -0.1332226E-02
   maximum displ.:     0.2973514 α      in ANC's #2, #10, #13, ...

........................................................................
.............................. CYCLE   15 ..............................
........................................................................
   1    -38.3075403 -0.383075E+02  0.305E-01    1.79       0.0  T
   2    -38.3075762 -0.359327E-04  0.213E-01    1.80       1.0  T
   3    -38.3074032  0.173081E-03  0.766E-02    1.80       1.0  T
   4    -38.3076016 -0.198395E-03  0.176E-02    1.79       1.0  T
   5    -38.3076026 -0.103391E-05  0.107E-02    1.80       1.7  T
   6    -38.3076028 -0.245478E-06  0.510E-03    1.79       3.5  T
   7    -38.3076030 -0.116445E-06  0.179E-03    1.80      10.0  T
   8    -38.3076030 -0.132958E-07  0.124E-03    1.79      14.5  T
   9    -38.3076030 -0.107542E-07  0.453E-04    1.80      39.6  T
  10    -38.3076030 -0.456943E-09  0.213E-04    1.80      84.5  T
     SCC iter.                  ...        0 min,  0.622 sec
     gradient                   ...        0 min,  0.182 sec
 * total energy  :   -37.6861052 Eh     change       -0.7081848E-03 Eh
   gradient norm :     0.0110933 Eh/α   predicted    -0.8271160E-03 (  16.79%)
   displ. norm   :     0.3658183 α      lambda       -0.7182920E-03
   maximum displ.:     0.2158152 α      in ANC's #10, #2, #7, ...

........................................................................
.............................. CYCLE   16 ..............................
........................................................................
   1    -38.3089952 -0.383090E+02  0.232E-01    1.79       0.0  T
   2    -38.3090039 -0.873909E-05  0.148E-01    1.78       1.0  T
   3    -38.3089813  0.225839E-04  0.383E-02    1.79       1.0  T
   4    -38.3090084 -0.270687E-04  0.121E-02    1.79       1.5  T
   5    -38.3090085 -0.136954E-06  0.618E-03    1.78       2.9  T
   6    -38.3090087 -0.143659E-06  0.209E-03    1.78       8.6  T
   7    -38.3090087 -0.436246E-07  0.110E-03    1.78      16.4  T
   8    -38.3090087 -0.374998E-08  0.549E-04    1.78      32.7  T
   9    -38.3090087 -0.156998E-08  0.329E-04    1.78      54.6  T
     SCC iter.                  ...        0 min,  0.801 sec
     gradient                   ...        0 min,  0.218 sec
 * total energy  :   -37.6863159 Eh     change       -0.2107067E-03 Eh
   gradient norm :     0.0125181 Eh/α   predicted    -0.4072122E-03 (  93.26%)
   displ. norm   :     0.1481446 α      lambda       -0.4281481E-03
   maximum displ.:     0.1012715 α      in ANC's #10, #2, #23, ...

........................................................................
.............................. CYCLE   17 ..............................
........................................................................
   1    -38.3111136 -0.383111E+02  0.933E-02    1.80       0.0  T
   2    -38.3111224 -0.886280E-05  0.590E-02    1.79       1.0  T
   3    -38.3111186  0.384401E-05  0.333E-02    1.80       1.0  T
   4    -38.3111266 -0.798573E-05  0.723E-03    1.79       2.5  T
   5    -38.3111267 -0.116409E-06  0.479E-03    1.79       3.7  T
   6    -38.3111268 -0.996434E-07  0.167E-03    1.79      10.8  T
   7    -38.3111268 -0.275539E-07  0.659E-04    1.79      27.2  T
   8    -38.3111268 -0.188789E-08  0.300E-04    1.79      59.8  T
     SCC iter.                  ...        0 min,  0.682 sec
     gradient                   ...        0 min,  0.157 sec
 * total energy  :   -37.6864063 Eh     change       -0.9033155E-04 Eh
   gradient norm :     0.0093973 Eh/α   predicted    -0.2187733E-03 ( 142.19%)
   displ. norm   :     0.0755652 α      lambda       -0.2012047E-03
   maximum displ.:     0.0490776 α      in ANC's #6, #2, #10, ...

........................................................................
.............................. CYCLE   18 ..............................
........................................................................
   1    -38.3096731 -0.383097E+02  0.573E-02    1.79       0.0  T
   2    -38.3096757 -0.256753E-05  0.339E-02    1.79       1.0  T
   3    -38.3096723  0.337168E-05  0.206E-02    1.78       1.0  T
   4    -38.3096772 -0.487468E-05  0.410E-03    1.78       4.4  T
   5    -38.3096773 -0.783471E-07  0.265E-03    1.79       6.8  T
   6    -38.3096773 -0.343708E-07  0.107E-03    1.78      16.8  T
   7    -38.3096773 -0.351018E-08  0.361E-04    1.79      49.7  T
   8    -38.3096773 -0.216360E-09  0.219E-04    1.78      82.0  T
     SCC iter.                  ...        0 min,  0.656 sec
     gradient                   ...        0 min,  0.052 sec
 * total energy  :   -37.6864867 Eh     change       -0.8043981E-04 Eh
   gradient norm :     0.0038243 Eh/α   predicted    -0.1011793E-03 (  25.78%)
   displ. norm   :     0.0487908 α      lambda       -0.7956174E-04
   maximum displ.:     0.0264294 α      in ANC's #6, #18, #13, ...

........................................................................
.............................. CYCLE   19 ..............................
........................................................................
   1    -38.3098506 -0.383099E+02  0.589E-02    1.78       0.0  T
   2    -38.3098543 -0.373030E-05  0.399E-02    1.79       1.0  T
   3    -38.3098536  0.768508E-06  0.221E-02    1.79       1.0  T
   4    -38.3098562 -0.259595E-05  0.450E-03    1.79       4.0  T
   5    -38.3098565 -0.324081E-06  0.309E-03    1.79       5.8  T
   6    -38.3098565 -0.365274E-07  0.105E-03    1.79      17.1  T
   7    -38.3098565 -0.157251E-08  0.473E-04    1.79      38.0  T
   8    -38.3098565 -0.598043E-09  0.214E-04    1.79      83.8  T
     SCC iter.                  ...        0 min,  0.856 sec
     gradient                   ...        0 min,  0.254 sec
 * total energy  :   -37.6864950 Eh     change       -0.8318469E-05 Eh
   gradient norm :     0.0047736 Eh/α   predicted    -0.3987788E-04 ( 379.39%)
   displ. norm   :     0.0437185 α      lambda       -0.5894259E-04
   maximum displ.:     0.0246815 α      in ANC's #7, #10, #2, ...

........................................................................
.............................. CYCLE   20 ..............................
........................................................................
   1    -38.3096293 -0.383096E+02  0.266E-02    1.79       0.0  T
   2    -38.3096306 -0.135794E-05  0.176E-02    1.79       1.0  T
   3    -38.3096310 -0.326391E-06  0.104E-02    1.79       1.7  T
   4    -38.3096313 -0.323081E-06  0.227E-03    1.79       7.9  T
   5    -38.3096313 -0.329272E-07  0.153E-03    1.79      11.8  T
   6    -38.3096313 -0.146901E-07  0.332E-04    1.79      54.0  T
   7    -38.3096313 -0.619139E-09  0.146E-04    1.79     122.6  T
     SCC iter.                  ...        0 min,  0.646 sec
     gradient                   ...        0 min,  0.219 sec
 * total energy  :   -37.6865231 Eh     change       -0.2803270E-04 Eh
   gradient norm :     0.0027279 Eh/α   predicted    -0.2952959E-04 (   5.34%)
   displ. norm   :     0.0324811 α      lambda       -0.2828950E-04
   maximum displ.:     0.0177095 α      in ANC's #6, #7, #10, ...
 * RMSD in coord.:     1.2257503 α      energy gain  -0.1348831E+00 Eh

generating ANC from model Hessian ...
Using Lindh-Hessian (1995)
 Shifting diagonal of input Hessian by    9.6964512615722656E-003
 Lowest  eigenvalues of input Hessian
    0.000000    0.000000    0.000000    0.000000    0.000000    0.000000
    0.010000    0.010068    0.010370    0.010694    0.010906    0.011064
    0.011617    0.012232    0.017599    0.017772    0.018121    0.018541
 Highest eigenvalues
    1.667258    1.668007    1.717625    1.717799    1.724800    1.725412


........................................................................
.............................. CYCLE   21 ..............................
........................................................................
   1    -38.3102524 -0.383103E+02  0.216E-02    1.79       0.0  T
   2    -38.3102528 -0.454920E-06  0.166E-02    1.79       1.1  T
   3    -38.3102528 -0.300291E-08  0.806E-03    1.79       2.2  T
   4    -38.3102530 -0.209838E-06  0.182E-03    1.79       9.8  T
   5    -38.3102531 -0.107895E-07  0.105E-03    1.79      17.1  T
   6    -38.3102531 -0.478178E-08  0.191E-04    1.79      94.2  T
   7    -38.3102531 -0.481343E-09  0.909E-05    1.79     197.6  T
     SCC iter.                  ...        0 min,  0.551 sec
     gradient                   ...        0 min,  0.062 sec
 * total energy  :   -37.6865305 Eh     change       -0.7418901E-05 Eh
   gradient norm :     0.0024626 Eh/α   predicted     0.0000000E+00 (-100.00%)
   displ. norm   :     0.0316920 α      lambda       -0.1923983E-04
   maximum displ.:     0.0247577 α      in ANC's #6, #7, #16, ...

........................................................................
.............................. CYCLE   22 ..............................
........................................................................
   1    -38.3101978 -0.383102E+02  0.409E-02    1.79       0.0  T
   2    -38.3101981 -0.329143E-06  0.272E-02    1.79       1.0  T
   3    -38.3101977  0.481168E-06  0.703E-03    1.79       2.6  T
   4    -38.3101983 -0.685127E-06  0.271E-03    1.79       6.6  T
   5    -38.3101983  0.922266E-08  0.133E-03    1.79      13.5  T
   6    -38.3101983 -0.150140E-07  0.470E-04    1.79      38.2  T
   7    -38.3101984 -0.289816E-08  0.268E-04    1.79      66.9  T
     SCC iter.                  ...        0 min,  0.650 sec
     gradient                   ...        0 min,  0.192 sec
 * total energy  :   -37.6865450 Eh     change       -0.1452528E-04 Eh
   gradient norm :     0.0009216 Eh/α   predicted    -0.1022449E-04 ( -29.61%)
   displ. norm   :     0.0608199 α      lambda       -0.1213975E-04
   maximum displ.:     0.0476253 α      in ANC's #6, #7, #1, ...

........................................................................
.............................. CYCLE   23 ..............................
........................................................................
   1    -38.3100662 -0.383101E+02  0.589E-02    1.79       0.0  T
   2    -38.3100669 -0.717005E-06  0.379E-02    1.79       1.0  T
   3    -38.3100659  0.978576E-06  0.102E-02    1.79       1.8  T
   4    -38.3100674 -0.142765E-05  0.404E-03    1.79       4.4  T
   5    -38.3100673  0.266328E-07  0.235E-03    1.79       7.6  T
   6    -38.3100674 -0.571703E-07  0.683E-04    1.79      26.3  T
   7    -38.3100674 -0.264242E-08  0.389E-04    1.79      46.1  T
     SCC iter.                  ...        0 min,  0.675 sec
     gradient                   ...        0 min,  0.208 sec
 * total energy  :   -37.6865549 Eh     change       -0.9928270E-05 Eh
   gradient norm :     0.0012192 Eh/α   predicted    -0.6104067E-05 ( -38.52%)
   displ. norm   :     0.0247804 α      lambda       -0.3262302E-05
   maximum displ.:     0.0178756 α      in ANC's #6, #1, #7, ...

........................................................................
.............................. CYCLE   24 ..............................
........................................................................
   1    -38.3100722 -0.383101E+02  0.122E-02    1.79       0.0  T
   2    -38.3100722 -0.506919E-07  0.782E-03    1.79       2.3  T
   3    -38.3100721  0.156091E-06  0.301E-03    1.79       6.0  T
   4    -38.3100723 -0.193382E-06  0.106E-03    1.79      16.9  T
   5    -38.3100723 -0.138703E-08  0.563E-04    1.79      31.9  T
   6    -38.3100723 -0.741402E-09  0.174E-04    1.79     103.0  T
     SCC iter.                  ...        0 min,  0.544 sec
     gradient                   ...        0 min,  0.185 sec
 * total energy  :   -37.6865586 Eh     change       -0.3680582E-05 Eh
   gradient norm :     0.0005925 Eh/α   predicted    -0.1633079E-05 ( -55.63%)
   displ. norm   :     0.0301082 α      lambda       -0.2277957E-05
   maximum displ.:     0.0216546 α      in ANC's #1, #6, #4, ...

   *** GEOMETRY OPTIMIZATION CONVERGED AFTER 24 ITERATIONS ***

------------------------------------------------------------------------
 total energy gain   :        -0.1349187 Eh      -84.6627 kcal/mol
 total RMSD          :         1.2305544 a0        0.6512 Å
 total power (kW/mol):       -14.7595366 (step)  -14.8024 (real)
------------------------------------------------------------------------

 ANCopt (total)                0 d,  0 h,  0 min, 23.930 sec
 optimizer setup                ...        0 min,  0.005 sec (  0.021%)
 model hessian                  ...        0 min,  0.046 sec (  0.190%)
 ANC generation                 ...        0 min,  0.092 sec (  0.386%)
 coordinate transformation      ...        0 min,  0.000 sec (  0.002%)
 single point calculation       ...        0 min, 23.418 sec ( 97.860%)
 optimization log               ...        0 min,  0.002 sec (  0.010%)
 hessian update                 ...        0 min,  0.259 sec (  1.083%)
 rational function              ...        0 min,  0.105 sec (  0.440%)

================
 final structure:
================
31
 xtb: 6.5.1 (b24c23e)
Zr          -0.66576453047891        0.10196441415399        0.20862419242446
C           -0.15731971305088        1.16250563980235       -1.62782413839013
C           -0.11604695559526       -2.19061229999866        0.90566488082229
C            0.35209162707228       -1.99759402606669       -0.42027352158298
C           -0.78440985302612       -1.82262176451308       -1.25960085908365
C           -1.94611450740896       -1.86407757062477       -0.44358692267270
C           -1.52943747343833       -2.11029739110225        0.89029783075932
H            0.48887044796962       -2.50277254500190        1.75062047409984
H            1.36897716147439       -2.15888928778866       -0.76546281252552
H           -0.77086066633146       -1.82119284919151       -2.34318187237399
H           -2.96975482403788       -1.91176896871309       -0.80440542719283
H           -2.18375436288734       -2.36240678283903        1.71737918145193
C           -0.11609151758470        0.64365187600081        2.54272009470992
C           -1.52950139339833        0.61691207746409        2.46551742465412
C           -1.94622893283583        1.64932004353473        1.58575098175997
C           -0.78440004305270        2.33553949175774        1.14223762586442
C            0.35193325776021        1.69571120514618        1.71286700703642
H            0.48871941961255        0.06743294259362        3.23493068414710
H           -2.18380125171254        0.02644326986380        3.09715515477467
H           -2.96984750478347        1.98572696888227        1.44687188596735
H           -0.77082767049266        3.27338772413443        0.59947697383880
H            1.36921617274129        2.07549132240201        1.68040453885784
H            0.37587556095992        0.59127677204818       -2.40793642264035
H            0.37549934471844        2.12386072206949       -1.52263444344126
C           -1.58634053957904        1.46258546062914       -2.14784111597169
H           -2.14579512676212        0.52201059412601       -2.32090195802136
H           -2.14667090699454        2.08111407786725       -1.41903793222415
C           -1.55445437147478        2.23189838389707       -3.47780934566741
H           -1.03442692253567        1.65194272249123       -4.23677810420005
H           -2.56118552746583        2.43634745267260       -3.83271030250279
H           -1.03568057737661        3.17960370430407       -3.35315216267875

 Bond Distances (Angstroems)
 ---------------------------
Zr1-C2=2.1808        Zr1-C3=2.4584        Zr1-C4=2.4165        Zr1-C5=2.4236        Zr1-C6=2.4352        Zr1-C7=2.4708        
Zr1-C13=2.4584       Zr1-C14=2.4708       Zr1-C15=2.4352       Zr1-C16=2.4238       Zr1-C17=2.4163       Zr1-C25=2.8726       
C2-Zr1=2.1808        C2-H23=1.1042        C2-H24=1.1042        C2-C25=1.5500        C3-Zr1=2.4584        C3-C4=1.4193         
C3-C7=1.4158         C3-H8=1.0850         C4-Zr1=2.4165        C4-C3=1.4193         C4-C5=1.4236         C4-H9=1.0859         
C5-Zr1=2.4236        C5-C4=1.4236         C5-C6=1.4203         C5-H10=1.0837        C6-Zr1=2.4352        C6-C5=1.4203         
C6-C7=1.4190         C6-H11=1.0864        C7-Zr1=2.4708        C7-C3=1.4158         C7-C6=1.4190         C7-H12=1.0843        
H8-C3=1.0850         H9-C4=1.0859         H10-C5=1.0837        H11-C6=1.0864        H12-C7=1.0843        C13-Zr1=2.4584       
C13-C14=1.4158       C13-C17=1.4193       C13-H18=1.0849       C14-Zr1=2.4708       C14-C13=1.4158       C14-C15=1.4190       
C14-H19=1.0843       C15-Zr1=2.4352       C15-C14=1.4190       C15-C16=1.4204       C15-H20=1.0864       C16-Zr1=2.4238       
C16-C15=1.4204       C16-C17=1.4235       C16-H21=1.0837       C17-Zr1=2.4163       C17-C13=1.4193       C17-C16=1.4235       
C17-H22=1.0863       H18-C13=1.0849       H19-C14=1.0843       H20-C15=1.0864       H21-C16=1.0837       H22-C17=1.0863       
H23-C2=1.1042        H24-C2=1.1042        C25-Zr1=2.8726       C25-C2=1.5500        C25-H26=1.1080       C25-H27=1.1080       
C25-C28=1.5368       H26-C25=1.1080       H27-C25=1.1080       C28-C25=1.5368       C28-H29=1.0876       C28-H30=1.0869       
C28-H31=1.0876       H29-C28=1.0876       H30-C28=1.0869       H31-C28=1.0876       
 C  H  Rav=1.0904 sigma=0.0088  Rmin=1.0837  Rmax=1.1080    17
 C  C  Rav=1.4402 sigma=0.0463  Rmin=1.4158  Rmax=1.5500    12
 Zr C  Rav=2.4552 sigma=0.1460  Rmin=2.1808  Rmax=2.8726    12

 selected bond angles (degree)
 --------------------
C3-Zr1-C2=129.80               C4-Zr1-C2= 96.04               C4-Zr1-C3= 33.84               C5-Zr1-C2= 83.54               
C5-Zr1-C3= 56.10               C5-Zr1-C4= 34.21               C6-Zr1-C2=106.84               C6-Zr1-C3= 55.99               
C6-Zr1-C4= 56.65               C6-Zr1-C5= 33.99               C7-Zr1-C2=138.53               C7-Zr1-C3= 33.38               
C7-Zr1-C4= 56.02               C7-Zr1-C5= 55.88               C7-Zr1-C6= 33.61               C13-Zr1-C2=129.81              
C13-Zr1-C3= 83.47              C13-Zr1-C4=110.14              C13-Zr1-C5=139.56              C13-Zr1-C6=123.35              
C13-Zr1-C7= 90.77              C14-Zr1-C2=138.53              C14-Zr1-C3= 90.78              C14-Zr1-C4=124.47              
C14-Zr1-C5=134.57              C14-Zr1-C6=103.24              C14-Zr1-C7= 79.19              C14-Zr1-C13= 33.38             
C15-Zr1-C2=106.85              C15-Zr1-C3=123.35              C15-Zr1-C4=157.03              C15-Zr1-C5=145.23              
C15-Zr1-C6=112.83              C15-Zr1-C7=103.24              C15-Zr1-C13= 55.99             C15-Zr1-C14= 33.61             
C16-Zr1-C2= 83.55              C16-Zr1-C3=139.56              C16-Zr1-C4=157.15              C16-Zr1-C5=164.31              
C16-Zr1-C6=145.23              C16-Zr1-C7=134.57              C16-Zr1-C13= 56.09             C16-Zr1-C14= 55.87             
C16-Zr1-C15= 33.99             C17-Zr1-C2= 96.04              C17-Zr1-C3=110.14              C17-Zr1-C4=123.90              
C17-Zr1-C5=157.15              C17-Zr1-C6=157.03              C17-Zr1-C7=124.47              C17-Zr1-C13= 33.84             
C17-Zr1-C14= 56.02             C17-Zr1-C15= 56.65             C17-Zr1-C16= 34.21             C25-Zr1-C2= 32.17              
C25-Zr1-C3=138.24              C25-Zr1-C4=109.45              C25-Zr1-C5= 82.15              C25-Zr1-C6= 89.67              
C25-Zr1-C7=122.58              C25-Zr1-C13=138.26             C25-Zr1-C14=122.59             C25-Zr1-C15= 89.68             
C25-Zr1-C16= 82.17             C25-Zr1-C17=109.47             H23-C2-Zr1=117.13              H24-C2-Zr1=117.11              
H24-C2-H23=106.54              C25-C2-Zr1= 99.31              C25-C2-H23=107.96              C25-C2-H24=107.96              
C4-C3-Zr1= 71.46               C7-C3-Zr1= 73.79               C7-C3-C4=108.15                H8-C3-Zr1=127.86               
H8-C3-C4=125.64                H8-C3-C7=125.55                C3-C4-Zr1= 74.70               C5-C4-Zr1= 73.17               
C5-C4-C3=107.71                H9-C4-Zr1=127.32               H9-C4-C3=125.85                H9-C4-C5=125.34                
C4-C5-Zr1= 72.62               C6-C5-Zr1= 73.45               C6-C5-C4=108.10                H10-C5-Zr1=127.16              
H10-C5-C4=125.43               H10-C5-C6=125.79               C5-C6-Zr1= 72.56               C7-C6-Zr1= 74.57               
C7-C6-C5=107.76                H11-C6-Zr1=128.30              H11-C6-C5=125.53               H11-C6-C7=125.54               
C3-C7-Zr1= 72.83               C6-C7-Zr1= 71.82               C6-C7-C3=108.25                H12-C7-Zr1=129.02              
H12-C7-C3=125.52               H12-C7-C6=125.46               

 selected dihedral angles (degree)
 ---------------------------------
H23-C2-Zr1-C3=  4.14          H23-C2-Zr1-C4=  1.65          H23-C2-Zr1-C5=329.74          H23-C2-Zr1-C6=304.71          
H23-C2-Zr1-C7=318.45          H23-C2-Zr1-C13=124.26         H23-C2-Zr1-C14=169.96         H23-C2-Zr1-C15=183.70         
H23-C2-Zr1-C16=158.67         H23-C2-Zr1-C17=126.76         H23-C2-Zr1-C25=244.21         H24-C2-Zr1-C3=235.71          
H24-C2-Zr1-C4=233.21          H24-C2-Zr1-C5=201.31          H24-C2-Zr1-C6=176.27          H24-C2-Zr1-C7=190.01          
H24-C2-Zr1-C13=355.82         H24-C2-Zr1-C14= 41.53         H24-C2-Zr1-C15= 55.26         H24-C2-Zr1-C16= 30.23         
H24-C2-Zr1-C17=358.32         H24-C2-Zr1-C25=115.78         C25-C2-Zr1-C3=119.93          C25-C2-Zr1-C4=117.44          
C25-C2-Zr1-C5= 85.53          C25-C2-Zr1-C6= 60.50          C25-C2-Zr1-C7= 74.24          C25-C2-Zr1-C13=240.05         
C25-C2-Zr1-C14=285.75         C25-C2-Zr1-C15=299.49         C25-C2-Zr1-C16=274.45         C25-C2-Zr1-C17=242.55         
C4-C3-Zr1-C2=355.55           C4-C3-Zr1-C5= 38.11           C4-C3-Zr1-C6= 79.38           C4-C3-Zr1-C7=116.08           
C4-C3-Zr1-C13=217.52          C4-C3-Zr1-C14=184.88          C4-C3-Zr1-C15=176.05          C4-C3-Zr1-C16=216.77          
C4-C3-Zr1-C17=238.70          C4-C3-Zr1-C25= 39.41          C7-C3-Zr1-C2=239.47           C7-C3-Zr1-C4=243.92           
C7-C3-Zr1-C5=282.03           C7-C3-Zr1-C6=323.30           C7-C3-Zr1-C13=101.44          C7-C3-Zr1-C14= 68.81          
C7-C3-Zr1-C15= 59.98          C7-C3-Zr1-C16=100.69          C7-C3-Zr1-C17=122.62          C7-C3-Zr1-C25=283.33          
H8-C3-Zr1-C2=116.73           H8-C3-Zr1-C4=121.18           H8-C3-Zr1-C5=159.30           H8-C3-Zr1-C6=200.56           
H8-C3-Zr1-C7=237.26           H8-C3-Zr1-C13=338.71          H8-C3-Zr1-C14=306.07          H8-C3-Zr1-C15=297.24          
H8-C3-Zr1-C16=337.95          H8-C3-Zr1-C17=359.88          H8-C3-Zr1-C25=160.59          C3-C4-Zr1-C2=176.56           
C3-C4-Zr1-C5=245.65           C3-C4-Zr1-C6=282.77           C3-C4-Zr1-C7=323.42           C3-C4-Zr1-C13= 40.13          
C3-C4-Zr1-C14=  5.93          C3-C4-Zr1-C15=351.53          C3-C4-Zr1-C16= 88.85          C3-C4-Zr1-C17= 75.11          
C3-C4-Zr1-C25=206.64          C5-C4-Zr1-C2=290.91           C5-C4-Zr1-C3=114.35           C5-C4-Zr1-C6= 37.11           
C5-C4-Zr1-C7= 77.76           C5-C4-Zr1-C13=154.48          C5-C4-Zr1-C14=120.27          C5-C4-Zr1-C15=105.88          
C5-C4-Zr1-C16=203.20          C5-C4-Zr1-C17=189.45          C5-C4-Zr1-C25=320.99          H9-C4-Zr1-C2= 52.86           
H9-C4-Zr1-C3=236.30           H9-C4-Zr1-C5=121.95           H9-C4-Zr1-C6=159.07           H9-C4-Zr1-C7=199.72           
H9-C4-Zr1-C13=276.43          H9-C4-Zr1-C14=242.22          H9-C4-Zr1-C15=227.83          H9-C4-Zr1-C16=325.15          
H9-C4-Zr1-C17=311.40          H9-C4-Zr1-C25= 82.94          Zr1-C4-C3-C7= 65.18           Zr1-C4-C3-H8=236.21           
C5-C4-C3-Zr1=293.74           C5-C4-C3-C7=358.92            C5-C4-C3-H8=169.95            H9-C4-C3-Zr1=125.29           
H9-C4-C3-C7=190.47            H9-C4-C3-H8=  1.50            C4-C5-Zr1-C2=110.78           C4-C5-Zr1-C3=322.32           
C4-C5-Zr1-C6=244.37           C4-C5-Zr1-C7=281.77           C4-C5-Zr1-C13=321.41          C4-C5-Zr1-C14=272.05          
C4-C5-Zr1-C15=221.16          C4-C5-Zr1-C16=145.54          C4-C5-Zr1-C17= 20.55          C4-C5-Zr1-C25=143.19          
C6-C5-Zr1-C2=226.42           C6-C5-Zr1-C3= 77.95           C6-C5-Zr1-C4=115.63           C6-C5-Zr1-C7= 37.40           
C6-C5-Zr1-C13= 77.04          C6-C5-Zr1-C14= 27.68          C6-C5-Zr1-C15=336.79          C6-C5-Zr1-C16=261.17          
C6-C5-Zr1-C17=136.18          C6-C5-Zr1-C25=258.82          H10-C5-Zr1-C2=349.12          H10-C5-Zr1-C3=200.65          
H10-C5-Zr1-C4=238.33          H10-C5-Zr1-C6=122.70          H10-C5-Zr1-C7=160.10          H10-C5-Zr1-C13=199.75         
H10-C5-Zr1-C14=150.38         H10-C5-Zr1-C15= 99.49         H10-C5-Zr1-C16= 23.87         H10-C5-Zr1-C17=258.88         
H10-C5-Zr1-C25= 21.52         Zr1-C5-C4-C3= 67.29           Zr1-C5-C4-H9=235.82           C6-C5-C4-Zr1=294.60           
C6-C5-C4-C3=  1.89            C6-C5-C4-H9=170.42            H10-C5-C4-Zr1=123.66          H10-C5-C4-C3=190.95           
H10-C5-C4-H9=359.47           C5-C6-Zr1-C2= 48.76           C5-C6-Zr1-C3=281.71           C5-C6-Zr1-C4=322.64           
C5-C6-Zr1-C7=245.27           C5-C6-Zr1-C13=229.18          C5-C6-Zr1-C14=199.87          C5-C6-Zr1-C15=165.89          
C5-C6-Zr1-C16=152.06          C5-C6-Zr1-C17=223.54          C5-C6-Zr1-C25= 76.37          C7-C6-Zr1-C2=163.49           
C7-C6-Zr1-C3= 36.44           C7-C6-Zr1-C4= 77.37           C7-C6-Zr1-C5=114.73           C7-C6-Zr1-C13=343.91          
C7-C6-Zr1-C14=314.60          C7-C6-Zr1-C15=280.62          C7-C6-Zr1-C16=266.79          C7-C6-Zr1-C17=338.27          
C7-C6-Zr1-C25=191.10          H11-C6-Zr1-C2=286.89          H11-C6-Zr1-C3=159.83          H11-C6-Zr1-C4=200.76          
H11-C6-Zr1-C5=238.12          H11-C6-Zr1-C7=123.39          H11-C6-Zr1-C13=107.30         H11-C6-Zr1-C14= 78.00         
H11-C6-Zr1-C15= 44.01         H11-C6-Zr1-C16= 30.19         H11-C6-Zr1-C17=101.66         H11-C6-Zr1-C25=314.50         
Zr1-C6-C5-C4= 64.86           Zr1-C6-C5-H10=235.76          C7-C6-C5-Zr1=293.17           C7-C6-C5-C4=358.03            
C7-C6-C5-H10=168.93           H11-C6-C5-Zr1=125.03          H11-C6-C5-C4=189.88           H11-C6-C5-H10=  0.78          
C3-C7-Zr1-C2= 92.28           C3-C7-Zr1-C4= 37.10           C3-C7-Zr1-C5= 78.68           C3-C7-Zr1-C6=116.52           
C3-C7-Zr1-C13=283.13          C3-C7-Zr1-C14=251.65          C3-C7-Zr1-C15=227.99          C3-C7-Zr1-C16=243.46          
C3-C7-Zr1-C17=286.43          C3-C7-Zr1-C25=129.73          C6-C7-Zr1-C2=335.76           C6-C7-Zr1-C3=243.48           
C6-C7-Zr1-C4=280.58           C6-C7-Zr1-C5=322.16           C6-C7-Zr1-C13=166.61          C6-C7-Zr1-C14=135.12          
C6-C7-Zr1-C15=111.47          C6-C7-Zr1-C16=126.94          C6-C7-Zr1-C17=169.91          C6-C7-Zr1-C25= 13.21          
H12-C7-Zr1-C2=214.44          H12-C7-Zr1-C3=122.16          H12-C7-Zr1-C4=159.26          H12-C7-Zr1-C5=200.84          
H12-C7-Zr1-C6=238.68          H12-C7-Zr1-C13= 45.29         H12-C7-Zr1-C14= 13.80         H12-C7-Zr1-C15=350.15         
H12-C7-Zr1-C16=  5.62         H12-C7-Zr1-C17= 48.59         H12-C7-Zr1-C25=251.89         Zr1-C7-C3-C4=296.34           
Zr1-C7-C3-H8=125.29           C6-C7-C3-Zr1= 63.52           C6-C7-C3-C4=359.87            C6-C7-C3-H8=188.82            
H12-C7-C3-Zr1=233.91          H12-C7-C3-C4=170.25           H12-C7-C3-H8=359.21           Zr1-C7-C6-C5= 65.49           
Zr1-C7-C6-H11=233.63          C3-C7-C6-Zr1=295.82           C3-C7-C6-C5=  1.30            C3-C7-C6-H11=169.45           
H12-C7-C6-Zr1=125.42          H12-C7-C6-C5=190.91           H12-C7-C6-H11=359.05          
           -------------------------------------------------
          |                Final Singlepoint                |
           -------------------------------------------------

          ...................................................
          :                      SETUP                      :
          :.................................................:
          :  # basis functions                  79          :
          :  # atomic orbitals                  78          :
          :  # shells                           46          :
          :  # electrons                        72          :
          :  max. iterations                   250          :
          :  Hamiltonian                  GFN2-xTB          :
          :  restarted?                      false          :
          :  GBSA solvation                  false          :
          :  PC potential                    false          :
          :  electronic temp.          300.0000000     K    :
          :  accuracy                    1.0000000          :
          :  -> integral cutoff          0.2500000E+02      :
          :  -> integral neglect         0.1000000E-07      :
          :  -> SCF convergence          0.1000000E-05 Eh   :
          :  -> wf. convergence          0.1000000E-03 e    :
          :  Broyden damping             0.4000000          :
          ...................................................

 iter      E             dE          RMSdq      gap      omega  full diag
   1    -38.3100723 -0.383101E+02  0.980E-05    1.79       0.0  T
   2    -38.3100723 -0.268798E-10  0.485E-05    1.79     370.0  T
   3    -38.3100723 -0.183107E-10  0.437E-05    1.79     411.0  T

   *** convergence criteria satisfied after 3 iterations ***

         #    Occupation            Energy/Eh            Energy/eV
      -------------------------------------------------------------
         1        2.0000           -0.8728077             -23.7503
       ...           ...                  ...                  ...
        30        2.0000           -0.5579234             -15.1819
        31        2.0000           -0.5509297             -14.9916
        32        2.0000           -0.5334893             -14.5170
        33        2.0000           -0.5286799             -14.3861
        34        2.0000           -0.5190312             -14.1236
        35        2.0000           -0.5137886             -13.9809
        36        2.0000           -0.4960522             -13.4983 (HOMO)
        37                         -0.4303157             -11.7095 (LUMO)
        38                         -0.4275214             -11.6334
        39                         -0.4156166             -11.3095
        40                         -0.4067104             -11.0672
        41                         -0.3812652             -10.3748
       ...                                ...                  ...
        78                          2.6090399              70.9956
      -------------------------------------------------------------
                  HL-Gap            0.0657364 Eh            1.7888 eV
             Fermi-level           -0.4631840 Eh          -12.6039 eV

 SCC (total)                   0 d,  0 h,  0 min,  0.438 sec
 SCC setup                      ...        0 min,  0.010 sec (  2.244%)
 Dispersion                     ...        0 min,  0.048 sec ( 10.979%)
 classical contributions        ...        0 min,  0.020 sec (  4.477%)
 integral evaluation            ...        0 min,  0.058 sec ( 13.269%)
 iterations                     ...        0 min,  0.297 sec ( 67.772%)
 molecular gradient             ...        0 min,  0.005 sec (  1.214%)
 printout                       ...        0 min,  0.000 sec (  0.038%)

         :::::::::::::::::::::::::::::::::::::::::::::::::::::
         ::                     SUMMARY                     ::
         :::::::::::::::::::::::::::::::::::::::::::::::::::::
         :: total energy             -37.686558623030 Eh    ::
         :: gradient norm              0.000592152072 Eh/a0 ::
         :: HOMO-LUMO gap              1.788779755892 eV    ::
         ::.................................................::
         :: SCC energy               -38.310072265401 Eh    ::
         :: -> isotropic ES            0.086683589724 Eh    ::
         :: -> anisotropic ES         -0.010869648212 Eh    ::
         :: -> anisotropic XC          0.015891574734 Eh    ::
         :: -> dispersion             -0.025839120010 Eh    ::
         :: repulsion energy           0.623013245604 Eh    ::
         :: add. restraining           0.000000000000 Eh    ::
         :: total charge               1.000000000000 e     ::
         :::::::::::::::::::::::::::::::::::::::::::::::::::::

           -------------------------------------------------
          |                Property Printout                |
           -------------------------------------------------

    * Orbital Energies and Occupations

         #    Occupation            Energy/Eh            Energy/eV
      -------------------------------------------------------------
         1        2.0000           -0.8728077             -23.7503
       ...           ...                  ...                  ...
        24        2.0000           -0.5986700             -16.2906
        25        2.0000           -0.5975176             -16.2593
        26        2.0000           -0.5967252             -16.2377
        27        2.0000           -0.5954401             -16.2028
        28        2.0000           -0.5949672             -16.1899
        29        2.0000           -0.5741319             -15.6229
        30        2.0000           -0.5579234             -15.1819
        31        2.0000           -0.5509297             -14.9916
        32        2.0000           -0.5334893             -14.5170
        33        2.0000           -0.5286799             -14.3861
        34        2.0000           -0.5190312             -14.1236
        35        2.0000           -0.5137886             -13.9809
        36        2.0000           -0.4960522             -13.4983 (HOMO)
        37                         -0.4303157             -11.7095 (LUMO)
        38                         -0.4275214             -11.6334
        39                         -0.4156166             -11.3095
        40                         -0.4067104             -11.0672
        41                         -0.3812652             -10.3748
        42                         -0.3170197              -8.6265
        43                         -0.3164967              -8.6123
        44                         -0.3129587              -8.5160
        45                         -0.3088612              -8.4045
        46                         -0.0536342              -1.4595
        47                         -0.0306924              -0.8352
       ...                                ...                  ...
        78                          2.6090399              70.9956
      -------------------------------------------------------------
                  HL-Gap            0.0657364 Eh            1.7888 eV
             Fermi-level           -0.4631840 Eh          -12.6039 eV

     #   Z          covCN         q      C6AA      α(0)
     1  40 Zr       8.805     0.950   138.849    17.706
     2   6 C        3.626    -0.278    26.723     7.447
     3   6 C        3.753    -0.082    22.131     6.708
     4   6 C        3.765    -0.087    22.199     6.715
     5   6 C        3.768    -0.081    22.090     6.698
     6   6 C        3.758    -0.090    22.266     6.727
     7   6 C        3.750    -0.081    22.114     6.707
     8   1 H        0.925     0.088     1.901     2.156
     9   1 H        0.925     0.088     1.902     2.156
    10   1 H        0.925     0.099     1.790     2.092
    11   1 H        0.925     0.081     1.965     2.192
    12   1 H        0.925     0.089     1.890     2.150
    13   6 C        3.753    -0.082    22.132     6.708
    14   6 C        3.750    -0.081    22.114     6.707
    15   6 C        3.758    -0.090    22.267     6.728
    16   6 C        3.768    -0.081    22.090     6.698
    17   6 C        3.765    -0.087    22.198     6.715
    18   1 H        0.925     0.088     1.901     2.156
    19   1 H        0.925     0.089     1.890     2.150
    20   1 H        0.925     0.081     1.965     2.192
    21   1 H        0.925     0.099     1.790     2.092
    22   1 H        0.925     0.088     1.902     2.157
    23   1 H        0.926     0.079     1.989     2.206
    24   1 H        0.926     0.079     1.989     2.206
    25   6 C        4.173    -0.059    21.554     6.594
    26   1 H        0.923     0.063     2.165     2.301
    27   1 H        0.923     0.063     2.165     2.301
    28   6 C        3.750    -0.114    22.737     6.800
    29   1 H        0.925     0.059     2.212     2.326
    30   1 H        0.925     0.053     2.284     2.364
    31   1 H        0.925     0.059     2.212     2.326

 Mol. C6AA /au·bohr⁶  :       9470.722789
 Mol. C8AA /au·bohr⁸  :     320623.964038
 Mol. α(0) /au        :        143.182594


Wiberg/Mayer (AO) data.
largest (>0.10) Wiberg bond orders for each atom

 ---------------------------------------------------------------------------
     #   Z sym  total        # sym  WBO       # sym  WBO       # sym  WBO
 ---------------------------------------------------------------------------
     1  40 Zr   4.252 --     2 C    0.871    17 C    0.281     4 C    0.281
                             5 C    0.264    16 C    0.264    15 C    0.262
                             6 C    0.262    13 C    0.234     3 C    0.234
                             7 C    0.233    14 C    0.233    25 C    0.146
     2   6 C    3.848 --    25 C    0.982    23 H    0.907    24 H    0.907
                             1 Zr   0.871
     3   6 C    3.981 --     7 C    1.316     4 C    1.296     8 H    0.921
                             1 Zr   0.234
     4   6 C    3.980 --     3 C    1.296     5 C    1.277     9 H    0.916
                             1 Zr   0.281
     5   6 C    3.980 --     6 C    1.292     4 C    1.277    10 H    0.921
                             1 Zr   0.264
     6   6 C    3.979 --     7 C    1.299     5 C    1.292    11 H    0.917
                             1 Zr   0.262
     7   6 C    3.981 --     3 C    1.316     6 C    1.299    12 H    0.923
                             1 Zr   0.233
     8   1 H    0.990 --     3 C    0.921
     9   1 H    0.990 --     4 C    0.916
    10   1 H    0.987 --     5 C    0.921
    11   1 H    0.992 --     6 C    0.917
    12   1 H    0.991 --     7 C    0.923
    13   6 C    3.981 --    14 C    1.316    17 C    1.296    18 H    0.921
                             1 Zr   0.234
    14   6 C    3.981 --    13 C    1.316    15 C    1.299    19 H    0.923
                             1 Zr   0.233
    15   6 C    3.979 --    14 C    1.299    16 C    1.292    20 H    0.917
                             1 Zr   0.262
    16   6 C    3.980 --    15 C    1.292    17 C    1.277    21 H    0.921
                             1 Zr   0.264
    17   6 C    3.980 --    13 C    1.296    16 C    1.277    22 H    0.916
                             1 Zr   0.281
    18   1 H    0.990 --    13 C    0.921
    19   1 H    0.991 --    14 C    0.923
    20   1 H    0.992 --    15 C    0.917
    21   1 H    0.987 --    16 C    0.921
    22   1 H    0.990 --    17 C    0.916
    23   1 H    0.993 --     2 C    0.907
    24   1 H    0.993 --     2 C    0.907
    25   6 C    3.991 --    28 C    0.999     2 C    0.982    26 H    0.908
                            27 H    0.908     1 Zr   0.146
    26   1 H    0.995 --    25 C    0.908
    27   1 H    0.995 --    25 C    0.908
    28   6 C    3.988 --    25 C    0.999    30 H    0.983    31 H    0.982
                            29 H    0.982
    29   1 H    0.996 --    28 C    0.982
    30   1 H    0.997 --    28 C    0.983
    31   1 H    0.996 --    28 C    0.982
 ---------------------------------------------------------------------------

Topologies differ in total number of bonds
Writing topology from bond orders to xtbtopo.mol

molecular dipole:
                 x           y           z       tot (Debye)
 q only:       -1.513       0.377       0.075
   full:       -1.565       0.274       0.254       4.089
molecular quadrupole (traceless):
                xx          xy          yy          xz          yz          zz
 q only:        1.256      -1.947      -3.082       1.719      -4.389       1.825
  q+dip:        3.920      -1.608      -6.405       1.076      -7.615       2.485
   full:        7.025      -2.090      -6.794       1.911      -5.600      -0.232

           -------------------------------------------------
          |                Geometry Summary                 |
           -------------------------------------------------

      molecular mass/u    :      264.4982010
   center of mass at/Å    :       -0.8069849       0.1527693       0.1206599
  moments of inertia/u·Å² :        0.6600487E+03   0.7772266E+03   0.1163675E+04
rotational constants/cm⁻¹ :        0.2553998E-01   0.2168947E-01   0.1448654E-01

 * 40 selected distances

     #   Z          #   Z                                           value/Å
     1  40 Zr       2   6 C                                       2.1807813
     1  40 Zr       3   6 C                                       2.4584475
     1  40 Zr       4   6 C                                       2.4165451
     3   6 C        4   6 C                                       1.4193389
     1  40 Zr       5   6 C                                       2.4235913
     4   6 C        5   6 C                                       1.4236297
     1  40 Zr       6   6 C                                       2.4351586
     5   6 C        6   6 C                                       1.4202660
     1  40 Zr       7   6 C                                       2.4707718
     3   6 C        7   6 C                                       1.4157541
     6   6 C        7   6 C                                       1.4189760
     3   6 C        8   1 H                                       1.0850434
     4   6 C        9   1 H                                       1.0859227
     5   6 C       10   1 H                                       1.0836668
     6   6 C       11   1 H                                       1.0864181
     7   6 C       12   1 H                                       1.0843217
     1  40 Zr      13   6 C                                       2.4583675
     1  40 Zr      14   6 C                                       2.4707854 (max)
    13   6 C       14   6 C                                       1.4157694
     1  40 Zr      15   6 C                                       2.4352367
    14   6 C       15   6 C                                       1.4189846
     1  40 Zr      16   6 C                                       2.4237506
    15   6 C       16   6 C                                       1.4203690
     1  40 Zr      17   6 C                                       2.4162957
    13   6 C       17   6 C                                       1.4193423
    16   6 C       17   6 C                                       1.4234647
    13   6 C       18   1 H                                       1.0848872
    14   6 C       19   1 H                                       1.0843100
    15   6 C       20   1 H                                       1.0863941
    16   6 C       21   1 H                                       1.0836664 (min)
    17   6 C       22   1 H                                       1.0863478
     2   6 C       23   1 H                                       1.1041626
     2   6 C       24   1 H                                       1.1041580
     2   6 C       25   6 C                                       1.5500215
    25   6 C       26   1 H                                       1.1079805
    25   6 C       27   1 H                                       1.1080172
    25   6 C       28   6 C                                       1.5367742
    28   6 C       29   1 H                                       1.0875711
    28   6 C       30   1 H                                       1.0868588
    28   6 C       31   1 H                                       1.0875713

 * 3 distinct bonds (by element types)

   Z      Z             #   av. dist./Å        max./Å        min./Å
   1 H    6 C          17     1.0904293     1.1080172     1.0836664
   6 C    6 C          12     1.4402242     1.5500215     1.4157541
   6 C   40 Zr         11     2.4172483     2.4707854     2.1807813


optimized geometry written to: xtbopt.xyz


           -------------------------------------------------
          | TOTAL ENERGY              -37.686558623030 Eh   |
          | GRADIENT NORM               0.000592152072 Eh/α |
          | HOMO-LUMO GAP               1.788779755892 eV   |
           -------------------------------------------------

------------------------------------------------------------------------
 * finished run on 2026/08/03 at 11:35:29.136     
------------------------------------------------------------------------
 total:
 * wall-time:     0 d,  0 h,  0 min, 25.719 sec
 *  cpu-time:     0 d,  0 h,  1 min,  1.425 sec
 * ratio c/w:     2.388 speedup
 SCF:
 * wall-time:     0 d,  0 h,  0 min,  1.184 sec
 *  cpu-time:     0 d,  0 h,  0 min,  3.486 sec
 * ratio c/w:     2.943 speedup
 ANC optimizer:
 * wall-time:     0 d,  0 h,  0 min, 24.392 sec
 *  cpu-time:     0 d,  0 h,  0 min, 57.632 sec
 * ratio c/w:     2.363 speedup

