31
 energy: -37.686558623030 gnorm: 0.000592152072 xtb: 6.5.1 (b24c23e)
Zr          -0.66576453047891        0.10196441415399        0.20862419242446
C           -0.15731971305088        1.16250563980235       -1.62782413839013
C           -0.11604695559526       -2.19061229999866        0.90566488082229
C            0.35209162707228       -1.99759402606669       -0.42027352158298
C           -0.78440985302612       -1.82262176451308       -1.25960085908365
C           -1.94611450740896       -1.86407757062477       -0.44358692267270
C           -1.52943747343833       -2.11029739110225        0.89029783075932
H            0.48887044796962       -2.50277254500190        1.75062047409984
H            1.36897716147439       -2.15888928778866       -0.76546281252552
H           -0.77086066633146       -1.82119284919151       -2.34318187237399
H           -2.96975482403788       -1.91176896871309       -0.80440542719283
H           -2.18375436288734       -2.36240678283903        1.71737918145193
C           -0.11609151758470        0.64365187600081        2.54272009470992
C           -1.52950139339833        0.61691207746409        2.46551742465412
C           -1.94622893283583        1.64932004353473        1.58575098175997
C           -0.78440004305270        2.33553949175774        1.14223762586442
C            0.35193325776021        1.69571120514618        1.71286700703642
H            0.48871941961255        0.06743294259362        3.23493068414710
H           -2.18380125171254        0.02644326986380        3.09715515477467
H           -2.96984750478347        1.98572696888227        1.44687188596735
H           -0.77082767049266        3.27338772413443        0.59947697383880
H            1.36921617274129        2.07549132240201        1.68040453885784
H            0.37587556095992        0.59127677204818       -2.40793642264035
H            0.37549934471844        2.12386072206949       -1.52263444344126
C           -1.58634053957904        1.46258546062914       -2.14784111597169
H           -2.14579512676212        0.52201059412601       -2.32090195802136
H           -2.14667090699454        2.08111407786725       -1.41903793222415
C           -1.55445437147478        2.23189838389707       -3.47780934566741
H           -1.03442692253567        1.65194272249123       -4.23677810420005
H           -2.56118552746583        2.43634745267260       -3.83271030250279
H           -1.03568057737661        3.17960370430407       -3.35315216267875
