31
 energy: -37.660887313003 gnorm: 0.000558240341 xtb: 6.5.1 (b24c23e)
Zr          -1.32159052482687       -0.09861768263042        0.49426784472242
C           -3.43789075346380        0.30341964024348        0.01171837101214
C           -0.69081986454015       -2.31408878120555        1.45614662686534
C            0.28308328736555       -2.02845845845544        0.47183337067480
C           -0.36071836556435       -2.00397610470811       -0.78774766523720
C           -1.73998137080121       -2.25755944139140       -0.58093334325114
C           -1.94468238353796       -2.44003148381663        0.81414539259409
H           -0.48943907300829       -2.54335462282467        2.49559553335050
H            1.35579302107502       -2.01856916352933        0.62715989027201
H            0.14492010887275       -2.01688414836120       -1.74589421140321
H           -2.47239070464959       -2.45847571576548       -1.35375583780554
H           -2.86236941730889       -2.78681673613384        1.27721575894888
C            0.35713518334306        0.58277149874187        2.20760467270538
C           -0.87437162763203        0.42197582411756        2.88608787566773
C           -1.77447570238233        1.39796948146531        2.39768577067150
C           -1.09876221062702        2.16173365698000        1.41164292050407
C            0.21858915696565        1.64618755333483        1.28555677627503
H            1.28625882700967        0.08682521171607        2.46258485059254
H           -1.05036741733972       -0.21829723095638        3.74288908723176
H           -2.74669828231773        1.62864012320789        2.81755764720014
H           -1.47046149776908        3.08486608265874        0.98459421015808
H            1.03431497527384        2.10777204114420        0.73837793983468
C           -0.65114212184482        0.77564764867833       -2.01075768877258
C           -1.17194831309307        1.96287829515260       -1.69614186705717
H           -2.21182661948462        2.19483553352025       -1.89996451208391
H           -0.55130596500268        2.78389617004438       -1.35716190110179
H           -1.25102188421145        0.03941132255893       -2.54448272479548
H            0.42704827075996        0.61315328914208       -1.97009416976277
H           -4.08894241021853       -0.23591677249000        0.72233064437155
H           -3.72473618726295        1.36393070190748        0.08082892745945
H           -3.73309936378725       -0.03615561233041       -0.99384606984012
