      -----------------------------------------------------------      
     |                   =====================                   |     
     |                           x T B                           |     
     |                   =====================                   |     
     |                         S. Grimme                         |     
     |          Mulliken Center for Theoretical Chemistry        |     
     |                    University of Bonn                     |     
      -----------------------------------------------------------      

   * xtb version 6.5.1 (b24c23e) compiled by 'conda@728c89f4b128' on 2022-07-12

   xtb is free software: you can redistribute it and/or modify it under
   the terms of the GNU Lesser General Public License as published by
   the Free Software Foundation, either version 3 of the License, or
   (at your option) any later version.
   
   xtb is distributed in the hope that it will be useful,
   but WITHOUT ANY WARRANTY; without even the implied warranty of
   MERCHANTABILITY or FITNESS FOR A PARTICULAR PURPOSE.  See the
   GNU Lesser General Public License for more details.
   
   Cite this work as:
   * C. Bannwarth, E. Caldeweyher, S. Ehlert, A. Hansen, P. Pracht,
     J. Seibert, S. Spicher, S. Grimme, WIREs Comput. Mol. Sci., 2020, 11,
     e01493. DOI: 10.1002/wcms.1493
   
   for GFN2-xTB:
   * C. Bannwarth, S. Ehlert and S. Grimme., J. Chem. Theory Comput., 2019,
     15, 1652-1671. DOI: 10.1021/acs.jctc.8b01176
   for GFN1-xTB:
   * S. Grimme, C. Bannwarth, P. Shushkov, J. Chem. Theory Comput., 2017,
     13, 1989-2009. DOI: 10.1021/acs.jctc.7b00118
   for GFN0-xTB:
   * P. Pracht, E. Caldeweyher, S. Ehlert, S. Grimme, ChemRxiv, 2019, preprint.
     DOI: 10.26434/chemrxiv.8326202.v1
   for GFN-FF:
   * S. Spicher and S. Grimme, Angew. Chem. Int. Ed., 2020, 59, 15665-15673.
     DOI: 10.1002/anie.202004239
   
   for ALPB and GBSA implicit solvation:
   * S. Ehlert, M. Stahn, S. Spicher, S. Grimme, J. Chem. Theory Comput.,
     2021, 17, 4250-4261. DOI: 10.1021/acs.jctc.1c00471
   
   for DFT-D4:
   * E. Caldeweyher, C. Bannwarth and S. Grimme, J. Chem. Phys., 2017,
     147, 034112. DOI: 10.1063/1.4993215
   * E. Caldeweyher, S. Ehlert, A. Hansen, H. Neugebauer, S. Spicher,
     C. Bannwarth and S. Grimme, J. Chem. Phys., 2019, 150, 154122.
     DOI: 10.1063/1.5090222
   * E. Caldeweyher, J.-M. Mewes, S. Ehlert and S. Grimme, Phys. Chem. Chem. Phys.
     2020, 22, 8499-8512. DOI: 10.1039/D0CP00502A
   
   for sTDA-xTB:
   * S. Grimme and C. Bannwarth, J. Chem. Phys., 2016, 145, 054103.
     DOI: 10.1063/1.4959605
   
   in the mass-spec context:
   * V. Asgeirsson, C. Bauer and S. Grimme, Chem. Sci., 2017, 8, 4879.
     DOI: 10.1039/c7sc00601b
   * J. Koopman and S. Grimme, ACS Omega 2019, 4, 12, 15120-15133.
     DOI: 10.1021/acsomega.9b02011
   
   for metadynamics refer to:
   * S. Grimme, J. Chem. Theory Comput., 2019, 155, 2847-2862
     DOI: 10.1021/acs.jctc.9b00143
   
   for SPH calculations refer to:
   * S. Spicher and S. Grimme, J. Chem. Theory Comput., 2021, 17, 1701-1714
     DOI: 10.1021/acs.jctc.0c01306
   
   with help from (in alphabetical order)
   P. Atkinson, C. Bannwarth, F. Bohle, G. Brandenburg, E. Caldeweyher
   M. Checinski, S. Dohm, S. Ehlert, S. Ehrlich, I. Gerasimov, C. Hölzer
   A. Katbashev, J. Koopman, C. Lavigne, S. Lehtola, F. März, M. Müller,
   F. Musil, H. Neugebauer, J. Pisarek, C. Plett, P. Pracht, F. Pultar,
   J. Seibert, P. Shushkov, S. Spicher, M. Stahn, M. Steiner, T. Strunk,
   J. Stückrath, T. Rose, and J. Unsleber
   
 * started run on 2026/08/03 at 11:36:17.395     

           -------------------------------------------------
          |                Calculation Setup                |
           -------------------------------------------------

          program call               : /h/332/chchoi/miniconda3/envs/el-agente/bin/xtb reactant.xyz --opt --gfn 2 -P 4 --chrg 1 --input detailed_input.inp
          coordinate file            : reactant.xyz
          omp threads                :                     4

   ID    Z sym.   atoms
    1   40 Zr     1
    2    6 C      2-7, 13-17, 23, 24
    3    1 H      8-12, 18-22, 25-31
constraining bond 2 24 to    2.1000000 Å, actual value:    3.2871092 Å

molecular fragmentation (1/2 indicates fragments):
1111111111111111111111222222111
# atoms in fragment 1/2:    25     6
 fragment masses (1/2) :      236.44       28.05
CMA distance (Bohr)    :   6.000
constraining FC (au)   :  0.8000

           -------------------------------------------------
          |                 G F N 2 - x T B                 |
           -------------------------------------------------

        Reference                      10.1021/acs.jctc.8b01176
      * Hamiltonian:
        H0-scaling (s, p, d)           1.850000    2.230000    2.230000
        zeta-weighting                 0.500000
      * Dispersion:
        s8                             2.700000
        a1                             0.520000
        a2                             5.000000
        s9                             5.000000
      * Repulsion:
        kExp                           1.500000    1.000000
        rExp                           1.000000
      * Coulomb:
        alpha                          2.000000
        third order                    shell-resolved
        anisotropic                    true
        a3                             3.000000
        a5                             4.000000
        cn-shift                       1.200000
        cn-exp                         4.000000
        max-rad                        5.000000


          ...................................................
          :                      SETUP                      :
          :.................................................:
          :  # basis functions                  79          :
          :  # atomic orbitals                  78          :
          :  # shells                           46          :
          :  # electrons                        72          :
          :  max. iterations                   250          :
          :  Hamiltonian                  GFN2-xTB          :
          :  restarted?                      false          :
          :  GBSA solvation                  false          :
          :  PC potential                    false          :
          :  electronic temp.          300.0000000     K    :
          :  accuracy                    1.0000000          :
          :  -> integral cutoff          0.2500000E+02      :
          :  -> integral neglect         0.1000000E-07      :
          :  -> SCF convergence          0.1000000E-05 Eh   :
          :  -> wf. convergence          0.1000000E-03 e    :
          :  Broyden damping             0.4000000          :
          ...................................................

 iter      E             dE          RMSdq      gap      omega  full diag
   1    -38.1880329 -0.381880E+02  0.421E+00    1.17       0.0  T
   2    -38.2930732 -0.105040E+00  0.323E+00    2.21       1.0  T
   3    -38.3121006 -0.190275E-01  0.221E+00    1.80       1.0  T
   4    -38.3083696  0.373102E-02  0.560E-01    1.94       1.0  T
   5    -38.3109865 -0.261689E-02  0.406E-01    1.80       1.0  T
   6    -38.3132677 -0.228122E-02  0.187E-01    1.83       1.0  T
   7    -38.3132874 -0.196650E-04  0.127E-01    1.85       1.0  T
   8    -38.3132984 -0.110409E-04  0.330E-02    1.86       1.0  T
   9    -38.3133047 -0.627177E-05  0.170E-02    1.87       1.1  T
  10    -38.3133050 -0.265705E-06  0.108E-02    1.87       1.7  T
  11    -38.3133054 -0.465349E-06  0.321E-03    1.87       5.6  T
  12    -38.3133055 -0.340377E-07  0.121E-03    1.87      14.8  T
  13    -38.3133055 -0.683012E-08  0.515E-04    1.87      34.9  T
  14    -38.3133055 -0.241759E-08  0.240E-04    1.87      74.7  T

   *** convergence criteria satisfied after 14 iterations ***

         #    Occupation            Energy/Eh            Energy/eV
      -------------------------------------------------------------
         1        2.0000           -0.8631194             -23.4867
       ...           ...                  ...                  ...
        30        2.0000           -0.5762382             -15.6802
        31        2.0000           -0.5750877             -15.6489
        32        2.0000           -0.5221976             -14.2097
        33        2.0000           -0.5173226             -14.0771
        34        2.0000           -0.5077734             -13.8172
        35        2.0000           -0.5017556             -13.6535
        36        2.0000           -0.4953956             -13.4804 (HOMO)
        37                         -0.4266953             -11.6110 (LUMO)
        38                         -0.4171054             -11.3500
        39                         -0.4100934             -11.1592
        40                         -0.4043207             -11.0021
        41                         -0.3937553             -10.7146
       ...                                ...                  ...
        78                          2.4647126              67.0682
      -------------------------------------------------------------
                  HL-Gap            0.0687004 Eh            1.8694 eV
             Fermi-level           -0.4610455 Eh          -12.5457 eV

 SCC (total)                   0 d,  0 h,  0 min,  0.660 sec
 SCC setup                      ...        0 min,  0.008 sec (  1.161%)
 Dispersion                     ...        0 min,  0.021 sec (  3.105%)
 classical contributions        ...        0 min,  0.009 sec (  1.361%)
 integral evaluation            ...        0 min,  0.024 sec (  3.566%)
 iterations                     ...        0 min,  0.493 sec ( 74.643%)
 molecular gradient             ...        0 min,  0.106 sec ( 16.118%)
 printout                       ...        0 min,  0.000 sec (  0.038%)

         :::::::::::::::::::::::::::::::::::::::::::::::::::::
         ::                     SUMMARY                     ::
         :::::::::::::::::::::::::::::::::::::::::::::::::::::
         :: total energy             -33.634931832363 Eh    ::
         :: gradient norm              5.076146333112 Eh/a0 ::
         :: HOMO-LUMO gap              1.869432334161 eV    ::
         ::.................................................::
         :: SCC energy               -38.313305461536 Eh    ::
         :: -> isotropic ES            0.090971176204 Eh    ::
         :: -> anisotropic ES         -0.013172567091 Eh    ::
         :: -> anisotropic XC          0.022500747760 Eh    ::
         :: -> dispersion             -0.027960227609 Eh    ::
         :: repulsion energy           0.651688266171 Eh    ::
         :: add. restraining           4.025955480593 Eh    ::
         :: total charge               1.000000000000 e     ::
         :::::::::::::::::::::::::::::::::::::::::::::::::::::

      ----------------------------------------------------------- 
     |                   =====================                   |
     |                        A N C O P T                        |
     |                   =====================                   |
     |               Approximate Normal Coordinate               |
     |                Rational Function Optimizer                |
      ----------------------------------------------------------- 

          ...................................................
          :                      SETUP                      :
          :.................................................:
          :   optimization level            normal          :
          :   max. optcycles                   200          :
          :   ANC micro-cycles                  20          :
          :   degrees of freedom                87          :
          :.................................................:
          :   RF solver                   davidson          :
          :   write xtbopt.log                true          :
          :   linear?                        false          :
          :   energy convergence         0.5000000E-05 Eh   :
          :   grad. convergence          0.1000000E-02 Eh/α :
          :   maximium RF displ.         1.0000000          :
          :   Hlow (freq-cutoff)         0.1000000E-01      :
          :   Hmax (freq-cutoff)         5.0000000          :
          :   S6 in model hess.         20.0000000          :
          ...................................................

generating ANC from model Hessian ...
Using Lindh-Hessian (1995)
 Shifting diagonal of input Hessian by    9.8178008072904860E-003
 Lowest  eigenvalues of input Hessian
    0.000000    0.000000    0.000000    0.000000    0.000000    0.000000
    0.010000    0.010281    0.010392    0.010848    0.011285    0.011491
    0.011711    0.012168    0.012605    0.017089    0.017367    0.017515
 Highest eigenvalues
    1.734672    1.740969    1.742616    1.887775    2.392816    3.775659


........................................................................
.............................. CYCLE    1 ..............................
........................................................................
   1    -38.3133055 -0.383133E+02  0.115E-04    1.87       0.0  T
   2    -38.3133055 -0.599343E-10  0.884E-05    1.87     203.3  T
   3    -38.3133055 -0.573763E-10  0.557E-05    1.87     322.4  T
     SCC iter.                  ...        0 min,  0.084 sec
     gradient                   ...        0 min,  0.006 sec
 * total energy  :   -33.6349318 Eh     change       -0.9529089E-10 Eh
   gradient norm :     5.0761466 Eh/α   predicted     0.0000000E+00 (-100.00%)
   displ. norm   :     0.7099095 α      lambda       -0.3528258E+01
   maximum displ.:     0.6776048 α      in ANC's #87, #66, #85, ...

........................................................................
.............................. CYCLE    2 ..............................
........................................................................
   1    -38.2567408 -0.382567E+02  0.965E-01    2.00       0.0  T
   2    -38.2569839 -0.243139E-03  0.685E-01    1.96       1.0  T
   3    -38.2556839  0.130006E-02  0.352E-01    2.00       1.0  T
   4    -38.2567330 -0.104912E-02  0.181E-01    1.98       1.0  T
   5    -38.2571868 -0.453843E-03  0.886E-02    1.97       1.0  T
   6    -38.2572087 -0.218258E-04  0.264E-02    1.98       1.0  T
   7    -38.2572163 -0.762633E-05  0.139E-02    1.97       1.3  T
   8    -38.2572164 -0.124434E-06  0.782E-03    1.97       2.3  T
   9    -38.2572165 -0.866659E-07  0.315E-03    1.97       5.7  T
  10    -38.2572166 -0.699622E-07  0.166E-03    1.97      10.8  T
  11    -38.2572166 -0.106941E-07  0.576E-04    1.97      31.2  T
  12    -38.2572166 -0.189187E-08  0.278E-04    1.97      64.6  T
     SCC iter.                  ...        0 min,  0.302 sec
     gradient                   ...        0 min,  0.007 sec
 * total energy  :   -36.3675809 Eh     change       -0.2732649E+01 Eh
   gradient norm :     2.6841939 Eh/α   predicted    -0.2691600E+01 (  -1.50%)
   displ. norm   :     0.5624683 α      lambda       -0.1490630E+01
   maximum displ.:     0.5238646 α      in ANC's #87, #66, #85, ...

........................................................................
.............................. CYCLE    3 ..............................
........................................................................
   1    -38.1618108 -0.381618E+02  0.811E-01    1.70       0.0  T
   2    -38.1624441 -0.633245E-03  0.782E-01    1.81       1.0  T
   3    -38.1656380 -0.319391E-02  0.478E-01    1.80       1.0  T
   4    -38.1632563  0.238169E-02  0.353E-01    1.81       1.0  T
   5    -38.1657744 -0.251814E-02  0.112E-01    1.80       1.0  T
   6    -38.1657854 -0.109321E-04  0.562E-02    1.81       1.0  T
   7    -38.1657912 -0.580564E-05  0.205E-02    1.80       1.0  T
   8    -38.1657928 -0.158450E-05  0.864E-03    1.80       2.1  T
   9    -38.1657931 -0.364129E-06  0.373E-03    1.80       4.8  T
  10    -38.1657931  0.721852E-08  0.167E-03    1.80      10.7  T
  11    -38.1657931 -0.176631E-07  0.113E-03    1.80      15.9  T
  12    -38.1657931 -0.443099E-08  0.413E-04    1.80      43.5  T
  13    -38.1657931 -0.255064E-09  0.172E-04    1.80     104.7  T
     SCC iter.                  ...        0 min,  0.382 sec
     gradient                   ...        0 min,  0.014 sec
 * total energy  :   -37.3611124 Eh     change       -0.9935315E+00 Eh
   gradient norm :     0.8913579 Eh/α   predicted    -0.9811109E+00 (  -1.25%)
   displ. norm   :     0.4212047 α      lambda       -0.2651841E+00
   maximum displ.:     0.2311005 α      in ANC's #87, #24, #20, ...

........................................................................
.............................. CYCLE    4 ..............................
........................................................................
   1    -38.1404801 -0.381405E+02  0.580E-01    1.87       0.0  T
   2    -38.1381664  0.231369E-02  0.652E-01    2.00       1.0  T
   3    -38.1461124 -0.794604E-02  0.262E-01    1.96       1.0  T
   4    -38.1457898  0.322632E-03  0.151E-01    1.96       1.0  T
   5    -38.1461669 -0.377108E-03  0.208E-02    1.96       1.0  T
   6    -38.1461685 -0.164615E-05  0.191E-02    1.96       1.0  T
   7    -38.1461697 -0.113031E-05  0.111E-02    1.96       1.6  T
   8    -38.1461706 -0.876574E-06  0.393E-03    1.96       4.6  T
   9    -38.1461707 -0.108923E-06  0.153E-03    1.96      11.7  T
  10    -38.1461707 -0.261974E-08  0.632E-04    1.96      28.4  T
  11    -38.1461707 -0.113751E-08  0.399E-04    1.96      45.0  T
     SCC iter.                  ...        0 min,  0.347 sec
     gradient                   ...        0 min,  0.024 sec
 * total energy  :   -37.5180445 Eh     change       -0.1569321E+00 Eh
   gradient norm :     0.1292418 Eh/α   predicted    -0.1561157E+00 (  -0.52%)
   displ. norm   :     0.6945178 α      lambda       -0.5929646E-01
   maximum displ.:     0.3689624 α      in ANC's #20, #24, #28, ...

........................................................................
.............................. CYCLE    5 ..............................
........................................................................
   1    -38.1974960 -0.381975E+02  0.585E-01    2.07       0.0  T
   2    -38.1973561  0.139914E-03  0.422E-01    2.09       1.0  T
   3    -38.1973010  0.550536E-04  0.280E-01    2.08       1.0  T
   4    -38.1984516 -0.115059E-02  0.466E-02    2.08       1.0  T
   5    -38.1984691 -0.174835E-04  0.298E-02    2.08       1.0  T
   6    -38.1984693 -0.218859E-06  0.134E-02    2.08       1.3  T
   7    -38.1984703 -0.935443E-06  0.528E-03    2.08       3.4  T
   8    -38.1984705 -0.237470E-06  0.335E-03    2.08       5.4  T
   9    -38.1984705  0.627739E-08  0.251E-03    2.08       7.2  T
  10    -38.1984705 -0.212020E-07  0.807E-04    2.08      22.2  T
  11    -38.1984705 -0.245298E-08  0.324E-04    2.08      55.4  T
     SCC iter.                  ...        0 min,  0.369 sec
     gradient                   ...        0 min,  0.008 sec
 * total energy  :   -37.5627859 Eh     change       -0.4474137E-01 Eh
   gradient norm :     0.1086891 Eh/α   predicted    -0.4394925E-01 (  -1.77%)
   displ. norm   :     0.6204764 α      lambda       -0.4294867E-01
   maximum displ.:     0.2778062 α      in ANC's #24, #28, #20, ...

........................................................................
.............................. CYCLE    6 ..............................
........................................................................
   1    -38.2169386 -0.382169E+02  0.704E-01    2.01       0.0  T
   2    -38.2171219 -0.183362E-03  0.526E-01    1.99       1.0  T
   3    -38.2176994 -0.577524E-03  0.306E-01    2.03       1.0  T
   4    -38.2188145 -0.111510E-02  0.800E-02    2.01       1.0  T
   5    -38.2189201 -0.105518E-03  0.351E-02    2.02       1.0  T
   6    -38.2189204 -0.327498E-06  0.178E-02    2.01       1.0  T
   7    -38.2189213 -0.904764E-06  0.841E-03    2.02       2.1  T
   8    -38.2189215 -0.206448E-06  0.406E-03    2.02       4.4  T
   9    -38.2189215 -0.472092E-07  0.279E-03    2.02       6.4  T
  10    -38.2189216 -0.157357E-07  0.178E-03    2.02      10.1  T
  11    -38.2189216 -0.822541E-08  0.671E-04    2.02      26.8  T
  12    -38.2189216 -0.106063E-08  0.166E-04    2.02     108.0  T
     SCC iter.                  ...        0 min,  0.430 sec
     gradient                   ...        0 min,  0.105 sec
 * total energy  :   -37.5924165 Eh     change       -0.2963064E-01 Eh
   gradient norm :     0.1047537 Eh/α   predicted    -0.2974175E-01 (   0.37%)
   displ. norm   :     0.6404130 α      lambda       -0.2877166E-01
   maximum displ.:     0.3915384 α      in ANC's #20, #24, #66, ...

........................................................................
.............................. CYCLE    7 ..............................
........................................................................
   1    -38.2450074 -0.382450E+02  0.670E-01    1.94       0.0  T
   2    -38.2453495 -0.342122E-03  0.383E-01    1.88       1.0  T
   3    -38.2449282  0.421358E-03  0.213E-01    1.96       1.0  T
   4    -38.2454447 -0.516585E-03  0.763E-02    1.91       1.0  T
   5    -38.2455363 -0.916096E-04  0.285E-02    1.91       1.0  T
   6    -38.2455347  0.160928E-05  0.201E-02    1.92       1.0  T
   7    -38.2455371 -0.238209E-05  0.764E-03    1.91       2.4  T
   8    -38.2455372 -0.622456E-07  0.353E-03    1.91       5.1  T
   9    -38.2455373 -0.120272E-06  0.160E-03    1.91      11.2  T
  10    -38.2455373 -0.218544E-08  0.101E-03    1.91      17.8  T
  11    -38.2455373 -0.467511E-08  0.619E-04    1.91      29.0  T
  12    -38.2455373 -0.645606E-09  0.188E-04    1.91      95.3  T
     SCC iter.                  ...        0 min,  0.439 sec
     gradient                   ...        0 min,  0.083 sec
 * total energy  :   -37.6068439 Eh     change       -0.1442743E-01 Eh
   gradient norm :     0.0949605 Eh/α   predicted    -0.2028588E-01 (  40.61%)
   displ. norm   :     0.4881776 α      lambda       -0.1539794E-01
   maximum displ.:     0.2136523 α      in ANC's #3, #8, #9, ...

........................................................................
.............................. CYCLE    8 ..............................
........................................................................
   1    -38.2499938 -0.382500E+02  0.583E-01    1.92       0.0  T
   2    -38.2502739 -0.280096E-03  0.295E-01    1.84       1.0  T
   3    -38.2502362  0.377195E-04  0.179E-01    1.91       1.0  T
   4    -38.2503797 -0.143585E-03  0.469E-02    1.87       1.0  T
   5    -38.2504222 -0.424672E-04  0.234E-02    1.88       1.0  T
   6    -38.2504250 -0.281479E-05  0.106E-02    1.88       1.7  T
   7    -38.2504253 -0.231703E-06  0.668E-03    1.88       2.7  T
   8    -38.2504253  0.307644E-08  0.310E-03    1.88       5.8  T
   9    -38.2504254 -0.121144E-06  0.944E-04    1.88      19.0  T
  10    -38.2504254 -0.320548E-08  0.464E-04    1.88      38.7  T
     SCC iter.                  ...        0 min,  0.346 sec
     gradient                   ...        0 min,  0.092 sec
 * total energy  :   -37.6186557 Eh     change       -0.1181181E-01 Eh
   gradient norm :     0.0816289 Eh/α   predicted    -0.9533792E-02 ( -19.29%)
   displ. norm   :     0.4891426 α      lambda       -0.1467870E-01
   maximum displ.:     0.2579701 α      in ANC's #3, #66, #8, ...

........................................................................
.............................. CYCLE    9 ..............................
........................................................................
   1    -38.2618032 -0.382618E+02  0.609E-01    1.89       0.0  T
   2    -38.2620559 -0.252764E-03  0.321E-01    1.82       1.0  T
   3    -38.2616084  0.447563E-03  0.217E-01    1.88       1.0  T
   4    -38.2623113 -0.702910E-03  0.715E-02    1.85       1.0  T
   5    -38.2623445 -0.332200E-04  0.298E-02    1.85       1.0  T
   6    -38.2623427  0.179535E-05  0.176E-02    1.85       1.0  T
   7    -38.2623452 -0.247867E-05  0.653E-03    1.85       2.7  T
   8    -38.2623453 -0.711187E-07  0.335E-03    1.85       5.4  T
   9    -38.2623453 -0.583314E-07  0.149E-03    1.85      12.0  T
  10    -38.2623453 -0.390954E-08  0.683E-04    1.85      26.3  T
  11    -38.2623453 -0.220719E-08  0.355E-04    1.85      50.6  T
     SCC iter.                  ...        0 min,  0.338 sec
     gradient                   ...        0 min,  0.007 sec
 * total energy  :   -37.6253437 Eh     change       -0.6688000E-02 Eh
   gradient norm :     0.0923306 Eh/α   predicted    -0.9095393E-02 (  36.00%)
   displ. norm   :     0.3756960 α      lambda       -0.8296311E-02
   maximum displ.:     0.1901805 α      in ANC's #13, #3, #14, ...

........................................................................
.............................. CYCLE   10 ..............................
........................................................................
   1    -38.2557028 -0.382557E+02  0.371E-01    1.83       0.0  T
   2    -38.2559688 -0.266014E-03  0.310E-01    1.86       1.0  T
   3    -38.2566276 -0.658868E-03  0.159E-01    1.85       1.0  T
   4    -38.2565640  0.636086E-04  0.719E-02    1.84       1.0  T
   5    -38.2566645 -0.100503E-03  0.174E-02    1.85       1.0  T
   6    -38.2566644  0.994551E-07  0.101E-02    1.85       1.8  T
   7    -38.2566650 -0.600960E-06  0.591E-03    1.85       3.0  T
   8    -38.2566651 -0.855363E-07  0.381E-03    1.85       4.7  T
   9    -38.2566652 -0.556217E-07  0.135E-03    1.85      13.3  T
  10    -38.2566652 -0.292931E-08  0.452E-04    1.85      39.7  T
  11    -38.2566652 -0.702087E-09  0.249E-04    1.85      72.0  T
     SCC iter.                  ...        0 min,  0.276 sec
     gradient                   ...        0 min,  0.005 sec
 * total energy  :   -37.6307392 Eh     change       -0.5395463E-02 Eh
   gradient norm :     0.0385876 Eh/α   predicted    -0.4733682E-02 ( -12.27%)
   displ. norm   :     0.4507037 α      lambda       -0.5614095E-02
   maximum displ.:     0.2427091 α      in ANC's #3, #9, #13, ...

........................................................................
.............................. CYCLE   11 ..............................
........................................................................
   1    -38.2593832 -0.382594E+02  0.462E-01    1.83       0.0  T
   2    -38.2597023 -0.319067E-03  0.474E-01    1.82       1.0  T
   3    -38.2616742 -0.197193E-02  0.246E-01    1.83       1.0  T
   4    -38.2615936  0.805785E-04  0.606E-02    1.82       1.0  T
   5    -38.2616916 -0.979693E-04  0.169E-02    1.82       1.1  T
   6    -38.2616916  0.160109E-07  0.892E-03    1.82       2.0  T
   7    -38.2616920 -0.432760E-06  0.599E-03    1.82       3.0  T
   8    -38.2616922 -0.170844E-06  0.272E-03    1.82       6.6  T
   9    -38.2616922 -0.730780E-08  0.131E-03    1.82      13.7  T
  10    -38.2616922 -0.111189E-07  0.388E-04    1.82      46.3  T
  11    -38.2616922 -0.634792E-09  0.259E-04    1.82      69.4  T
     SCC iter.                  ...        0 min,  0.318 sec
     gradient                   ...        0 min,  0.018 sec
 * total energy  :   -37.6345473 Eh     change       -0.3808083E-02 Eh
   gradient norm :     0.0237672 Eh/α   predicted    -0.3377255E-02 ( -11.31%)
   displ. norm   :     0.5599035 α      lambda       -0.4365074E-02
   maximum displ.:     0.4057763 α      in ANC's #3, #5, #11, ...

........................................................................
.............................. CYCLE   12 ..............................
........................................................................
   1    -38.2555180 -0.382555E+02  0.481E-01    1.85       0.0  T
   2    -38.2557774 -0.259456E-03  0.522E-01    1.81       1.0  T
   3    -38.2580572 -0.227977E-02  0.290E-01    1.83       1.0  T
   4    -38.2580058  0.513683E-04  0.588E-02    1.82       1.0  T
   5    -38.2581072 -0.101363E-03  0.204E-02    1.83       1.0  T
   6    -38.2581068  0.339788E-06  0.134E-02    1.83       1.3  T
   7    -38.2581074 -0.594610E-06  0.815E-03    1.83       2.2  T
   8    -38.2581077 -0.306934E-06  0.346E-03    1.83       5.2  T
   9    -38.2581077  0.837517E-09  0.119E-03    1.83      15.1  T
  10    -38.2581078 -0.140990E-07  0.584E-04    1.83      30.8  T
  11    -38.2581078 -0.169737E-08  0.272E-04    1.83      66.1  T
     SCC iter.                  ...        0 min,  0.270 sec
     gradient                   ...        0 min,  0.005 sec
 * total energy  :   -37.6376245 Eh     change       -0.3077247E-02 Eh
   gradient norm :     0.0342975 Eh/α   predicted    -0.2866751E-02 (  -6.84%)
   displ. norm   :     0.4970916 α      lambda       -0.4898254E-02
   maximum displ.:     0.2634441 α      in ANC's #3, #59, #5, ...

........................................................................
.............................. CYCLE   13 ..............................
........................................................................
   1    -38.2681699 -0.382682E+02  0.486E-01    1.92       0.0  T
   2    -38.2685971 -0.427234E-03  0.521E-01    1.85       1.0  T
   3    -38.2704436 -0.184644E-02  0.302E-01    1.87       1.0  T
   4    -38.2704047  0.388530E-04  0.659E-02    1.89       1.0  T
   5    -38.2704913 -0.865557E-04  0.254E-02    1.88       1.0  T
   6    -38.2704903  0.102984E-05  0.123E-02    1.88       1.5  T
   7    -38.2704920 -0.170764E-05  0.559E-03    1.88       3.2  T
   8    -38.2704921 -0.137657E-06  0.210E-03    1.88       8.5  T
   9    -38.2704921 -0.179844E-07  0.808E-04    1.88      22.2  T
  10    -38.2704921 -0.173176E-08  0.417E-04    1.88      43.1  T
     SCC iter.                  ...        0 min,  0.275 sec
     gradient                   ...        0 min,  0.009 sec
 * total energy  :   -37.6410091 Eh     change       -0.3384599E-02 Eh
   gradient norm :     0.0235233 Eh/α   predicted    -0.3054305E-02 (  -9.76%)
   displ. norm   :     0.5669770 α      lambda       -0.4505211E-02
   maximum displ.:     0.2694911 α      in ANC's #3, #59, #11, ...

........................................................................
.............................. CYCLE   14 ..............................
........................................................................
   1    -38.2726858 -0.382727E+02  0.602E-01    1.80       0.0  T
   2    -38.2729471 -0.261262E-03  0.598E-01    1.72       1.0  T
   3    -38.2738738 -0.926653E-03  0.385E-01    1.75       1.0  T
   4    -38.2737297  0.144053E-03  0.108E-01    1.74       1.0  T
   5    -38.2738890 -0.159268E-03  0.426E-02    1.74       1.0  T
   6    -38.2738950 -0.598961E-05  0.178E-02    1.75       1.0  T
   7    -38.2738967 -0.170492E-05  0.555E-03    1.75       3.2  T
   8    -38.2738967 -0.307127E-07  0.359E-03    1.75       5.0  T
   9    -38.2738968 -0.110953E-06  0.171E-03    1.75      10.5  T
  10    -38.2738968 -0.223569E-08  0.110E-03    1.75      16.4  T
  11    -38.2738968 -0.452747E-08  0.339E-04    1.75      53.0  T
  12    -38.2738968 -0.361268E-09  0.139E-04    1.75     129.3  T
     SCC iter.                  ...        0 min,  0.335 sec
     gradient                   ...        0 min,  0.025 sec
 * total energy  :   -37.6421194 Eh     change       -0.1110322E-02 Eh
   gradient norm :     0.0354777 Eh/α   predicted    -0.2976737E-02 ( 168.10%)
   displ. norm   :     0.3545288 α      lambda       -0.4064038E-02
   maximum displ.:     0.1831819 α      in ANC's #3, #11, #14, ...

........................................................................
.............................. CYCLE   15 ..............................
........................................................................
   1    -38.2643685 -0.382644E+02  0.283E-01    1.95       0.0  T
   2    -38.2645631 -0.194536E-03  0.286E-01    1.92       1.0  T
   3    -38.2655102 -0.947124E-03  0.147E-01    1.93       1.0  T
   4    -38.2654949  0.152888E-04  0.469E-02    1.93       1.0  T
   5    -38.2655077 -0.128506E-04  0.335E-02    1.93       1.0  T
   6    -38.2655188 -0.110689E-04  0.173E-02    1.93       1.0  T
   7    -38.2655193 -0.509906E-06  0.455E-03    1.93       3.9  T
   8    -38.2655194 -0.897723E-07  0.260E-03    1.93       6.9  T
   9    -38.2655194 -0.266911E-07  0.113E-03    1.93      15.8  T
  10    -38.2655194 -0.360738E-08  0.560E-04    1.93      32.1  T
  11    -38.2655194 -0.977991E-09  0.176E-04    1.93     101.9  T
     SCC iter.                  ...        0 min,  0.309 sec
     gradient                   ...        0 min,  0.015 sec
 * total energy  :   -37.6434826 Eh     change       -0.1363183E-02 Eh
   gradient norm :     0.0277308 Eh/α   predicted    -0.2287431E-02 (  67.80%)
   displ. norm   :     0.2927507 α      lambda       -0.3810998E-02
   maximum displ.:     0.1779659 α      in ANC's #3, #13, #21, ...

........................................................................
.............................. CYCLE   16 ..............................
........................................................................
   1    -38.2817613 -0.382818E+02  0.379E-01    1.95       0.0  T
   2    -38.2818935 -0.132282E-03  0.269E-01    1.93       1.0  T
   3    -38.2821052 -0.211648E-03  0.175E-01    1.94       1.0  T
   4    -38.2823025 -0.197279E-03  0.460E-02    1.95       1.0  T
   5    -38.2823196 -0.171613E-04  0.242E-02    1.94       1.0  T
   6    -38.2823182  0.142221E-05  0.117E-02    1.94       1.5  T
   7    -38.2823203 -0.204577E-05  0.484E-03    1.94       3.7  T
   8    -38.2823203 -0.454014E-07  0.354E-03    1.94       5.1  T
   9    -38.2823204 -0.438348E-07  0.122E-03    1.94      14.7  T
  10    -38.2823204 -0.889659E-08  0.618E-04    1.94      29.1  T
  11    -38.2823204 -0.308237E-08  0.238E-04    1.94      75.3  T
     SCC iter.                  ...        0 min,  0.289 sec
     gradient                   ...        0 min,  0.081 sec
 * total energy  :   -37.6431766 Eh     change        0.3060568E-03 Eh
   gradient norm :     0.0352268 Eh/α   predicted    -0.2068810E-02 (-775.96%)
   displ. norm   :     0.2257880 α      lambda       -0.3553838E-02
   maximum displ.:     0.1049839 α      in ANC's #3, #4, #11, ...

........................................................................
.............................. CYCLE   17 ..............................
........................................................................
   1    -38.2725488 -0.382725E+02  0.245E-01    1.87       0.0  T
   2    -38.2725945 -0.456770E-04  0.206E-01    1.87       1.0  T
   3    -38.2725623  0.322592E-04  0.118E-01    1.87       1.0  T
   4    -38.2726577 -0.954032E-04  0.319E-02    1.86       1.0  T
   5    -38.2726651 -0.742988E-05  0.181E-02    1.87       1.0  T
   6    -38.2726683 -0.320768E-05  0.721E-03    1.87       2.5  T
   7    -38.2726687 -0.398662E-06  0.405E-03    1.87       4.4  T
   8    -38.2726688 -0.748740E-07  0.172E-03    1.87      10.4  T
   9    -38.2726688 -0.845608E-08  0.874E-04    1.87      20.6  T
  10    -38.2726688 -0.411108E-08  0.534E-04    1.87      33.6  T
     SCC iter.                  ...        0 min,  0.302 sec
     gradient                   ...        0 min,  0.073 sec
 * total energy  :   -37.6449754 Eh     change       -0.1798872E-02 Eh
   gradient norm :     0.0112991 Eh/α   predicted    -0.1867515E-02 (   3.82%)
   displ. norm   :     0.2530947 α      lambda       -0.9054849E-03
   maximum displ.:     0.1235914 α      in ANC's #3, #11, #9, ...

........................................................................
.............................. CYCLE   18 ..............................
........................................................................
   1    -38.2712858 -0.382713E+02  0.200E-01    1.93       0.0  T
   2    -38.2713116 -0.258093E-04  0.188E-01    1.91       1.0  T
   3    -38.2714979 -0.186294E-03  0.108E-01    1.92       1.0  T
   4    -38.2714953  0.262851E-05  0.177E-02    1.92       1.0  T
   5    -38.2715024 -0.707122E-05  0.920E-03    1.92       2.0  T
   6    -38.2715025 -0.949105E-07  0.441E-03    1.92       4.1  T
   7    -38.2715026 -0.134983E-06  0.245E-03    1.92       7.3  T
   8    -38.2715026 -0.173278E-07  0.125E-03    1.92      14.4  T
   9    -38.2715026 -0.459122E-08  0.656E-04    1.92      27.4  T
  10    -38.2715026 -0.105000E-08  0.251E-04    1.92      71.5  T
     SCC iter.                  ...        0 min,  0.256 sec
     gradient                   ...        0 min,  0.076 sec
 * total energy  :   -37.6452186 Eh     change       -0.2431397E-03 Eh
   gradient norm :     0.0197085 Eh/α   predicted    -0.4817513E-03 (  98.14%)
   displ. norm   :     0.1730241 α      lambda       -0.7991967E-03
   maximum displ.:     0.0890917 α      in ANC's #11, #6, #2, ...

........................................................................
.............................. CYCLE   19 ..............................
........................................................................
   1    -38.2712536 -0.382713E+02  0.979E-02    1.92       0.0  T
   2    -38.2712627 -0.914035E-05  0.673E-02    1.91       1.0  T
   3    -38.2712735 -0.107082E-04  0.436E-02    1.92       1.0  T
   4    -38.2712862 -0.127636E-04  0.105E-02    1.92       1.7  T
   5    -38.2712875 -0.128578E-05  0.693E-03    1.91       2.6  T
   6    -38.2712876 -0.998687E-07  0.321E-03    1.91       5.6  T
   7    -38.2712877 -0.108152E-06  0.108E-03    1.91      16.6  T
   8    -38.2712877 -0.549831E-08  0.539E-04    1.91      33.3  T
   9    -38.2712877 -0.736996E-09  0.349E-04    1.91      51.5  T
     SCC iter.                  ...        0 min,  0.282 sec
     gradient                   ...        0 min,  0.080 sec
 * total energy  :   -37.6457249 Eh     change       -0.5062986E-03 Eh
   gradient norm :     0.0130175 Eh/α   predicted    -0.4115634E-03 ( -18.71%)
   displ. norm   :     0.3060943 α      lambda       -0.1020610E-02
   maximum displ.:     0.1269180 α      in ANC's #11, #6, #2, ...

........................................................................
.............................. CYCLE   20 ..............................
........................................................................
   1    -38.2688675 -0.382689E+02  0.181E-01    1.93       0.0  T
   2    -38.2688862 -0.186462E-04  0.123E-01    1.90       1.0  T
   3    -38.2688527  0.334690E-04  0.550E-02    1.92       1.0  T
   4    -38.2688969 -0.441411E-04  0.138E-02    1.91       1.3  T
   5    -38.2688998 -0.298619E-05  0.921E-03    1.91       2.0  T
   6    -38.2689000 -0.175010E-06  0.342E-03    1.91       5.3  T
   7    -38.2689001 -0.322198E-07  0.184E-03    1.91       9.7  T
   8    -38.2689001 -0.736142E-08  0.123E-03    1.91      14.6  T
   9    -38.2689001 -0.991101E-08  0.705E-04    1.91      25.5  T
  10    -38.2689001 -0.944119E-09  0.326E-04    1.91      55.1  T
     SCC iter.                  ...        0 min,  0.214 sec
     gradient                   ...        0 min,  0.004 sec
 * total energy  :   -37.6457287 Eh     change       -0.3794940E-05 Eh
   gradient norm :     0.0228858 Eh/α   predicted    -0.5581199E-03 (*******%)
   displ. norm   :     0.1542848 α      lambda       -0.1247484E-02
   maximum displ.:     0.0712852 α      in ANC's #9, #11, #2, ...
 * RMSD in coord.:     0.8713133 α      energy gain  -0.4010797E+01 Eh

generating ANC from model Hessian ...
Using Lindh-Hessian (1995)
 Shifting diagonal of input Hessian by    1.2062907934144830E-002
 Lowest  eigenvalues of input Hessian
    0.010000    0.011626    0.000000    0.000000    0.000000    0.000000
    0.000000    0.000000    0.012466    0.012945    0.013370    0.013856
    0.014123    0.016322    0.017079    0.019229    0.019689    0.019807
 Highest eigenvalues
    1.680552    1.733455    1.735372    1.737438    1.742681    3.563598


........................................................................
.............................. CYCLE   21 ..............................
........................................................................
   1    -38.2724771 -0.382725E+02  0.135E-01    1.92       0.0  T
   2    -38.2724832 -0.609210E-05  0.819E-02    1.91       1.0  T
   3    -38.2724623  0.209633E-04  0.421E-02    1.92       1.0  T
   4    -38.2724875 -0.252290E-04  0.868E-03    1.91       2.1  T
   5    -38.2724874  0.784775E-07  0.665E-03    1.91       2.7  T
   6    -38.2724877 -0.228816E-06  0.270E-03    1.91       6.7  T
   7    -38.2724877 -0.866201E-07  0.135E-03    1.91      13.3  T
   8    -38.2724877 -0.953603E-08  0.607E-04    1.91      29.6  T
   9    -38.2724878 -0.307043E-08  0.303E-04    1.91      59.3  T
     SCC iter.                  ...        0 min,  0.166 sec
     gradient                   ...        0 min,  0.007 sec
 * total energy  :   -37.6463711 Eh     change       -0.6423955E-03 Eh
   gradient norm :     0.0105397 Eh/α   predicted     0.0000000E+00 (-100.00%)
   displ. norm   :     0.1693190 α      lambda       -0.6446448E-03
   maximum displ.:     0.0874381 α      in ANC's #5, #4, #2, ...

........................................................................
.............................. CYCLE   22 ..............................
........................................................................
   1    -38.2734060 -0.382734E+02  0.128E-01    1.93       0.0  T
   2    -38.2734081 -0.208803E-05  0.103E-01    1.94       1.0  T
   3    -38.2734004  0.764109E-05  0.573E-02    1.93       1.0  T
   4    -38.2734320 -0.315876E-04  0.140E-02    1.93       1.3  T
   5    -38.2734335 -0.145173E-05  0.701E-03    1.93       2.6  T
   6    -38.2734336 -0.126766E-06  0.170E-03    1.93      10.6  T
   7    -38.2734336 -0.471546E-07  0.821E-04    1.93      21.9  T
   8    -38.2734336 -0.967120E-09  0.557E-04    1.93      32.2  T
     SCC iter.                  ...        0 min,  0.179 sec
     gradient                   ...        0 min,  0.018 sec
 * total energy  :   -37.6467856 Eh     change       -0.4145277E-03 Eh
   gradient norm :     0.0054048 Eh/α   predicted    -0.3315639E-03 ( -20.01%)
   displ. norm   :     0.2839112 α      lambda       -0.6247527E-03
   maximum displ.:     0.1817309 α      in ANC's #5, #4, #15, ...

........................................................................
.............................. CYCLE   23 ..............................
........................................................................
   1    -38.2743345 -0.382743E+02  0.245E-01    1.95       0.0  T
   2    -38.2743442 -0.975285E-05  0.171E-01    1.96       1.0  T
   3    -38.2741849  0.159283E-03  0.928E-02    1.95       1.0  T
   4    -38.2743661 -0.181114E-03  0.186E-02    1.96       1.0  T
   5    -38.2743702 -0.413055E-05  0.840E-03    1.96       2.1  T
   6    -38.2743702 -0.326736E-07  0.228E-03    1.96       7.9  T
   7    -38.2743703 -0.575689E-07  0.120E-03    1.96      14.9  T
   8    -38.2743703 -0.425209E-08  0.658E-04    1.96      27.3  T
   9    -38.2743703 -0.295351E-08  0.374E-04    1.96      48.1  T
     SCC iter.                  ...        0 min,  0.177 sec
     gradient                   ...        0 min,  0.016 sec
 * total energy  :   -37.6471182 Eh     change       -0.3326034E-03 Eh
   gradient norm :     0.0074248 Eh/α   predicted    -0.3375559E-03 (   1.49%)
   displ. norm   :     0.2141708 α      lambda       -0.3367243E-03
   maximum displ.:     0.1426396 α      in ANC's #5, #4, #2, ...

........................................................................
.............................. CYCLE   24 ..............................
........................................................................
   1    -38.2746929 -0.382747E+02  0.112E-01    1.98       0.0  T
   2    -38.2746955 -0.268017E-05  0.869E-02    1.98       1.0  T
   3    -38.2746705  0.250224E-04  0.440E-02    1.97       1.0  T
   4    -38.2747095 -0.390252E-04  0.868E-03    1.98       2.1  T
   5    -38.2747103 -0.761079E-06  0.388E-03    1.98       4.6  T
   6    -38.2747103 -0.178431E-07  0.177E-03    1.98      10.1  T
   7    -38.2747103 -0.258695E-07  0.592E-04    1.98      30.3  T
   8    -38.2747104 -0.543338E-09  0.387E-04    1.98      46.4  T
     SCC iter.                  ...        0 min,  0.163 sec
     gradient                   ...        0 min,  0.006 sec
 * total energy  :   -37.6473736 Eh     change       -0.2554031E-03 Eh
   gradient norm :     0.0079624 Eh/α   predicted    -0.1760849E-03 ( -31.06%)
   displ. norm   :     0.2956451 α      lambda       -0.4255281E-03
   maximum displ.:     0.1901122 α      in ANC's #5, #2, #4, ...

........................................................................
.............................. CYCLE   25 ..............................
........................................................................
   1    -38.2746542 -0.382747E+02  0.135E-01    1.99       0.0  T
   2    -38.2746598 -0.560661E-05  0.110E-01    1.99       1.0  T
   3    -38.2746573  0.244088E-05  0.565E-02    1.99       1.0  T
   4    -38.2746903 -0.329737E-04  0.144E-02    1.99       1.2  T
   5    -38.2746919 -0.161983E-05  0.764E-03    1.99       2.4  T
   6    -38.2746921 -0.192761E-06  0.283E-03    1.99       6.3  T
   7    -38.2746922 -0.509423E-07  0.128E-03    1.99      14.1  T
   8    -38.2746922 -0.180705E-09  0.812E-04    1.99      22.1  T
   9    -38.2746922 -0.334229E-08  0.369E-04    1.99      48.7  T
     SCC iter.                  ...        0 min,  0.172 sec
     gradient                   ...        0 min,  0.004 sec
 * total energy  :   -37.6476642 Eh     change       -0.2905716E-03 Eh
   gradient norm :     0.0066397 Eh/α   predicted    -0.2313615E-03 ( -20.38%)
   displ. norm   :     0.2793538 α      lambda       -0.2827606E-03
   maximum displ.:     0.1964621 α      in ANC's #5, #2, #1, ...

........................................................................
.............................. CYCLE   26 ..............................
........................................................................
   1    -38.2744641 -0.382745E+02  0.121E-01    1.99       0.0  T
   2    -38.2744709 -0.679429E-05  0.856E-02    1.99       1.0  T
   3    -38.2744383  0.326257E-04  0.415E-02    1.99       1.0  T
   4    -38.2744773 -0.390730E-04  0.116E-02    1.99       1.5  T
   5    -38.2744793 -0.199758E-05  0.397E-03    1.99       4.5  T
   6    -38.2744793  0.268468E-08  0.229E-03    1.99       7.8  T
   7    -38.2744794 -0.251015E-07  0.712E-04    1.99      25.2  T
   8    -38.2744794 -0.208594E-08  0.454E-04    1.99      39.6  T
     SCC iter.                  ...        0 min,  0.204 sec
     gradient                   ...        0 min,  0.058 sec
 * total energy  :   -37.6478404 Eh     change       -0.1762366E-03 Eh
   gradient norm :     0.0055700 Eh/α   predicted    -0.1524140E-03 ( -13.52%)
   displ. norm   :     0.2350584 α      lambda       -0.1821276E-03
   maximum displ.:     0.1617237 α      in ANC's #5, #2, #1, ...

........................................................................
.............................. CYCLE   27 ..............................
........................................................................
   1    -38.2752883 -0.382753E+02  0.975E-02    1.99       0.0  T
   2    -38.2752906 -0.233528E-05  0.708E-02    2.00       1.0  T
   3    -38.2752664  0.241947E-04  0.379E-02    1.99       1.0  T
   4    -38.2752959 -0.295449E-04  0.887E-03    2.00       2.0  T
   5    -38.2752968 -0.810964E-06  0.422E-03    2.00       4.3  T
   6    -38.2752968 -0.261440E-07  0.162E-03    2.00      11.1  T
   7    -38.2752968 -0.201912E-07  0.690E-04    2.00      26.0  T
   8    -38.2752968 -0.171298E-09  0.489E-04    2.00      36.7  T
     SCC iter.                  ...        0 min,  0.170 sec
     gradient                   ...        0 min,  0.005 sec
 * total energy  :   -37.6479746 Eh     change       -0.1341603E-03 Eh
   gradient norm :     0.0041432 Eh/α   predicted    -0.9610199E-04 ( -28.37%)
   displ. norm   :     0.2831930 α      lambda       -0.1797530E-03
   maximum displ.:     0.1842875 α      in ANC's #5, #2, #1, ...

........................................................................
.............................. CYCLE   28 ..............................
........................................................................
   1    -38.2765412 -0.382765E+02  0.936E-02    2.00       0.0  T
   2    -38.2765435 -0.222506E-05  0.657E-02    2.00       1.0  T
   3    -38.2765210  0.224946E-04  0.361E-02    2.00       1.0  T
   4    -38.2765480 -0.270392E-04  0.802E-03    2.00       2.2  T
   5    -38.2765486 -0.622276E-06  0.394E-03    2.00       4.6  T
   6    -38.2765486 -0.156007E-07  0.161E-03    2.00      11.2  T
   7    -38.2765487 -0.206133E-07  0.508E-04    2.00      35.3  T
   8    -38.2765487 -0.486196E-09  0.356E-04    2.00      50.5  T
     SCC iter.                  ...        0 min,  0.187 sec
     gradient                   ...        0 min,  0.005 sec
 * total energy  :   -37.6481151 Eh     change       -0.1405121E-03 Eh
   gradient norm :     0.0036667 Eh/α   predicted    -0.9708492E-04 ( -30.91%)
   displ. norm   :     0.4381762 α      lambda       -0.2125198E-03
   maximum displ.:     0.2794645 α      in ANC's #2, #5, #1, ...

........................................................................
.............................. CYCLE   29 ..............................
........................................................................
   1    -38.2755340 -0.382755E+02  0.129E-01    2.00       0.0  T
   2    -38.2755365 -0.256315E-05  0.849E-02    2.01       1.0  T
   3    -38.2754949  0.416158E-04  0.459E-02    2.00       1.0  T
   4    -38.2755417 -0.468040E-04  0.102E-02    2.00       1.8  T
   5    -38.2755422 -0.506893E-06  0.576E-03    2.00       3.1  T
   6    -38.2755423 -0.494211E-07  0.152E-03    2.00      11.8  T
   7    -38.2755423 -0.299565E-07  0.694E-04    2.00      25.9  T
   8    -38.2755423 -0.980762E-09  0.467E-04    2.00      38.5  T
     SCC iter.                  ...        0 min,  0.141 sec
     gradient                   ...        0 min,  0.005 sec
 * total energy  :   -37.6482801 Eh     change       -0.1650136E-03 Eh
   gradient norm :     0.0056139 Eh/α   predicted    -0.1266630E-03 ( -23.24%)
   displ. norm   :     0.5391372 α      lambda       -0.3466371E-03
   maximum displ.:     0.3529446 α      in ANC's #2, #5, #4, ...

........................................................................
.............................. CYCLE   30 ..............................
........................................................................
   1    -38.2768586 -0.382769E+02  0.125E-01    2.00       0.0  T
   2    -38.2768623 -0.377565E-05  0.736E-02    2.00       1.0  T
   3    -38.2768447  0.176110E-04  0.409E-02    2.00       1.0  T
   4    -38.2768653 -0.205359E-04  0.985E-03    2.00       1.8  T
   5    -38.2768656 -0.329349E-06  0.661E-03    2.00       2.7  T
   6    -38.2768656 -0.522320E-07  0.212E-03    2.00       8.5  T
   7    -38.2768657 -0.823558E-07  0.975E-04    2.00      18.4  T
   8    -38.2768657 -0.612395E-09  0.647E-04    2.00      27.8  T
     SCC iter.                  ...        0 min,  0.043 sec
     gradient                   ...        0 min,  0.072 sec
 * total energy  :   -37.6484812 Eh     change       -0.2010786E-03 Eh
   gradient norm :     0.0061891 Eh/α   predicted    -0.2237035E-03 (  11.25%)
   displ. norm   :     0.5922811 α      lambda       -0.2905499E-03
   maximum displ.:     0.4083551 α      in ANC's #2, #5, #1, ...

........................................................................
.............................. CYCLE   31 ..............................
........................................................................
   1    -38.2701181 -0.382701E+02  0.157E-01    2.00       0.0  T
   2    -38.2701229 -0.477367E-05  0.955E-02    2.01       1.0  T
   3    -38.2701024  0.204545E-04  0.369E-02    2.00       1.0  T
   4    -38.2701253 -0.228951E-04  0.132E-02    2.00       1.4  T
   5    -38.2701258 -0.512378E-06  0.837E-03    2.00       2.1  T
   6    -38.2701258  0.250935E-07  0.253E-03    2.00       7.1  T
   7    -38.2701259 -0.991619E-07  0.874E-04    2.00      20.5  T
   8    -38.2701259 -0.131944E-08  0.540E-04    2.00      33.3  T
     SCC iter.                  ...        0 min,  0.240 sec
     gradient                   ...        0 min,  0.011 sec
 * total energy  :   -37.6485773 Eh     change       -0.9609502E-04 Eh
   gradient norm :     0.0135657 Eh/α   predicted    -0.1962385E-03 ( 104.21%)
   displ. norm   :     0.1161601 α      lambda       -0.3526886E-03
   maximum displ.:     0.0700476 α      in ANC's #5, #1, #4, ...

........................................................................
.............................. CYCLE   32 ..............................
........................................................................
   1    -38.2772849 -0.382773E+02  0.571E-02    2.01       0.0  T
   2    -38.2772875 -0.261000E-05  0.343E-02    2.00       1.0  T
   3    -38.2772832  0.433492E-05  0.262E-02    2.01       1.0  T
   4    -38.2772908 -0.763608E-05  0.584E-03    2.01       3.1  T
   5    -38.2772911 -0.230614E-06  0.420E-03    2.01       4.3  T
   6    -38.2772911 -0.398640E-07  0.146E-03    2.01      12.3  T
   7    -38.2772911 -0.311743E-07  0.522E-04    2.01      34.4  T
   8    -38.2772911 -0.490147E-09  0.324E-04    2.01      55.5  T
     SCC iter.                  ...        0 min,  0.225 sec
     gradient                   ...        0 min,  0.006 sec
 * total energy  :   -37.6487783 Eh     change       -0.2009919E-03 Eh
   gradient norm :     0.0034327 Eh/α   predicted    -0.1787257E-03 ( -11.08%)
   displ. norm   :     0.3432273 α      lambda       -0.1942422E-03
   maximum displ.:     0.2608206 α      in ANC's #2, #4, #1, ...

........................................................................
.............................. CYCLE   33 ..............................
........................................................................
   1    -38.2780283 -0.382780E+02  0.698E-02    2.01       0.0  T
   2    -38.2780305 -0.217304E-05  0.428E-02    2.01       1.0  T
   3    -38.2780260  0.446654E-05  0.214E-02    2.01       1.0  T
   4    -38.2780317 -0.566497E-05  0.569E-03    2.01       3.2  T
   5    -38.2780318 -0.786187E-07  0.330E-03    2.01       5.5  T
   6    -38.2780318 -0.199854E-07  0.135E-03    2.01      13.3  T
   7    -38.2780318 -0.169795E-07  0.588E-04    2.01      30.6  T
   8    -38.2780318  0.228113E-09  0.377E-04    2.01      47.7  T
     SCC iter.                  ...        0 min,  0.231 sec
     gradient                   ...        0 min,  0.008 sec
 * total energy  :   -37.6489248 Eh     change       -0.1465402E-03 Eh
   gradient norm :     0.0040245 Eh/α   predicted    -0.1085628E-03 ( -25.92%)
   displ. norm   :     0.5710797 α      lambda       -0.2152150E-03
   maximum displ.:     0.4367211 α      in ANC's #2, #5, #4, ...

........................................................................
.............................. CYCLE   34 ..............................
........................................................................
   1    -38.2736181 -0.382736E+02  0.112E-01    2.01       0.0  T
   2    -38.2736224 -0.429580E-05  0.674E-02    2.01       1.0  T
   3    -38.2736097  0.127199E-04  0.346E-02    2.00       1.0  T
   4    -38.2736246 -0.149629E-04  0.718E-03    2.00       2.5  T
   5    -38.2736249 -0.240913E-06  0.611E-03    2.01       2.9  T
   6    -38.2736251 -0.193217E-06  0.122E-03    2.01      14.7  T
   7    -38.2736251 -0.210228E-07  0.489E-04    2.01      36.7  T
   8    -38.2736251 -0.160638E-08  0.323E-04    2.01      55.7  T
     SCC iter.                  ...        0 min,  0.230 sec
     gradient                   ...        0 min,  0.005 sec
 * total energy  :   -37.6490508 Eh     change       -0.1259566E-03 Eh
   gradient norm :     0.0051758 Eh/α   predicted    -0.1427013E-03 (  13.29%)
   displ. norm   :     0.1813442 α      lambda       -0.1257908E-03
   maximum displ.:     0.1364517 α      in ANC's #2, #4, #8, ...

........................................................................
.............................. CYCLE   35 ..............................
........................................................................
   1    -38.2763864 -0.382764E+02  0.443E-02    2.01       0.0  T
   2    -38.2763883 -0.197928E-05  0.374E-02    2.01       1.0  T
   3    -38.2763897 -0.140559E-05  0.195E-02    2.01       1.0  T
   4    -38.2763910 -0.123941E-05  0.748E-03    2.01       2.4  T
   5    -38.2763917 -0.704790E-06  0.350E-03    2.01       5.1  T
   6    -38.2763917 -0.195639E-07  0.120E-03    2.01      15.0  T
   7    -38.2763917 -0.142861E-07  0.476E-04    2.01      37.8  T
   8    -38.2763917 -0.215437E-09  0.247E-04    2.01      72.6  T
     SCC iter.                  ...        0 min,  0.206 sec
     gradient                   ...        0 min,  0.008 sec
 * total energy  :   -37.6491439 Eh     change       -0.9312155E-04 Eh
   gradient norm :     0.0033894 Eh/α   predicted    -0.6496737E-04 ( -30.23%)
   displ. norm   :     0.3104154 α      lambda       -0.1301403E-03
   maximum displ.:     0.2293742 α      in ANC's #2, #4, #3, ...

........................................................................
.............................. CYCLE   36 ..............................
........................................................................
   1    -38.2778282 -0.382778E+02  0.674E-02    2.01       0.0  T
   2    -38.2778316 -0.336267E-05  0.535E-02    2.01       1.0  T
   3    -38.2778301  0.142506E-05  0.264E-02    2.01       1.0  T
   4    -38.2778370 -0.682435E-05  0.910E-03    2.01       2.0  T
   5    -38.2778380 -0.109222E-05  0.411E-03    2.01       4.4  T
   6    -38.2778381 -0.352178E-07  0.155E-03    2.01      11.6  T
   7    -38.2778381 -0.281879E-07  0.465E-04    2.01      38.6  T
   8    -38.2778381 -0.319744E-11  0.280E-04    2.01      64.2  T
     SCC iter.                  ...        0 min,  0.213 sec
     gradient                   ...        0 min,  0.005 sec
 * total energy  :   -37.6492400 Eh     change       -0.9614623E-04 Eh
   gradient norm :     0.0027449 Eh/α   predicted    -0.7134244E-04 ( -25.80%)
   displ. norm   :     0.2990613 α      lambda       -0.1039462E-03
   maximum displ.:     0.1980618 α      in ANC's #2, #4, #3, ...

........................................................................
.............................. CYCLE   37 ..............................
........................................................................
   1    -38.2793177 -0.382793E+02  0.766E-02    2.01       0.0  T
   2    -38.2793209 -0.320037E-05  0.546E-02    2.02       1.0  T
   3    -38.2793079  0.129921E-04  0.277E-02    2.01       1.0  T
   4    -38.2793248 -0.169188E-04  0.795E-03    2.02       2.3  T
   5    -38.2793255 -0.710188E-06  0.335E-03    2.01       5.4  T
   6    -38.2793255 -0.122302E-07  0.148E-03    2.01      12.2  T
   7    -38.2793255 -0.266724E-07  0.525E-04    2.01      34.2  T
   8    -38.2793255  0.115918E-09  0.355E-04    2.01      50.6  T
     SCC iter.                  ...        0 min,  0.209 sec
     gradient                   ...        0 min,  0.034 sec
 * total energy  :   -37.6493099 Eh     change       -0.6990181E-04 Eh
   gradient norm :     0.0040808 Eh/α   predicted    -0.5662327E-04 ( -19.00%)
   displ. norm   :     0.3946066 α      lambda       -0.8518657E-04
   maximum displ.:     0.2707931 α      in ANC's #2, #4, #3, ...

........................................................................
.............................. CYCLE   38 ..............................
........................................................................
   1    -38.2768054 -0.382768E+02  0.816E-02    2.01       0.0  T
   2    -38.2768092 -0.381387E-05  0.605E-02    2.02       1.0  T
   3    -38.2767972  0.120489E-04  0.296E-02    2.01       1.0  T
   4    -38.2768146 -0.174376E-04  0.955E-03    2.02       1.9  T
   5    -38.2768156 -0.103290E-05  0.471E-03    2.02       3.8  T
   6    -38.2768157 -0.551970E-07  0.180E-03    2.02      10.0  T
   7    -38.2768157 -0.403119E-07  0.554E-04    2.02      32.4  T
   8    -38.2768157 -0.214094E-09  0.310E-04    2.02      57.9  T
     SCC iter.                  ...        0 min,  0.234 sec
     gradient                   ...        0 min,  0.013 sec
 * total energy  :   -37.6493351 Eh     change       -0.2521420E-04 Eh
   gradient norm :     0.0076991 Eh/α   predicted    -0.4922841E-04 (  95.24%)
   displ. norm   :     0.0958253 α      lambda       -0.8161207E-04
   maximum displ.:     0.0574004 α      in ANC's #2, #5, #6, ...

........................................................................
.............................. CYCLE   39 ..............................
........................................................................
   1    -38.2818044 -0.382818E+02  0.444E-02    2.02       0.0  T
   2    -38.2818052 -0.818620E-06  0.276E-02    2.02       1.0  T
   3    -38.2818020  0.319643E-05  0.137E-02    2.02       1.3  T
   4    -38.2818058 -0.377594E-05  0.322E-03    2.02       5.6  T
   5    -38.2818058 -0.433812E-07  0.211E-03    2.02       8.5  T
   6    -38.2818058 -0.156788E-07  0.700E-04    2.02      25.7  T
   7    -38.2818058 -0.523333E-08  0.406E-04    2.02      44.3  T
     SCC iter.                  ...        0 min,  0.289 sec
     gradient                   ...        0 min,  0.091 sec
 * total energy  :   -37.6493603 Eh     change       -0.2511042E-04 Eh
   gradient norm :     0.0036820 Eh/α   predicted    -0.4118311E-04 (  64.01%)
   displ. norm   :     0.1206813 α      lambda       -0.5537397E-04
   maximum displ.:     0.0800556 α      in ANC's #2, #4, #3, ...

........................................................................
.............................. CYCLE   40 ..............................
........................................................................
   1    -38.2795524 -0.382796E+02  0.296E-02    2.02       0.0  T
   2    -38.2795528 -0.406709E-06  0.162E-02    2.02       1.1  T
   3    -38.2795518  0.973073E-06  0.106E-02    2.02       1.7  T
   4    -38.2795530 -0.120491E-05  0.253E-03    2.02       7.1  T
   5    -38.2795531 -0.325405E-07  0.162E-03    2.02      11.1  T
   6    -38.2795531 -0.680509E-08  0.590E-04    2.02      30.4  T
   7    -38.2795531 -0.196792E-08  0.266E-04    2.02      67.6  T
     SCC iter.                  ...        0 min,  0.341 sec
     gradient                   ...        0 min,  0.116 sec
 * total energy  :   -37.6493789 Eh     change       -0.1864403E-04 Eh
   gradient norm :     0.0056615 Eh/α   predicted    -0.2809179E-04 (  50.67%)
   displ. norm   :     0.0392408 α      lambda       -0.2584051E-04
   maximum displ.:     0.0217801 α      in ANC's #4, #2, #3, ...

........................................................................
.............................. CYCLE   41 ..............................
........................................................................
   1    -38.2793811 -0.382794E+02  0.184E-02    2.02       0.0  T
   2    -38.2793814 -0.244359E-06  0.119E-02    2.02       1.5  T
   3    -38.2793811  0.306266E-06  0.736E-03    2.02       2.4  T
   4    -38.2793815 -0.411198E-06  0.172E-03    2.02      10.5  T
   5    -38.2793815 -0.372933E-07  0.903E-04    2.02      19.9  T
   6    -38.2793815 -0.477426E-08  0.336E-04    2.02      53.4  T
     SCC iter.                  ...        0 min,  0.272 sec
     gradient                   ...        0 min,  0.027 sec
 * total energy  :   -37.6493951 Eh     change       -0.1622121E-04 Eh
   gradient norm :     0.0023462 Eh/α   predicted    -0.1294183E-04 ( -20.22%)
   displ. norm   :     0.0582085 α      lambda       -0.2075976E-04
   maximum displ.:     0.0319829 α      in ANC's #4, #2, #3, ...

........................................................................
.............................. CYCLE   42 ..............................
........................................................................
   1    -38.2796570 -0.382797E+02  0.278E-02    2.02       0.0  T
   2    -38.2796575 -0.512587E-06  0.195E-02    2.02       1.0  T
   3    -38.2796580 -0.508261E-06  0.133E-02    2.02       1.3  T
   4    -38.2796591 -0.109597E-05  0.283E-03    2.02       6.3  T
   5    -38.2796592 -0.106841E-06  0.140E-03    2.02      12.9  T
   6    -38.2796592 -0.257522E-09  0.452E-04    2.02      39.7  T
   7    -38.2796592 -0.287277E-08  0.151E-04    2.02     118.6  T
     SCC iter.                  ...        0 min,  0.303 sec
     gradient                   ...        0 min,  0.024 sec
 * total energy  :   -37.6494074 Eh     change       -0.1223415E-04 Eh
   gradient norm :     0.0028606 Eh/α   predicted    -0.1041840E-04 ( -14.84%)
   displ. norm   :     0.1010876 α      lambda       -0.1687806E-04
   maximum displ.:     0.0632737 α      in ANC's #4, #3, #2, ...
 * RMSD in coord.:     0.8661583 α      energy gain  -0.3678680E-02 Eh

generating ANC from model Hessian ...
Using Lindh-Hessian (1995)
 Shifting diagonal of input Hessian by    1.0876775649003100E-002
 Lowest  eigenvalues of input Hessian
    0.010000    0.000000    0.000000    0.000000    0.000000    0.000000
    0.000000    0.010912    0.011331    0.012002    0.012263    0.012496
    0.013054    0.015701    0.017061    0.018696    0.018774    0.018943
 Highest eigenvalues
    1.683204    1.736846    1.736990    1.742318    1.744164    3.597299


........................................................................
.............................. CYCLE   43 ..............................
........................................................................
   1    -38.2798703 -0.382799E+02  0.327E-02    2.02       0.0  T
   2    -38.2798708 -0.470548E-06  0.225E-02    2.02       1.0  T
   3    -38.2798692  0.161251E-05  0.123E-02    2.02       1.5  T
   4    -38.2798711 -0.197233E-05  0.285E-03    2.02       6.3  T
   5    -38.2798712 -0.996835E-07  0.143E-03    2.02      12.6  T
   6    -38.2798713 -0.559431E-08  0.483E-04    2.02      37.2  T
   7    -38.2798713 -0.202770E-08  0.158E-04    2.02     113.6  T
     SCC iter.                  ...        0 min,  0.290 sec
     gradient                   ...        0 min,  0.007 sec
 * total energy  :   -37.6494196 Eh     change       -0.1227190E-04 Eh
   gradient norm :     0.0019627 Eh/α   predicted     0.0000000E+00 (-100.00%)
   displ. norm   :     0.0402735 α      lambda       -0.3879141E-05
   maximum displ.:     0.0302375 α      in ANC's #1, #4, #8, ...

........................................................................
.............................. CYCLE   44 ..............................
........................................................................
   1    -38.2792693 -0.382793E+02  0.112E-02    2.02       0.0  T
   2    -38.2792695 -0.117702E-06  0.752E-03    2.02       2.4  T
   3    -38.2792696 -0.104245E-06  0.488E-03    2.02       3.7  T
   4    -38.2792697 -0.147128E-06  0.125E-03    2.02      14.4  T
   5    -38.2792697 -0.245115E-07  0.650E-04    2.02      27.6  T
   6    -38.2792697 -0.201780E-09  0.355E-04    2.02      50.6  T
     SCC iter.                  ...        0 min,  0.265 sec
     gradient                   ...        0 min,  0.025 sec
 * total energy  :   -37.6494328 Eh     change       -0.1317258E-04 Eh
   gradient norm :     0.0007294 Eh/α   predicted    -0.6335826E-05 ( -51.90%)
   displ. norm   :     0.1239343 α      lambda       -0.2915071E-04
   maximum displ.:     0.0722514 α      in ANC's #1, #4, #15, ...

........................................................................
.............................. CYCLE   45 ..............................
........................................................................
   1    -38.2778840 -0.382779E+02  0.446E-02    2.02       0.0  T
   2    -38.2778851 -0.104404E-05  0.296E-02    2.02       1.0  T
   3    -38.2778836  0.145570E-05  0.183E-02    2.02       1.0  T
   4    -38.2778871 -0.351800E-05  0.380E-03    2.02       4.7  T
   5    -38.2778874 -0.258578E-06  0.204E-03    2.02       8.8  T
   6    -38.2778874 -0.123279E-10  0.862E-04    2.02      20.8  T
   7    -38.2778874 -0.592402E-08  0.365E-04    2.02      49.2  T
     SCC iter.                  ...        0 min,  0.294 sec
     gradient                   ...        0 min,  0.028 sec
 * total energy  :   -37.6494536 Eh     change       -0.2077372E-04 Eh
   gradient norm :     0.0042146 Eh/α   predicted    -0.1468284E-04 ( -29.32%)
   displ. norm   :     0.1247284 α      lambda       -0.3846909E-04
   maximum displ.:     0.0846045 α      in ANC's #1, #4, #8, ...

........................................................................
.............................. CYCLE   46 ..............................
........................................................................
   1    -38.2774070 -0.382774E+02  0.284E-02    2.02       0.0  T
   2    -38.2774074 -0.400327E-06  0.190E-02    2.02       1.0  T
   3    -38.2774069  0.539081E-06  0.118E-02    2.02       1.5  T
   4    -38.2774083 -0.146857E-05  0.213E-03    2.02       8.4  T
   5    -38.2774084 -0.841985E-07  0.101E-03    2.02      17.7  T
   6    -38.2774084  0.111017E-08  0.404E-04    2.02      44.5  T
   7    -38.2774084 -0.175321E-08  0.183E-04    2.02      98.1  T
     SCC iter.                  ...        0 min,  0.310 sec
     gradient                   ...        0 min,  0.008 sec
 * total energy  :   -37.6494886 Eh     change       -0.3500315E-04 Eh
   gradient norm :     0.0045158 Eh/α   predicted    -0.1953683E-04 ( -44.19%)
   displ. norm   :     0.5818898 α      lambda       -0.1856180E-03
   maximum displ.:     0.3925706 α      in ANC's #1, #8, #4, ...

........................................................................
.............................. CYCLE   47 ..............................
........................................................................
   1    -38.2729146 -0.382729E+02  0.132E-01    2.02       0.0  T
   2    -38.2729216 -0.696802E-05  0.882E-02    2.01       1.0  T
   3    -38.2728978  0.237630E-04  0.539E-02    2.02       1.0  T
   4    -38.2729376 -0.397905E-04  0.104E-02    2.01       1.7  T
   5    -38.2729390 -0.145193E-05  0.586E-03    2.01       3.1  T
   6    -38.2729390  0.503735E-07  0.218E-03    2.01       8.2  T
   7    -38.2729390 -0.569677E-07  0.993E-04    2.01      18.1  T
   8    -38.2729391 -0.105788E-07  0.599E-04    2.01      30.0  T
     SCC iter.                  ...        0 min,  0.349 sec
     gradient                   ...        0 min,  0.032 sec
 * total energy  :   -37.6495096 Eh     change       -0.2104832E-04 Eh
   gradient norm :     0.0181233 Eh/α   predicted    -0.1242406E-03 ( 490.26%)
   displ. norm   :     0.2117677 α      lambda       -0.2765715E-03
   maximum displ.:     0.1452242 α      in ANC's #1, #4, #8, ...

........................................................................
.............................. CYCLE   48 ..............................
........................................................................
   1    -38.2777106 -0.382777E+02  0.561E-02    2.01       0.0  T
   2    -38.2777133 -0.270389E-05  0.390E-02    2.01       1.0  T
   3    -38.2777118  0.157140E-05  0.220E-02    2.01       1.0  T
   4    -38.2777169 -0.515988E-05  0.715E-03    2.02       2.5  T
   5    -38.2777174 -0.481772E-06  0.425E-03    2.02       4.2  T
   6    -38.2777174  0.352010E-07  0.198E-03    2.02       9.1  T
   7    -38.2777174 -0.540774E-07  0.640E-04    2.01      28.1  T
   8    -38.2777174 -0.323852E-08  0.382E-04    2.01      47.0  T
     SCC iter.                  ...        0 min,  0.333 sec
     gradient                   ...        0 min,  0.027 sec
 * total energy  :   -37.6496324 Eh     change       -0.1227385E-03 Eh
   gradient norm :     0.0038942 Eh/α   predicted    -0.1444902E-03 (  17.72%)
   displ. norm   :     0.1597988 α      lambda       -0.8668927E-04
   maximum displ.:     0.0984339 α      in ANC's #1, #8, #4, ...

........................................................................
.............................. CYCLE   49 ..............................
........................................................................
   1    -38.2780538 -0.382781E+02  0.372E-02    2.01       0.0  T
   2    -38.2780540 -0.121799E-06  0.220E-02    2.01       1.0  T
   3    -38.2780532  0.730314E-06  0.769E-03    2.01       2.3  T
   4    -38.2780541 -0.827556E-06  0.210E-03    2.01       8.6  T
   5    -38.2780541  0.242279E-08  0.164E-03    2.01      10.9  T
   6    -38.2780541 -0.854439E-08  0.429E-04    2.01      41.9  T
   7    -38.2780541 -0.164617E-08  0.208E-04    2.01      86.4  T
     SCC iter.                  ...        0 min,  0.359 sec
     gradient                   ...        0 min,  0.040 sec
 * total energy  :   -37.6497160 Eh     change       -0.8362668E-04 Eh
   gradient norm :     0.0028221 Eh/α   predicted    -0.4445084E-04 ( -46.85%)
   displ. norm   :     0.8298223 α      lambda       -0.4379839E-03
   maximum displ.:     0.5092903 α      in ANC's #1, #8, #4, ...

........................................................................
.............................. CYCLE   50 ..............................
........................................................................
   1    -38.2714639 -0.382715E+02  0.198E-01    1.99       0.0  T
   2    -38.2714709 -0.702061E-05  0.118E-01    2.00       1.0  T
   3    -38.2714393  0.316218E-04  0.472E-02    1.99       1.0  T
   4    -38.2714751 -0.358025E-04  0.134E-02    2.00       1.3  T
   5    -38.2714753 -0.187883E-06  0.107E-02    2.00       1.7  T
   6    -38.2714753 -0.117171E-07  0.405E-03    2.00       4.4  T
   7    -38.2714755 -0.205453E-06  0.122E-03    2.00      14.7  T
   8    -38.2714755 -0.763541E-08  0.567E-04    2.00      31.7  T
   9    -38.2714755 -0.221066E-08  0.284E-04    2.00      63.2  T
     SCC iter.                  ...        0 min,  0.387 sec
     gradient                   ...        0 min,  0.121 sec
 * total energy  :   -37.6498364 Eh     change       -0.1204150E-03 Eh
   gradient norm :     0.0198396 Eh/α   predicted    -0.3697598E-03 ( 207.07%)
   displ. norm   :     0.2355311 α      lambda       -0.5371894E-03
   maximum displ.:     0.1592227 α      in ANC's #1, #8, #4, ...

........................................................................
.............................. CYCLE   51 ..............................
........................................................................
   1    -38.2790735 -0.382791E+02  0.753E-02    2.00       0.0  T
   2    -38.2790809 -0.742178E-05  0.545E-02    2.00       1.0  T
   3    -38.2790807  0.207726E-06  0.298E-02    2.00       1.0  T
   4    -38.2790887 -0.800129E-05  0.116E-02    2.00       1.5  T
   5    -38.2790896 -0.927019E-06  0.769E-03    2.00       2.3  T
   6    -38.2790896  0.937394E-07  0.384E-03    2.00       4.7  T
   7    -38.2790897 -0.129299E-06  0.116E-03    2.00      15.4  T
   8    -38.2790897 -0.667850E-08  0.718E-04    2.00      25.0  T
   9    -38.2790897 -0.135679E-08  0.274E-04    2.00      65.5  T
     SCC iter.                  ...        0 min,  0.914 sec
     gradient                   ...        0 min,  0.168 sec
 * total energy  :   -37.6500325 Eh     change       -0.1961096E-03 Eh
   gradient norm :     0.0023447 Eh/α   predicted    -0.2835226E-03 (  44.57%)
   displ. norm   :     0.2328675 α      lambda       -0.1140145E-03
   maximum displ.:     0.1319395 α      in ANC's #1, #2, #8, ...

........................................................................
.............................. CYCLE   52 ..............................
........................................................................
   1    -38.2787323 -0.382787E+02  0.524E-02    2.00       0.0  T
   2    -38.2787327 -0.377520E-06  0.334E-02    2.00       1.0  T
   3    -38.2787307  0.193943E-05  0.878E-03    1.99       2.0  T
   4    -38.2787328 -0.205156E-05  0.504E-03    2.00       3.6  T
   5    -38.2787329 -0.132826E-06  0.284E-03    2.00       6.3  T
   6    -38.2787329 -0.102979E-07  0.989E-04    2.00      18.2  T
   7    -38.2787329 -0.129904E-07  0.310E-04    2.00      57.9  T
     SCC iter.                  ...        0 min,  0.657 sec
     gradient                   ...        0 min,  0.004 sec
 * total energy  :   -37.6501333 Eh     change       -0.1007817E-03 Eh
   gradient norm :     0.0028940 Eh/α   predicted    -0.6009162E-04 ( -40.37%)
   displ. norm   :     0.5633436 α      lambda       -0.2166345E-03
   maximum displ.:     0.3063664 α      in ANC's #1, #2, #8, ...

........................................................................
.............................. CYCLE   53 ..............................
........................................................................
   1    -38.2744743 -0.382745E+02  0.129E-01    1.98       0.0  T
   2    -38.2744775 -0.328666E-05  0.803E-02    1.99       1.0  T
   3    -38.2744680  0.951482E-05  0.250E-02    1.98       1.0  T
   4    -38.2744791 -0.110725E-04  0.842E-03    1.98       2.1  T
   5    -38.2744791 -0.750676E-08  0.659E-03    1.98       2.7  T
   6    -38.2744791 -0.303549E-07  0.233E-03    1.98       7.7  T
   7    -38.2744793 -0.119601E-06  0.787E-04    1.98      22.8  T
   8    -38.2744793 -0.528158E-08  0.359E-04    1.98      50.1  T
     SCC iter.                  ...        0 min,  0.890 sec
     gradient                   ...        0 min,  0.209 sec
 * total energy  :   -37.6501840 Eh     change       -0.5068949E-04 Eh
   gradient norm :     0.0131644 Eh/α   predicted    -0.1425739E-03 ( 181.27%)
   displ. norm   :     0.0537431 α      lambda        0.8533799E-04
   maximum displ.:     0.0256174 α      in ANC's #15, #16, #10, ...

........................................................................
.............................. CYCLE   54 ..............................
........................................................................
   1    -38.2749304 -0.382749E+02  0.414E-02    1.98       0.0  T
   2    -38.2749315 -0.106331E-05  0.333E-02    1.98       1.0  T
   3    -38.2749337 -0.224299E-05  0.186E-02    1.98       1.0  T
   4    -38.2749347 -0.913728E-06  0.725E-03    1.98       2.5  T
   5    -38.2749352 -0.539384E-06  0.438E-03    1.98       4.1  T
   6    -38.2749352 -0.148077E-07  0.118E-03    1.98      15.2  T
   7    -38.2749352 -0.308757E-07  0.441E-04    1.98      40.8  T
   8    -38.2749352 -0.942102E-09  0.286E-04    1.98      62.8  T
     SCC iter.                  ...        0 min,  0.734 sec
     gradient                   ...        0 min,  0.191 sec
 * total energy  :   -37.6501568 Eh     change        0.2716580E-04 Eh
   gradient norm :     0.0103398 Eh/α   predicted     0.4281658E-04 (  57.61%)
   displ. norm   :     0.1085171 α      lambda       -0.2699050E-03
   maximum displ.:     0.0515385 α      in ANC's #8, #15, #1, ...

........................................................................
.............................. CYCLE   55 ..............................
........................................................................
   1    -38.2794683 -0.382795E+02  0.542E-02    1.99       0.0  T
   2    -38.2794696 -0.130376E-05  0.364E-02    1.99       1.0  T
   3    -38.2794656  0.402136E-05  0.219E-02    1.99       1.0  T
   4    -38.2794723 -0.669852E-05  0.710E-03    1.99       2.5  T
   5    -38.2794726 -0.321049E-06  0.436E-03    1.99       4.1  T
   6    -38.2794726  0.391802E-07  0.192E-03    1.99       9.4  T
   7    -38.2794727 -0.732717E-07  0.665E-04    1.99      27.0  T
   8    -38.2794727 -0.107124E-08  0.336E-04    1.99      53.4  T
     SCC iter.                  ...        0 min,  0.800 sec
     gradient                   ...        0 min,  0.189 sec
 * total energy  :   -37.6502831 Eh     change       -0.1262837E-03 Eh
   gradient norm :     0.0026838 Eh/α   predicted    -0.1365737E-03 (   8.15%)
   displ. norm   :     0.1348435 α      lambda       -0.3601124E-04
   maximum displ.:     0.0802233 α      in ANC's #2, #1, #4, ...

........................................................................
.............................. CYCLE   56 ..............................
........................................................................
   1    -38.2791242 -0.382791E+02  0.299E-02    1.98       0.0  T
   2    -38.2791245 -0.213841E-06  0.183E-02    1.98       1.0  T
   3    -38.2791231  0.136791E-05  0.106E-02    1.98       1.7  T
   4    -38.2791246 -0.156008E-05  0.297E-03    1.98       6.0  T
   5    -38.2791246  0.149115E-07  0.239E-03    1.98       7.5  T
   6    -38.2791247 -0.345290E-07  0.496E-04    1.98      36.2  T
   7    -38.2791247 -0.519096E-08  0.229E-04    1.98      78.3  T
     SCC iter.                  ...        0 min,  0.533 sec
     gradient                   ...        0 min,  0.151 sec
 * total energy  :   -37.6503126 Eh     change       -0.2951016E-04 Eh
   gradient norm :     0.0029532 Eh/α   predicted    -0.1831447E-04 ( -37.94%)
   displ. norm   :     0.1656941 α      lambda       -0.3837775E-04
   maximum displ.:     0.1012086 α      in ANC's #2, #1, #3, ...

........................................................................
.............................. CYCLE   57 ..............................
........................................................................
   1    -38.2790168 -0.382790E+02  0.344E-02    1.98       0.0  T
   2    -38.2790171 -0.382738E-06  0.207E-02    1.98       1.0  T
   3    -38.2790152  0.192680E-05  0.136E-02    1.98       1.3  T
   4    -38.2790176 -0.240393E-05  0.247E-03    1.98       7.3  T
   5    -38.2790177 -0.404813E-07  0.169E-03    1.98      10.6  T
   6    -38.2790177 -0.933299E-08  0.491E-04    1.98      36.6  T
   7    -38.2790177 -0.225185E-08  0.216E-04    1.98      83.3  T
     SCC iter.                  ...        0 min,  0.609 sec
     gradient                   ...        0 min,  0.183 sec
 * total energy  :   -37.6503428 Eh     change       -0.3015084E-04 Eh
   gradient norm :     0.0027088 Eh/α   predicted    -0.1968725E-04 ( -34.70%)
   displ. norm   :     0.1432760 α      lambda       -0.3375010E-04
   maximum displ.:     0.1003998 α      in ANC's #2, #1, #3, ...

........................................................................
.............................. CYCLE   58 ..............................
........................................................................
   1    -38.2791989 -0.382792E+02  0.294E-02    1.98       0.0  T
   2    -38.2791994 -0.471900E-06  0.159E-02    1.97       1.1  T
   3    -38.2791985  0.866344E-06  0.157E-02    1.98       1.1  T
   4    -38.2792006 -0.211152E-05  0.362E-03    1.97       5.0  T
   5    -38.2792007 -0.374323E-07  0.258E-03    1.97       7.0  T
   6    -38.2792007 -0.354055E-07  0.515E-04    1.97      34.9  T
   7    -38.2792007 -0.266527E-08  0.196E-04    1.97      91.5  T
     SCC iter.                  ...        0 min,  0.418 sec
     gradient                   ...        0 min,  0.182 sec
 * total energy  :   -37.6503689 Eh     change       -0.2616522E-04 Eh
   gradient norm :     0.0010716 Eh/α   predicted    -0.1720662E-04 ( -34.24%)
   displ. norm   :     0.1700828 α      lambda       -0.3073822E-04
   maximum displ.:     0.1333828 α      in ANC's #2, #3, #1, ...

........................................................................
.............................. CYCLE   59 ..............................
........................................................................
   1    -38.2798207 -0.382798E+02  0.337E-02    1.97       0.0  T
   2    -38.2798212 -0.570453E-06  0.186E-02    1.97       1.0  T
   3    -38.2798207  0.538573E-06  0.114E-02    1.97       1.6  T
   4    -38.2798215 -0.778050E-06  0.250E-03    1.97       7.2  T
   5    -38.2798215  0.495491E-08  0.191E-03    1.97       9.4  T
   6    -38.2798215 -0.233847E-07  0.483E-04    1.97      37.2  T
   7    -38.2798215 -0.260230E-08  0.317E-04    1.97      56.7  T
     SCC iter.                  ...        0 min,  0.521 sec
     gradient                   ...        0 min,  0.128 sec
 * total energy  :   -37.6504001 Eh     change       -0.3120758E-04 Eh
   gradient norm :     0.0032516 Eh/α   predicted    -0.1556414E-04 ( -50.13%)
   displ. norm   :     0.0741313 α      lambda       -0.2539161E-04
   maximum displ.:     0.0611199 α      in ANC's #2, #3, #1, ...

........................................................................
.............................. CYCLE   60 ..............................
........................................................................
   1    -38.2798795 -0.382799E+02  0.160E-02    1.97       0.0  T
   2    -38.2798796 -0.691772E-07  0.931E-03    1.97       1.9  T
   3    -38.2798791  0.531291E-06  0.729E-03    1.97       2.5  T
   4    -38.2798797 -0.643745E-06  0.105E-03    1.97      17.1  T
   5    -38.2798797 -0.433802E-08  0.846E-04    1.97      21.2  T
   6    -38.2798797 -0.540925E-08  0.278E-04    1.97      64.7  T
     SCC iter.                  ...        0 min,  0.390 sec
     gradient                   ...        0 min,  0.065 sec
 * total energy  :   -37.6504223 Eh     change       -0.2218578E-04 Eh
   gradient norm :     0.0025849 Eh/α   predicted    -0.1276957E-04 ( -42.44%)
   displ. norm   :     0.1004282 α      lambda       -0.3673668E-04
   maximum displ.:     0.0839593 α      in ANC's #2, #3, #8, ...

........................................................................
.............................. CYCLE   61 ..............................
........................................................................
   1    -38.2796185 -0.382796E+02  0.220E-02    1.98       0.0  T
   2    -38.2796186 -0.963978E-07  0.128E-02    1.98       1.4  T
   3    -38.2796173  0.127029E-05  0.112E-02    1.98       1.6  T
   4    -38.2796188 -0.148981E-05  0.219E-03    1.98       8.2  T
   5    -38.2796188  0.387618E-08  0.169E-03    1.98      10.7  T
   6    -38.2796188 -0.132377E-07  0.408E-04    1.98      44.0  T
   7    -38.2796188 -0.222951E-08  0.143E-04    1.98     125.5  T
     SCC iter.                  ...        0 min,  0.530 sec
     gradient                   ...        0 min,  0.145 sec
 * total energy  :   -37.6504537 Eh     change       -0.3134280E-04 Eh
   gradient norm :     0.0024490 Eh/α   predicted    -0.1855402E-04 ( -40.80%)
   displ. norm   :     0.1267331 α      lambda       -0.3792317E-04
   maximum displ.:     0.1025798 α      in ANC's #2, #3, #8, ...

........................................................................
.............................. CYCLE   62 ..............................
........................................................................
   1    -38.2791743 -0.382792E+02  0.267E-02    1.98       0.0  T
   2    -38.2791744 -0.141323E-06  0.185E-02    1.98       1.0  T
   3    -38.2791738  0.574802E-06  0.487E-03    1.98       3.7  T
   4    -38.2791745 -0.621983E-06  0.259E-03    1.98       6.9  T
   5    -38.2791745 -0.293020E-07  0.139E-03    1.98      12.9  T
   6    -38.2791745  0.824897E-09  0.559E-04    1.98      32.1  T
   7    -38.2791745 -0.528713E-08  0.181E-04    1.98      99.3  T
     SCC iter.                  ...        0 min,  0.551 sec
     gradient                   ...        0 min,  0.180 sec
 * total energy  :   -37.6504855 Eh     change       -0.3182516E-04 Eh
   gradient norm :     0.0018218 Eh/α   predicted    -0.1927013E-04 ( -39.45%)
   displ. norm   :     0.1991629 α      lambda       -0.3180073E-04
   maximum displ.:     0.1590939 α      in ANC's #2, #3, #8, ...

........................................................................
.............................. CYCLE   63 ..............................
........................................................................
   1    -38.2786805 -0.382787E+02  0.439E-02    1.98       0.0  T
   2    -38.2786808 -0.364467E-06  0.323E-02    1.98       1.0  T
   3    -38.2786765  0.433891E-05  0.125E-02    1.98       1.4  T
   4    -38.2786811 -0.456780E-05  0.439E-03    1.98       4.1  T
   5    -38.2786812 -0.151158E-06  0.232E-03    1.98       7.7  T
   6    -38.2786812 -0.146994E-07  0.618E-04    1.98      29.0  T
   7    -38.2786812 -0.603141E-08  0.261E-04    1.98      68.9  T
     SCC iter.                  ...        0 min,  0.616 sec
     gradient                   ...        0 min,  0.151 sec
 * total energy  :   -37.6505220 Eh     change       -0.3647830E-04 Eh
   gradient norm :     0.0016294 Eh/α   predicted    -0.1618180E-04 ( -55.64%)
   displ. norm   :     0.1718626 α      lambda       -0.2238946E-04
   maximum displ.:     0.1390388 α      in ANC's #2, #3, #5, ...

........................................................................
.............................. CYCLE   64 ..............................
........................................................................
   1    -38.2787928 -0.382788E+02  0.410E-02    1.98       0.0  T
   2    -38.2787932 -0.349155E-06  0.325E-02    1.98       1.0  T
   3    -38.2787884  0.479749E-05  0.153E-02    1.98       1.2  T
   4    -38.2787943 -0.590956E-05  0.305E-03    1.98       5.9  T
   5    -38.2787944 -0.113681E-06  0.185E-03    1.98       9.7  T
   6    -38.2787944 -0.100119E-07  0.591E-04    1.98      30.4  T
   7    -38.2787944 -0.403126E-08  0.268E-04    1.98      66.9  T
     SCC iter.                  ...        0 min,  0.421 sec
     gradient                   ...        0 min,  0.047 sec
 * total energy  :   -37.6505499 Eh     change       -0.2788950E-04 Eh
   gradient norm :     0.0014025 Eh/α   predicted    -0.1134321E-04 ( -59.33%)
   displ. norm   :     0.2248387 α      lambda       -0.2612178E-04
   maximum displ.:     0.1820905 α      in ANC's #2, #3, #5, ...

........................................................................
.............................. CYCLE   65 ..............................
........................................................................
   1    -38.2790554 -0.382791E+02  0.576E-02    1.98       0.0  T
   2    -38.2790559 -0.570162E-06  0.447E-02    1.98       1.0  T
   3    -38.2790428  0.131574E-04  0.217E-02    1.98       1.0  T
   4    -38.2790575 -0.147610E-04  0.416E-03    1.98       4.3  T
   5    -38.2790577 -0.178096E-06  0.246E-03    1.98       7.3  T
   6    -38.2790577 -0.185983E-07  0.811E-04    1.98      22.1  T
   7    -38.2790577 -0.633487E-08  0.363E-04    1.98      49.5  T
     SCC iter.                  ...        0 min,  0.486 sec
     gradient                   ...        0 min,  0.174 sec
 * total energy  :   -37.6505798 Eh     change       -0.2992245E-04 Eh
   gradient norm :     0.0013017 Eh/α   predicted    -0.1335843E-04 ( -55.36%)
   displ. norm   :     0.2417741 α      lambda       -0.2222567E-04
   maximum displ.:     0.1996190 α      in ANC's #2, #3, #5, ...

........................................................................
.............................. CYCLE   66 ..............................
........................................................................
   1    -38.2795176 -0.382795E+02  0.634E-02    1.98       0.0  T
   2    -38.2795183 -0.720565E-06  0.496E-02    1.98       1.0  T
   3    -38.2795085  0.980239E-05  0.257E-02    1.98       1.0  T
   4    -38.2795218 -0.132442E-04  0.444E-03    1.98       4.0  T
   5    -38.2795220 -0.188457E-06  0.300E-03    1.98       6.0  T
   6    -38.2795220 -0.234052E-07  0.940E-04    1.98      19.1  T
   7    -38.2795220 -0.611013E-08  0.494E-04    1.98      36.3  T
     SCC iter.                  ...        0 min,  0.565 sec
     gradient                   ...        0 min,  0.166 sec
 * total energy  :   -37.6506020 Eh     change       -0.2225761E-04 Eh
   gradient norm :     0.0011981 Eh/α   predicted    -0.1140445E-04 ( -48.76%)
   displ. norm   :     0.1871009 α      lambda       -0.1250254E-04
   maximum displ.:     0.1565858 α      in ANC's #2, #3, #5, ...
 * RMSD in coord.:     0.6300992 α      energy gain  -0.1194684E-02 Eh

generating ANC from model Hessian ...
Using Lindh-Hessian (1995)
 Shifting diagonal of input Hessian by    1.0994030119570551E-002
 Lowest  eigenvalues of input Hessian
    0.010000    0.000000    0.000000    0.000000    0.000000    0.000000
    0.000000    0.011009    0.011485    0.012129    0.012399    0.012636
    0.013208    0.015901    0.017198    0.018770    0.018888    0.019034
 Highest eigenvalues
    1.682296    1.735525    1.736482    1.741158    1.741770    3.583681


........................................................................
.............................. CYCLE   67 ..............................
........................................................................
   1    -38.2796744 -0.382797E+02  0.452E-02    1.98       0.0  T
   2    -38.2796746 -0.227513E-06  0.327E-02    1.98       1.0  T
   3    -38.2796693  0.533253E-05  0.137E-02    1.97       1.3  T
   4    -38.2796749 -0.556202E-05  0.374E-03    1.98       4.8  T
   5    -38.2796750 -0.110008E-06  0.203E-03    1.98       8.8  T
   6    -38.2796750 -0.135760E-07  0.511E-04    1.98      35.1  T
   7    -38.2796750 -0.126960E-08  0.264E-04    1.98      68.1  T
     SCC iter.                  ...        0 min,  0.453 sec
     gradient                   ...        0 min,  0.139 sec
 * total energy  :   -37.6506149 Eh     change       -0.1290841E-04 Eh
   gradient norm :     0.0019255 Eh/α   predicted     0.0000000E+00 (-100.00%)
   displ. norm   :     0.0329975 α      lambda        0.3469647E-05
   maximum displ.:     0.0229249 α      in ANC's #1, #2, #3, ...

........................................................................
.............................. CYCLE   68 ..............................
........................................................................
   1    -38.2799983 -0.382800E+02  0.186E-02    1.98       0.0  T
   2    -38.2799983 -0.470123E-07  0.131E-02    1.98       1.4  T
   3    -38.2799970  0.129908E-05  0.766E-03    1.98       2.3  T
   4    -38.2799985 -0.146465E-05  0.140E-03    1.98      12.8  T
   5    -38.2799985 -0.552518E-08  0.921E-04    1.98      19.5  T
   6    -38.2799985  0.244562E-09  0.244E-04    1.98      73.7  T
     SCC iter.                  ...        0 min,  0.402 sec
     gradient                   ...        0 min,  0.048 sec
 * total energy  :   -37.6506178 Eh     change       -0.2901048E-05 Eh
   gradient norm :     0.0009354 Eh/α   predicted    -0.3993851E-05 (  37.67%)
   displ. norm   :     0.0306458 α      lambda       -0.7336099E-05
   maximum displ.:     0.0164198 α      in ANC's #2, #3, #15, ...

   *** GEOMETRY OPTIMIZATION CONVERGED AFTER 68 ITERATIONS ***

------------------------------------------------------------------------
 total energy gain   :        -4.0156860 Eh    -2519.8810 kcal/mol
 total RMSD          :         1.4903897 a0        0.7887 Å
 total power (kW/mol):      -155.0467970 (step) -339.8932 (real)
------------------------------------------------------------------------

 ANCopt (total)                0 d,  0 h,  0 min, 31.019 sec
 optimizer setup                ...        0 min,  0.000 sec (  0.001%)
 model hessian                  ...        0 min,  0.165 sec (  0.532%)
 ANC generation                 ...        0 min,  0.028 sec (  0.090%)
 coordinate transformation      ...        0 min,  0.001 sec (  0.003%)
 single point calculation       ...        0 min, 30.330 sec ( 97.780%)
 optimization log               ...        0 min,  0.007 sec (  0.022%)
 hessian update                 ...        0 min,  0.331 sec (  1.068%)
 rational function              ...        0 min,  0.149 sec (  0.479%)

================
 final structure:
================
31
 xtb: 6.5.1 (b24c23e)
Zr          -1.09630624584919       -0.06342101671663        0.42448139555400
C           -3.44301547710923        0.39292689890920       -0.00478613893625
C           -0.80117457275571       -2.34413426571229        1.32017681178317
C            0.33423826667312       -2.04778127971890        0.52453368840326
C           -0.09613363233263       -1.91163791090451       -0.81809378993641
C           -1.49847022786247       -2.12795265344510       -0.85058007324125
C           -1.93020277882059       -2.39575299305444        0.46975937806952
H           -0.78420801671155       -2.64473889181558        2.36205286230038
H            1.36833087188441       -2.08797168970027        0.84969888379572
H            0.55565868282980       -1.84285830291847       -1.68194701826155
H           -2.09959845943700       -2.22215166874059       -1.74723118536506
H           -2.91705583348228       -2.74420702992208        0.75593980218189
C            0.23979959852534        0.33056140682479        2.44888211925253
C           -1.09170243462623        0.67593556054650        2.77965058870894
C           -1.44478291846129        1.82075588544684        2.02143144871350
C           -0.34553241652376        2.16327413611837        1.20655395968606
C            0.69441221884841        1.22639730384499        1.44905412275416
H            0.85288779548018       -0.39151797897196        2.97518086137104
H           -1.66663376341300        0.25862016546661        3.60067265084476
H           -2.33939756049236        2.41753607765999        2.15611975963768
H           -0.25056715361723        3.07456585847065        0.62950346933211
H            1.71493907283742        1.30577992520989        1.08660641497361
C           -0.89298085678186        0.94670654471215       -1.55865695695357
C           -2.25514916069100        1.42311120141648       -1.38090204836713
H           -2.96034496238072        1.21174344969791       -2.18134763718028
H           -2.36952915081136        2.43325882023555       -0.98748697497811
H           -0.76970763791547        0.31479261897178       -2.44272333958346
H           -0.13005644186998        1.73053027760742       -1.50130113737089
H           -3.11942142693923        0.00980260625448        0.99135894821317
H           -4.17219906169831        1.18459018171400        0.15100940964993
H           -3.89799554648375       -0.39805111744298       -0.60256615506898

 Bond Distances (Angstroems)
 ---------------------------
Zr1-C2=2.4289        Zr1-C3=2.4680        Zr1-C4=2.4483        Zr1-C5=2.4414        Zr1-C6=2.4596        Zr1-C7=2.4773        
Zr1-C13=2.4574       Zr1-C14=2.4685       Zr1-C15=2.4944       Zr1-C16=2.4766       Zr1-C17=2.4331       Zr1-C23=2.2348       
Zr1-C24=2.6100       Zr1-H29=2.1023       C2-Zr1=2.4289        C2-H29=1.1153        C2-H30=1.0875        C2-H31=1.0909        
C3-Zr1=2.4680        C3-C4=1.4178         C3-C7=1.4144         C3-H8=1.0845         C4-Zr1=2.4483        C4-C3=1.4178         
C4-C5=1.4165         C4-H9=1.0848         C5-Zr1=2.4414        C5-C4=1.4165         C5-C6=1.4193         C5-H10=1.0843        
C6-Zr1=2.4596        C6-C5=1.4193         C6-C7=1.4147         C6-H11=1.0836        C7-Zr1=2.4773        C7-C3=1.4144         
C7-C6=1.4147         C7-H12=1.0850        H8-C3=1.0845         H9-C4=1.0848         H10-C5=1.0843        H11-C6=1.0836        
H12-C7=1.0850        C13-Zr1=2.4574       C13-C14=1.4148       C13-C17=1.4173       C13-H18=1.0836       C14-Zr1=2.4685       
C14-C13=1.4148       C14-C15=1.4178       C14-H19=1.0857       C15-Zr1=2.4944       C15-C14=1.4178       C15-C16=1.4106       
C15-H20=1.0838       C16-Zr1=2.4766       C16-C15=1.4106       C16-C17=1.4206       C16-H21=1.0828       C17-Zr1=2.4331       
C17-C13=1.4173       C17-C16=1.4206       C17-H22=1.0859       H18-C13=1.0836       H19-C14=1.0857       H20-C15=1.0838       
H21-C16=1.0828       H22-C17=1.0859       C23-Zr1=2.2348       C23-C24=1.4540       C23-H27=1.0937       C23-H28=1.0953       
C24-Zr1=2.6100       C24-C23=1.4540       C24-H25=1.0875       C24-H26=1.0901       H25-C24=1.0875       H26-C24=1.0901       
H27-C23=1.0937       H28-C23=1.0953       H29-Zr1=2.1023       H29-C2=1.1153        H30-C2=1.0875        H31-C2=1.0909        
 C  H  Rav=1.0885 sigma=0.0076  Rmin=1.0828  Rmax=1.1153    17
 C  C  Rav=1.4198 sigma=0.0111  Rmin=1.4106  Rmax=1.4540    11
 Zr H  Rav=2.1023 sigma=0.0000  Rmin=2.1023  Rmax=2.1023     1
 Zr C  Rav=2.4537 sigma=0.0768  Rmin=2.2348  Rmax=2.6100    13

 selected bond angles (degree)
 --------------------
C3-Zr1-C2=110.69               C4-Zr1-C2=136.39               C4-Zr1-C3= 33.52               C5-Zr1-C2=116.62               
C5-Zr1-C3= 55.68               C5-Zr1-C4= 33.68               C6-Zr1-C2= 84.73               C6-Zr1-C3= 55.39               
C6-Zr1-C4= 55.70               C6-Zr1-C5= 33.66               C7-Zr1-C2= 81.66               C7-Zr1-C3= 33.24               
C7-Zr1-C4= 55.45               C7-Zr1-C5= 55.56               C7-Zr1-C6= 33.30               C13-Zr1-C2=129.85              
C13-Zr1-C3= 77.54              C13-Zr1-C4= 77.21              C13-Zr1-C5=108.54              C13-Zr1-C6=130.58              
C13-Zr1-C7=108.60              C14-Zr1-C2= 96.55              C14-Zr1-C3= 86.00              C14-Zr1-C4=101.69              
C14-Zr1-C5=135.36              C14-Zr1-C6=138.27              C14-Zr1-C7=105.38              C14-Zr1-C13= 33.38             
C15-Zr1-C2= 80.58              C15-Zr1-C3=118.84              C15-Zr1-C4=131.89              C15-Zr1-C5=162.73              
C15-Zr1-C6=160.58              C15-Zr1-C7=130.73              C15-Zr1-C13= 55.07             C15-Zr1-C14= 33.19             
C16-Zr1-C2=100.36              C16-Zr1-C3=132.84              C16-Zr1-C4=122.59              C16-Zr1-C5=135.82              
C16-Zr1-C6=165.45              C16-Zr1-C7=160.52              C16-Zr1-C13= 55.31             C16-Zr1-C14= 55.17             
C16-Zr1-C15= 32.97             C17-Zr1-C2=133.31              C17-Zr1-C3=104.42              C17-Zr1-C4= 88.99              
C17-Zr1-C5=108.31              C17-Zr1-C6=141.59              C17-Zr1-C7=137.66              C17-Zr1-C13= 33.69             
C17-Zr1-C14= 55.81             C17-Zr1-C15= 55.44             C17-Zr1-C16= 33.62             C23-Zr1-C2= 81.15              
C23-Zr1-C3=136.79              C23-Zr1-C4=110.45              C23-Zr1-C5= 81.56              C23-Zr1-C6= 86.23              
C23-Zr1-C7=118.19              C23-Zr1-C13=127.52             C23-Zr1-C14=135.32             C23-Zr1-C15=103.85             
C23-Zr1-C16= 81.16             C23-Zr1-C17= 93.85             C24-Zr1-C2= 48.83              C24-Zr1-C3=146.15              
C24-Zr1-C4=138.53              C24-Zr1-C5=105.13              C24-Zr1-C6= 92.69              C24-Zr1-C7=113.54              
C24-Zr1-C13=136.05             C24-Zr1-C14=119.35             C24-Zr1-C15= 87.17             C24-Zr1-C16= 80.85             
C24-Zr1-C17=108.43             C24-Zr1-C23= 33.81             H29-Zr1-C2= 27.30              H29-Zr1-C3= 92.83              
H29-Zr1-C4=125.42              H29-Zr1-C5=123.91              H29-Zr1-C6= 90.67              H29-Zr1-C7= 72.78              
H29-Zr1-C13=107.19             H29-Zr1-C14= 74.58             H29-Zr1-C15= 70.53             H29-Zr1-C16=100.09             
H29-Zr1-C17=125.19             H29-Zr1-C23=108.12             H29-Zr1-C24= 74.89             H29-C2-Zr1= 59.82              
H30-C2-Zr1=139.40              H30-C2-H29=108.46              H31-C2-Zr1=111.32              H31-C2-H29=111.19              
H31-C2-H30=109.07              C4-C3-Zr1= 72.48               C7-C3-Zr1= 73.74               C7-C3-C4=108.03                
H8-C3-Zr1=127.35               H8-C3-C4=125.77                H8-C3-C7=125.45                C3-C4-Zr1= 74.00               
C5-C4-Zr1= 72.89               C5-C4-C3=107.98                H9-C4-Zr1=126.82               H9-C4-C3=125.98                
H9-C4-C5=125.26                C4-C5-Zr1= 73.43               C6-C5-Zr1= 73.87               C6-C5-C4=107.89                
H10-C5-Zr1=127.14              H10-C5-C4=125.35               H10-C5-C6=125.83               C5-C6-Zr1= 72.46               
C7-C6-Zr1= 74.04               C7-C6-C5=108.00                H11-C6-Zr1=126.34              H11-C6-C5=125.47               
H11-C6-C7=125.91               C3-C7-Zr1= 73.02               C6-C7-Zr1= 72.66               C6-C7-C3=108.10                
H12-C7-Zr1=127.83              H12-C7-C3=125.39               H12-C7-C6=125.77               

 selected dihedral angles (degree)
 ---------------------------------
H29-C2-Zr1-C3= 51.93          H29-C2-Zr1-C4= 78.34          H29-C2-Zr1-C5=112.92          H29-C2-Zr1-C6=101.79          
H29-C2-Zr1-C7= 68.39          H29-C2-Zr1-C13=321.08         H29-C2-Zr1-C14=323.74         H29-C2-Zr1-C15=294.54         
H29-C2-Zr1-C16=268.03         H29-C2-Zr1-C17=275.72         H29-C2-Zr1-C23=188.79         H29-C2-Zr1-C24=200.03         
H30-C2-Zr1-C3=135.29          H30-C2-Zr1-C4=161.70          H30-C2-Zr1-C5=196.28          H30-C2-Zr1-C6=185.15          
H30-C2-Zr1-C7=151.75          H30-C2-Zr1-C13= 44.44         H30-C2-Zr1-C14= 47.10         H30-C2-Zr1-C15= 17.90         
H30-C2-Zr1-C16=351.39         H30-C2-Zr1-C17=359.08         H30-C2-Zr1-C23=272.15         H30-C2-Zr1-C24=283.39         
H30-C2-Zr1-H29= 83.36         H31-C2-Zr1-C3=309.11          H31-C2-Zr1-C4=335.53          H31-C2-Zr1-C5= 10.10          
H31-C2-Zr1-C6=358.98          H31-C2-Zr1-C7=325.57          H31-C2-Zr1-C13=218.27         H31-C2-Zr1-C14=220.92         
H31-C2-Zr1-C15=191.72         H31-C2-Zr1-C16=165.22         H31-C2-Zr1-C17=172.91         H31-C2-Zr1-C23= 85.97         
H31-C2-Zr1-C24= 97.21         H31-C2-Zr1-H29=257.19         C4-C3-Zr1-C2=146.24           C4-C3-Zr1-C5= 37.45           
C4-C3-Zr1-C6= 78.57           C4-C3-Zr1-C7=115.47           C4-C3-Zr1-C13=274.41          C4-C3-Zr1-C14=241.74          
C4-C3-Zr1-C15=236.71          C4-C3-Zr1-C16=274.00          C4-C3-Zr1-C17=294.90          C4-C3-Zr1-C23= 46.93          
C4-C3-Zr1-C24=100.67          C4-C3-Zr1-H29=167.43          C7-C3-Zr1-C2= 30.77           C7-C3-Zr1-C4=244.53           
C7-C3-Zr1-C5=281.97           C7-C3-Zr1-C6=323.10           C7-C3-Zr1-C13=158.94          C7-C3-Zr1-C14=126.27          
C7-C3-Zr1-C15=121.23          C7-C3-Zr1-C16=158.53          C7-C3-Zr1-C17=179.43          C7-C3-Zr1-C23=291.45          
C7-C3-Zr1-C24=345.20          C7-C3-Zr1-H29= 51.95          H8-C3-Zr1-C2=268.26           H8-C3-Zr1-C4=122.02           
H8-C3-Zr1-C5=159.46           H8-C3-Zr1-C6=200.59           H8-C3-Zr1-C7=237.49           H8-C3-Zr1-C13= 36.43          
H8-C3-Zr1-C14=  3.76          H8-C3-Zr1-C15=358.72          H8-C3-Zr1-C16= 36.02          H8-C3-Zr1-C17= 56.92          
H8-C3-Zr1-C23=168.94          H8-C3-Zr1-C24=222.69          H8-C3-Zr1-H29=289.44          C3-C4-Zr1-C2=311.09           
C3-C4-Zr1-C5=244.90           C3-C4-Zr1-C6=282.42           C3-C4-Zr1-C7=323.07           C3-C4-Zr1-C13= 86.67          
C3-C4-Zr1-C14= 63.81          C3-C4-Zr1-C15= 79.59          C3-C4-Zr1-C16=119.76          C3-C4-Zr1-C17=118.53          
C3-C4-Zr1-C23=212.26          C3-C4-Zr1-C24=235.76          C3-C4-Zr1-H29=344.53          C5-C4-Zr1-C2= 66.19           
C5-C4-Zr1-C3=115.10           C5-C4-Zr1-C6= 37.52           C5-C4-Zr1-C7= 78.18           C5-C4-Zr1-C13=201.78          
C5-C4-Zr1-C14=178.91          C5-C4-Zr1-C15=194.70          C5-C4-Zr1-C16=234.86          C5-C4-Zr1-C17=233.63          
C5-C4-Zr1-C23=327.36          C5-C4-Zr1-C24=350.86          C5-C4-Zr1-H29= 99.63          H9-C4-Zr1-C2=187.80           
H9-C4-Zr1-C3=236.71           H9-C4-Zr1-C5=121.61           H9-C4-Zr1-C6=159.14           H9-C4-Zr1-C7=199.79           
H9-C4-Zr1-C13=323.39          H9-C4-Zr1-C14=300.52          H9-C4-Zr1-C15=316.31          H9-C4-Zr1-C16=356.47          
H9-C4-Zr1-C17=355.24          H9-C4-Zr1-C23= 88.98          H9-C4-Zr1-C24=112.47          H9-C4-Zr1-H29=221.24          
Zr1-C4-C3-C7= 65.70           Zr1-C4-C3-H8=236.18           C5-C4-C3-Zr1=294.51           C5-C4-C3-C7=  0.21            
C5-C4-C3-H8=170.68            H9-C4-C3-Zr1=124.21           H9-C4-C3-C7=189.92            H9-C4-C3-H8=  0.39            
C4-C5-Zr1-C2=224.90           C4-C5-Zr1-C3=322.74           C4-C5-Zr1-C6=245.18           C4-C5-Zr1-C7=282.18           
C4-C5-Zr1-C13= 22.43          C4-C5-Zr1-C14=358.48          C4-C5-Zr1-C15= 39.52          C4-C5-Zr1-C16= 81.35          
C4-C5-Zr1-C17= 58.00          C4-C5-Zr1-C23=149.28          C4-C5-Zr1-C24=173.75          C4-C5-Zr1-H29=255.49          
C6-C5-Zr1-C2=339.72           C6-C5-Zr1-C3= 77.55           C6-C5-Zr1-C4=114.82           C6-C5-Zr1-C7= 37.00           
C6-C5-Zr1-C13=137.25          C6-C5-Zr1-C14=113.30          C6-C5-Zr1-C15=154.33          C6-C5-Zr1-C16=196.17          
C6-C5-Zr1-C17=172.82          C6-C5-Zr1-C23=264.10          C6-C5-Zr1-C24=288.56          C6-C5-Zr1-H29= 10.31          
H10-C5-Zr1-C2=102.77          H10-C5-Zr1-C3=200.60          H10-C5-Zr1-C4=237.87          H10-C5-Zr1-C6=123.05          
H10-C5-Zr1-C7=160.05          H10-C5-Zr1-C13=260.30         H10-C5-Zr1-C14=236.35         H10-C5-Zr1-C15=277.38         
H10-C5-Zr1-C16=319.22         H10-C5-Zr1-C17=295.87         H10-C5-Zr1-C23= 27.15         H10-C5-Zr1-C24= 51.61         
H10-C5-Zr1-H29=133.36         Zr1-C5-C4-C3= 66.23           Zr1-C5-C4-H9=236.61           C6-C5-C4-Zr1=293.61           
C6-C5-C4-C3=359.85            C6-C5-C4-H9=170.23            H10-C5-C4-Zr1=124.14          H10-C5-C4-C3=190.37           
H10-C5-C4-H9=  0.75           C5-C6-Zr1-C2=161.87           C5-C6-Zr1-C3=281.52           C5-C6-Zr1-C4=322.46           
C5-C6-Zr1-C7=244.69           C5-C6-Zr1-C13=302.07          C5-C6-Zr1-C14=255.81          C5-C6-Zr1-C15=202.74          
C5-C6-Zr1-C16= 50.57          C5-C6-Zr1-C17=348.98          C5-C6-Zr1-C23= 80.42          C5-C6-Zr1-C24=113.63          
C5-C6-Zr1-H29=188.54          C7-C6-Zr1-C2=277.18           C7-C6-Zr1-C3= 36.83           C7-C6-Zr1-C4= 77.77           
C7-C6-Zr1-C5=115.31           C7-C6-Zr1-C13= 57.38          C7-C6-Zr1-C14= 11.12          C7-C6-Zr1-C15=318.05          
C7-C6-Zr1-C16=165.88          C7-C6-Zr1-C17=104.29          C7-C6-Zr1-C23=195.73          C7-C6-Zr1-C24=228.94          
C7-C6-Zr1-H29=303.85          H11-C6-Zr1-C2= 40.33          H11-C6-Zr1-C3=159.99          H11-C6-Zr1-C4=200.92          
H11-C6-Zr1-C5=238.46          H11-C6-Zr1-C7=123.15          H11-C6-Zr1-C13=180.53         H11-C6-Zr1-C14=134.27         
H11-C6-Zr1-C15= 81.20         H11-C6-Zr1-C16=289.04         H11-C6-Zr1-C17=227.45         H11-C6-Zr1-C23=318.89         
H11-C6-Zr1-C24=352.10         H11-C6-Zr1-H29= 67.01         Zr1-C6-C5-C4= 66.09           Zr1-C6-C5-H10=235.50          
C7-C6-C5-Zr1=293.95           C7-C6-C5-C4=  0.04            C7-C6-C5-H10=169.45           H11-C6-C5-Zr1=122.55          
H11-C6-C5-C4=188.63           H11-C6-C5-H10=358.05          C3-C7-Zr1-C2=208.92           C3-C7-Zr1-C4= 37.25           
C3-C7-Zr1-C5= 78.40           C3-C7-Zr1-C6=115.82           C3-C7-Zr1-C13=338.27          C3-C7-Zr1-C14=303.47          
C3-C7-Zr1-C15=278.76          C3-C7-Zr1-C16=306.41          C3-C7-Zr1-C17=359.18          C3-C7-Zr1-C23=133.70          
C3-C7-Zr1-C24=171.07          C3-C7-Zr1-H29=235.43          C6-C7-Zr1-C2= 93.10           C6-C7-Zr1-C3=244.18           
C6-C7-Zr1-C4=281.43           C6-C7-Zr1-C5=322.58           C6-C7-Zr1-C13=222.45          C6-C7-Zr1-C14=187.65          
C6-C7-Zr1-C15=162.94          C6-C7-Zr1-C16=190.59          C6-C7-Zr1-C17=243.36          C6-C7-Zr1-C23= 17.88          
C6-C7-Zr1-C24= 55.25          C6-C7-Zr1-H29=119.61          H12-C7-Zr1-C2=330.90          H12-C7-Zr1-C3=121.98          
H12-C7-Zr1-C4=159.23          H12-C7-Zr1-C5=200.38          H12-C7-Zr1-C6=237.80          H12-C7-Zr1-C13=100.24         
H12-C7-Zr1-C14= 65.45         H12-C7-Zr1-C15= 40.74         H12-C7-Zr1-C16= 68.38         H12-C7-Zr1-C17=121.16         
H12-C7-Zr1-C23=255.68         H12-C7-Zr1-C24=293.05         H12-C7-Zr1-H29=357.41         Zr1-C7-C3-C4=295.13           
Zr1-C7-C3-H8=124.62           C6-C7-C3-Zr1= 64.68           C6-C7-C3-C4=359.82            C6-C7-C3-H8=189.31            
H12-C7-C3-Zr1=235.27          H12-C7-C3-C4=170.40           H12-C7-C3-H8=359.89           Zr1-C7-C6-C5= 65.01           
Zr1-C7-C6-H11=236.37          C3-C7-C6-Zr1=295.08           C3-C7-C6-C5=  0.09            C3-C7-C6-H11=171.45           
H12-C7-C6-Zr1=124.54          H12-C7-C6-C5=189.55           H12-C7-C6-H11=  0.91          

 CMA Distance (Angstroems)
 ---------------------------
R(CMA):  2.7671
           -------------------------------------------------
          |                Final Singlepoint                |
           -------------------------------------------------

          ...................................................
          :                      SETUP                      :
          :.................................................:
          :  # basis functions                  79          :
          :  # atomic orbitals                  78          :
          :  # shells                           46          :
          :  # electrons                        72          :
          :  max. iterations                   250          :
          :  Hamiltonian                  GFN2-xTB          :
          :  restarted?                      false          :
          :  GBSA solvation                  false          :
          :  PC potential                    false          :
          :  electronic temp.          300.0000000     K    :
          :  accuracy                    1.0000000          :
          :  -> integral cutoff          0.2500000E+02      :
          :  -> integral neglect         0.1000000E-07      :
          :  -> SCF convergence          0.1000000E-05 Eh   :
          :  -> wf. convergence          0.1000000E-03 e    :
          :  Broyden damping             0.4000000          :
          ...................................................

 iter      E             dE          RMSdq      gap      omega  full diag
   1    -38.2799985 -0.382800E+02  0.104E-04    1.98       0.0  T
   2    -38.2799985 -0.250111E-10  0.603E-05    1.98     298.0  T
   3    -38.2799985 -0.472511E-11  0.608E-05    1.98     295.2  T

   *** convergence criteria satisfied after 3 iterations ***

         #    Occupation            Energy/Eh            Energy/eV
      -------------------------------------------------------------
         1        2.0000           -0.8740851             -23.7851
       ...           ...                  ...                  ...
        30        2.0000           -0.5869824             -15.9726
        31        2.0000           -0.5761157             -15.6769
        32        2.0000           -0.5205174             -14.1640
        33        2.0000           -0.5198185             -14.1450
        34        2.0000           -0.5089818             -13.8501
        35        2.0000           -0.5036925             -13.7062
        36        2.0000           -0.4938155             -13.4374 (HOMO)
        37                         -0.4211542             -11.4602 (LUMO)
        38                         -0.4082954             -11.1103
        39                         -0.4022422             -10.9456
        40                         -0.4018228             -10.9342
        41                         -0.3923538             -10.6765
       ...                                ...                  ...
        78                          2.5102454              68.3073
      -------------------------------------------------------------
                  HL-Gap            0.0726612 Eh            1.9772 eV
             Fermi-level           -0.4574848 Eh          -12.4488 eV

 SCC (total)                   0 d,  0 h,  0 min,  0.329 sec
 SCC setup                      ...        0 min,  0.001 sec (  0.237%)
 Dispersion                     ...        0 min,  0.000 sec (  0.030%)
 classical contributions        ...        0 min,  0.000 sec (  0.009%)
 integral evaluation            ...        0 min,  0.001 sec (  0.395%)
 iterations                     ...        0 min,  0.206 sec ( 62.750%)
 molecular gradient             ...        0 min,  0.120 sec ( 36.515%)
 printout                       ...        0 min,  0.000 sec (  0.058%)

         :::::::::::::::::::::::::::::::::::::::::::::::::::::
         ::                     SUMMARY                     ::
         :::::::::::::::::::::::::::::::::::::::::::::::::::::
         :: total energy             -37.650617851543 Eh    ::
         :: gradient norm              0.000935216254 Eh/a0 ::
         :: HOMO-LUMO gap              1.977212539049 eV    ::
         ::.................................................::
         :: SCC energy               -38.279998508185 Eh    ::
         :: -> isotropic ES            0.087628404029 Eh    ::
         :: -> anisotropic ES         -0.012757163733 Eh    ::
         :: -> anisotropic XC          0.020458534172 Eh    ::
         :: -> dispersion             -0.028106949093 Eh    ::
         :: repulsion energy           0.628399696045 Eh    ::
         :: add. restraining           0.000315087900 Eh    ::
         :: total charge               1.000000000000 e     ::
         :::::::::::::::::::::::::::::::::::::::::::::::::::::

           -------------------------------------------------
          |                Property Printout                |
           -------------------------------------------------

    * Orbital Energies and Occupations

         #    Occupation            Energy/Eh            Energy/eV
      -------------------------------------------------------------
         1        2.0000           -0.8740851             -23.7851
       ...           ...                  ...                  ...
        24        2.0000           -0.5932543             -16.1433
        25        2.0000           -0.5916054             -16.0984
        26        2.0000           -0.5903936             -16.0654
        27        2.0000           -0.5891223             -16.0308
        28        2.0000           -0.5886562             -16.0182
        29        2.0000           -0.5874298             -15.9848
        30        2.0000           -0.5869824             -15.9726
        31        2.0000           -0.5761157             -15.6769
        32        2.0000           -0.5205174             -14.1640
        33        2.0000           -0.5198185             -14.1450
        34        2.0000           -0.5089818             -13.8501
        35        2.0000           -0.5036925             -13.7062
        36        2.0000           -0.4938155             -13.4374 (HOMO)
        37                         -0.4211542             -11.4602 (LUMO)
        38                         -0.4082954             -11.1103
        39                         -0.4022422             -10.9456
        40                         -0.4018228             -10.9342
        41                         -0.3923538             -10.6765
        42                         -0.3634814              -9.8908
        43                         -0.3046711              -8.2905
        44                         -0.3037290              -8.2649
        45                         -0.3033762              -8.2553
        46                         -0.3023325              -8.2269
        47                         -0.0661456              -1.7999
       ...                                ...                  ...
        78                          2.5102454              68.3073
      -------------------------------------------------------------
                  HL-Gap            0.0726612 Eh            1.9772 eV
             Fermi-level           -0.4574848 Eh          -12.4488 eV

     #   Z          covCN         q      C6AA      α(0)
     1  40 Zr      10.447     0.952   138.779    17.701
     2   6 C        3.847    -0.229    25.034     7.117
     3   6 C        3.755    -0.088    22.237     6.724
     4   6 C        3.762    -0.087    22.211     6.718
     5   6 C        3.764    -0.087    22.195     6.715
     6   6 C        3.759    -0.092    22.302     6.733
     7   6 C        3.750    -0.090    22.284     6.732
     8   1 H        0.925     0.081     1.970     2.195
     9   1 H        0.925     0.085     1.928     2.171
    10   1 H        0.925     0.087     1.912     2.162
    11   1 H        0.925     0.081     1.970     2.195
    12   1 H        0.925     0.071     2.076     2.253
    13   6 C        3.762    -0.083    22.135     6.707
    14   6 C        3.754    -0.094    22.345     6.740
    15   6 C        3.744    -0.091    22.312     6.739
    16   6 C        3.753    -0.088    22.232     6.724
    17   6 C        3.766    -0.092    22.298     6.730
    18   1 H        0.925     0.086     1.920     2.167
    19   1 H        0.925     0.073     2.055     2.242
    20   1 H        0.925     0.073     2.052     2.240
    21   1 H        0.925     0.081     1.969     2.195
    22   1 H        0.925     0.083     1.948     2.183
    23   6 C        3.630    -0.247    25.973     7.338
    24   6 C        3.803    -0.065    21.736     6.637
    25   1 H        0.925     0.108     1.714     2.047
    26   1 H        0.925     0.104     1.753     2.070
    27   1 H        0.926     0.093     1.852     2.128
    28   1 H        0.930     0.098     1.801     2.098
    29   1 H        1.604     0.098     1.788     2.088
    30   1 H        0.925     0.090     1.874     2.141
    31   1 H        0.925     0.089     1.889     2.149

 Mol. C6AA /au·bohr⁶  :       9426.619938
 Mol. C8AA /au·bohr⁸  :     320308.580729
 Mol. α(0) /au        :        142.779631


Wiberg/Mayer (AO) data.
largest (>0.10) Wiberg bond orders for each atom

 ---------------------------------------------------------------------------
     #   Z sym  total        # sym  WBO       # sym  WBO       # sym  WBO
 ---------------------------------------------------------------------------
     1  40 Zr   4.320 --    23 C    0.649     2 C    0.392    17 C    0.264
                             5 C    0.255     4 C    0.249     6 C    0.234
                             3 C    0.232    14 C    0.231    13 C    0.231
                            16 C    0.230     7 C    0.225    15 C    0.220
                            24 C    0.186    29 H    0.132
     2   6 C    3.941 --    30 H    0.965    31 H    0.947    29 H    0.811
                            24 C    0.596     1 Zr   0.392    23 C    0.123
     3   6 C    3.979 --     7 C    1.311     4 C    1.302     8 H    0.925
                             1 Zr   0.232
     4   6 C    3.980 --     3 C    1.302     5 C    1.297     9 H    0.921
                             1 Zr   0.249
     5   6 C    3.982 --     4 C    1.297     6 C    1.292    10 H    0.920
                             1 Zr   0.255
     6   6 C    3.978 --     7 C    1.313     5 C    1.292    11 H    0.926
                             1 Zr   0.234
     7   6 C    3.980 --     6 C    1.313     3 C    1.311    12 H    0.927
                             1 Zr   0.225
     8   1 H    0.991 --     3 C    0.925
     9   1 H    0.990 --     4 C    0.921
    10   1 H    0.990 --     5 C    0.920
    11   1 H    0.990 --     6 C    0.926
    12   1 H    0.993 --     7 C    0.927
    13   6 C    3.982 --    14 C    1.314    17 C    1.300    18 H    0.924
                             1 Zr   0.231
    14   6 C    3.978 --    13 C    1.314    15 C    1.298    19 H    0.923
                             1 Zr   0.231
    15   6 C    3.979 --    16 C    1.327    14 C    1.298    20 H    0.930
                             1 Zr   0.220
    16   6 C    3.980 --    15 C    1.327    17 C    1.283    21 H    0.928
                             1 Zr   0.230
    17   6 C    3.979 --    13 C    1.300    16 C    1.283    22 H    0.917
                             1 Zr   0.264
    18   1 H    0.991 --    13 C    0.924
    19   1 H    0.994 --    14 C    0.923
    20   1 H    0.992 --    15 C    0.930
    21   1 H    0.991 --    16 C    0.928
    22   1 H    0.991 --    17 C    0.917
    23   6 C    3.872 --    24 C    1.198    27 H    0.910    28 H    0.883
                             1 Zr   0.649     2 C    0.123
    24   6 C    3.971 --    23 C    1.198    25 H    0.948    26 H    0.937
                             2 C    0.596     1 Zr   0.186
    25   1 H    0.987 --    24 C    0.948
    26   1 H    0.988 --    24 C    0.937
    27   1 H    0.990 --    23 C    0.910
    28   1 H    0.990 --    23 C    0.883
    29   1 H    0.990 --     2 C    0.811     1 Zr   0.132
    30   1 H    0.990 --     2 C    0.965
    31   1 H    0.991 --     2 C    0.947
 ---------------------------------------------------------------------------

Topologies differ in total number of bonds
Writing topology from bond orders to xtbtopo.mol

molecular dipole:
                 x           y           z       tot (Debye)
 q only:       -2.645       0.331       0.241
   full:       -2.932       0.226       0.556       7.607
molecular quadrupole (traceless):
                xx          xy          yy          xz          yz          zz
 q only:       10.211      -3.535      -6.722       0.180      -4.063      -3.488
  q+dip:       13.982      -3.180     -10.887      -2.254      -6.781      -3.096
   full:       14.152      -2.517     -10.110      -3.018      -5.365      -4.043

           -------------------------------------------------
          |                Geometry Summary                 |
           -------------------------------------------------

      molecular mass/u    :      264.4982010
   center of mass at/Å    :       -1.0347116      -0.0996374       0.5086510
  moments of inertia/u·Å² :        0.5778892E+03   0.7186047E+03   0.9161927E+03
rotational constants/cm⁻¹ :        0.2917105E-01   0.2345884E-01   0.1839966E-01

 * 41 selected distances

     #   Z          #   Z                                           value/Å
     1  40 Zr       2   6 C                                       2.4289029
     1  40 Zr       3   6 C                                       2.4680006
     1  40 Zr       4   6 C                                       2.4482963
     3   6 C        4   6 C                                       1.4177573
     1  40 Zr       5   6 C                                       2.4413613
     4   6 C        5   6 C                                       1.4164759
     1  40 Zr       6   6 C                                       2.4596361
     5   6 C        6   6 C                                       1.4192941
     1  40 Zr       7   6 C                                       2.4773387
     3   6 C        7   6 C                                       1.4144184
     6   6 C        7   6 C                                       1.4147108
     3   6 C        8   1 H                                       1.0845077
     4   6 C        9   1 H                                       1.0847559
     5   6 C       10   1 H                                       1.0843461
     6   6 C       11   1 H                                       1.0836106
     7   6 C       12   1 H                                       1.0849878
     1  40 Zr      13   6 C                                       2.4573564
     1  40 Zr      14   6 C                                       2.4685000
    13   6 C       14   6 C                                       1.4147753
     1  40 Zr      15   6 C                                       2.4943555
    14   6 C       15   6 C                                       1.4178068
     1  40 Zr      16   6 C                                       2.4765846
    15   6 C       16   6 C                                       1.4105659
     1  40 Zr      17   6 C                                       2.4331162
    13   6 C       17   6 C                                       1.4173394
    16   6 C       17   6 C                                       1.4205737
    13   6 C       18   1 H                                       1.0836357
    14   6 C       19   1 H                                       1.0857143
    15   6 C       20   1 H                                       1.0838003
    16   6 C       21   1 H                                       1.0828012 (min)
    17   6 C       22   1 H                                       1.0858845
     1  40 Zr      23   6 C                                       2.2348462
     1  40 Zr      24   6 C                                       2.6100011 (max)
    23   6 C       24   6 C                                       1.4539811
    24   6 C       25   1 H                                       1.0875159
    24   6 C       26   1 H                                       1.0900718
    23   6 C       27   1 H                                       1.0936568
    23   6 C       28   1 H                                       1.0953188
     2   6 C       29   1 H                                       1.1152590
     2   6 C       30   1 H                                       1.0875256
     2   6 C       31   1 H                                       1.0908686

 * 3 distinct bonds (by element types)

   Z      Z             #   av. dist./Å        max./Å        min./Å
   1 H    6 C          17     1.0884859     1.1152590     1.0828012
   6 C    6 C          11     1.4197908     1.4539811     1.4105659
   6 C   40 Zr         13     2.4537151     2.6100011     2.2348462


optimized geometry written to: xtbopt.xyz


           -------------------------------------------------
          | TOTAL ENERGY              -37.650617851543 Eh   |
          | GRADIENT NORM               0.000935216254 Eh/α |
          | HOMO-LUMO GAP               1.977212539049 eV   |
           -------------------------------------------------

------------------------------------------------------------------------
 * finished run on 2026/08/03 at 11:36:49.505     
------------------------------------------------------------------------
 total:
 * wall-time:     0 d,  0 h,  0 min, 32.110 sec
 *  cpu-time:     0 d,  0 h,  2 min, 28.150 sec
 * ratio c/w:     4.614 speedup
 SCF:
 * wall-time:     0 d,  0 h,  0 min,  0.661 sec
 *  cpu-time:     0 d,  0 h,  0 min,  4.954 sec
 * ratio c/w:     7.497 speedup
 ANC optimizer:
 * wall-time:     0 d,  0 h,  0 min, 31.358 sec
 *  cpu-time:     0 d,  0 h,  2 min, 22.619 sec
 * ratio c/w:     4.548 speedup

