31
 energy: -37.650617851543 gnorm: 0.000935216254 xtb: 6.5.1 (b24c23e)
Zr          -1.09630624584919       -0.06342101671663        0.42448139555400
C           -3.44301547710923        0.39292689890920       -0.00478613893625
C           -0.80117457275571       -2.34413426571229        1.32017681178317
C            0.33423826667312       -2.04778127971890        0.52453368840326
C           -0.09613363233263       -1.91163791090451       -0.81809378993641
C           -1.49847022786247       -2.12795265344510       -0.85058007324125
C           -1.93020277882059       -2.39575299305444        0.46975937806952
H           -0.78420801671155       -2.64473889181558        2.36205286230038
H            1.36833087188441       -2.08797168970027        0.84969888379572
H            0.55565868282980       -1.84285830291847       -1.68194701826155
H           -2.09959845943700       -2.22215166874059       -1.74723118536506
H           -2.91705583348228       -2.74420702992208        0.75593980218189
C            0.23979959852534        0.33056140682479        2.44888211925253
C           -1.09170243462623        0.67593556054650        2.77965058870894
C           -1.44478291846129        1.82075588544684        2.02143144871350
C           -0.34553241652376        2.16327413611837        1.20655395968606
C            0.69441221884841        1.22639730384499        1.44905412275416
H            0.85288779548018       -0.39151797897196        2.97518086137104
H           -1.66663376341300        0.25862016546661        3.60067265084476
H           -2.33939756049236        2.41753607765999        2.15611975963768
H           -0.25056715361723        3.07456585847065        0.62950346933211
H            1.71493907283742        1.30577992520989        1.08660641497361
C           -0.89298085678186        0.94670654471215       -1.55865695695357
C           -2.25514916069100        1.42311120141648       -1.38090204836713
H           -2.96034496238072        1.21174344969791       -2.18134763718028
H           -2.36952915081136        2.43325882023555       -0.98748697497811
H           -0.76970763791547        0.31479261897178       -2.44272333958346
H           -0.13005644186998        1.73053027760742       -1.50130113737089
H           -3.11942142693923        0.00980260625448        0.99135894821317
H           -4.17219906169831        1.18459018171400        0.15100940964993
H           -3.89799554648375       -0.39805111744298       -0.60256615506898
