59
Properties=species:S:1:pos:R:3 pbc="F F F"
C        2.78597200       0.08491200       0.51133300
C        2.15481600      -1.27855700       0.84394700
C        0.75878700      -1.48033900       0.23644300
N       -0.16394300      -0.43204700       0.68978900
C       -1.46845900      -0.58102100       0.03513600
C       -2.39160700       0.57071200       0.44303900
C       -3.75482400       0.45858900      -0.24476500
N       -4.60723800       1.57749900       0.14417000
C        3.12721900       0.23479900      -0.98089100
N        3.86843600       1.46871500      -1.23311000
H        3.72193600       0.17957600       1.10389400
H        2.10859200       0.90741300       0.82745500
H        2.82521300      -2.09297800       0.49270500
H        2.07825500      -1.37201000       1.94922000
H        0.38020700      -2.48032100       0.54755800
H        0.83609500      -1.48044900      -0.87233600
H       -0.30501800      -0.55472400       1.72078300
H       -1.93421300      -1.55089500       0.32411400
H       -1.34055100      -0.55907700      -1.07055000
H       -1.91754300       1.53713700       0.16317800
H       -2.53448900       0.55490500       1.54585200
H       -3.61377800       0.47614300      -1.34803200
H       -4.24397700      -0.50202800       0.03383600
C       -4.97704145       1.40436436       1.55632077
H       -5.49445300       1.50708000      -0.40488300
H        2.19535700       0.25423600      -1.58440600
H        3.74084400      -0.62902400      -1.31735100
C        3.07145044       2.60760926      -0.75495323
H        4.75753300       1.44825400      -0.68238100
C       -5.07552150       2.41653089       4.49629555
C       -4.16070709       1.30369865       3.94985542
C       -2.77798501       1.43081160       4.60734681
C       -4.74127159      -0.08545775       4.27706776
O       -3.97350521       1.45274316       2.53427820
O       -6.18526089       1.21662297       1.85683468
H       -6.11175258       2.31221271       4.11517903
H       -5.11906391       2.37664108       5.60624582
H       -4.69005442       3.41326589       4.19229258
H       -2.09358676       0.64536723       4.22024843
H       -2.33088563       2.42161811       4.37589176
H       -2.84965951       1.32447218       5.71164418
H       -4.76835008      -0.24856943       5.37622053
H       -5.77731581      -0.19118250       3.89582934
H       -4.11647606      -0.88019963       3.81608956
C        0.47399966       3.79606112       0.47730596
C        0.92039934       3.91996130      -0.99213403
C       -0.31284220       3.78433529      -1.89827633
C        1.57603744       5.29088316      -1.24628065
O        1.82106425       2.85688476      -1.33823901
O        3.52815079       3.33369451       0.16677051
H        1.31868849       3.97469841       1.17336374
H       -0.31732591       4.54132018       0.70940403
H        0.07077700       2.77899347       0.67087307
H       -0.01589590       3.85791572      -2.96672276
H       -0.79827460       2.79669289      -1.74308373
H       -1.05668571       4.58180203      -1.68226335
H        0.83898610       6.10976041      -1.09907041
H        2.42134532       5.47036201      -0.55119073
H        1.96190057       5.34413809      -2.28683751
