17

C     -0.202027   -1.209312    0.872329
C     -0.160555   -0.090839   -0.186527
C     -0.849657   -0.592226   -1.464855
C     -0.900782    1.162405    0.318767
O      1.195896    0.228145   -0.532081
C      2.178540    0.720798    0.338281
O      1.937545    0.933918    1.555594
Cl     3.780464    1.047203   -0.285357
H      0.207100   -0.862939    1.843178
H     -1.247689   -1.543233    1.047156
H      0.396377   -2.081471    0.532131
H     -0.822427    0.193204   -2.250684
H     -0.326361   -1.490564   -1.857687
H     -1.910820   -0.858936   -1.268089
H     -1.980857    0.945290    0.466329
H     -0.492049    1.510111    1.289306
H     -0.802698    1.988447   -0.417792
