13
 energy: -21.042872805185 gnorm: 0.000510005634 xtb: 6.5.1 (b24c23e)
O            1.51805149646359       -0.11197725343679        0.83328930286536
O            1.00590503155570       -0.18065600221258       -1.33561566020201
N           -1.53197436954770       -1.10172826321455       -0.63675873040269
C           -0.78120531594894       -0.27185520473974        0.28421870147125
C           -1.28515854601114        1.18109381493283        0.38849211626399
C            0.65977031068300       -0.20132654632374       -0.18554513806709
H           -0.80560536491945       -0.73394777953445        1.27766230086789
H           -0.68418094010581        1.74180192762163        1.09969094001952
H           -1.22733861767146        1.66646508408980       -0.58442959959597
H           -2.31991340106496        1.18646237433316        0.72497145373590
H           -1.24248262841337       -0.89811554212577       -1.58872321466052
H           -2.52532214830399       -0.91571174757722       -0.55730987186350
H            2.42899142328433       -0.03888948181268        0.50510435956780
