26
 energy: -36.008197249325 gnorm: 0.000231469118 xtb: 6.5.1 (b24c23e)
C           -1.97995171624358        0.21609376024024       -0.05144232321184
C            1.04223579560885       -1.14128357151439       -1.25249755559757
C           -0.54546779731125        0.41364013988651       -0.03849503202216
C            0.43779181752852       -0.53601751725904       -0.08408781668038
C           -2.53992327599044       -1.01506275601098       -0.41519045540205
C            0.45729120699775       -1.01758969122383       -2.51906084498993
C           -2.83960949666029        1.24307891069362        0.34937328946362
C            2.25696420357313       -1.82515233101435       -1.14696962819394
C           -3.90092855204993       -1.22207957515052       -0.32770971240795
C            1.09280416771587       -1.51285054321126       -3.63875050014881
C           -4.20149682575162        1.03279852360862        0.42758299153474
C            2.88463119354685       -2.32558465164611       -2.26976273168650
C           -4.73878266147082       -0.20031248281732        0.09310330970551
C            2.30845060229344       -2.16963718919602       -3.52068390020465
H           -0.32244073288620        1.19371241253305        0.69728086131331
H            1.23706228601816       -0.32744602842415        0.63513277621999
H           -1.88764839995548       -1.81326093102698       -0.73828455058000
H           -0.48717980309483       -0.50168472545777       -2.61281411974176
H           -2.42668867762745        2.20774143215321        0.60950907344804
H            2.71022025412919       -1.95192760907177       -0.17371229354405
H           -4.31540233815377       -2.18423368974492       -0.59247006155261
H            0.63826827926460       -1.39133432577109       -4.61150983697032
H           -4.85068325840206        1.83481868151575        0.74835259495063
H            3.82774664994269       -2.84364967261773       -2.17120397630030
H           -5.80420247547493       -0.36392999361447        0.15886395656161
H            2.80313019445363       -2.55855807585821       -4.39832215396259
