13
 energy: -21.044883089435 gnorm: 0.000668978665 xtb: 6.5.1 (b24c23e)
O            1.38006468968009       -1.08501508502387        0.03690924720816
O            1.04158284793365        1.07018411297428       -0.43578322052120
N           -1.69459060608722        0.86637859580784        0.12041890358216
C           -0.79842485700707       -0.21767384019493        0.46487226711358
C           -0.76351900707834       -0.40119565605425        1.98501701559212
C            0.62540587524836        0.01693565276276       -0.02990123996206
H           -1.16969864548161       -1.13803416683405       -0.00004302266263
H           -1.77737160807378       -0.54428777377120        2.34634136210251
H           -0.15929839018120       -1.26485394223921        2.24689723367014
H           -0.34635393312183        0.48448040057972        2.45939099424297
H           -1.73212314016128        0.98884981116584       -0.88643809756813
H           -1.34156981576793        1.73498429852980        0.51140592961233
H            2.28281576009816       -0.89837280770284       -0.26782493240999
