26
 energy: -36.044032659988 gnorm: 0.000720384855 xtb: 6.5.1 (b24c23e)
C           -2.00519748542390        0.22391470001559       -0.10586244090606
C            0.17636009761093       -2.02790034695825        0.12200913216062
C           -0.55621253868413        0.38419947931485       -0.02840911525450
C            0.38129463781979       -0.58348382280110        0.06768235042017
C           -2.60172353383710       -0.77405696417410       -0.87620071878962
C           -0.84934145161427       -2.60458358692188        0.87082991426351
C           -2.82714674828654        1.13267175578367        0.56042000800522
C            1.06838781047561       -2.86762889577666       -0.54472039554188
C           -3.97741649077367       -0.87394004327532       -0.95172384162350
C           -0.99190195983453       -3.97751399780572        0.92499772133831
C           -4.20310822281079        1.02340524037805        0.49222322934894
C            0.91650587949578       -4.24045360422654       -0.49802531628601
C           -4.78336957497607        0.01822376898180       -0.26292292034598
C           -0.11565302872614       -4.80046169256494        0.23585428578934
H           -0.21821931458578        1.41335118879844       -0.00473655326808
H            1.42038371673295       -0.27648699073539        0.06334824602751
H           -1.97865757051620       -1.46325637950071       -1.42651158717145
H           -1.52656307420778       -1.96859516699275        1.42119824176307
H           -2.37711738750188        1.92097265413945        1.14765546995544
H            1.87752989704801       -2.43347938889131       -1.11568319808959
H           -4.42558005002489       -1.65002143551011       -1.55615336257991
H           -1.78917342856045       -4.41018051091281        1.51219952986099
H           -4.82542109213652        1.72910984096725        1.02352851444877
H            1.60978425651146       -4.87640321295831       -1.02987904829142
H           -5.85873452014845       -0.06363514339325       -0.32235219314325
H           -0.23095729304592       -5.87351262498063        0.27829208790948
