26
 energy: -36.008116156923 gnorm: 0.000373712494 xtb: 6.5.1 (b24c23e)
C           -1.97992678307238        0.21680679513293       -0.05329444404635
C            1.04107867668349       -1.14396507233266       -1.25159366472146
C           -0.54295837566595        0.40790078409617       -0.03967491797501
C            0.43257630526800       -0.53507466982848       -0.08534621221075
C           -2.54754405042468       -1.00146671067496       -0.44652642344778
C            0.44405734652412       -1.05209494168398       -2.51506622570302
C           -2.83240955451402        1.23741786280489        0.37692880155239
C            2.27160003929677       -1.79836633506014       -1.14596856180896
C           -3.90974202228502       -1.20271815079618       -0.36259623225468
C            1.08043233580967       -1.55203850681981       -3.63230916444326
C           -4.19539023527168        1.03268308045209        0.45343212971413
C            2.90149502704502       -2.30186844978783       -2.26634305652508
C           -4.74064728577962       -0.18749888902979        0.08657332855337
C            2.31113110740923       -2.18004594273625       -3.51432590733595
H           -0.32268761217167        1.18641258959228        0.69949011966377
H            1.23431669820531       -0.32677018395686        0.63239269661102
H           -1.90139448865845       -1.79557047548994       -0.79133478372324
H           -0.51193321449642       -0.55799785548006       -2.61000565814772
H           -2.41395679879308        2.19256138959056        0.66218095827611
H            2.73664284129750       -1.89894211859299       -0.17516450362092
H           -4.33048031272565       -2.15477181461043       -0.65275321918685
H            0.61440466689433       -1.45769820820797       -4.60261910795273
H           -4.83923307703812        1.82912569211887        0.79804448577008
H            3.85731428826456       -2.79615759138220       -2.16800730736701
H           -5.80699303097961       -0.34640752652831        0.14984045740543
H            2.80643814917836       -2.57316625078918       -4.38972222707547
