26
 energy: -36.044557942724 gnorm: 0.000416435155 xtb: 6.5.1 (b24c23e)
C           -1.99858415651997        0.22008642988304       -0.09149185085066
C            0.17278686757258       -2.02094801919955        0.10724214723496
C           -0.54934509939341        0.38245031397148        0.00419012439776
C            0.38020022809850       -0.57611561359562        0.03453731972355
C           -2.58079797056676       -0.76197791515340       -0.89250407488553
C           -0.83732601966893       -2.58406806628573        0.88673012729510
C           -2.83269523674648        1.10763777220165        0.58775579913940
C            1.04389191116498       -2.87215541628283       -0.57207661256195
C           -3.95500162320973       -0.86652648528757       -0.98710321307490
C           -0.98471457249682       -3.95563252803367        0.96022042740898
C           -4.20728429264004        0.99428016012971        0.49979220778628
C            0.88775992965924       -4.24374686659825       -0.50536097257847
C           -4.77355117523868        0.00516330498454       -0.28669710960287
C           -0.12871298166830       -4.79051660741109        0.25974755400307
H           -0.21804450699189        1.41424351057954        0.03881460494337
H            1.42191483483212       -0.27587708118348        0.01895226562965
H           -1.94770659060760       -1.43551729124036       -1.45067090053202
H           -1.49898440461144       -1.93856958996935        1.44490113762942
H           -2.39352281968164        1.88279150920177        1.20039991976479
H            1.84028486017937       -2.44830559606242       -1.16803286248949
H           -4.39185499134219       -1.63061450157466       -1.61369983529896
H           -1.77017919907382       -4.37769935949421        1.57032291187651
H           -4.83930504569385        1.68390800796327        1.04070645173850
H            1.56525748507183       -4.88888546196590       -1.04610683423338
H           -5.84768990396087       -0.08068151633801       -0.36054913217500
H           -0.24804399646661       -5.86246827323956        0.31703843971211
