77
Co porphyrin with four meso H replaced by phenyl groups; rigid placement, unoptimized
Co       0.0021361233       0.1378784763       0.0952449769
N       -1.9827720759       0.2702045009       0.1285112969
N        1.9869842058       0.0055960378       0.0616461391
N        0.1333715387       2.1221908793       0.0351029481
N       -0.1291180421      -1.8463514236       0.1554804899
C       -2.8884589726      -0.7635975273       0.1754321981
H       -5.1324425355      -0.8865103134       0.2205951860
C       -2.7444764877       1.4149902544       0.1091808968
C       -4.1512650421       1.0968600982       0.1445106240
H       -4.9525360702       1.8344349072       0.1378229493
C       -4.2410924642      -0.2617045082       0.1857933540
C       -2.2496513617       2.7089487437       0.0623017332
C        1.2780265234       2.8830890555      -0.0085014401
C        0.9590483056       4.2896890425      -0.0436088394
H        1.6963661793       5.0903614201      -0.0808581719
C       -0.3999077473       4.3802220342      -0.0208038322
H       -1.0253814363       5.2716665673      -0.0351999686
C       -0.9011855679       3.0281989984       0.0279851643
C       -2.5683462528      -2.1118807996       0.2090668538
H        1.0296070592      -4.9958157573       0.2265620938
C        0.4041427612      -4.1043709008       0.2120005573
C        0.9054257255      -2.7523778979       0.1626330451
H       -1.6921338088      -4.8144711991       0.2726321812
C       -1.2737804522      -2.6072275557       0.1994683935
C       -0.9548062682      -4.0138185669       0.2350118086
C        2.5725810662       2.3877126983      -0.0184292731
H        4.9567354939      -1.5586609764       0.0508350453
C        4.1554656137      -0.8210754137       0.0446110724
C        4.2452810482       0.5374965778       0.0035531483
H        5.1366193774       1.1623035383      -0.0314873951
C        2.8926614251       1.0394051736       0.0145813696
C        2.7486903565      -1.1391998088       0.0804759613
C        2.2538828725      -2.4331543186       0.1276733741
C       -3.2312253509       3.8298440189       0.0479390758
C       -3.6687379627       4.3906308644       1.2503158173
C       -4.5890459244       5.4415642197       1.2368496211
C       -5.0718412743       5.9317107294       0.0210066834
C       -4.6343286624       5.3709238839      -1.1813700581
C       -3.7140207008       4.3199905286      -1.1679038619
H       -3.2944592484       4.0106532910       2.1928769494
H       -4.9282199821       5.8763044872       2.1689713183
H       -5.7852940463       6.7464285703       0.0105672485
H       -5.0086073768       5.7509014573      -2.1239311902
H       -3.3748466431       3.8852502611      -2.1000255591
C       -3.6889321975      -3.0926544275       0.2587682784
C       -4.1915379172      -3.5171149182       1.4911764017
C       -5.2421812492      -4.4366724740       1.5377756568
C       -5.7902188614      -4.9317695391       0.3519667886
C       -5.2876131416      -4.5073090484      -0.8804413346
C       -4.2369698097      -3.5877514926      -0.9270405898
H       -3.7666812716      -3.1332995127       2.4104541427
H       -5.6318176089      -4.7657281013       2.4931786614
H       -6.6047118668      -5.6446405720       0.3880920523
H       -5.7124697873      -4.8911244539      -1.7997190756
H       -3.8473334499      -3.2586958652      -1.8824435944
C        3.6931927444       3.3684638591      -0.0679936472
C        4.2411588839       3.8634772798       1.1178831690
C        5.2918263432       4.7830137709       1.0714124102
C        5.7945276631       5.2075368413      -0.1609351648
C        5.2465615236       4.7125234206      -1.3468119811
C        4.1958940642       3.7929869295      -1.3003412223
H        3.8514484119       3.5343731386       2.0732392347
H        5.7166275809       5.1667643325       1.9907428268
H        6.6090393728       5.9203915442      -0.1969608139
H        5.6362719956       5.0416275619      -2.3021680467
H        3.7710928265       3.4092363679      -2.2196716389
C        3.2354475563      -3.5540605613       0.1418143320
C        3.7183573247      -4.0443478543       1.3575550633
C        4.6386565618      -5.0952914926       1.3708133977
C        5.0760460304      -5.6559478378       0.1683310006
C        4.5931362620      -5.1656605448      -1.0474097308
C        3.6728370250      -4.1147169065      -1.0606680651
H        3.3792787316      -3.6097087549       2.2897586682
H        5.0130239770      -5.4753782058       2.3132952961
H        5.7894920388      -6.4706736504       0.1786092941
H        4.9322148552      -5.6002996442      -1.9796133356
H        3.2984696097      -3.7346301933      -2.0031499635
