31
 energy: -37.686696356946 gnorm: 0.000886188827 xtb: 6.5.1 (b24c23e)
Zr          -0.76335979533414        0.13848427373935        0.35916394182181
C           -3.60733613018441        0.37536903053426       -1.50263309617052
C            0.17494507537595       -2.08997441246239        0.92247014573265
C            0.65597535222729       -1.82840850222763       -0.37809556385997
C           -0.44932395110386       -1.80073922644176       -1.26051737380968
C           -1.61765332513800       -2.05222083893701       -0.50650531214134
C           -1.23752036498257       -2.21945965988531        0.85072365338130
H            0.79112486904291       -2.32283207361211        1.78488697878348
H            1.69839289014582       -1.77306357284395       -0.66907312492842
H           -0.38801764092531       -1.73595741565468       -2.34071689874196
H           -2.58147216377673       -2.32871539421150       -0.91739824318861
H           -1.87324267160032       -2.61623987711670        1.63568499599379
C            0.42415124173254        0.64545467199248        2.48925203652779
C           -0.83167482731347        0.08305657506100        2.82931860982559
C           -1.84162201290081        0.98576575480631        2.41778602557540
C           -1.20529347962717        2.11907300063502        1.84873701757209
C            0.18874058872490        1.91294919567087        1.90787484730326
H            1.39639649945432        0.25900528473273        2.77895091361869
H           -0.98182950894266       -0.78328398251799        3.46357095007622
H           -2.88458590603558        0.93028938136537        2.70782082969741
H           -1.68792554014239        3.05179068019640        1.58141465136665
H            0.94928381544270        2.63916697531578        1.65030115149265
H            0.39547409508480        0.96366397285482       -0.68623906120899
H           -3.24300042385727       -0.50044359322196       -2.02391148229120
H           -1.62944064559149        0.92635194231971       -1.02663643287080
C           -3.73350257705683        0.32156529418900        0.03074036816815
C           -2.63562003308573        1.15080906066925       -0.66291622318134
H           -2.81787087387960        2.23004834360437       -0.63745620584392
H           -4.38923889314748        0.89744700246297       -2.03882472746485
H           -4.53074292664578        0.90907804004174        0.46510344796792
H           -3.52929108598996       -0.61849496106812        0.54020749081233
