      -----------------------------------------------------------      
     |                   =====================                   |     
     |                           x T B                           |     
     |                   =====================                   |     
     |                         S. Grimme                         |     
     |          Mulliken Center for Theoretical Chemistry        |     
     |                    University of Bonn                     |     
      -----------------------------------------------------------      

   * xtb version 6.5.1 (b24c23e) compiled by 'conda@728c89f4b128' on 2022-07-12

   xtb is free software: you can redistribute it and/or modify it under
   the terms of the GNU Lesser General Public License as published by
   the Free Software Foundation, either version 3 of the License, or
   (at your option) any later version.
   
   xtb is distributed in the hope that it will be useful,
   but WITHOUT ANY WARRANTY; without even the implied warranty of
   MERCHANTABILITY or FITNESS FOR A PARTICULAR PURPOSE.  See the
   GNU Lesser General Public License for more details.
   
   Cite this work as:
   * C. Bannwarth, E. Caldeweyher, S. Ehlert, A. Hansen, P. Pracht,
     J. Seibert, S. Spicher, S. Grimme, WIREs Comput. Mol. Sci., 2020, 11,
     e01493. DOI: 10.1002/wcms.1493
   
   for GFN2-xTB:
   * C. Bannwarth, S. Ehlert and S. Grimme., J. Chem. Theory Comput., 2019,
     15, 1652-1671. DOI: 10.1021/acs.jctc.8b01176
   for GFN1-xTB:
   * S. Grimme, C. Bannwarth, P. Shushkov, J. Chem. Theory Comput., 2017,
     13, 1989-2009. DOI: 10.1021/acs.jctc.7b00118
   for GFN0-xTB:
   * P. Pracht, E. Caldeweyher, S. Ehlert, S. Grimme, ChemRxiv, 2019, preprint.
     DOI: 10.26434/chemrxiv.8326202.v1
   for GFN-FF:
   * S. Spicher and S. Grimme, Angew. Chem. Int. Ed., 2020, 59, 15665-15673.
     DOI: 10.1002/anie.202004239
   
   for ALPB and GBSA implicit solvation:
   * S. Ehlert, M. Stahn, S. Spicher, S. Grimme, J. Chem. Theory Comput.,
     2021, 17, 4250-4261. DOI: 10.1021/acs.jctc.1c00471
   
   for DFT-D4:
   * E. Caldeweyher, C. Bannwarth and S. Grimme, J. Chem. Phys., 2017,
     147, 034112. DOI: 10.1063/1.4993215
   * E. Caldeweyher, S. Ehlert, A. Hansen, H. Neugebauer, S. Spicher,
     C. Bannwarth and S. Grimme, J. Chem. Phys., 2019, 150, 154122.
     DOI: 10.1063/1.5090222
   * E. Caldeweyher, J.-M. Mewes, S. Ehlert and S. Grimme, Phys. Chem. Chem. Phys.
     2020, 22, 8499-8512. DOI: 10.1039/D0CP00502A
   
   for sTDA-xTB:
   * S. Grimme and C. Bannwarth, J. Chem. Phys., 2016, 145, 054103.
     DOI: 10.1063/1.4959605
   
   in the mass-spec context:
   * V. Asgeirsson, C. Bauer and S. Grimme, Chem. Sci., 2017, 8, 4879.
     DOI: 10.1039/c7sc00601b
   * J. Koopman and S. Grimme, ACS Omega 2019, 4, 12, 15120-15133.
     DOI: 10.1021/acsomega.9b02011
   
   for metadynamics refer to:
   * S. Grimme, J. Chem. Theory Comput., 2019, 155, 2847-2862
     DOI: 10.1021/acs.jctc.9b00143
   
   for SPH calculations refer to:
   * S. Spicher and S. Grimme, J. Chem. Theory Comput., 2021, 17, 1701-1714
     DOI: 10.1021/acs.jctc.0c01306
   
   with help from (in alphabetical order)
   P. Atkinson, C. Bannwarth, F. Bohle, G. Brandenburg, E. Caldeweyher
   M. Checinski, S. Dohm, S. Ehlert, S. Ehrlich, I. Gerasimov, C. Hölzer
   A. Katbashev, J. Koopman, C. Lavigne, S. Lehtola, F. März, M. Müller,
   F. Musil, H. Neugebauer, J. Pisarek, C. Plett, P. Pracht, F. Pultar,
   J. Seibert, P. Shushkov, S. Spicher, M. Stahn, M. Steiner, T. Strunk,
   J. Stückrath, T. Rose, and J. Unsleber
   
 * started run on 2026/08/18 at 18:32:15.592     

           -------------------------------------------------
          |                Calculation Setup                |
           -------------------------------------------------

          program call               : /h/332/chchoi/miniconda3/envs/el-agente/bin/xtb product_like.xyz --opt --gfn 2 -P 4 --chrg 1 --uhf 0
          coordinate file            : product_like.xyz
          omp threads                :                     4

   ID    Z sym.   atoms
    1   40 Zr     1
    2    6 C      2-7, 13-17, 26, 27
    3    1 H      8-12, 18-25, 28-31

molecular fragmentation (1/2 indicates fragments):
1111111111111111111111111111112
# atoms in fragment 1/2:    30     1
 fragment masses (1/2) :      263.49        1.01
CMA distance (Bohr)    :   4.778
constraining FC (au)   :  0.0500

           -------------------------------------------------
          |                 G F N 2 - x T B                 |
           -------------------------------------------------

        Reference                      10.1021/acs.jctc.8b01176
      * Hamiltonian:
        H0-scaling (s, p, d)           1.850000    2.230000    2.230000
        zeta-weighting                 0.500000
      * Dispersion:
        s8                             2.700000
        a1                             0.520000
        a2                             5.000000
        s9                             5.000000
      * Repulsion:
        kExp                           1.500000    1.000000
        rExp                           1.000000
      * Coulomb:
        alpha                          2.000000
        third order                    shell-resolved
        anisotropic                    true
        a3                             3.000000
        a5                             4.000000
        cn-shift                       1.200000
        cn-exp                         4.000000
        max-rad                        5.000000


          ...................................................
          :                      SETUP                      :
          :.................................................:
          :  # basis functions                  79          :
          :  # atomic orbitals                  78          :
          :  # shells                           46          :
          :  # electrons                        72          :
          :  max. iterations                   250          :
          :  Hamiltonian                  GFN2-xTB          :
          :  restarted?                      false          :
          :  GBSA solvation                  false          :
          :  PC potential                    false          :
          :  electronic temp.          300.0000000     K    :
          :  accuracy                    1.0000000          :
          :  -> integral cutoff          0.2500000E+02      :
          :  -> integral neglect         0.1000000E-07      :
          :  -> SCF convergence          0.1000000E-05 Eh   :
          :  -> wf. convergence          0.1000000E-03 e    :
          :  Broyden damping             0.4000000          :
          ...................................................

 iter      E             dE          RMSdq      gap      omega  full diag
   1    -38.2102217 -0.382102E+02  0.350E+00    1.18       0.0  T
   2    -38.3042167 -0.939949E-01  0.274E+00    2.66       1.0  T
   3    -38.3210835 -0.168668E-01  0.161E+00    2.07       1.0  T
   4    -38.3196900  0.139349E-02  0.621E-01    1.84       1.0  T
   5    -38.3206853 -0.995346E-03  0.307E-01    2.00       1.0  T
   6    -38.3216862 -0.100086E-02  0.202E-01    2.02       1.0  T
   7    -38.3217815 -0.953182E-04  0.921E-02    1.98       1.0  T
   8    -38.3218271 -0.455478E-04  0.213E-02    2.01       1.0  T
   9    -38.3218264  0.624947E-06  0.160E-02    2.02       1.1  T
  10    -38.3218284 -0.198094E-05  0.732E-03    2.01       2.5  T
  11    -38.3218284 -0.158480E-07  0.399E-03    2.01       4.5  T
  12    -38.3218285 -0.817946E-07  0.109E-03    2.01      16.4  T
  13    -38.3218285 -0.108800E-07  0.425E-04    2.01      42.3  T
  14    -38.3218285 -0.188134E-08  0.175E-04    2.01     102.8  T

   *** convergence criteria satisfied after 14 iterations ***

         #    Occupation            Energy/Eh            Energy/eV
      -------------------------------------------------------------
         1        2.0000           -0.8812865             -23.9810
       ...           ...                  ...                  ...
        30        2.0000           -0.5868034             -15.9677
        31        2.0000           -0.5861422             -15.9497
        32        2.0000           -0.5649507             -15.3731
        33        2.0000           -0.5220390             -14.2054
        34        2.0000           -0.5124026             -13.9432
        35        2.0000           -0.5097260             -13.8703
        36        2.0000           -0.5053359             -13.7509 (HOMO)
        37                         -0.4313642             -11.7380 (LUMO)
        38                         -0.4191524             -11.4057
        39                         -0.4123343             -11.2202
        40                         -0.4103526             -11.1663
        41                         -0.3978892             -10.8271
       ...                                ...                  ...
        78                          2.0333894              55.3313
      -------------------------------------------------------------
                  HL-Gap            0.0739717 Eh            2.0129 eV
             Fermi-level           -0.4683501 Eh          -12.7445 eV

 SCC (total)                   0 d,  0 h,  0 min,  0.560 sec
 SCC setup                      ...        0 min,  0.009 sec (  1.685%)
 Dispersion                     ...        0 min,  0.023 sec (  4.153%)
 classical contributions        ...        0 min,  0.008 sec (  1.515%)
 integral evaluation            ...        0 min,  0.018 sec (  3.260%)
 iterations                     ...        0 min,  0.408 sec ( 72.851%)
 molecular gradient             ...        0 min,  0.092 sec ( 16.496%)
 printout                       ...        0 min,  0.000 sec (  0.034%)

         :::::::::::::::::::::::::::::::::::::::::::::::::::::
         ::                     SUMMARY                     ::
         :::::::::::::::::::::::::::::::::::::::::::::::::::::
         :: total energy             -37.687631711413 Eh    ::
         :: gradient norm              0.068599372980 Eh/a0 ::
         :: HOMO-LUMO gap              2.012872999656 eV    ::
         ::.................................................::
         :: SCC energy               -38.321828525351 Eh    ::
         :: -> isotropic ES            0.097115426638 Eh    ::
         :: -> anisotropic ES         -0.014927206988 Eh    ::
         :: -> anisotropic XC          0.021103882972 Eh    ::
         :: -> dispersion             -0.031737535816 Eh    ::
         :: repulsion energy           0.633620699226 Eh    ::
         :: add. restraining           0.000000000000 Eh    ::
         :: total charge               1.000000000000 e     ::
         :::::::::::::::::::::::::::::::::::::::::::::::::::::

      ----------------------------------------------------------- 
     |                   =====================                   |
     |                        A N C O P T                        |
     |                   =====================                   |
     |               Approximate Normal Coordinate               |
     |                Rational Function Optimizer                |
      ----------------------------------------------------------- 

          ...................................................
          :                      SETUP                      :
          :.................................................:
          :   optimization level            normal          :
          :   max. optcycles                   200          :
          :   ANC micro-cycles                  20          :
          :   degrees of freedom                87          :
          :.................................................:
          :   RF solver                   davidson          :
          :   write xtbopt.log                true          :
          :   linear?                        false          :
          :   energy convergence         0.5000000E-05 Eh   :
          :   grad. convergence          0.1000000E-02 Eh/α :
          :   maximium RF displ.         1.0000000          :
          :   Hlow (freq-cutoff)         0.1000000E-01      :
          :   Hmax (freq-cutoff)         5.0000000          :
          :   S6 in model hess.         20.0000000          :
          ...................................................

generating ANC from model Hessian ...
Using Lindh-Hessian (1995)
 Shifting diagonal of input Hessian by    9.7217595631035776E-003
 Lowest  eigenvalues of input Hessian
    0.000000    0.000000    0.000000    0.000000    0.000000    0.000000
    0.010000    0.010212    0.010494    0.010647    0.011186    0.011616
    0.011745    0.012058    0.012374    0.013714    0.016548    0.016781
 Highest eigenvalues
    1.684707    1.704453    1.739399    1.740656    1.744467    1.746473


........................................................................
.............................. CYCLE    1 ..............................
........................................................................
   1    -38.3218285 -0.383218E+02  0.686E-05    2.01       0.0  T
   2    -38.3218285 -0.341061E-10  0.371E-05    2.01     483.6  T
   3    -38.3218285 -0.105302E-10  0.285E-05    2.01     630.1  T
     SCC iter.                  ...        0 min,  0.045 sec
     gradient                   ...        0 min,  0.081 sec
 * total energy  :   -37.6876317 Eh     change       -0.1106173E-09 Eh
   gradient norm :     0.0685993 Eh/α   predicted     0.0000000E+00 (-100.00%)
   displ. norm   :     0.3972185 α      lambda       -0.1774184E-01
   maximum displ.:     0.2202105 α      in ANC's #14, #27, #55, ...

........................................................................
.............................. CYCLE    2 ..............................
........................................................................
   1    -38.3331871 -0.383332E+02  0.504E-01    2.09       0.0  T
   2    -38.3333629 -0.175779E-03  0.291E-01    2.10       1.0  T
   3    -38.3331745  0.188355E-03  0.153E-01    2.11       1.0  T
   4    -38.3334721 -0.297576E-03  0.811E-02    2.10       1.0  T
   5    -38.3334705  0.157344E-05  0.463E-02    2.10       1.0  T
   6    -38.3334801 -0.955785E-05  0.146E-02    2.10       1.2  T
   7    -38.3334806 -0.529790E-06  0.603E-03    2.10       3.0  T
   8    -38.3334807 -0.152958E-06  0.282E-03    2.10       6.4  T
   9    -38.3334808 -0.630125E-07  0.125E-03    2.10      14.3  T
  10    -38.3334808 -0.491366E-08  0.474E-04    2.10      37.9  T
  11    -38.3334808 -0.243462E-08  0.134E-04    2.10     134.0  T
     SCC iter.                  ...        0 min,  0.306 sec
     gradient                   ...        0 min,  0.005 sec
 * total energy  :   -37.6997983 Eh     change       -0.1216655E-01 Eh
   gradient norm :     0.0277104 Eh/α   predicted    -0.1027168E-01 ( -15.57%)
   displ. norm   :     0.4837524 α      lambda       -0.7235056E-02
   maximum displ.:     0.3664077 α      in ANC's #14, #3, #6, ...

........................................................................
.............................. CYCLE    3 ..............................
........................................................................
   1    -38.3377907 -0.383378E+02  0.161E-01    2.09       0.0  T
   2    -38.3378496 -0.588958E-04  0.885E-02    2.09       1.0  T
   3    -38.3378528 -0.312981E-05  0.440E-02    2.09       1.0  T
   4    -38.3378599 -0.711554E-05  0.193E-02    2.09       1.0  T
   5    -38.3378599  0.389450E-07  0.111E-02    2.09       1.6  T
   6    -38.3378603 -0.463223E-06  0.375E-03    2.09       4.8  T
   7    -38.3378604 -0.832405E-07  0.169E-03    2.09      10.6  T
   8    -38.3378604 -0.482542E-08  0.115E-03    2.09      15.6  T
   9    -38.3378604 -0.439580E-08  0.670E-04    2.09      26.8  T
  10    -38.3378604  0.341771E-09  0.286E-04    2.09      62.7  T
     SCC iter.                  ...        0 min,  0.244 sec
     gradient                   ...        0 min,  0.007 sec
 * total energy  :   -37.7048968 Eh     change       -0.5098581E-02 Eh
   gradient norm :     0.0108959 Eh/α   predicted    -0.4464090E-02 ( -12.44%)
   displ. norm   :     0.4988296 α      lambda       -0.3579450E-02
   maximum displ.:     0.3916852 α      in ANC's #14, #9, #4, ...

........................................................................
.............................. CYCLE    4 ..............................
........................................................................
   1    -38.3379436 -0.383379E+02  0.478E-01    2.07       0.0  T
   2    -38.3379881 -0.444305E-04  0.284E-01    2.06       1.0  T
   3    -38.3379778  0.103033E-04  0.662E-02    2.07       1.0  T
   4    -38.3380040 -0.262570E-04  0.302E-02    2.07       1.0  T
   5    -38.3380036  0.397101E-06  0.153E-02    2.07       1.2  T
   6    -38.3380050 -0.135247E-05  0.750E-03    2.07       2.4  T
   7    -38.3380051 -0.119771E-06  0.367E-03    2.07       4.9  T
   8    -38.3380051  0.200893E-07  0.203E-03    2.07       8.8  T
   9    -38.3380051 -0.561807E-07  0.542E-04    2.07      33.1  T
  10    -38.3380051 -0.378726E-09  0.230E-04    2.07      78.1  T
     SCC iter.                  ...        0 min,  0.303 sec
     gradient                   ...        0 min,  0.015 sec
 * total energy  :   -37.7073900 Eh     change       -0.2493156E-02 Eh
   gradient norm :     0.0118238 Eh/α   predicted    -0.2235120E-02 ( -10.35%)
   displ. norm   :     0.4816878 α      lambda       -0.2052078E-02
   maximum displ.:     0.3537357 α      in ANC's #14, #6, #8, ...

........................................................................
.............................. CYCLE    5 ..............................
........................................................................
   1    -38.3394685 -0.383395E+02  0.144E-01    2.05       0.0  T
   2    -38.3395007 -0.321951E-04  0.803E-02    2.05       1.0  T
   3    -38.3394914  0.927440E-05  0.502E-02    2.05       1.0  T
   4    -38.3395154 -0.239770E-04  0.185E-02    2.06       1.0  T
   5    -38.3395167 -0.123306E-05  0.107E-02    2.05       1.7  T
   6    -38.3395169 -0.279455E-06  0.358E-03    2.05       5.0  T
   7    -38.3395170 -0.233626E-07  0.215E-03    2.05       8.3  T
   8    -38.3395170 -0.908528E-08  0.113E-03    2.05      15.9  T
   9    -38.3395170 -0.288102E-08  0.405E-04    2.05      44.3  T
  10    -38.3395170 -0.305377E-09  0.180E-04    2.05      99.7  T
     SCC iter.                  ...        0 min,  0.298 sec
     gradient                   ...        0 min,  0.077 sec
 * total energy  :   -37.7088113 Eh     change       -0.1421328E-02 Eh
   gradient norm :     0.0088295 Eh/α   predicted    -0.1264105E-02 ( -11.06%)
   displ. norm   :     0.4429158 α      lambda       -0.1168001E-02
   maximum displ.:     0.2682315 α      in ANC's #14, #4, #9, ...

........................................................................
.............................. CYCLE    6 ..............................
........................................................................
   1    -38.3410815 -0.383411E+02  0.294E-01    2.04       0.0  T
   2    -38.3411012 -0.197394E-04  0.173E-01    2.04       1.0  T
   3    -38.3410557  0.455117E-04  0.646E-02    2.04       1.0  T
   4    -38.3411124 -0.566568E-04  0.204E-02    2.05       1.0  T
   5    -38.3411125 -0.100130E-06  0.106E-02    2.04       1.7  T
   6    -38.3411131 -0.637152E-06  0.513E-03    2.04       3.5  T
   7    -38.3411132 -0.909855E-07  0.278E-03    2.04       6.5  T
   8    -38.3411132  0.247134E-09  0.137E-03    2.04      13.1  T
   9    -38.3411132 -0.896119E-08  0.288E-04    2.04      62.5  T
  10    -38.3411132 -0.478629E-09  0.170E-04    2.04     105.9  T
     SCC iter.                  ...        0 min,  0.462 sec
     gradient                   ...        0 min,  0.095 sec
 * total energy  :   -37.7095864 Eh     change       -0.7750946E-03 Eh
   gradient norm :     0.0049241 Eh/α   predicted    -0.6985667E-03 (  -9.87%)
   displ. norm   :     0.3902024 α      lambda       -0.6437923E-03
   maximum displ.:     0.1985577 α      in ANC's #4, #14, #8, ...

........................................................................
.............................. CYCLE    7 ..............................
........................................................................
   1    -38.3418876 -0.383419E+02  0.258E-01    2.03       0.0  T
   2    -38.3418987 -0.110499E-04  0.154E-01    2.04       1.0  T
   3    -38.3418762  0.225200E-04  0.475E-02    2.04       1.0  T
   4    -38.3419055 -0.293093E-04  0.193E-02    2.04       1.0  T
   5    -38.3419053  0.209250E-06  0.956E-03    2.04       1.9  T
   6    -38.3419060 -0.702528E-06  0.454E-03    2.04       4.0  T
   7    -38.3419061 -0.695814E-07  0.253E-03    2.04       7.1  T
   8    -38.3419061 -0.148835E-08  0.119E-03    2.04      15.1  T
   9    -38.3419061 -0.674683E-08  0.250E-04    2.04      71.9  T
  10    -38.3419061 -0.398543E-09  0.164E-04    2.04     109.2  T
     SCC iter.                  ...        0 min,  0.194 sec
     gradient                   ...        0 min,  0.014 sec
 * total energy  :   -37.7099606 Eh     change       -0.3741992E-03 Eh
   gradient norm :     0.0052475 Eh/α   predicted    -0.3709175E-03 (  -0.88%)
   displ. norm   :     0.2928608 α      lambda       -0.3759252E-03
   maximum displ.:     0.1382941 α      in ANC's #4, #6, #2, ...

........................................................................
.............................. CYCLE    8 ..............................
........................................................................
   1    -38.3427832 -0.383428E+02  0.122E-01    2.04       0.0  T
   2    -38.3427886 -0.532860E-05  0.722E-02    2.04       1.0  T
   3    -38.3427765  0.120938E-04  0.336E-02    2.04       1.0  T
   4    -38.3427914 -0.149705E-04  0.991E-03    2.04       1.8  T
   5    -38.3427914 -0.468090E-08  0.543E-03    2.04       3.3  T
   6    -38.3427916 -0.119453E-06  0.182E-03    2.04       9.9  T
   7    -38.3427916 -0.117010E-07  0.133E-03    2.04      13.5  T
   8    -38.3427916 -0.580637E-08  0.639E-04    2.04      28.1  T
   9    -38.3427916 -0.118007E-09  0.160E-04    2.04     112.5  T
     SCC iter.                  ...        0 min,  0.225 sec
     gradient                   ...        0 min,  0.071 sec
 * total energy  :   -37.7102289 Eh     change       -0.2682746E-03 Eh
   gradient norm :     0.0062181 Eh/α   predicted    -0.2040840E-03 ( -23.93%)
   displ. norm   :     0.3196883 α      lambda       -0.3844544E-03
   maximum displ.:     0.1615478 α      in ANC's #4, #2, #10, ...

........................................................................
.............................. CYCLE    9 ..............................
........................................................................
   1    -38.3431205 -0.383431E+02  0.131E-01    2.04       0.0  T
   2    -38.3431239 -0.337486E-05  0.800E-02    2.04       1.0  T
   3    -38.3431145  0.943887E-05  0.267E-02    2.04       1.0  T
   4    -38.3431256 -0.111416E-04  0.858E-03    2.04       2.1  T
   5    -38.3431256  0.463469E-07  0.517E-03    2.04       3.5  T
   6    -38.3431258 -0.195139E-06  0.140E-03    2.04      12.8  T
   7    -38.3431258 -0.120257E-07  0.106E-03    2.04      16.9  T
   8    -38.3431258 -0.327072E-08  0.457E-04    2.04      39.3  T
   9    -38.3431258 -0.141064E-09  0.139E-04    2.04     128.8  T
     SCC iter.                  ...        0 min,  0.196 sec
     gradient                   ...        0 min,  0.013 sec
 * total energy  :   -37.7105316 Eh     change       -0.3027067E-03 Eh
   gradient norm :     0.0064910 Eh/α   predicted    -0.2118737E-03 ( -30.01%)
   displ. norm   :     0.4089220 α      lambda       -0.4842849E-03
   maximum displ.:     0.2104075 α      in ANC's #2, #10, #4, ...

........................................................................
.............................. CYCLE   10 ..............................
........................................................................
   1    -38.3412822 -0.383413E+02  0.133E-01    2.05       0.0  T
   2    -38.3412859 -0.370315E-05  0.819E-02    2.05       1.0  T
   3    -38.3412732  0.126459E-04  0.271E-02    2.05       1.0  T
   4    -38.3412880 -0.147288E-04  0.900E-03    2.05       2.0  T
   5    -38.3412879  0.494325E-07  0.477E-03    2.05       3.8  T
   6    -38.3412880 -0.142094E-06  0.109E-03    2.05      16.5  T
   7    -38.3412881 -0.167508E-07  0.714E-04    2.05      25.2  T
   8    -38.3412881 -0.196128E-08  0.398E-04    2.05      45.1  T
     SCC iter.                  ...        0 min,  0.149 sec
     gradient                   ...        0 min,  0.008 sec
 * total energy  :   -37.7108984 Eh     change       -0.3668449E-03 Eh
   gradient norm :     0.0093521 Eh/α   predicted    -0.2826351E-03 ( -22.96%)
   displ. norm   :     0.3880492 α      lambda       -0.5225262E-03
   maximum displ.:     0.2200051 α      in ANC's #2, #10, #4, ...

........................................................................
.............................. CYCLE   11 ..............................
........................................................................
   1    -38.3406875 -0.383407E+02  0.116E-01    2.05       0.0  T
   2    -38.3406915 -0.404439E-05  0.714E-02    2.05       1.0  T
   3    -38.3406787  0.128380E-04  0.250E-02    2.05       1.0  T
   4    -38.3406940 -0.152773E-04  0.749E-03    2.05       2.4  T
   5    -38.3406941 -0.126287E-06  0.403E-03    2.05       4.5  T
   6    -38.3406941 -0.298388E-07  0.102E-03    2.05      17.6  T
   7    -38.3406942 -0.131570E-07  0.494E-04    2.05      36.3  T
   8    -38.3406942 -0.164164E-09  0.337E-04    2.05      53.3  T
     SCC iter.                  ...        0 min,  0.132 sec
     gradient                   ...        0 min,  0.095 sec
 * total energy  :   -37.7113031 Eh     change       -0.4046655E-03 Eh
   gradient norm :     0.0107282 Eh/α   predicted    -0.3006056E-03 ( -25.72%)
   displ. norm   :     0.4918757 α      lambda       -0.7200722E-03
   maximum displ.:     0.3106145 α      in ANC's #10, #2, #4, ...

........................................................................
.............................. CYCLE   12 ..............................
........................................................................
   1    -38.3378005 -0.383378E+02  0.135E-01    2.05       0.0  T
   2    -38.3378061 -0.563284E-05  0.823E-02    2.05       1.0  T
   3    -38.3377958  0.103121E-04  0.277E-02    2.05       1.0  T
   4    -38.3378084 -0.125898E-04  0.111E-02    2.05       1.6  T
   5    -38.3378085 -0.121213E-06  0.624E-03    2.05       2.9  T
   6    -38.3378085 -0.181823E-07  0.177E-03    2.05      10.1  T
   7    -38.3378086 -0.470622E-07  0.665E-04    2.05      27.0  T
   8    -38.3378086 -0.290801E-08  0.418E-04    2.05      43.0  T
     SCC iter.                  ...        0 min,  0.197 sec
     gradient                   ...        0 min,  0.013 sec
 * total energy  :   -37.7119020 Eh     change       -0.5988569E-03 Eh
   gradient norm :     0.0128967 Eh/α   predicted    -0.4471456E-03 ( -25.33%)
   displ. norm   :     0.5668491 α      lambda       -0.1406123E-02
   maximum displ.:     0.3424468 α      in ANC's #10, #2, #6, ...

........................................................................
.............................. CYCLE   13 ..............................
........................................................................
   1    -38.3452607 -0.383453E+02  0.157E-01    2.05       0.0  T
   2    -38.3452908 -0.300744E-04  0.920E-02    2.05       1.0  T
   3    -38.3452783  0.124678E-04  0.497E-02    2.05       1.0  T
   4    -38.3453004 -0.221560E-04  0.244E-02    2.04       1.0  T
   5    -38.3453008 -0.337423E-06  0.156E-02    2.04       1.2  T
   6    -38.3453016 -0.825761E-06  0.409E-03    2.04       4.4  T
   7    -38.3453017 -0.120039E-06  0.226E-03    2.04       8.0  T
   8    -38.3453017 -0.213090E-07  0.104E-03    2.04      17.2  T
   9    -38.3453017 -0.862549E-09  0.561E-04    2.04      32.0  T
  10    -38.3453017 -0.141149E-09  0.272E-04    2.04      66.0  T
     SCC iter.                  ...        0 min,  0.269 sec
     gradient                   ...        0 min,  0.007 sec
 * total energy  :   -37.7126095 Eh     change       -0.7074912E-03 Eh
   gradient norm :     0.0134556 Eh/α   predicted    -0.9289686E-03 (  31.30%)
   displ. norm   :     0.6646069 α      lambda       -0.1390416E-02
   maximum displ.:     0.4469038 α      in ANC's #10, #2, #4, ...

........................................................................
.............................. CYCLE   14 ..............................
........................................................................
   1    -38.3340883 -0.383341E+02  0.241E-01    2.05       0.0  T
   2    -38.3341007 -0.124450E-04  0.147E-01    2.05       1.0  T
   3    -38.3340887  0.120664E-04  0.411E-02    2.05       1.0  T
   4    -38.3341042 -0.155504E-04  0.216E-02    2.04       1.0  T
   5    -38.3341039  0.287240E-06  0.169E-02    2.04       1.1  T
   6    -38.3341042 -0.229144E-06  0.363E-03    2.04       4.9  T
   7    -38.3341044 -0.246168E-06  0.156E-03    2.04      11.5  T
   8    -38.3341044 -0.554723E-08  0.107E-03    2.04      16.7  T
   9    -38.3341044 -0.157694E-08  0.465E-04    2.04      38.6  T
  10    -38.3341044  0.315836E-10  0.170E-04    2.04     105.4  T
     SCC iter.                  ...        0 min,  0.257 sec
     gradient                   ...        0 min,  0.012 sec
 * total energy  :   -37.7132831 Eh     change       -0.6735980E-03 Eh
   gradient norm :     0.0164496 Eh/α   predicted    -0.1002283E-02 (  48.80%)
   displ. norm   :     0.0845987 α      lambda       -0.6764136E-03
   maximum displ.:     0.0301603 α      in ANC's #22, #36, #14, ...

........................................................................
.............................. CYCLE   15 ..............................
........................................................................
   1    -38.3416856 -0.383417E+02  0.567E-02    2.05       0.0  T
   2    -38.3416897 -0.407510E-05  0.348E-02    2.05       1.0  T
   3    -38.3416872  0.247480E-05  0.160E-02    2.05       1.1  T
   4    -38.3416908 -0.358713E-05  0.522E-03    2.05       3.4  T
   5    -38.3416910 -0.171869E-06  0.335E-03    2.05       5.4  T
   6    -38.3416910  0.957429E-08  0.194E-03    2.05       9.3  T
   7    -38.3416910 -0.153773E-07  0.722E-04    2.05      24.9  T
   8    -38.3416910 -0.179339E-08  0.499E-04    2.05      36.0  T
     SCC iter.                  ...        0 min,  0.186 sec
     gradient                   ...        0 min,  0.012 sec
 * total energy  :   -37.7137714 Eh     change       -0.4883514E-03 Eh
   gradient norm :     0.0084967 Eh/α   predicted    -0.3406312E-03 ( -30.25%)
   displ. norm   :     0.4983813 α      lambda       -0.8269239E-03
   maximum displ.:     0.3064112 α      in ANC's #10, #2, #4, ...

........................................................................
.............................. CYCLE   16 ..............................
........................................................................
   1    -38.3434039 -0.383434E+02  0.162E-01    2.06       0.0  T
   2    -38.3434092 -0.528034E-05  0.969E-02    2.05       1.0  T
   3    -38.3434012  0.798751E-05  0.274E-02    2.05       1.0  T
   4    -38.3434114 -0.101176E-04  0.750E-03    2.05       2.4  T
   5    -38.3434113  0.377714E-07  0.545E-03    2.05       3.3  T
   6    -38.3434115 -0.143306E-06  0.193E-03    2.05       9.3  T
   7    -38.3434115 -0.116070E-07  0.115E-03    2.05      15.6  T
   8    -38.3434115 -0.525303E-08  0.673E-04    2.05      26.7  T
   9    -38.3434115 -0.922789E-09  0.298E-04    2.05      60.2  T
     SCC iter.                  ...        0 min,  0.217 sec
     gradient                   ...        0 min,  0.071 sec
 * total energy  :   -37.7143435 Eh     change       -0.5720949E-03 Eh
   gradient norm :     0.0068780 Eh/α   predicted    -0.5161640E-03 (  -9.78%)
   displ. norm   :     0.3772372 α      lambda       -0.5126580E-03
   maximum displ.:     0.2309808 α      in ANC's #10, #2, #4, ...

........................................................................
.............................. CYCLE   17 ..............................
........................................................................
   1    -38.3465458 -0.383465E+02  0.114E-01    2.05       0.0  T
   2    -38.3465511 -0.534782E-05  0.640E-02    2.05       1.0  T
   3    -38.3465454  0.566687E-05  0.273E-02    2.05       1.0  T
   4    -38.3465529 -0.748887E-05  0.575E-03    2.05       3.1  T
   5    -38.3465530 -0.536636E-07  0.443E-03    2.05       4.1  T
   6    -38.3465530 -0.748844E-07  0.117E-03    2.05      15.3  T
   7    -38.3465531 -0.133506E-07  0.534E-04    2.05      33.6  T
   8    -38.3465531 -0.129294E-08  0.265E-04    2.05      67.9  T
     SCC iter.                  ...        0 min,  0.194 sec
     gradient                   ...        0 min,  0.012 sec
 * total energy  :   -37.7146525 Eh     change       -0.3089850E-03 Eh
   gradient norm :     0.0086205 Eh/α   predicted    -0.2928109E-03 (  -5.23%)
   displ. norm   :     0.4103255 α      lambda       -0.4194322E-03
   maximum displ.:     0.2162841 α      in ANC's #10, #2, #4, ...

........................................................................
.............................. CYCLE   18 ..............................
........................................................................
   1    -38.3443842 -0.383444E+02  0.128E-01    2.05       0.0  T
   2    -38.3443927 -0.847320E-05  0.726E-02    2.05       1.0  T
   3    -38.3443855  0.719642E-05  0.333E-02    2.05       1.0  T
   4    -38.3443952 -0.973030E-05  0.932E-03    2.05       1.9  T
   5    -38.3443954 -0.188240E-06  0.584E-03    2.05       3.1  T
   6    -38.3443955 -0.113861E-06  0.161E-03    2.05      11.2  T
   7    -38.3443955 -0.172709E-07  0.877E-04    2.05      20.5  T
   8    -38.3443955 -0.315066E-08  0.407E-04    2.05      44.2  T
     SCC iter.                  ...        0 min,  0.204 sec
     gradient                   ...        0 min,  0.007 sec
 * total energy  :   -37.7148648 Eh     change       -0.2123590E-03 Eh
   gradient norm :     0.0095088 Eh/α   predicted    -0.2450275E-03 (  15.38%)
   displ. norm   :     0.1748877 α      lambda       -0.4424716E-03
   maximum displ.:     0.0672759 α      in ANC's #7, #2, #8, ...

........................................................................
.............................. CYCLE   19 ..............................
........................................................................
   1    -38.3515459 -0.383515E+02  0.753E-02    2.05       0.0  T
   2    -38.3515528 -0.690889E-05  0.435E-02    2.05       1.0  T
   3    -38.3515464  0.639057E-05  0.249E-02    2.05       1.0  T
   4    -38.3515562 -0.975038E-05  0.656E-03    2.05       2.7  T
   5    -38.3515563 -0.116929E-06  0.512E-03    2.05       3.5  T
   6    -38.3515563 -0.301392E-07  0.134E-03    2.05      13.4  T
   7    -38.3515563 -0.163898E-07  0.620E-04    2.05      29.0  T
   8    -38.3515563 -0.189557E-08  0.439E-04    2.05      40.9  T
     SCC iter.                  ...        0 min,  0.202 sec
     gradient                   ...        0 min,  0.028 sec
 * total energy  :   -37.7149202 Eh     change       -0.5531345E-04 Eh
   gradient norm :     0.0100380 Eh/α   predicted    -0.2280066E-03 ( 312.21%)
   displ. norm   :     0.2266422 α      lambda       -0.4091066E-03
   maximum displ.:     0.1296317 α      in ANC's #10, #2, #4, ...

........................................................................
.............................. CYCLE   20 ..............................
........................................................................
   1    -38.3465345 -0.383465E+02  0.855E-02    2.05       0.0  T
   2    -38.3465364 -0.194238E-05  0.526E-02    2.04       1.0  T
   3    -38.3465356  0.787157E-06  0.132E-02    2.05       1.4  T
   4    -38.3465369 -0.125855E-05  0.830E-03    2.05       2.2  T
   5    -38.3465369  0.447266E-07  0.602E-03    2.05       3.0  T
   6    -38.3465369 -0.499290E-07  0.130E-03    2.05      13.8  T
   7    -38.3465369 -0.158318E-07  0.729E-04    2.05      24.6  T
   8    -38.3465369 -0.724690E-09  0.430E-04    2.05      41.7  T
     SCC iter.                  ...        0 min,  0.215 sec
     gradient                   ...        0 min,  0.011 sec
 * total energy  :   -37.7151040 Eh     change       -0.1838083E-03 Eh
   gradient norm :     0.0060905 Eh/α   predicted    -0.2150629E-03 (  17.00%)
   displ. norm   :     0.1100390 α      lambda        0.2577227E-04
   maximum displ.:     0.0601519 α      in ANC's #10, #2, #59, ...
 * RMSD in coord.:     1.0423828 α      energy gain  -0.2747226E-01 Eh

generating ANC from model Hessian ...
Using Lindh-Hessian (1995)
 Shifting diagonal of input Hessian by    1.2036644071271176E-002
 Lowest  eigenvalues of input Hessian
    0.010000    0.000000    0.000000    0.000000    0.000000    0.000000
    0.000000    0.012286    0.012492    0.012565    0.012997    0.013077
    0.013226    0.013364    0.013871    0.013914    0.014635    0.019062
 Highest eigenvalues
    1.683588    1.739391    1.740926    1.741844    1.744473    1.769894


........................................................................
.............................. CYCLE   21 ..............................
........................................................................
   1    -38.3480648 -0.383481E+02  0.487E-02    2.05       0.0  T
   2    -38.3480651 -0.294316E-06  0.301E-02    2.04       1.0  T
   3    -38.3480648  0.322477E-06  0.590E-03    2.05       3.0  T
   4    -38.3480652 -0.406778E-06  0.189E-03    2.04       9.5  T
   5    -38.3480652  0.496101E-09  0.116E-03    2.04      15.5  T
   6    -38.3480652 -0.900818E-08  0.319E-04    2.04      56.4  T
   7    -38.3480652 -0.567347E-09  0.214E-04    2.04      83.8  T
     SCC iter.                  ...        0 min,  0.166 sec
     gradient                   ...        0 min,  0.007 sec
 * total energy  :   -37.7151174 Eh     change       -0.1344793E-04 Eh
   gradient norm :     0.0072634 Eh/α   predicted     0.0000000E+00 (-100.00%)
   displ. norm   :     0.0529193 α      lambda       -0.1330647E-03
   maximum displ.:     0.0301068 α      in ANC's #6, #4, #7, ...

........................................................................
.............................. CYCLE   22 ..............................
........................................................................
   1    -38.3479220 -0.383479E+02  0.302E-02    2.04       0.0  T
   2    -38.3479227 -0.673664E-06  0.183E-02    2.04       1.0  T
   3    -38.3479216  0.106381E-05  0.103E-02    2.04       1.7  T
   4    -38.3479231 -0.143415E-05  0.366E-03    2.04       4.9  T
   5    -38.3479231  0.154542E-08  0.256E-03    2.04       7.0  T
   6    -38.3479231 -0.163624E-07  0.572E-04    2.04      31.4  T
   7    -38.3479231 -0.228266E-08  0.323E-04    2.04      55.6  T
     SCC iter.                  ...        0 min,  0.207 sec
     gradient                   ...        0 min,  0.068 sec
 * total energy  :   -37.7152090 Eh     change       -0.9159608E-04 Eh
   gradient norm :     0.0021137 Eh/α   predicted    -0.6683659E-04 ( -27.03%)
   displ. norm   :     0.0841902 α      lambda       -0.6668773E-04
   maximum displ.:     0.0509156 α      in ANC's #6, #4, #7, ...

........................................................................
.............................. CYCLE   23 ..............................
........................................................................
   1    -38.3477831 -0.383478E+02  0.290E-02    2.04       0.0  T
   2    -38.3477835 -0.390115E-06  0.171E-02    2.04       1.1  T
   3    -38.3477825  0.988807E-06  0.869E-03    2.04       2.1  T
   4    -38.3477837 -0.127138E-05  0.207E-03    2.04       8.7  T
   5    -38.3477837  0.430450E-08  0.128E-03    2.04      14.1  T
   6    -38.3477838 -0.124457E-07  0.540E-04    2.04      33.3  T
   7    -38.3477838 -0.654310E-09  0.404E-04    2.04      44.5  T
     SCC iter.                  ...        0 min,  0.188 sec
     gradient                   ...        0 min,  0.017 sec
 * total energy  :   -37.7152535 Eh     change       -0.4447345E-04 Eh
   gradient norm :     0.0019191 Eh/α   predicted    -0.3359827E-04 ( -24.45%)
   displ. norm   :     0.1773878 α      lambda       -0.5326354E-04
   maximum displ.:     0.1114614 α      in ANC's #4, #6, #7, ...

........................................................................
.............................. CYCLE   24 ..............................
........................................................................
   1    -38.3473096 -0.383473E+02  0.471E-02    2.04       0.0  T
   2    -38.3473105 -0.973465E-06  0.295E-02    2.04       1.0  T
   3    -38.3473081  0.248115E-05  0.130E-02    2.04       1.4  T
   4    -38.3473112 -0.310330E-05  0.311E-03    2.04       5.8  T
   5    -38.3473112 -0.163239E-07  0.223E-03    2.04       8.0  T
   6    -38.3473112 -0.200155E-07  0.978E-04    2.04      18.4  T
   7    -38.3473112 -0.497344E-08  0.610E-04    2.04      29.5  T
     SCC iter.                  ...        0 min,  0.196 sec
     gradient                   ...        0 min,  0.016 sec
 * total energy  :   -37.7153000 Eh     change       -0.4654245E-04 Eh
   gradient norm :     0.0040466 Eh/α   predicted    -0.2700752E-04 ( -41.97%)
   displ. norm   :     0.0885275 α      lambda       -0.4528992E-04
   maximum displ.:     0.0546374 α      in ANC's #4, #6, #7, ...

........................................................................
.............................. CYCLE   25 ..............................
........................................................................
   1    -38.3473548 -0.383474E+02  0.273E-02    2.04       0.0  T
   2    -38.3473551 -0.320526E-06  0.157E-02    2.04       1.1  T
   3    -38.3473548  0.326883E-06  0.697E-03    2.04       2.6  T
   4    -38.3473553 -0.467568E-06  0.184E-03    2.04       9.8  T
   5    -38.3473553 -0.455728E-09  0.126E-03    2.04      14.2  T
   6    -38.3473553 -0.698173E-08  0.544E-04    2.04      33.0  T
   7    -38.3473553 -0.641975E-10  0.368E-04    2.04      48.8  T
     SCC iter.                  ...        0 min,  0.193 sec
     gradient                   ...        0 min,  0.005 sec
 * total energy  :   -37.7153357 Eh     change       -0.3562418E-04 Eh
   gradient norm :     0.0027496 Eh/α   predicted    -0.2282285E-04 ( -35.93%)
   displ. norm   :     0.1425243 α      lambda       -0.5797549E-04
   maximum displ.:     0.0892592 α      in ANC's #4, #6, #5, ...

........................................................................
.............................. CYCLE   26 ..............................
........................................................................
   1    -38.3476930 -0.383477E+02  0.306E-02    2.04       0.0  T
   2    -38.3476936 -0.579264E-06  0.185E-02    2.04       1.0  T
   3    -38.3476930  0.578112E-06  0.692E-03    2.04       2.6  T
   4    -38.3476938 -0.760410E-06  0.153E-03    2.04      11.7  T
   5    -38.3476938 -0.203825E-07  0.955E-04    2.04      18.8  T
   6    -38.3476938 -0.366580E-08  0.329E-04    2.04      54.6  T
     SCC iter.                  ...        0 min,  0.163 sec
     gradient                   ...        0 min,  0.005 sec
 * total energy  :   -37.7153738 Eh     change       -0.3809638E-04 Eh
   gradient norm :     0.0011985 Eh/α   predicted    -0.2957694E-04 ( -22.36%)
   displ. norm   :     0.1436839 α      lambda       -0.2032720E-04
   maximum displ.:     0.0924593 α      in ANC's #4, #6, #5, ...

........................................................................
.............................. CYCLE   27 ..............................
........................................................................
   1    -38.3478438 -0.383478E+02  0.293E-02    2.04       0.0  T
   2    -38.3478441 -0.317199E-06  0.177E-02    2.04       1.0  T
   3    -38.3478433  0.772032E-06  0.739E-03    2.04       2.4  T
   4    -38.3478443 -0.979283E-06  0.266E-03    2.04       6.8  T
   5    -38.3478443 -0.408125E-08  0.185E-03    2.04       9.7  T
   6    -38.3478443 -0.154879E-07  0.590E-04    2.04      30.5  T
   7    -38.3478443 -0.634188E-09  0.415E-04    2.04      43.3  T
     SCC iter.                  ...        0 min,  0.176 sec
     gradient                   ...        0 min,  0.006 sec
 * total energy  :   -37.7153936 Eh     change       -0.1986858E-04 Eh
   gradient norm :     0.0018449 Eh/α   predicted    -0.1025716E-04 ( -48.37%)
   displ. norm   :     0.0904062 α      lambda       -0.1483909E-04
   maximum displ.:     0.0575108 α      in ANC's #4, #2, #5, ...

........................................................................
.............................. CYCLE   28 ..............................
........................................................................
   1    -38.3481940 -0.383482E+02  0.335E-02    2.04       0.0  T
   2    -38.3481943 -0.318966E-06  0.208E-02    2.04       1.0  T
   3    -38.3481932  0.114702E-05  0.794E-03    2.04       2.3  T
   4    -38.3481945 -0.132584E-05  0.195E-03    2.04       9.2  T
   5    -38.3481945 -0.201731E-07  0.112E-03    2.04      16.0  T
   6    -38.3481945 -0.361906E-08  0.377E-04    2.04      47.6  T
   7    -38.3481945 -0.571319E-09  0.251E-04    2.04      71.5  T
     SCC iter.                  ...        0 min,  0.188 sec
     gradient                   ...        0 min,  0.032 sec
 * total energy  :   -37.7154088 Eh     change       -0.1517462E-04 Eh
   gradient norm :     0.0008084 Eh/α   predicted    -0.7447949E-05 ( -50.92%)
   displ. norm   :     0.0774418 α      lambda       -0.8556300E-05
   maximum displ.:     0.0476156 α      in ANC's #4, #2, #5, ...

........................................................................
.............................. CYCLE   29 ..............................
........................................................................
   1    -38.3481403 -0.383481E+02  0.242E-02    2.04       0.0  T
   2    -38.3481409 -0.585428E-06  0.141E-02    2.04       1.3  T
   3    -38.3481404  0.493324E-06  0.862E-03    2.04       2.1  T
   4    -38.3481412 -0.807412E-06  0.382E-03    2.04       4.7  T
   5    -38.3481411  0.274532E-07  0.268E-03    2.04       6.7  T
   6    -38.3481412 -0.457433E-07  0.819E-04    2.04      21.9  T
   7    -38.3481412 -0.175206E-08  0.416E-04    2.04      43.1  T
     SCC iter.                  ...        0 min,  0.178 sec
     gradient                   ...        0 min,  0.005 sec
 * total energy  :   -37.7154150 Eh     change       -0.6235351E-05 Eh
   gradient norm :     0.0006939 Eh/α   predicted    -0.4291138E-05 ( -31.18%)
   displ. norm   :     0.0309802 α      lambda       -0.3368048E-05
   maximum displ.:     0.0225015 α      in ANC's #2, #4, #5, ...

........................................................................
.............................. CYCLE   30 ..............................
........................................................................
   1    -38.3480601 -0.383481E+02  0.213E-02    2.04       0.0  T
   2    -38.3480602 -0.920332E-07  0.131E-02    2.04       1.4  T
   3    -38.3480600  0.223638E-06  0.385E-03    2.04       4.7  T
   4    -38.3480603 -0.281023E-06  0.181E-03    2.04       9.9  T
   5    -38.3480603 -0.211178E-08  0.103E-03    2.04      17.4  T
   6    -38.3480603 -0.498277E-08  0.366E-04    2.04      49.1  T
   7    -38.3480603 -0.140936E-09  0.142E-04    2.04     126.9  T
     SCC iter.                  ...        0 min,  0.217 sec
     gradient                   ...        0 min,  0.008 sec
 * total energy  :   -37.7154185 Eh     change       -0.3448344E-05 Eh
   gradient norm :     0.0004254 Eh/α   predicted    -0.1692491E-05 ( -50.92%)
   displ. norm   :     0.0275820 α      lambda       -0.2458669E-05
   maximum displ.:     0.0200584 α      in ANC's #2, #4, #6, ...

   *** GEOMETRY OPTIMIZATION CONVERGED AFTER 30 ITERATIONS ***

------------------------------------------------------------------------
 total energy gain   :        -0.0277868 Eh      -17.4365 kcal/mol
 total RMSD          :         1.0569822 a0        0.5593 Å
 total power (kW/mol):        -2.4318049 (step)   -9.4354 (real)
------------------------------------------------------------------------

 ANCopt (total)                0 d,  0 h,  0 min,  7.732 sec
 optimizer setup                ...        0 min,  0.000 sec (  0.006%)
 model hessian                  ...        0 min,  0.031 sec (  0.401%)
 ANC generation                 ...        0 min,  0.004 sec (  0.054%)
 coordinate transformation      ...        0 min,  0.000 sec (  0.006%)
 single point calculation       ...        0 min,  7.596 sec ( 98.236%)
 optimization log               ...        0 min,  0.003 sec (  0.041%)
 hessian update                 ...        0 min,  0.071 sec (  0.915%)
 rational function              ...        0 min,  0.024 sec (  0.311%)

================
 final structure:
================
31
 xtb: 6.5.1 (b24c23e)
Zr          -0.63586112413346        0.06985756768473        0.46853592141544
C           -4.21458178541590        0.79550223019920       -1.43736206467232
C            0.19439481392485       -2.17248443562986        1.09994031977202
C            0.83987495419605       -1.88286193508201       -0.12182575362152
C           -0.14585828445451       -1.83314973566590       -1.13736120392822
C           -1.40540032055879       -2.06944033537093       -0.54057805931593
C           -1.20081569826208       -2.27072670718799        0.85093596932416
H            0.69688924666442       -2.43993599079132        2.02300830005646
H            1.91235556636235       -1.84604834813574       -0.28057893130262
H            0.05061309457546       -1.75261640003233       -2.19971065079534
H           -2.32050889641087       -2.28450957457158       -1.08239588703489
H           -1.93837990562938       -2.65788597035160        1.54706057387821
C            0.50462283476432        0.76611291528210        2.58758226629808
C           -0.64094129174382        0.02382205379090        2.96012339640746
C           -1.78863860856105        0.73413467155849        2.53248373556787
C           -1.34851882310726        1.94072369215758        1.92182863945577
C            0.06533346953882        1.96287815980884        1.97390608853889
H            1.52861529476226        0.54007732318446        2.86860031221157
H           -0.64962681051507       -0.84005277882318        3.61358458596108
H           -2.80395544057207        0.50969513322423        2.84240581376969
H           -1.97136920170531        2.78317863826415        1.63985484968216
H            0.69520714241824        2.79745698051769        1.69030794342055
H            0.17689769044943        1.03073536904971       -0.71448928368497
H           -4.61112948903589       -0.02818446175944       -2.01146372846725
H           -2.14650564708461        0.22877202955872       -1.94495336364434
C           -3.52089300796253        0.49424640738481       -0.13916524789959
C           -2.72407904496741        0.94696410877601       -1.35885833994288
H           -2.33659146944399        1.96537364013874       -1.37702200106149
H           -4.81794922323341        1.68821844708577       -1.49324879548919
H           -3.70818034365960        1.21837586975608        0.64799050515998
H           -3.52010004122879       -0.54869359402946        0.18394839995580

 Bond Distances (Angstroems)
 ---------------------------
Zr1-C3=2.4731        Zr1-C4=2.5178        Zr1-C5=2.5378        Zr1-C6=2.4874        Zr1-C7=2.4380        Zr1-C13=2.5052       
Zr1-C14=2.4920       Zr1-C15=2.4556       Zr1-C16=2.4739       Zr1-C17=2.5182       Zr1-H23=1.7273       Zr1-C26=2.9787       
Zr1-C27=2.9102       C2-H24=1.0795        C2-C26=1.5024        C2-C27=1.5002        C2-H29=1.0789        C3-Zr1=2.4731        
C3-C4=1.4118         C3-C7=1.4207         C3-H8=1.0845         C4-Zr1=2.5178        C4-C3=1.4118         C4-C5=1.4161         
C4-H9=1.0848         C5-Zr1=2.5378        C5-C4=1.4161         C5-C6=1.4137         C5-H10=1.0834        C6-Zr1=2.4874        
C6-C5=1.4137         C6-C7=1.4208         C6-H11=1.0850        C7-Zr1=2.4380        C7-C3=1.4207         C7-C6=1.4208         
C7-H12=1.0856        H8-C3=1.0845         H9-C4=1.0848         H10-C5=1.0834        H11-C6=1.0850        H12-C7=1.0856        
C13-Zr1=2.5052       C13-C14=1.4150       C13-C17=1.4149       C13-H18=1.0856       C14-Zr1=2.4920       C14-C13=1.4150       
C14-C15=1.4158       C14-H19=1.0832       C15-Zr1=2.4556       C15-C14=1.4158       C15-C16=1.4221       C15-H20=1.0850       
C16-Zr1=2.4739       C16-C15=1.4221       C16-C17=1.4150       C16-H21=1.0850       C17-Zr1=2.5182       C17-C13=1.4149       
C17-C16=1.4150       C17-H22=1.0834       H18-C13=1.0856       H19-C14=1.0832       H20-C15=1.0850       H21-C16=1.0850       
H22-C17=1.0834       H23-Zr1=1.7273       H24-C2=1.0795        H25-C27=1.0922       C26-Zr1=2.9787       C26-C2=1.5024        
C26-C27=1.5256       C26-H30=1.0858       C26-H31=1.0918       C27-Zr1=2.9102       C27-C2=1.5002        C27-H25=1.0922       
C27-C26=1.5256       C27-H28=1.0898       H28-C27=1.0898       H29-C2=1.0789        H30-C26=1.0858       H31-C26=1.0918       
 C  H  Rav=1.0852 sigma=0.0035  Rmin=1.0789  Rmax=1.0922    16
 C  C  Rav=1.4380 sigma=0.0396  Rmin=1.4118  Rmax=1.5256    13
 Zr H  Rav=1.7273 sigma=0.0000  Rmin=1.7273  Rmax=1.7273     1
 Zr C  Rav=2.5657 sigma=0.1721  Rmin=2.4380  Rmax=2.9787    12

 selected bond angles (degree)
 --------------------
C4-Zr1-C3= 32.85               C5-Zr1-C3= 54.33               C5-Zr1-C4= 32.53               C6-Zr1-C3= 55.08               
C6-Zr1-C4= 54.49               C6-Zr1-C5= 32.66               C7-Zr1-C3= 33.62               C7-Zr1-C4= 55.11               
C7-Zr1-C5= 54.84               C7-Zr1-C6= 33.51               C13-Zr1-C3= 83.29              C13-Zr1-C4= 98.46              
C13-Zr1-C5=130.98              C13-Zr1-C6=136.31              C13-Zr1-C7=103.87              C14-Zr1-C3= 74.26              
C14-Zr1-C4=102.79              C14-Zr1-C5=128.26              C14-Zr1-C6=112.90              C14-Zr1-C7= 79.92              
C14-Zr1-C13= 32.90             C15-Zr1-C3=100.85              C15-Zr1-C4=133.00              C15-Zr1-C5=145.62              
C15-Zr1-C6=115.37              C15-Zr1-C7= 91.09              C15-Zr1-C13= 55.08             C15-Zr1-C14= 33.25             
C16-Zr1-C3=129.23              C16-Zr1-C4=153.27              C16-Zr1-C5=173.96              C16-Zr1-C6=143.09              
C16-Zr1-C7=124.55              C16-Zr1-C13= 54.83             C16-Zr1-C14= 54.97             C16-Zr1-C15= 33.53             
C17-Zr1-C3=115.82              C17-Zr1-C4=124.05              C17-Zr1-C5=152.65              C17-Zr1-C6=167.21              
C17-Zr1-C7=133.83              C17-Zr1-C13= 32.72             C17-Zr1-C14= 54.32             C17-Zr1-C15= 54.89             
C17-Zr1-C16= 32.92             H23-Zr1-C3=121.42              H23-Zr1-C4= 89.72              H23-Zr1-C5= 83.85              
H23-Zr1-C6=110.25              H23-Zr1-C7=138.64              H23-Zr1-C13=102.15             H23-Zr1-C14=134.11             
H23-Zr1-C15=130.25             H23-Zr1-C16= 96.73             H23-Zr1-C17= 81.97             C26-Zr1-C3=120.43              
C26-Zr1-C4=129.08              C26-Zr1-C5= 99.48              C26-Zr1-C6= 74.94              C26-Zr1-C7= 86.81              
C26-Zr1-C13=125.02             C26-Zr1-C14=101.81             C26-Zr1-C15= 71.23             C26-Zr1-C16= 74.52             
C26-Zr1-C17=106.53             C26-Zr1-H23=103.70             C27-Zr1-C3=132.41              C27-Zr1-C4=120.47              
C27-Zr1-C5= 88.12              C27-Zr1-C6= 77.44              C27-Zr1-C7=102.80              C27-Zr1-C13=140.72             
C27-Zr1-C14=129.19             C27-Zr1-C15= 96.28             C27-Zr1-C16= 86.23             C27-Zr1-C17=110.40             
C27-Zr1-H23= 74.92             C27-Zr1-C26= 30.00             C26-C2-H24=118.43              C27-C2-H24=118.02              
C27-C2-C26= 61.07              H29-C2-H24=113.48              H29-C2-C26=117.96              H29-C2-C27=118.34              
C4-C3-Zr1= 75.32               C7-C3-Zr1= 71.84               C7-C3-C4=108.15                H8-C3-Zr1=126.62               
H8-C3-C4=125.12                H8-C3-C7=125.96                C3-C4-Zr1= 71.83               C5-C4-Zr1= 74.51               
C5-C4-C3=108.03                H9-C4-Zr1=125.98               H9-C4-C3=125.85                H9-C4-C5=125.59                
C4-C5-Zr1= 72.96               C6-C5-Zr1= 71.71               C6-C5-C4=108.15                H10-C5-Zr1=126.85              
H10-C5-C4=125.42               H10-C5-C6=126.01               C5-C6-Zr1= 75.63               C7-C6-Zr1= 71.34               
C7-C6-C5=107.99                H11-C6-Zr1=129.35              H11-C6-C5=125.01               H11-C6-C7=125.62               
C3-C7-Zr1= 74.55               C6-C7-Zr1= 75.15               C6-C7-C3=107.65                H12-C7-Zr1=126.90              
H12-C7-C3=125.42               H12-C7-C6=125.50               

 selected dihedral angles (degree)
 ---------------------------------
C4-C3-Zr1-C5= 36.72           C4-C3-Zr1-C6= 77.01           C4-C3-Zr1-C7=115.14           C4-C3-Zr1-C13=242.93          
C4-C3-Zr1-C14=210.63          C4-C3-Zr1-C15=190.47          C4-C3-Zr1-C16=210.56          C4-C3-Zr1-C17=246.58          
C4-C3-Zr1-H23=343.10          C4-C3-Zr1-C26=115.98          C4-C3-Zr1-C27= 81.45          C7-C3-Zr1-C4=244.86           
C7-C3-Zr1-C5=281.58           C7-C3-Zr1-C6=321.87           C7-C3-Zr1-C13=127.78          C7-C3-Zr1-C14= 95.48          
C7-C3-Zr1-C15= 75.33          C7-C3-Zr1-C16= 95.42          C7-C3-Zr1-C17=131.43          C7-C3-Zr1-H23=227.95          
C7-C3-Zr1-C26=  0.84          C7-C3-Zr1-C27=326.30          H8-C3-Zr1-C4=123.11           H8-C3-Zr1-C5=159.84           
H8-C3-Zr1-C6=200.13           H8-C3-Zr1-C7=238.26           H8-C3-Zr1-C13=  6.04          H8-C3-Zr1-C14=333.74          
H8-C3-Zr1-C15=313.59          H8-C3-Zr1-C16=333.68          H8-C3-Zr1-C17=  9.69          H8-C3-Zr1-H23=106.21          
H8-C3-Zr1-C26=239.09          H8-C3-Zr1-C27=204.56          C3-C4-Zr1-C5=244.60           C3-C4-Zr1-C6=281.02           
C3-C4-Zr1-C7=322.34           C3-C4-Zr1-C13= 63.39          C3-C4-Zr1-C14= 30.18          C3-C4-Zr1-C15= 14.13          
C3-C4-Zr1-C16= 61.11          C3-C4-Zr1-C17= 85.54          C3-C4-Zr1-H23=165.63          C3-C4-Zr1-C26=273.15          
C3-C4-Zr1-C27=237.89          C5-C4-Zr1-C3=115.40           C5-C4-Zr1-C6= 36.43           C5-C4-Zr1-C7= 77.74           
C5-C4-Zr1-C13=178.79          C5-C4-Zr1-C14=145.59          C5-C4-Zr1-C15=129.53          C5-C4-Zr1-C16=176.52          
C5-C4-Zr1-C17=200.94          C5-C4-Zr1-H23=281.04          C5-C4-Zr1-C26= 28.55          C5-C4-Zr1-C27=353.30          
H9-C4-Zr1-C3=238.44           H9-C4-Zr1-C5=123.04           H9-C4-Zr1-C6=159.46           H9-C4-Zr1-C7=200.77           
H9-C4-Zr1-C13=301.83          H9-C4-Zr1-C14=268.62          H9-C4-Zr1-C15=252.57          H9-C4-Zr1-C16=299.55          
H9-C4-Zr1-C17=323.98          H9-C4-Zr1-H23= 44.07          H9-C4-Zr1-C26=151.59          H9-C4-Zr1-C27=116.33          
Zr1-C4-C3-C7= 64.85           Zr1-C4-C3-H8=235.28           C5-C4-C3-Zr1=293.73           C5-C4-C3-C7=358.57            
C5-C4-C3-H8=169.01            H9-C4-C3-Zr1=121.71           H9-C4-C3-C7=186.56            H9-C4-C3-H8=356.99            
C4-C5-Zr1-C3=322.90           C4-C5-Zr1-C6=243.61           C4-C5-Zr1-C7=281.34           C4-C5-Zr1-C13=358.42          
C4-C5-Zr1-C14=315.42          C4-C5-Zr1-C15=272.61          C4-C5-Zr1-C16=195.05          C4-C5-Zr1-C17= 40.14          
C4-C5-Zr1-H23= 99.19          C4-C5-Zr1-C26=202.10          C4-C5-Zr1-C27=174.22          C6-C5-Zr1-C3= 79.30           
C6-C5-Zr1-C4=116.39           C6-C5-Zr1-C7= 37.73           C6-C5-Zr1-C13=114.81          C6-C5-Zr1-C14= 71.82          
C6-C5-Zr1-C15= 29.01          C6-C5-Zr1-C16=311.44          C6-C5-Zr1-C17=156.53          C6-C5-Zr1-H23=215.58          
C6-C5-Zr1-C26=318.49          C6-C5-Zr1-C27=290.62          H10-C5-Zr1-C3=201.04          H10-C5-Zr1-C4=238.14          
H10-C5-Zr1-C6=121.75          H10-C5-Zr1-C7=159.48          H10-C5-Zr1-C13=236.56         H10-C5-Zr1-C14=193.56         
H10-C5-Zr1-C15=150.75         H10-C5-Zr1-C16= 73.19         H10-C5-Zr1-C17=278.28         H10-C5-Zr1-H23=337.33         
H10-C5-Zr1-C26= 80.24         H10-C5-Zr1-C27= 52.36         Zr1-C5-C4-C3= 64.50           Zr1-C5-C4-H9=236.54           
C6-C5-C4-Zr1=296.48           C6-C5-C4-C3=  0.99            C6-C5-C4-H9=173.03            H10-C5-C4-Zr1=123.49          
H10-C5-C4-C3=188.00           H10-C5-C4-H9=  0.03           C5-C6-Zr1-C3=283.23           C5-C6-Zr1-C4=323.72           
C5-C6-Zr1-C7=244.97           C5-C6-Zr1-C13=262.75          C5-C6-Zr1-C14=234.08          C5-C6-Zr1-C15=197.64          
C5-C6-Zr1-C16=172.45          C5-C6-Zr1-C17=235.77          C5-C6-Zr1-H23= 38.07          C5-C6-Zr1-C26=137.40          
C5-C6-Zr1-C27=106.58          C7-C6-Zr1-C3= 38.26           C7-C6-Zr1-C4= 78.75           C7-C6-Zr1-C5=115.03           
C7-C6-Zr1-C13= 17.78          C7-C6-Zr1-C14=349.10          C7-C6-Zr1-C15=312.66          C7-C6-Zr1-C16=287.47          
C7-C6-Zr1-C17=350.79          C7-C6-Zr1-H23=153.10          C7-C6-Zr1-C26=252.42          C7-C6-Zr1-C27=221.61          
H11-C6-Zr1-C3=159.46          H11-C6-Zr1-C4=199.95          H11-C6-Zr1-C5=236.23          H11-C6-Zr1-C7=121.20          
H11-C6-Zr1-C13=138.98         H11-C6-Zr1-C14=110.30         H11-C6-Zr1-C15= 73.86         H11-C6-Zr1-C16= 48.67         
H11-C6-Zr1-C17=111.99         H11-C6-Zr1-H23=274.30         H11-C6-Zr1-C26= 13.62         H11-C6-Zr1-C27=342.81         
Zr1-C6-C5-C4= 64.33           Zr1-C6-C5-H10=237.27          C7-C6-C5-Zr1=295.50           C7-C6-C5-C4=359.83            
C7-C6-C5-H10=172.77           H11-C6-C5-Zr1=128.29          H11-C6-C5-C4=192.62           H11-C6-C5-H10=  5.56          
C3-C7-Zr1-C4= 36.77           C3-C7-Zr1-C5= 76.77           C3-C7-Zr1-C6=113.50           C3-C7-Zr1-C13=306.05          
C3-C7-Zr1-C14=283.32          C3-C7-Zr1-C15=251.86          C3-C7-Zr1-C16=249.44          C3-C7-Zr1-C17=290.69          
C3-C7-Zr1-H23= 73.53          C3-C7-Zr1-C26=180.72          C3-C7-Zr1-C27=155.16          C6-C7-Zr1-C3=246.50           
C6-C7-Zr1-C4=283.27           C6-C7-Zr1-C5=323.27           C6-C7-Zr1-C13=192.55          C6-C7-Zr1-C14=169.81          
C6-C7-Zr1-C15=138.35          C6-C7-Zr1-C16=135.94          C6-C7-Zr1-C17=177.19          C6-C7-Zr1-H23=320.03          
C6-C7-Zr1-C26= 67.22          C6-C7-Zr1-C27= 41.66          H12-C7-Zr1-C3=122.98          H12-C7-Zr1-C4=159.75          
H12-C7-Zr1-C5=199.75          H12-C7-Zr1-C6=236.48          H12-C7-Zr1-C13= 69.03         H12-C7-Zr1-C14= 46.29         
H12-C7-Zr1-C15= 14.83         H12-C7-Zr1-C16= 12.42         H12-C7-Zr1-C17= 53.67         H12-C7-Zr1-H23=196.51         
H12-C7-Zr1-C26=303.70         H12-C7-Zr1-C27=278.14         Zr1-C7-C3-C4=292.85           Zr1-C7-C3-H8=122.52           
C6-C7-C3-Zr1= 68.47           C6-C7-C3-C4=  1.32            C6-C7-C3-H8=190.98            H12-C7-C3-Zr1=235.40          
H12-C7-C3-C4=168.25           H12-C7-C3-H8=357.92           Zr1-C7-C6-C5= 67.35           Zr1-C7-C6-H11=234.46          
C3-C7-C6-Zr1=291.94           C3-C7-C6-C5=359.30            C3-C7-C6-H11=166.41           H12-C7-C6-Zr1=125.02          
H12-C7-C6-C5=192.37           H12-C7-C6-H11=359.49          

 CMA Distance (Angstroems)
 ---------------------------
R(CMA):  2.5894
           -------------------------------------------------
          |                Final Singlepoint                |
           -------------------------------------------------

          ...................................................
          :                      SETUP                      :
          :.................................................:
          :  # basis functions                  79          :
          :  # atomic orbitals                  78          :
          :  # shells                           46          :
          :  # electrons                        72          :
          :  max. iterations                   250          :
          :  Hamiltonian                  GFN2-xTB          :
          :  restarted?                      false          :
          :  GBSA solvation                  false          :
          :  PC potential                    false          :
          :  electronic temp.          300.0000000     K    :
          :  accuracy                    1.0000000          :
          :  -> integral cutoff          0.2500000E+02      :
          :  -> integral neglect         0.1000000E-07      :
          :  -> SCF convergence          0.1000000E-05 Eh   :
          :  -> wf. convergence          0.1000000E-03 e    :
          :  Broyden damping             0.4000000          :
          ...................................................

 iter      E             dE          RMSdq      gap      omega  full diag
   1    -38.3480603 -0.383481E+02  0.692E-05    2.04       0.0  T
   2    -38.3480603 -0.162075E-10  0.397E-05    2.04     452.6  T
   3    -38.3480603 -0.540012E-11  0.324E-05    2.04     554.3  T

   *** convergence criteria satisfied after 3 iterations ***

         #    Occupation            Energy/Eh            Energy/eV
      -------------------------------------------------------------
         1        2.0000           -0.8676789             -23.6107
       ...           ...                  ...                  ...
        30        2.0000           -0.5903768             -16.0650
        31        2.0000           -0.5892778             -16.0351
        32        2.0000           -0.5682004             -15.4615
        33        2.0000           -0.5248504             -14.2819
        34        2.0000           -0.5176767             -14.0867
        35        2.0000           -0.5139561             -13.9855
        36        2.0000           -0.5088262             -13.8459 (HOMO)
        37                         -0.4338474             -11.8056 (LUMO)
        38                         -0.4282162             -11.6524
        39                         -0.4204012             -11.4397
        40                         -0.4139493             -11.2641
        41                         -0.3993330             -10.8664
       ...                                ...                  ...
        78                          2.1136050              57.5141
      -------------------------------------------------------------
                  HL-Gap            0.0749788 Eh            2.0403 eV
             Fermi-level           -0.4713368 Eh          -12.8257 eV

 SCC (total)                   0 d,  0 h,  0 min,  0.166 sec
 SCC setup                      ...        0 min,  0.009 sec (  5.227%)
 Dispersion                     ...        0 min,  0.009 sec (  5.213%)
 classical contributions        ...        0 min,  0.007 sec (  4.066%)
 integral evaluation            ...        0 min,  0.022 sec ( 13.099%)
 iterations                     ...        0 min,  0.099 sec ( 59.281%)
 molecular gradient             ...        0 min,  0.022 sec ( 13.001%)
 printout                       ...        0 min,  0.000 sec (  0.094%)

         :::::::::::::::::::::::::::::::::::::::::::::::::::::
         ::                     SUMMARY                     ::
         :::::::::::::::::::::::::::::::::::::::::::::::::::::
         :: total energy             -37.715418478940 Eh    ::
         :: gradient norm              0.000425707212 Eh/a0 ::
         :: HOMO-LUMO gap              2.040277001366 eV    ::
         ::.................................................::
         :: SCC energy               -38.348060281929 Eh    ::
         :: -> isotropic ES            0.090023221866 Eh    ::
         :: -> anisotropic ES         -0.013968003330 Eh    ::
         :: -> anisotropic XC          0.021813993459 Eh    ::
         :: -> dispersion             -0.029669815847 Eh    ::
         :: repulsion energy           0.632091072483 Eh    ::
         :: add. restraining           0.000000000000 Eh    ::
         :: total charge               1.000000000000 e     ::
         :::::::::::::::::::::::::::::::::::::::::::::::::::::

           -------------------------------------------------
          |                Property Printout                |
           -------------------------------------------------

    * Orbital Energies and Occupations

         #    Occupation            Energy/Eh            Energy/eV
      -------------------------------------------------------------
         1        2.0000           -0.8676789             -23.6107
       ...           ...                  ...                  ...
        24        2.0000           -0.5980195             -16.2729
        25        2.0000           -0.5967607             -16.2387
        26        2.0000           -0.5938928             -16.1606
        27        2.0000           -0.5931632             -16.1408
        28        2.0000           -0.5918716             -16.1056
        29        2.0000           -0.5910497             -16.0833
        30        2.0000           -0.5903768             -16.0650
        31        2.0000           -0.5892778             -16.0351
        32        2.0000           -0.5682004             -15.4615
        33        2.0000           -0.5248504             -14.2819
        34        2.0000           -0.5176767             -14.0867
        35        2.0000           -0.5139561             -13.9855
        36        2.0000           -0.5088262             -13.8459 (HOMO)
        37                         -0.4338474             -11.8056 (LUMO)
        38                         -0.4282162             -11.6524
        39                         -0.4204012             -11.4397
        40                         -0.4139493             -11.2641
        41                         -0.3993330             -10.8664
        42                         -0.3134203              -8.5286
        43                         -0.3118567              -8.4861
        44                         -0.3056750              -8.3178
        45                         -0.3044688              -8.2850
        46                         -0.2294713              -6.2442
        47                         -0.0760645              -2.0698
       ...                                ...                  ...
        78                          2.1136050              57.5141
      -------------------------------------------------------------
                  HL-Gap            0.0749788 Eh            2.0403 eV
             Fermi-level           -0.4713368 Eh          -12.8257 eV

     #   Z          covCN         q      C6AA      α(0)
     1  40 Zr       8.850     1.075   135.574    17.496
     2   6 C        3.805    -0.058    21.619     6.619
     3   6 C        3.753    -0.088    22.230     6.723
     4   6 C        3.729    -0.076    22.053     6.704
     5   6 C        3.720    -0.074    22.039     6.705
     6   6 C        3.745    -0.099    22.462     6.761
     7   6 C        3.764    -0.102    22.497     6.761
     8   1 H        0.925     0.089     1.887     2.148
     9   1 H        0.925     0.089     1.891     2.151
    10   1 H        0.925     0.086     1.918     2.166
    11   1 H        0.925     0.080     1.976     2.198
    12   1 H        0.925     0.082     1.955     2.186
    13   6 C        3.735    -0.085    22.212     6.726
    14   6 C        3.747    -0.087    22.230     6.725
    15   6 C        3.757    -0.104    22.547     6.770
    16   6 C        3.751    -0.093    22.343     6.741
    17   6 C        3.732    -0.067    21.881     6.677
    18   1 H        0.925     0.088     1.902     2.157
    19   1 H        0.925     0.087     1.904     2.158
    20   1 H        0.925     0.080     1.978     2.199
    21   1 H        0.925     0.083     1.952     2.185
    22   1 H        0.925     0.090     1.878     2.143
    23   1 H        0.854    -0.383    44.117    10.407
    24   1 H        0.926     0.080     1.982     2.202
    25   1 H        0.928     0.107     1.721     2.051
    26   6 C        4.061    -0.093    22.193     6.692
    27   6 C        4.139    -0.088    22.084     6.674
    28   1 H        0.925     0.105     1.739     2.062
    29   1 H        0.926     0.085     1.929     2.172
    30   1 H        0.925     0.098     1.802     2.099
    31   1 H        0.925     0.094     1.844     2.124

 Mol. C6AA /au·bohr⁶  :      10278.249316
 Mol. C8AA /au·bohr⁸  :     334351.770700
 Mol. α(0) /au        :        149.581206


Wiberg/Mayer (AO) data.
largest (>0.10) Wiberg bond orders for each atom

 ---------------------------------------------------------------------------
     #   Z sym  total        # sym  WBO       # sym  WBO       # sym  WBO
 ---------------------------------------------------------------------------
     1  40 Zr   4.043 --    23 H    0.682     7 C    0.261    16 C    0.259
                            17 C    0.256    15 C    0.256     4 C    0.255
                            13 C    0.251     5 C    0.248     6 C    0.246
                             3 C    0.242    14 C    0.240    27 C    0.147
                            26 C    0.137
     2   6 C    3.936 --    27 C    0.988    26 C    0.985    24 H    0.973
                            29 H    0.973
     3   6 C    3.980 --     4 C    1.319     7 C    1.291     8 H    0.921
                             1 Zr   0.242
     4   6 C    3.983 --     3 C    1.319     5 C    1.297     9 H    0.922
                             1 Zr   0.255
     5   6 C    3.982 --     6 C    1.312     4 C    1.297    10 H    0.929
                             1 Zr   0.248
     6   6 C    3.976 --     5 C    1.312     7 C    1.285    11 H    0.923
                             1 Zr   0.246
     7   6 C    3.976 --     3 C    1.291     6 C    1.285    12 H    0.920
                             1 Zr   0.261
     8   1 H    0.990 --     3 C    0.921
     9   1 H    0.988 --     4 C    0.922
    10   1 H    0.989 --     5 C    0.929
    11   1 H    0.991 --     6 C    0.923
    12   1 H    0.993 --     7 C    0.920
    13   6 C    3.980 --    14 C    1.308    17 C    1.304    18 H    0.920
                             1 Zr   0.251
    14   6 C    3.981 --    13 C    1.308    15 C    1.303    19 H    0.926
                             1 Zr   0.240
    15   6 C    3.975 --    14 C    1.303    16 C    1.281    20 H    0.921
                             1 Zr   0.256
    16   6 C    3.977 --    17 C    1.306    15 C    1.281    21 H    0.922
                             1 Zr   0.259
    17   6 C    3.984 --    16 C    1.306    13 C    1.304    22 H    0.927
                             1 Zr   0.256
    18   1 H    0.989 --    13 C    0.920
    19   1 H    0.991 --    14 C    0.926
    20   1 H    0.993 --    15 C    0.921
    21   1 H    0.990 --    16 C    0.922
    22   1 H    0.989 --    17 C    0.927
    23   1 H    0.853 --     1 Zr   0.682
    24   1 H    0.993 --     2 C    0.973
    25   1 H    0.988 --    27 C    0.899
    26   6 C    3.942 --     2 C    0.985    30 H    0.935    27 C    0.912
                            31 H    0.903     1 Zr   0.137
    27   6 C    3.944 --     2 C    0.988    28 H    0.926    26 C    0.912
                            25 H    0.899     1 Zr   0.147
    28   1 H    0.988 --    27 C    0.926
    29   1 H    0.992 --     2 C    0.973
    30   1 H    0.989 --    26 C    0.935
    31   1 H    0.991 --    26 C    0.903
 ---------------------------------------------------------------------------

Topologies differ in total number of bonds
Writing topology from bond orders to xtbtopo.mol

molecular dipole:
                 x           y           z       tot (Debye)
 q only:       -3.264      -0.080       0.820
   full:       -3.008      -0.049       0.841       7.938
molecular quadrupole (traceless):
                xx          xy          yy          xz          yz          zz
 q only:       16.234      -5.326     -10.349       5.422      -1.264      -5.885
  q+dip:       16.912      -4.430     -10.274       4.814      -3.253      -6.638
   full:       16.713      -4.224     -10.100       4.394      -2.649      -6.613

           -------------------------------------------------
          |                Geometry Summary                 |
           -------------------------------------------------

      molecular mass/u    :      264.4982010
   center of mass at/Å    :       -1.0161320      -0.0909623       0.6016684
  moments of inertia/u·Å² :        0.6838394E+03   0.7663123E+03   0.1152637E+04
rotational constants/cm⁻¹ :        0.2465145E-01   0.2199838E-01   0.1462527E-01

 * 39 selected distances

     #   Z          #   Z                                           value/Å
     1  40 Zr       3   6 C                                       2.4730740
     1  40 Zr       4   6 C                                       2.5178242
     3   6 C        4   6 C                                       1.4118210
     4   6 C        5   6 C                                       1.4161405
     1  40 Zr       6   6 C                                       2.4873878
     5   6 C        6   6 C                                       1.4136583
     1  40 Zr       7   6 C                                       2.4379785
     3   6 C        7   6 C                                       1.4206574
     6   6 C        7   6 C                                       1.4208036
     3   6 C        8   1 H                                       1.0844749
     4   6 C        9   1 H                                       1.0847915
     5   6 C       10   1 H                                       1.0833620
     6   6 C       11   1 H                                       1.0850093
     7   6 C       12   1 H                                       1.0855795
     1  40 Zr      13   6 C                                       2.5051614
     1  40 Zr      14   6 C                                       2.4920181
    13   6 C       14   6 C                                       1.4149559
     1  40 Zr      15   6 C                                       2.4556143
    14   6 C       15   6 C                                       1.4158493
     1  40 Zr      16   6 C                                       2.4738799
    15   6 C       16   6 C                                       1.4221331
     1  40 Zr      17   6 C                                       2.5182020 (max)
    13   6 C       17   6 C                                       1.4148572
    16   6 C       17   6 C                                       1.4149846
    13   6 C       18   1 H                                       1.0856445
    14   6 C       19   1 H                                       1.0832206
    15   6 C       20   1 H                                       1.0850315
    16   6 C       21   1 H                                       1.0849804
    17   6 C       22   1 H                                       1.0833701
     1  40 Zr      23   1 H                                       1.7272557
     2   6 C       24   1 H                                       1.0794919
     2   6 C       26   6 C                                       1.5024229
     2   6 C       27   6 C                                       1.5002341
    25   1 H       27   6 C                                       1.0921989
    26   6 C       27   6 C                                       1.5256204
    27   6 C       28   1 H                                       1.0897866
     2   6 C       29   1 H                                       1.0789430 (min)
    26   6 C       30   1 H                                       1.0858427
    26   6 C       31   1 H                                       1.0918457

 * 4 distinct bonds (by element types)

   Z      Z             #   av. dist./Å        max./Å        min./Å
   1 H    6 C          16     1.0852233     1.0921989     1.0789430
   6 C    6 C          13     1.4380106     1.5256204     1.4118210
   1 H   40 Zr          1     1.7272557     1.7272557     1.7272557
   6 C   40 Zr          9     2.4845712     2.5182020     2.4379785


optimized geometry written to: xtbopt.xyz


           -------------------------------------------------
          | TOTAL ENERGY              -37.715418478940 Eh   |
          | GRADIENT NORM               0.000425707212 Eh/α |
          | HOMO-LUMO GAP               2.040277001366 eV   |
           -------------------------------------------------

------------------------------------------------------------------------
 * finished run on 2026/08/18 at 18:32:24.148     
------------------------------------------------------------------------
 total:
 * wall-time:     0 d,  0 h,  0 min,  8.556 sec
 *  cpu-time:     0 d,  0 h,  1 min,  4.102 sec
 * ratio c/w:     7.492 speedup
 SCF:
 * wall-time:     0 d,  0 h,  0 min,  0.560 sec
 *  cpu-time:     0 d,  0 h,  0 min,  4.299 sec
 * ratio c/w:     7.677 speedup
 ANC optimizer:
 * wall-time:     0 d,  0 h,  0 min,  7.905 sec
 *  cpu-time:     0 d,  0 h,  0 min, 59.115 sec
 * ratio c/w:     7.478 speedup

