      -----------------------------------------------------------      
     |                   =====================                   |     
     |                           x T B                           |     
     |                   =====================                   |     
     |                         S. Grimme                         |     
     |          Mulliken Center for Theoretical Chemistry        |     
     |                    University of Bonn                     |     
      -----------------------------------------------------------      

   * xtb version 6.5.1 (b24c23e) compiled by 'conda@728c89f4b128' on 2022-07-12

   xtb is free software: you can redistribute it and/or modify it under
   the terms of the GNU Lesser General Public License as published by
   the Free Software Foundation, either version 3 of the License, or
   (at your option) any later version.
   
   xtb is distributed in the hope that it will be useful,
   but WITHOUT ANY WARRANTY; without even the implied warranty of
   MERCHANTABILITY or FITNESS FOR A PARTICULAR PURPOSE.  See the
   GNU Lesser General Public License for more details.
   
   Cite this work as:
   * C. Bannwarth, E. Caldeweyher, S. Ehlert, A. Hansen, P. Pracht,
     J. Seibert, S. Spicher, S. Grimme, WIREs Comput. Mol. Sci., 2020, 11,
     e01493. DOI: 10.1002/wcms.1493
   
   for GFN2-xTB:
   * C. Bannwarth, S. Ehlert and S. Grimme., J. Chem. Theory Comput., 2019,
     15, 1652-1671. DOI: 10.1021/acs.jctc.8b01176
   for GFN1-xTB:
   * S. Grimme, C. Bannwarth, P. Shushkov, J. Chem. Theory Comput., 2017,
     13, 1989-2009. DOI: 10.1021/acs.jctc.7b00118
   for GFN0-xTB:
   * P. Pracht, E. Caldeweyher, S. Ehlert, S. Grimme, ChemRxiv, 2019, preprint.
     DOI: 10.26434/chemrxiv.8326202.v1
   for GFN-FF:
   * S. Spicher and S. Grimme, Angew. Chem. Int. Ed., 2020, 59, 15665-15673.
     DOI: 10.1002/anie.202004239
   
   for ALPB and GBSA implicit solvation:
   * S. Ehlert, M. Stahn, S. Spicher, S. Grimme, J. Chem. Theory Comput.,
     2021, 17, 4250-4261. DOI: 10.1021/acs.jctc.1c00471
   
   for DFT-D4:
   * E. Caldeweyher, C. Bannwarth and S. Grimme, J. Chem. Phys., 2017,
     147, 034112. DOI: 10.1063/1.4993215
   * E. Caldeweyher, S. Ehlert, A. Hansen, H. Neugebauer, S. Spicher,
     C. Bannwarth and S. Grimme, J. Chem. Phys., 2019, 150, 154122.
     DOI: 10.1063/1.5090222
   * E. Caldeweyher, J.-M. Mewes, S. Ehlert and S. Grimme, Phys. Chem. Chem. Phys.
     2020, 22, 8499-8512. DOI: 10.1039/D0CP00502A
   
   for sTDA-xTB:
   * S. Grimme and C. Bannwarth, J. Chem. Phys., 2016, 145, 054103.
     DOI: 10.1063/1.4959605
   
   in the mass-spec context:
   * V. Asgeirsson, C. Bauer and S. Grimme, Chem. Sci., 2017, 8, 4879.
     DOI: 10.1039/c7sc00601b
   * J. Koopman and S. Grimme, ACS Omega 2019, 4, 12, 15120-15133.
     DOI: 10.1021/acsomega.9b02011
   
   for metadynamics refer to:
   * S. Grimme, J. Chem. Theory Comput., 2019, 155, 2847-2862
     DOI: 10.1021/acs.jctc.9b00143
   
   for SPH calculations refer to:
   * S. Spicher and S. Grimme, J. Chem. Theory Comput., 2021, 17, 1701-1714
     DOI: 10.1021/acs.jctc.0c01306
   
   with help from (in alphabetical order)
   P. Atkinson, C. Bannwarth, F. Bohle, G. Brandenburg, E. Caldeweyher
   M. Checinski, S. Dohm, S. Ehlert, S. Ehrlich, I. Gerasimov, C. Hölzer
   A. Katbashev, J. Koopman, C. Lavigne, S. Lehtola, F. März, M. Müller,
   F. Musil, H. Neugebauer, J. Pisarek, C. Plett, P. Pracht, F. Pultar,
   J. Seibert, P. Shushkov, S. Spicher, M. Stahn, M. Steiner, T. Strunk,
   J. Stückrath, T. Rose, and J. Unsleber
   
 * started run on 2026/08/18 at 18:29:10.173     

           -------------------------------------------------
          |                Calculation Setup                |
           -------------------------------------------------

          program call               : /h/332/chchoi/miniconda3/envs/el-agente/bin/xtb reactant.xyz --opt --gfn 2 -P 4 --chrg 1 --uhf 0 --input detailed_input.inp
          coordinate file            : reactant.xyz
          omp threads                :                     4

   ID    Z sym.   atoms
    1   40 Zr     1
    2    6 C      2-7, 13-17, 26, 27
    3    1 H      8-12, 18-25, 28-31
constraining bond 1 2 to    2.3000000 Å, actual value:    2.4750002 Å
constraining bond 1 26 to    2.6000000 Å, actual value:    2.5634266 Å
constraining bond 1 27 to    2.6000000 Å, actual value:    2.5634266 Å

molecular fragmentation (1/2 indicates fragments):
1111111111111111111111111222222
# atoms in fragment 1/2:    25     6
 fragment masses (1/2) :      236.44       28.05
CMA distance (Bohr)    :   5.713
constraining FC (au)   :  0.8000

           -------------------------------------------------
          |                 G F N 2 - x T B                 |
           -------------------------------------------------

        Reference                      10.1021/acs.jctc.8b01176
      * Hamiltonian:
        H0-scaling (s, p, d)           1.850000    2.230000    2.230000
        zeta-weighting                 0.500000
      * Dispersion:
        s8                             2.700000
        a1                             0.520000
        a2                             5.000000
        s9                             5.000000
      * Repulsion:
        kExp                           1.500000    1.000000
        rExp                           1.000000
      * Coulomb:
        alpha                          2.000000
        third order                    shell-resolved
        anisotropic                    true
        a3                             3.000000
        a5                             4.000000
        cn-shift                       1.200000
        cn-exp                         4.000000
        max-rad                        5.000000


          ...................................................
          :                      SETUP                      :
          :.................................................:
          :  # basis functions                  79          :
          :  # atomic orbitals                  78          :
          :  # shells                           46          :
          :  # electrons                        72          :
          :  max. iterations                   250          :
          :  Hamiltonian                  GFN2-xTB          :
          :  restarted?                      false          :
          :  GBSA solvation                  false          :
          :  PC potential                    false          :
          :  electronic temp.          300.0000000     K    :
          :  accuracy                    1.0000000          :
          :  -> integral cutoff          0.2500000E+02      :
          :  -> integral neglect         0.1000000E-07      :
          :  -> SCF convergence          0.1000000E-05 Eh   :
          :  -> wf. convergence          0.1000000E-03 e    :
          :  Broyden damping             0.4000000          :
          ...................................................

 iter      E             dE          RMSdq      gap      omega  full diag
   1    -37.9601354 -0.379601E+02  0.424E+00    0.57       0.0  T
   2    -38.0666125 -0.106477E+00  0.367E+00    1.52       1.0  T
   3    -38.1191899 -0.525774E-01  0.295E+00    0.94       1.0  T
   4    -38.1164784  0.271147E-02  0.140E+00    0.99       1.0  T
   5    -38.1137949  0.268351E-02  0.793E-01    0.73       1.0  T
   6    -38.1202114 -0.641645E-02  0.383E-01    0.95       1.0  T
   7    -38.1212743 -0.106294E-02  0.247E-01    0.88       1.0  T
   8    -38.1213143 -0.400100E-04  0.137E-01    0.87       1.0  T
   9    -38.1213019  0.124517E-04  0.649E-02    0.91       1.0  T
  10    -38.1213409 -0.390356E-04  0.371E-02    0.90       1.0  T
  11    -38.1213579 -0.169922E-04  0.152E-02    0.89       1.2  T
  12    -38.1213590 -0.111221E-05  0.447E-03    0.89       4.0  T
  13    -38.1213590 -0.387946E-07  0.188E-03    0.89       9.6  T
  14    -38.1213591 -0.224945E-07  0.122E-03    0.89      14.7  T
  15    -38.1213591 -0.155101E-07  0.446E-04    0.89      40.3  T
  16    -38.1213591 -0.214229E-10  0.258E-04    0.89      69.5  T

   *** convergence criteria satisfied after 16 iterations ***

         #    Occupation            Energy/Eh            Energy/eV
      -------------------------------------------------------------
         1        2.0000           -0.8637396             -23.5035
       ...           ...                  ...                  ...
        30        2.0000           -0.5741030             -15.6221
        31        2.0000           -0.5713656             -15.5476
        32        2.0000           -0.5095815             -13.8664
        33        2.0000           -0.5047474             -13.7349
        34        2.0000           -0.4945029             -13.4561
        35        2.0000           -0.4921678             -13.3926
        36        2.0000           -0.4861161             -13.2279 (HOMO)
        37                         -0.4533385             -12.3360 (LUMO)
        38                         -0.4377844             -11.9127
        39                         -0.4352875             -11.8448
        40                         -0.4313603             -11.7379
        41                         -0.4233749             -11.5206
       ...                                ...                  ...
        78                          1.3827423              37.6263
      -------------------------------------------------------------
                  HL-Gap            0.0327776 Eh            0.8919 eV
             Fermi-level           -0.4697264 Eh          -12.7819 eV

 SCC (total)                   0 d,  0 h,  0 min,  2.439 sec
 SCC setup                      ...        0 min,  0.026 sec (  1.081%)
 Dispersion                     ...        0 min,  0.048 sec (  1.967%)
 classical contributions        ...        0 min,  0.029 sec (  1.201%)
 integral evaluation            ...        0 min,  0.068 sec (  2.805%)
 iterations                     ...        0 min,  1.981 sec ( 81.219%)
 molecular gradient             ...        0 min,  0.286 sec ( 11.719%)
 printout                       ...        0 min,  0.000 sec (  0.008%)

         :::::::::::::::::::::::::::::::::::::::::::::::::::::
         ::                     SUMMARY                     ::
         :::::::::::::::::::::::::::::::::::::::::::::::::::::
         :: total energy             -37.465716492762 Eh    ::
         :: gradient norm              0.921431423295 Eh/a0 ::
         :: HOMO-LUMO gap              0.891924041258 eV    ::
         ::.................................................::
         :: SCC energy               -38.121359078810 Eh    ::
         :: -> isotropic ES            0.097382457233 Eh    ::
         :: -> anisotropic ES         -0.002946632308 Eh    ::
         :: -> anisotropic XC          0.021570818862 Eh    ::
         :: -> dispersion             -0.027694242490 Eh    ::
         :: repulsion energy           0.559701657130 Eh    ::
         :: add. restraining           0.095134042624 Eh    ::
         :: total charge               1.000000000120 e     ::
         :::::::::::::::::::::::::::::::::::::::::::::::::::::

      ----------------------------------------------------------- 
     |                   =====================                   |
     |                        A N C O P T                        |
     |                   =====================                   |
     |               Approximate Normal Coordinate               |
     |                Rational Function Optimizer                |
      ----------------------------------------------------------- 

          ...................................................
          :                      SETUP                      :
          :.................................................:
          :   optimization level            normal          :
          :   max. optcycles                   200          :
          :   ANC micro-cycles                  20          :
          :   degrees of freedom                87          :
          :.................................................:
          :   RF solver                   davidson          :
          :   write xtbopt.log                true          :
          :   linear?                        false          :
          :   energy convergence         0.5000000E-05 Eh   :
          :   grad. convergence          0.1000000E-02 Eh/α :
          :   maximium RF displ.         1.0000000          :
          :   Hlow (freq-cutoff)         0.1000000E-01      :
          :   Hmax (freq-cutoff)         5.0000000          :
          :   S6 in model hess.         20.0000000          :
          ...................................................

generating ANC from model Hessian ...
Using Lindh-Hessian (1995)
 Shifting diagonal of input Hessian by    2.7730096990836180E-002
 Lowest  eigenvalues of input Hessian
    0.010000    0.013833    0.026386    0.027326    0.000000    0.000000
    0.000000    0.000000    0.000000    0.000000    0.027837    0.028150
    0.028310    0.028407    0.028416    0.028769    0.028844    0.028891
 Highest eigenvalues
    1.509106    1.509195    1.805216    1.928282    3.180736    5.114038


........................................................................
.............................. CYCLE    1 ..............................
........................................................................
   1    -38.1213591 -0.381214E+02  0.101E-04    0.89       0.0  T
   2    -38.1213591  0.888889E-11  0.118E-04    0.89     152.1  T
   3    -38.1213591 -0.117304E-09  0.649E-05    0.89     276.6  T
     SCC iter.                  ...        0 min,  0.339 sec
     gradient                   ...        0 min,  0.173 sec
 * total energy  :   -37.4657165 Eh     change       -0.4172875E-09 Eh
   gradient norm :     0.9214320 Eh/α   predicted     0.0000000E+00 (-100.00%)
   displ. norm   :     0.3516421 α      lambda       -0.2318088E+00
   maximum displ.:     0.1727172 α      in ANC's #86, #56, #87, ...

........................................................................
.............................. CYCLE    2 ..............................
........................................................................
   1    -38.1825551 -0.381826E+02  0.437E-01    1.06       0.0  T
   2    -38.1827762 -0.221037E-03  0.211E-01    0.97       1.0  T
   3    -38.1828796 -0.103390E-03  0.263E-01    1.09       1.0  T
   4    -38.1833600 -0.480418E-03  0.113E-01    1.04       1.0  T
   5    -38.1833790 -0.189866E-04  0.693E-02    1.04       1.0  T
   6    -38.1833960 -0.170210E-04  0.276E-02    1.02       1.0  T
   7    -38.1834027 -0.666709E-05  0.742E-03    1.02       2.4  T
   8    -38.1834028 -0.112161E-06  0.456E-03    1.02       3.9  T
   9    -38.1834029 -0.856520E-07  0.249E-03    1.02       7.2  T
  10    -38.1834029 -0.237188E-07  0.970E-04    1.02      18.5  T
  11    -38.1834029 -0.291225E-08  0.516E-04    1.02      34.8  T
     SCC iter.                  ...        0 min,  1.285 sec
     gradient                   ...        0 min,  0.236 sec
 * total energy  :   -37.5987720 Eh     change       -0.1330555E+00 Eh
   gradient norm :     0.1100474 Eh/α   predicted    -0.1302414E+00 (  -2.11%)
   displ. norm   :     0.6750623 α      lambda       -0.5262219E-01
   maximum displ.:     0.2828199 α      in ANC's #2, #24, #30, ...

........................................................................
.............................. CYCLE    3 ..............................
........................................................................
   1    -38.2481793 -0.382482E+02  0.655E-01    1.30       0.0  T
   2    -38.2488987 -0.719367E-03  0.520E-01    1.36       1.0  T
   3    -38.2490708 -0.172116E-03  0.334E-01    1.37       1.0  T
   4    -38.2490244  0.464132E-04  0.109E-01    1.36       1.0  T
   5    -38.2491279 -0.103496E-03  0.906E-02    1.38       1.0  T
   6    -38.2491732 -0.453161E-04  0.413E-02    1.36       1.0  T
   7    -38.2491822 -0.897773E-05  0.183E-02    1.35       1.0  T
   8    -38.2491837 -0.153220E-05  0.709E-03    1.36       2.5  T
   9    -38.2491839 -0.162235E-06  0.304E-03    1.36       5.9  T
  10    -38.2491840 -0.876624E-07  0.154E-03    1.36      11.7  T
  11    -38.2491840 -0.555377E-08  0.523E-04    1.36      34.4  T
  12    -38.2491840 -0.112515E-08  0.205E-04    1.36      87.4  T
     SCC iter.                  ...        0 min,  1.607 sec
     gradient                   ...        0 min,  0.069 sec
 * total energy  :   -37.6326261 Eh     change       -0.3385413E-01 Eh
   gradient norm :     0.0551430 Eh/α   predicted    -0.3830135E-01 (  13.14%)
   displ. norm   :     0.5080825 α      lambda       -0.1349724E-01
   maximum displ.:     0.2854932 α      in ANC's #2, #13, #8, ...

........................................................................
.............................. CYCLE    4 ..............................
........................................................................
   1    -38.2796209 -0.382796E+02  0.304E-01    1.47       0.0  T
   2    -38.2797513 -0.130450E-03  0.250E-01    1.47       1.0  T
   3    -38.2797726 -0.212574E-04  0.139E-01    1.48       1.0  T
   4    -38.2797696  0.298728E-05  0.713E-02    1.47       1.0  T
   5    -38.2797902 -0.206173E-04  0.417E-02    1.48       1.0  T
   6    -38.2797927 -0.248753E-05  0.156E-02    1.48       1.2  T
   7    -38.2797941 -0.136482E-05  0.949E-03    1.48       1.9  T
   8    -38.2797943 -0.275062E-06  0.411E-03    1.48       4.4  T
   9    -38.2797943 -0.285353E-08  0.203E-03    1.48       8.9  T
  10    -38.2797944 -0.512159E-07  0.869E-04    1.48      20.7  T
  11    -38.2797944 -0.137527E-08  0.272E-04    1.48      65.9  T
     SCC iter.                  ...        0 min,  1.291 sec
     gradient                   ...        0 min,  0.290 sec
 * total energy  :   -37.6419019 Eh     change       -0.9275809E-02 Eh
   gradient norm :     0.0438494 Eh/α   predicted    -0.8490789E-02 (  -8.46%)
   displ. norm   :     0.4704432 α      lambda       -0.6743245E-02
   maximum displ.:     0.2171576 α      in ANC's #2, #12, #13, ...

........................................................................
.............................. CYCLE    5 ..............................
........................................................................
   1    -38.2985144 -0.382985E+02  0.235E-01    1.40       0.0  T
   2    -38.2985657 -0.512779E-04  0.152E-01    1.44       1.0  T
   3    -38.2985359  0.297947E-04  0.846E-02    1.43       1.0  T
   4    -38.2985883 -0.523655E-04  0.373E-02    1.44       1.0  T
   5    -38.2985913 -0.305608E-05  0.242E-02    1.44       1.0  T
   6    -38.2985932 -0.187009E-05  0.111E-02    1.44       1.6  T
   7    -38.2985941 -0.850712E-06  0.549E-03    1.44       3.3  T
   8    -38.2985942 -0.173155E-06  0.358E-03    1.44       5.0  T
   9    -38.2985943 -0.374336E-07  0.139E-03    1.44      12.9  T
  10    -38.2985943 -0.731873E-08  0.430E-04    1.44      41.8  T
  11    -38.2985943 -0.374939E-09  0.176E-04    1.44     102.3  T
     SCC iter.                  ...        0 min,  1.612 sec
     gradient                   ...        0 min,  0.084 sec
 * total energy  :   -37.6463614 Eh     change       -0.4459550E-02 Eh
   gradient norm :     0.0174666 Eh/α   predicted    -0.4117847E-02 (  -7.66%)
   displ. norm   :     0.6004662 α      lambda       -0.5062719E-02
   maximum displ.:     0.4119306 α      in ANC's #2, #12, #1, ...

........................................................................
.............................. CYCLE    6 ..............................
........................................................................
   1    -38.2999163 -0.382999E+02  0.424E-01    1.40       0.0  T
   2    -38.3001217 -0.205398E-03  0.367E-01    1.41       1.0  T
   3    -38.3000832  0.384491E-04  0.168E-01    1.40       1.0  T
   4    -38.3001022 -0.189823E-04  0.748E-02    1.42       1.0  T
   5    -38.3001926 -0.903580E-04  0.569E-02    1.41       1.0  T
   6    -38.3001980 -0.540686E-05  0.227E-02    1.42       1.0  T
   7    -38.3001998 -0.185815E-05  0.100E-02    1.42       1.8  T
   8    -38.3002001 -0.230292E-06  0.383E-03    1.42       4.7  T
   9    -38.3002002 -0.146935E-06  0.211E-03    1.42       8.5  T
  10    -38.3002002 -0.163722E-07  0.584E-04    1.42      30.8  T
  11    -38.3002002 -0.192671E-09  0.195E-04    1.42      92.0  T
     SCC iter.                  ...        0 min,  1.348 sec
     gradient                   ...        0 min,  0.112 sec
 * total energy  :   -37.6460595 Eh     change        0.3019182E-03 Eh
   gradient norm :     0.0612999 Eh/α   predicted    -0.3444067E-02 (*******%)
   displ. norm   :     0.3194415 α      lambda       -0.7273077E-02
   maximum displ.:     0.2338145 α      in ANC's #1, #12, #4, ...

........................................................................
.............................. CYCLE    7 ..............................
........................................................................
   1    -38.2965502 -0.382966E+02  0.345E-01    1.47       0.0  T
   2    -38.2967128 -0.162619E-03  0.301E-01    1.44       1.0  T
   3    -38.2967265 -0.136478E-04  0.173E-01    1.45       1.0  T
   4    -38.2967180  0.842439E-05  0.565E-02    1.45       1.0  T
   5    -38.2967523 -0.342239E-04  0.341E-02    1.45       1.0  T
   6    -38.2967605 -0.823156E-05  0.217E-02    1.45       1.0  T
   7    -38.2967616 -0.108745E-05  0.946E-03    1.45       1.9  T
   8    -38.2967617 -0.116290E-06  0.243E-03    1.45       7.4  T
   9    -38.2967617 -0.397318E-07  0.161E-03    1.45      11.2  T
  10    -38.2967617 -0.100944E-07  0.958E-04    1.45      18.7  T
  11    -38.2967617 -0.187846E-08  0.213E-04    1.45      84.3  T
     SCC iter.                  ...        0 min,  1.333 sec
     gradient                   ...        0 min,  0.124 sec
 * total energy  :   -37.6497072 Eh     change       -0.3647692E-02 Eh
   gradient norm :     0.0450342 Eh/α   predicted    -0.4007623E-02 (   9.87%)
   displ. norm   :     0.2237867 α      lambda       -0.2340597E-02
   maximum displ.:     0.0841238 α      in ANC's #2, #1, #11, ...

........................................................................
.............................. CYCLE    8 ..............................
........................................................................
   1    -38.2980060 -0.382980E+02  0.160E-01    1.42       0.0  T
   2    -38.2980371 -0.310489E-04  0.946E-02    1.43       1.0  T
   3    -38.2980307  0.641121E-05  0.599E-02    1.43       1.0  T
   4    -38.2980481 -0.174159E-04  0.174E-02    1.43       1.0  T
   5    -38.2980517 -0.362537E-05  0.833E-03    1.43       2.2  T
   6    -38.2980518 -0.688709E-07  0.589E-03    1.43       3.0  T
   7    -38.2980519 -0.143212E-06  0.215E-03    1.43       8.4  T
   8    -38.2980519 -0.137128E-07  0.170E-03    1.43      10.6  T
   9    -38.2980519 -0.119918E-07  0.111E-03    1.43      16.1  T
  10    -38.2980519 -0.208567E-08  0.652E-04    1.43      27.6  T
  11    -38.2980519 -0.620140E-09  0.163E-04    1.43     110.3  T
     SCC iter.                  ...        0 min,  1.386 sec
     gradient                   ...        0 min,  0.223 sec
 * total energy  :   -37.6500400 Eh     change       -0.3327945E-03 Eh
   gradient norm :     0.0614777 Eh/α   predicted    -0.1228908E-02 ( 269.27%)
   displ. norm   :     0.2845731 α      lambda       -0.2014715E-02
   maximum displ.:     0.2061865 α      in ANC's #2, #11, #9, ...

........................................................................
.............................. CYCLE    9 ..............................
........................................................................
   1    -38.2994672 -0.382995E+02  0.212E-01    1.45       0.0  T
   2    -38.2994853 -0.180608E-04  0.133E-01    1.43       1.0  T
   3    -38.2994731  0.121563E-04  0.703E-02    1.44       1.0  T
   4    -38.2994923 -0.191504E-04  0.195E-02    1.44       1.0  T
   5    -38.2994950 -0.270620E-05  0.136E-02    1.44       1.3  T
   6    -38.2994953 -0.354141E-06  0.722E-03    1.44       2.5  T
   7    -38.2994956 -0.298302E-06  0.272E-03    1.44       6.6  T
   8    -38.2994956  0.844749E-08  0.177E-03    1.44      10.2  T
   9    -38.2994956 -0.229928E-07  0.113E-03    1.44      15.9  T
  10    -38.2994957 -0.345867E-08  0.400E-04    1.44      44.9  T
  11    -38.2994957 -0.136431E-09  0.108E-04    1.44     165.6  T
     SCC iter.                  ...        0 min,  1.788 sec
     gradient                   ...        0 min,  0.255 sec
 * total energy  :   -37.6513103 Eh     change       -0.1270244E-02 Eh
   gradient norm :     0.0090235 Eh/α   predicted    -0.1088938E-02 ( -14.27%)
   displ. norm   :     0.2603079 α      lambda       -0.7491244E-03
   maximum displ.:     0.1317075 α      in ANC's #2, #11, #9, ...

........................................................................
.............................. CYCLE   10 ..............................
........................................................................
   1    -38.2970460 -0.382970E+02  0.188E-01    1.45       0.0  T
   2    -38.2970582 -0.122036E-04  0.126E-01    1.44       1.0  T
   3    -38.2970353  0.229264E-04  0.549E-02    1.45       1.0  T
   4    -38.2970647 -0.294755E-04  0.128E-02    1.44       1.4  T
   5    -38.2970656 -0.876408E-06  0.985E-03    1.45       1.8  T
   6    -38.2970661 -0.449041E-06  0.396E-03    1.45       4.5  T
   7    -38.2970661 -0.716842E-07  0.206E-03    1.45       8.7  T
   8    -38.2970661  0.507857E-08  0.985E-04    1.45      18.2  T
   9    -38.2970661 -0.860724E-08  0.569E-04    1.45      31.6  T
     SCC iter.                  ...        0 min,  1.524 sec
     gradient                   ...        0 min,  0.284 sec
 * total energy  :   -37.6517295 Eh     change       -0.4192035E-03 Eh
   gradient norm :     0.0198879 Eh/α   predicted    -0.3999495E-03 (  -4.59%)
   displ. norm   :     0.2080457 α      lambda       -0.5163620E-03
   maximum displ.:     0.1182229 α      in ANC's #11, #9, #7, ...

........................................................................
.............................. CYCLE   11 ..............................
........................................................................
   1    -38.2978696 -0.382979E+02  0.140E-01    1.46       0.0  T
   2    -38.2978750 -0.545844E-05  0.903E-02    1.45       1.0  T
   3    -38.2978455  0.295696E-04  0.454E-02    1.46       1.0  T
   4    -38.2978807 -0.352859E-04  0.752E-03    1.45       2.4  T
   5    -38.2978808 -0.312244E-07  0.555E-03    1.45       3.2  T
   6    -38.2978810 -0.180063E-06  0.198E-03    1.45       9.1  T
   7    -38.2978810 -0.127591E-07  0.132E-03    1.45      13.6  T
   8    -38.2978810 -0.603605E-08  0.553E-04    1.45      32.5  T
   9    -38.2978810 -0.271008E-08  0.188E-04    1.45      95.4  T
     SCC iter.                  ...        0 min,  1.630 sec
     gradient                   ...        0 min,  0.311 sec
 * total energy  :   -37.6521364 Eh     change       -0.4069690E-03 Eh
   gradient norm :     0.0168193 Eh/α   predicted    -0.2693576E-03 ( -33.81%)
   displ. norm   :     0.3807774 α      lambda       -0.8792084E-03
   maximum displ.:     0.2319772 α      in ANC's #11, #9, #7, ...

........................................................................
.............................. CYCLE   12 ..............................
........................................................................
   1    -38.2991844 -0.382992E+02  0.241E-01    1.46       0.0  T
   2    -38.2992051 -0.206649E-04  0.148E-01    1.45       1.0  T
   3    -38.2991092  0.958289E-04  0.758E-02    1.47       1.0  T
   4    -38.2992229 -0.113692E-03  0.178E-02    1.45       1.0  T
   5    -38.2992237 -0.807762E-06  0.100E-02    1.45       1.8  T
   6    -38.2992235  0.199404E-06  0.406E-03    1.45       4.4  T
   7    -38.2992238 -0.226680E-06  0.235E-03    1.45       7.6  T
   8    -38.2992238 -0.231548E-07  0.167E-03    1.45      10.8  T
   9    -38.2992238 -0.136663E-07  0.332E-04    1.45      54.1  T
  10    -38.2992238 -0.477023E-09  0.172E-04    1.45     104.2  T
     SCC iter.                  ...        0 min,  1.458 sec
     gradient                   ...        0 min,  0.419 sec
 * total energy  :   -37.6527033 Eh     change       -0.5668852E-03 Eh
   gradient norm :     0.0139657 Eh/α   predicted    -0.5033483E-03 ( -11.21%)
   displ. norm   :     0.2524105 α      lambda       -0.4733507E-03
   maximum displ.:     0.1445588 α      in ANC's #11, #12, #9, ...

........................................................................
.............................. CYCLE   13 ..............................
........................................................................
   1    -38.2992885 -0.382993E+02  0.146E-01    1.45       0.0  T
   2    -38.2992938 -0.533869E-05  0.879E-02    1.45       1.0  T
   3    -38.2992677  0.260941E-04  0.470E-02    1.46       1.0  T
   4    -38.2992985 -0.307982E-04  0.929E-03    1.45       1.9  T
   5    -38.2992987 -0.155440E-06  0.587E-03    1.45       3.1  T
   6    -38.2992987  0.131602E-07  0.174E-03    1.45      10.3  T
   7    -38.2992987 -0.431356E-07  0.115E-03    1.45      15.6  T
   8    -38.2992987 -0.834341E-08  0.778E-04    1.45      23.1  T
   9    -38.2992987 -0.268979E-08  0.174E-04    1.45     103.1  T
     SCC iter.                  ...        0 min,  1.456 sec
     gradient                   ...        0 min,  0.409 sec
 * total energy  :   -37.6530652 Eh     change       -0.3619255E-03 Eh
   gradient norm :     0.0144419 Eh/α   predicted    -0.2517558E-03 ( -30.44%)
   displ. norm   :     0.3154826 α      lambda       -0.8269708E-03
   maximum displ.:     0.1621535 α      in ANC's #12, #11, #10, ...

........................................................................
.............................. CYCLE   14 ..............................
........................................................................
   1    -38.3021358 -0.383021E+02  0.148E-01    1.45       0.0  T
   2    -38.3021409 -0.508920E-05  0.893E-02    1.45       1.0  T
   3    -38.3021161  0.247689E-04  0.502E-02    1.46       1.0  T
   4    -38.3021455 -0.293105E-04  0.938E-03    1.45       1.9  T
   5    -38.3021455 -0.291024E-08  0.616E-03    1.45       2.9  T
   6    -38.3021455 -0.512285E-07  0.292E-03    1.45       6.1  T
   7    -38.3021456 -0.111730E-06  0.106E-03    1.45      17.0  T
   8    -38.3021456 -0.913914E-08  0.663E-04    1.45      27.1  T
   9    -38.3021456 -0.448736E-09  0.289E-04    1.45      62.0  T
     SCC iter.                  ...        0 min,  1.209 sec
     gradient                   ...        0 min,  0.271 sec
 * total energy  :   -37.6536647 Eh     change       -0.5994681E-03 Eh
   gradient norm :     0.0138319 Eh/α   predicted    -0.4546417E-03 ( -24.16%)
   displ. norm   :     0.3597980 α      lambda       -0.7419356E-03
   maximum displ.:     0.2063160 α      in ANC's #11, #12, #2, ...

........................................................................
.............................. CYCLE   15 ..............................
........................................................................
   1    -38.2996910 -0.382997E+02  0.156E-01    1.45       0.0  T
   2    -38.2996936 -0.260483E-05  0.957E-02    1.45       1.0  T
   3    -38.2996638  0.297291E-04  0.522E-02    1.44       1.0  T
   4    -38.2996973 -0.334714E-04  0.125E-02    1.45       1.4  T
   5    -38.2996973  0.345169E-07  0.756E-03    1.45       2.4  T
   6    -38.2996975 -0.187220E-06  0.220E-03    1.45       8.1  T
   7    -38.2996975 -0.684910E-07  0.140E-03    1.45      12.8  T
   8    -38.2996975 -0.343226E-08  0.750E-04    1.45      24.0  T
   9    -38.2996975 -0.298272E-08  0.266E-04    1.45      67.5  T
     SCC iter.                  ...        0 min,  1.179 sec
     gradient                   ...        0 min,  0.160 sec
 * total energy  :   -37.6541806 Eh     change       -0.5159235E-03 Eh
   gradient norm :     0.0163521 Eh/α   predicted    -0.4189951E-03 ( -18.79%)
   displ. norm   :     0.3041367 α      lambda       -0.1116570E-02
   maximum displ.:     0.2005817 α      in ANC's #12, #60, #11, ...

........................................................................
.............................. CYCLE   16 ..............................
........................................................................
   1    -38.3025831 -0.383026E+02  0.131E-01    1.45       0.0  T
   2    -38.3026026 -0.194679E-04  0.658E-02    1.44       1.0  T
   3    -38.3025995  0.313680E-05  0.453E-02    1.45       1.0  T
   4    -38.3026098 -0.103214E-04  0.165E-02    1.45       1.1  T
   5    -38.3026109 -0.114032E-05  0.104E-02    1.45       1.7  T
   6    -38.3026107  0.205627E-06  0.640E-03    1.45       2.8  T
   7    -38.3026110 -0.255131E-06  0.139E-03    1.45      12.9  T
   8    -38.3026110 -0.397277E-08  0.701E-04    1.45      25.6  T
   9    -38.3026110 -0.161768E-08  0.431E-04    1.45      41.6  T
     SCC iter.                  ...        0 min,  1.333 sec
     gradient                   ...        0 min,  0.082 sec
 * total energy  :   -37.6546299 Eh     change       -0.4492253E-03 Eh
   gradient norm :     0.0172944 Eh/α   predicted    -0.6099279E-03 (  35.77%)
   displ. norm   :     0.4369139 α      lambda       -0.1094988E-02
   maximum displ.:     0.2908172 α      in ANC's #11, #12, #60, ...

........................................................................
.............................. CYCLE   17 ..............................
........................................................................
   1    -38.2959355 -0.382959E+02  0.231E-01    1.43       0.0  T
   2    -38.2959650 -0.295004E-04  0.117E-01    1.47       1.0  T
   3    -38.2959508  0.141868E-04  0.994E-02    1.44       1.0  T
   4    -38.2959767 -0.258567E-04  0.244E-02    1.45       1.0  T
   5    -38.2959789 -0.223716E-05  0.193E-02    1.45       1.0  T
   6    -38.2959793 -0.360323E-06  0.830E-03    1.45       2.2  T
   7    -38.2959796 -0.329149E-06  0.230E-03    1.45       7.8  T
   8    -38.2959796 -0.172217E-07  0.156E-03    1.45      11.5  T
   9    -38.2959796  0.175106E-08  0.952E-04    1.45      18.9  T
  10    -38.2959796 -0.687021E-08  0.348E-04    1.45      51.6  T
     SCC iter.                  ...        0 min,  1.411 sec
     gradient                   ...        0 min,  0.054 sec
 * total energy  :   -37.6549562 Eh     change       -0.3263721E-03 Eh
   gradient norm :     0.0211880 Eh/α   predicted    -0.6520063E-03 (  99.77%)
   displ. norm   :     0.2023198 α      lambda       -0.9189621E-03
   maximum displ.:     0.1206402 α      in ANC's #12, #11, #4, ...

........................................................................
.............................. CYCLE   18 ..............................
........................................................................
   1    -38.3016903 -0.383017E+02  0.116E-01    1.46       0.0  T
   2    -38.3017025 -0.121605E-04  0.493E-02    1.44       1.0  T
   3    -38.3017004  0.208677E-05  0.526E-02    1.46       1.0  T
   4    -38.3017090 -0.865024E-05  0.183E-02    1.45       1.0  T
   5    -38.3017092 -0.135331E-06  0.147E-02    1.46       1.2  T
   6    -38.3017093 -0.157445E-06  0.573E-03    1.45       3.1  T
   7    -38.3017096 -0.261405E-06  0.777E-04    1.45      23.1  T
   8    -38.3017096 -0.264741E-08  0.506E-04    1.45      35.5  T
     SCC iter.                  ...        0 min,  1.369 sec
     gradient                   ...        0 min,  0.421 sec
 * total energy  :   -37.6554705 Eh     change       -0.5142344E-03 Eh
   gradient norm :     0.0100099 Eh/α   predicted    -0.4782898E-03 (  -6.99%)
   displ. norm   :     0.0928820 α      lambda        0.2675582E-04
   maximum displ.:     0.0404791 α      in ANC's #12, #13, #4, ...

........................................................................
.............................. CYCLE   19 ..............................
........................................................................
   1    -38.3026040 -0.383026E+02  0.445E-02    1.46       0.0  T
   2    -38.3026059 -0.185253E-05  0.237E-02    1.45       1.0  T
   3    -38.3026046  0.123348E-05  0.192E-02    1.45       1.0  T
   4    -38.3026072 -0.258248E-05  0.452E-03    1.45       4.0  T
   5    -38.3026072 -0.634431E-08  0.336E-03    1.45       5.3  T
   6    -38.3026073 -0.308931E-07  0.136E-03    1.45      13.2  T
   7    -38.3026073 -0.264607E-07  0.383E-04    1.45      46.9  T
   8    -38.3026073 -0.488853E-09  0.320E-04    1.45      56.1  T
     SCC iter.                  ...        0 min,  1.102 sec
     gradient                   ...        0 min,  0.260 sec
 * total energy  :   -37.6554705 Eh     change       -0.2784435E-07 Eh
   gradient norm :     0.0121155 Eh/α   predicted     0.1349226E-04 (*******%)
   displ. norm   :     0.1608177 α      lambda       -0.4724120E-03
   maximum displ.:     0.1054630 α      in ANC's #11, #60, #12, ...

........................................................................
.............................. CYCLE   20 ..............................
........................................................................
   1    -38.3024472 -0.383024E+02  0.516E-02    1.45       0.0  T
   2    -38.3024487 -0.144792E-05  0.305E-02    1.46       1.0  T
   3    -38.3024473  0.141319E-05  0.183E-02    1.45       1.0  T
   4    -38.3024495 -0.219104E-05  0.419E-03    1.45       4.3  T
   5    -38.3024495 -0.303866E-07  0.357E-03    1.45       5.0  T
   6    -38.3024495 -0.402217E-07  0.121E-03    1.45      14.8  T
   7    -38.3024495 -0.731387E-08  0.593E-04    1.46      30.3  T
   8    -38.3024495 -0.178440E-08  0.316E-04    1.46      56.8  T
     SCC iter.                  ...        0 min,  1.020 sec
     gradient                   ...        0 min,  0.103 sec
 * total energy  :   -37.6558228 Eh     change       -0.3523617E-03 Eh
   gradient norm :     0.0082543 Eh/α   predicted    -0.2423198E-03 ( -31.23%)
   displ. norm   :     0.3837382 α      lambda       -0.6331874E-03
   maximum displ.:     0.2584287 α      in ANC's #11, #60, #12, ...
 * RMSD in coord.:     0.7029363 α      energy gain  -0.1901064E+00 Eh

generating ANC from model Hessian ...
Using Lindh-Hessian (1995)
 Shifting diagonal of input Hessian by    1.0240042632087189E-002
 Lowest  eigenvalues of input Hessian
    0.010000    0.000000    0.000000    0.000000    0.000000    0.000000
    0.000000    0.010339    0.010708    0.010745    0.011082    0.011774
    0.012007    0.012227    0.012356    0.014231    0.017468    0.017734
 Highest eigenvalues
    1.737765    1.739965    1.754741    1.951081    3.549459    4.795466


........................................................................
.............................. CYCLE   21 ..............................
........................................................................
   1    -38.2988848 -0.382989E+02  0.135E-01    1.44       0.0  T
   2    -38.2988942 -0.941095E-05  0.763E-02    1.47       1.0  T
   3    -38.2988875  0.675246E-05  0.588E-02    1.45       1.0  T
   4    -38.2989033 -0.157805E-04  0.139E-02    1.46       1.3  T
   5    -38.2989042 -0.974509E-06  0.111E-02    1.46       1.6  T
   6    -38.2989043 -0.221701E-07  0.444E-03    1.46       4.0  T
   7    -38.2989044 -0.158968E-06  0.123E-03    1.46      14.6  T
   8    -38.2989044 -0.757061E-08  0.868E-04    1.46      20.7  T
   9    -38.2989044 -0.185679E-08  0.401E-04    1.46      44.7  T
     SCC iter.                  ...        0 min,  1.147 sec
     gradient                   ...        0 min,  0.004 sec
 * total energy  :   -37.6561686 Eh     change       -0.3457699E-03 Eh
   gradient norm :     0.0133396 Eh/α   predicted     0.0000000E+00 (-100.00%)
   displ. norm   :     0.1545091 α      lambda       -0.6190101E-03
   maximum displ.:     0.0948843 α      in ANC's #6, #1, #17, ...

........................................................................
.............................. CYCLE   22 ..............................
........................................................................
   1    -38.3033183 -0.383033E+02  0.176E-01    1.47       0.0  T
   2    -38.3033242 -0.588810E-05  0.107E-01    1.45       1.0  T
   3    -38.3033119  0.123356E-04  0.582E-02    1.47       1.0  T
   4    -38.3033267 -0.148072E-04  0.123E-02    1.46       1.5  T
   5    -38.3033274 -0.769845E-06  0.905E-03    1.46       2.0  T
   6    -38.3033276 -0.202365E-06  0.312E-03    1.46       5.8  T
   7    -38.3033277 -0.837279E-07  0.232E-03    1.46       7.7  T
   8    -38.3033277 -0.335464E-08  0.178E-03    1.46      10.1  T
   9    -38.3033277 -0.145658E-08  0.502E-04    1.46      35.8  T
  10    -38.3033277 -0.239404E-08  0.145E-04    1.46     123.7  T
     SCC iter.                  ...        0 min,  0.711 sec
     gradient                   ...        0 min,  0.129 sec
 * total energy  :   -37.6565560 Eh     change       -0.3874022E-03 Eh
   gradient norm :     0.0039397 Eh/α   predicted    -0.3169767E-03 ( -18.18%)
   displ. norm   :     0.1641960 α      lambda       -0.2459159E-03
   maximum displ.:     0.1233683 α      in ANC's #6, #1, #7, ...

........................................................................
.............................. CYCLE   23 ..............................
........................................................................
   1    -38.3051739 -0.383052E+02  0.752E-02    1.45       0.0  T
   2    -38.3051752 -0.128311E-05  0.485E-02    1.45       1.0  T
   3    -38.3051726  0.264662E-05  0.167E-02    1.45       1.1  T
   4    -38.3051758 -0.319789E-05  0.317E-03    1.45       5.7  T
   5    -38.3051758  0.187505E-07  0.227E-03    1.45       7.9  T
   6    -38.3051758 -0.410054E-07  0.780E-04    1.45      23.0  T
   7    -38.3051758 -0.434120E-08  0.359E-04    1.45      50.1  T
     SCC iter.                  ...        0 min,  0.492 sec
     gradient                   ...        0 min,  0.030 sec
 * total energy  :   -37.6567333 Eh     change       -0.1772579E-03 Eh
   gradient norm :     0.0027095 Eh/α   predicted    -0.1262774E-03 ( -28.76%)
   displ. norm   :     0.1561921 α      lambda       -0.1310195E-03
   maximum displ.:     0.1169929 α      in ANC's #6, #1, #3, ...

........................................................................
.............................. CYCLE   24 ..............................
........................................................................
   1    -38.3047057 -0.383047E+02  0.735E-02    1.45       0.0  T
   2    -38.3047070 -0.130660E-05  0.476E-02    1.45       1.0  T
   3    -38.3047046  0.235172E-05  0.227E-02    1.44       1.0  T
   4    -38.3047076 -0.303189E-05  0.375E-03    1.45       4.8  T
   5    -38.3047076  0.119357E-07  0.353E-03    1.45       5.1  T
   6    -38.3047077 -0.577376E-07  0.141E-03    1.45      12.8  T
   7    -38.3047077 -0.152190E-07  0.673E-04    1.45      26.7  T
   8    -38.3047077  0.325642E-10  0.488E-04    1.45      36.8  T
     SCC iter.                  ...        0 min,  0.533 sec
     gradient                   ...        0 min,  0.191 sec
 * total energy  :   -37.6568269 Eh     change       -0.9366944E-04 Eh
   gradient norm :     0.0026089 Eh/α   predicted    -0.6710968E-04 ( -28.35%)
   displ. norm   :     0.1270651 α      lambda       -0.7044407E-04
   maximum displ.:     0.0912907 α      in ANC's #6, #3, #1, ...

........................................................................
.............................. CYCLE   25 ..............................
........................................................................
   1    -38.3042599 -0.383043E+02  0.501E-02    1.45       0.0  T
   2    -38.3042602 -0.352800E-06  0.316E-02    1.45       1.0  T
   3    -38.3042583  0.195506E-05  0.127E-02    1.45       1.4  T
   4    -38.3042605 -0.223700E-05  0.259E-03    1.45       6.9  T
   5    -38.3042605 -0.377553E-08  0.179E-03    1.45      10.0  T
   6    -38.3042605 -0.220027E-07  0.599E-04    1.45      30.0  T
   7    -38.3042605 -0.245839E-08  0.382E-04    1.45      47.0  T
     SCC iter.                  ...        0 min,  0.475 sec
     gradient                   ...        0 min,  0.172 sec
 * total energy  :   -37.6568759 Eh     change       -0.4891367E-04 Eh
   gradient norm :     0.0026904 Eh/α   predicted    -0.3579413E-04 ( -26.82%)
   displ. norm   :     0.1237852 α      lambda       -0.4916987E-04
   maximum displ.:     0.0825282 α      in ANC's #6, #3, #1, ...

........................................................................
.............................. CYCLE   26 ..............................
........................................................................
   1    -38.3040933 -0.383041E+02  0.495E-02    1.44       0.0  T
   2    -38.3040937 -0.357750E-06  0.312E-02    1.44       1.0  T
   3    -38.3040907  0.297896E-05  0.140E-02    1.44       1.3  T
   4    -38.3040941 -0.338001E-05  0.284E-03    1.44       6.3  T
   5    -38.3040941  0.543928E-08  0.188E-03    1.44       9.6  T
   6    -38.3040941 -0.259813E-07  0.838E-04    1.44      21.4  T
   7    -38.3040941 -0.413931E-08  0.553E-04    1.44      32.5  T
     SCC iter.                  ...        0 min,  0.405 sec
     gradient                   ...        0 min,  0.118 sec
 * total energy  :   -37.6569102 Eh     change       -0.3438612E-04 Eh
   gradient norm :     0.0020457 Eh/α   predicted    -0.2496178E-04 ( -27.41%)
   displ. norm   :     0.1101117 α      lambda       -0.3738312E-04
   maximum displ.:     0.0605975 α      in ANC's #3, #6, #5, ...

........................................................................
.............................. CYCLE   27 ..............................
........................................................................
   1    -38.3044223 -0.383044E+02  0.319E-02    1.44       0.0  T
   2    -38.3044228 -0.441694E-06  0.191E-02    1.44       1.0  T
   3    -38.3044210  0.179572E-05  0.101E-02    1.44       1.8  T
   4    -38.3044232 -0.217248E-05  0.345E-03    1.44       5.2  T
   5    -38.3044232 -0.533349E-07  0.177E-03    1.44      10.2  T
   6    -38.3044232  0.594850E-08  0.854E-04    1.44      21.0  T
   7    -38.3044232 -0.987501E-08  0.233E-04    1.44      77.0  T
     SCC iter.                  ...        0 min,  0.449 sec
     gradient                   ...        0 min,  0.171 sec
 * total energy  :   -37.6569389 Eh     change       -0.2866438E-04 Eh
   gradient norm :     0.0014167 Eh/α   predicted    -0.1891957E-04 ( -34.00%)
   displ. norm   :     0.2368560 α      lambda       -0.4198634E-04
   maximum displ.:     0.1345572 α      in ANC's #3, #5, #6, ...

........................................................................
.............................. CYCLE   28 ..............................
........................................................................
   1    -38.3042474 -0.383042E+02  0.609E-02    1.43       0.0  T
   2    -38.3042489 -0.153293E-05  0.381E-02    1.43       1.0  T
   3    -38.3042409  0.800878E-05  0.226E-02    1.43       1.0  T
   4    -38.3042511 -0.101673E-04  0.554E-03    1.43       3.2  T
   5    -38.3042512 -0.143822E-06  0.348E-03    1.43       5.2  T
   6    -38.3042512 -0.326926E-08  0.130E-03    1.43      13.8  T
   7    -38.3042513 -0.225813E-07  0.488E-04    1.43      36.8  T
   8    -38.3042513 -0.144629E-08  0.258E-04    1.43      69.7  T
     SCC iter.                  ...        0 min,  0.614 sec
     gradient                   ...        0 min,  0.155 sec
 * total energy  :   -37.6569889 Eh     change       -0.4998385E-04 Eh
   gradient norm :     0.0029151 Eh/α   predicted    -0.2151872E-04 ( -56.95%)
   displ. norm   :     0.2028661 α      lambda       -0.6388562E-04
   maximum displ.:     0.1192987 α      in ANC's #3, #5, #4, ...

........................................................................
.............................. CYCLE   29 ..............................
........................................................................
   1    -38.3041438 -0.383041E+02  0.525E-02    1.43       0.0  T
   2    -38.3041448 -0.994556E-06  0.324E-02    1.43       1.0  T
   3    -38.3041380  0.685856E-05  0.189E-02    1.43       1.0  T
   4    -38.3041462 -0.828291E-05  0.582E-03    1.43       3.1  T
   5    -38.3041464 -0.109465E-06  0.390E-03    1.43       4.6  T
   6    -38.3041464 -0.382997E-08  0.115E-03    1.43      15.7  T
   7    -38.3041464 -0.194932E-07  0.517E-04    1.43      34.7  T
   8    -38.3041464 -0.127952E-08  0.251E-04    1.43      71.7  T
     SCC iter.                  ...        0 min,  0.601 sec
     gradient                   ...        0 min,  0.171 sec
 * total energy  :   -37.6570486 Eh     change       -0.5965785E-04 Eh
   gradient norm :     0.0049637 Eh/α   predicted    -0.3325897E-04 ( -44.25%)
   displ. norm   :     0.4096812 α      lambda       -0.1480168E-03
   maximum displ.:     0.2392671 α      in ANC's #3, #5, #4, ...

........................................................................
.............................. CYCLE   30 ..............................
........................................................................
   1    -38.3018181 -0.383018E+02  0.110E-01    1.41       0.0  T
   2    -38.3018215 -0.344371E-05  0.696E-02    1.42       1.0  T
   3    -38.3017921  0.293951E-04  0.438E-02    1.41       1.0  T
   4    -38.3018283 -0.361891E-04  0.133E-02    1.42       1.4  T
   5    -38.3018288 -0.458050E-06  0.858E-03    1.42       2.1  T
   6    -38.3018288 -0.922073E-07  0.255E-03    1.42       7.0  T
   7    -38.3018289 -0.989857E-07  0.124E-03    1.42      14.4  T
   8    -38.3018289 -0.228404E-08  0.718E-04    1.42      25.0  T
   9    -38.3018289 -0.296935E-08  0.330E-04    1.42      54.5  T
     SCC iter.                  ...        0 min,  0.631 sec
     gradient                   ...        0 min,  0.128 sec
 * total energy  :   -37.6571534 Eh     change       -0.1048790E-03 Eh
   gradient norm :     0.0110524 Eh/α   predicted    -0.8643529E-04 ( -17.59%)
   displ. norm   :     0.2353229 α      lambda       -0.1569012E-03
   maximum displ.:     0.1333836 α      in ANC's #3, #5, #4, ...

........................................................................
.............................. CYCLE   31 ..............................
........................................................................
   1    -38.3028276 -0.383028E+02  0.659E-02    1.42       0.0  T
   2    -38.3028292 -0.162123E-05  0.414E-02    1.42       1.0  T
   3    -38.3028200  0.914878E-05  0.247E-02    1.42       1.0  T
   4    -38.3028310 -0.109620E-04  0.839E-03    1.42       2.1  T
   5    -38.3028313 -0.266631E-06  0.520E-03    1.42       3.5  T
   6    -38.3028313 -0.110541E-07  0.157E-03    1.42      11.4  T
   7    -38.3028313 -0.741830E-08  0.725E-04    1.42      24.8  T
   8    -38.3028313 -0.693845E-09  0.423E-04    1.42      42.5  T
     SCC iter.                  ...        0 min,  0.480 sec
     gradient                   ...        0 min,  0.043 sec
 * total energy  :   -37.6572772 Eh     change       -0.1237512E-03 Eh
   gradient norm :     0.0129430 Eh/α   predicted    -0.8279520E-04 ( -33.10%)
   displ. norm   :     0.3446975 α      lambda       -0.4784444E-03
   maximum displ.:     0.1984473 α      in ANC's #3, #4, #5, ...

........................................................................
.............................. CYCLE   32 ..............................
........................................................................
   1    -38.3072833 -0.383073E+02  0.109E-01    1.43       0.0  T
   2    -38.3072867 -0.341138E-05  0.688E-02    1.43       1.0  T
   3    -38.3072655  0.211952E-04  0.358E-02    1.43       1.0  T
   4    -38.3072897 -0.241860E-04  0.816E-03    1.43       2.2  T
   5    -38.3072901 -0.469074E-06  0.593E-03    1.43       3.0  T
   6    -38.3072902 -0.106624E-06  0.200E-03    1.43       9.0  T
   7    -38.3072902 -0.377408E-08  0.145E-03    1.43      12.3  T
   8    -38.3072902  0.505132E-09  0.844E-04    1.43      21.3  T
   9    -38.3072902 -0.243505E-08  0.272E-04    1.43      66.1  T
     SCC iter.                  ...        0 min,  1.084 sec
     gradient                   ...        0 min,  0.298 sec
 * total energy  :   -37.6576355 Eh     change       -0.3582835E-03 Eh
   gradient norm :     0.0102852 Eh/α   predicted    -0.2676459E-03 ( -25.30%)
   displ. norm   :     0.7898133 α      lambda       -0.7334619E-03
   maximum displ.:     0.4996454 α      in ANC's #3, #5, #4, ...

........................................................................
.............................. CYCLE   33 ..............................
........................................................................
   1    -38.2969770 -0.382970E+02  0.207E-01    1.40       0.0  T
   2    -38.2969872 -0.101833E-04  0.127E-01    1.42       1.0  T
   3    -38.2969045  0.826474E-04  0.933E-02    1.39       1.0  T
   4    -38.2970140 -0.109488E-03  0.286E-02    1.41       1.0  T
   5    -38.2970172 -0.320252E-05  0.167E-02    1.41       1.1  T
   6    -38.2970174 -0.170948E-06  0.468E-03    1.41       3.8  T
   7    -38.2970177 -0.265510E-06  0.321E-03    1.41       5.6  T
   8    -38.2970177 -0.172582E-07  0.172E-03    1.41      10.5  T
   9    -38.2970177 -0.188296E-07  0.750E-04    1.41      23.9  T
  10    -38.2970177 -0.888626E-09  0.223E-04    1.41      80.6  T
     SCC iter.                  ...        0 min,  1.015 sec
     gradient                   ...        0 min,  0.239 sec
 * total energy  :   -37.6579685 Eh     change       -0.3330750E-03 Eh
   gradient norm :     0.0241616 Eh/α   predicted    -0.5955141E-03 (  78.79%)
   displ. norm   :     0.1976825 α      lambda       -0.1120153E-02
   maximum displ.:     0.0867802 α      in ANC's #3, #5, #2, ...

........................................................................
.............................. CYCLE   34 ..............................
........................................................................
   1    -38.3036746 -0.383037E+02  0.125E-01    1.42       0.0  T
   2    -38.3036806 -0.597191E-05  0.832E-02    1.42       1.0  T
   3    -38.3036667  0.138850E-04  0.386E-02    1.42       1.0  T
   4    -38.3036828 -0.160489E-04  0.188E-02    1.41       1.0  T
   5    -38.3036838 -0.999573E-06  0.975E-03    1.42       1.8  T
   6    -38.3036840 -0.211594E-06  0.311E-03    1.42       5.8  T
   7    -38.3036841 -0.101608E-06  0.137E-03    1.42      13.1  T
   8    -38.3036841 -0.311338E-08  0.736E-04    1.42      24.4  T
   9    -38.3036841 -0.365272E-08  0.291E-04    1.42      61.7  T
     SCC iter.                  ...        0 min,  1.037 sec
     gradient                   ...        0 min,  0.236 sec
 * total energy  :   -37.6586216 Eh     change       -0.6530960E-03 Eh
   gradient norm :     0.0085591 Eh/α   predicted    -0.5819735E-03 ( -10.89%)
   displ. norm   :     0.5609121 α      lambda       -0.7705927E-03
   maximum displ.:     0.3784403 α      in ANC's #3, #4, #2, ...

........................................................................
.............................. CYCLE   35 ..............................
........................................................................
   1    -38.3015695 -0.383016E+02  0.103E-01    1.40       0.0  T
   2    -38.3015740 -0.449429E-05  0.655E-02    1.40       1.0  T
   3    -38.3015566  0.174282E-04  0.361E-02    1.40       1.0  T
   4    -38.3015776 -0.210597E-04  0.138E-02    1.41       1.3  T
   5    -38.3015784 -0.758082E-06  0.860E-03    1.40       2.1  T
   6    -38.3015786 -0.197475E-06  0.261E-03    1.40       6.9  T
   7    -38.3015786 -0.321168E-07  0.119E-03    1.40      15.1  T
   8    -38.3015786  0.114589E-09  0.738E-04    1.40      24.3  T
   9    -38.3015786 -0.482148E-08  0.392E-04    1.40      45.9  T
     SCC iter.                  ...        0 min,  1.449 sec
     gradient                   ...        0 min,  0.350 sec
 * total energy  :   -37.6592429 Eh     change       -0.6212150E-03 Eh
   gradient norm :     0.0149449 Eh/α   predicted    -0.5065218E-03 ( -18.46%)
   displ. norm   :     0.5561945 α      lambda       -0.8041077E-03
   maximum displ.:     0.3706281 α      in ANC's #3, #2, #4, ...

........................................................................
.............................. CYCLE   36 ..............................
........................................................................
   1    -38.3015053 -0.383015E+02  0.957E-02    1.39       0.0  T
   2    -38.3015105 -0.519303E-05  0.611E-02    1.39       1.0  T
   3    -38.3014925  0.179588E-04  0.340E-02    1.39       1.0  T
   4    -38.3015151 -0.225857E-04  0.133E-02    1.40       1.4  T
   5    -38.3015158 -0.663666E-06  0.861E-03    1.39       2.1  T
   6    -38.3015159 -0.902870E-07  0.288E-03    1.39       6.2  T
   7    -38.3015160 -0.129245E-06  0.112E-03    1.39      16.1  T
   8    -38.3015160 -0.479616E-10  0.796E-04    1.39      22.6  T
   9    -38.3015160 -0.332864E-08  0.384E-04    1.39      46.7  T
     SCC iter.                  ...        0 min,  1.244 sec
     gradient                   ...        0 min,  0.078 sec
 * total energy  :   -37.6598416 Eh     change       -0.5987116E-03 Eh
   gradient norm :     0.0153019 Eh/α   predicted    -0.5264350E-03 ( -12.07%)
   displ. norm   :     0.4223012 α      lambda       -0.7671628E-03
   maximum displ.:     0.2496519 α      in ANC's #3, #2, #8, ...

........................................................................
.............................. CYCLE   37 ..............................
........................................................................
   1    -38.3086046 -0.383086E+02  0.102E-01    1.40       0.0  T
   2    -38.3086112 -0.654835E-05  0.617E-02    1.40       1.0  T
   3    -38.3085954  0.158349E-04  0.378E-02    1.39       1.0  T
   4    -38.3086162 -0.208462E-04  0.839E-03    1.40       2.1  T
   5    -38.3086162 -0.285263E-07  0.709E-03    1.40       2.5  T
   6    -38.3086164 -0.143136E-06  0.122E-03    1.40      14.7  T
   7    -38.3086164 -0.201353E-07  0.886E-04    1.40      20.3  T
   8    -38.3086164 -0.430940E-08  0.601E-04    1.40      29.9  T
     SCC iter.                  ...        0 min,  1.067 sec
     gradient                   ...        0 min,  0.207 sec
 * total energy  :   -37.6603130 Eh     change       -0.4714764E-03 Eh
   gradient norm :     0.0086453 Eh/α   predicted    -0.4519885E-03 (  -4.13%)
   displ. norm   :     0.6931976 α      lambda       -0.7949008E-03
   maximum displ.:     0.4865075 α      in ANC's #3, #2, #4, ...

........................................................................
.............................. CYCLE   38 ..............................
........................................................................
   1    -38.2965346 -0.382965E+02  0.177E-01    1.34       0.0  T
   2    -38.2965453 -0.106784E-04  0.118E-01    1.35       1.0  T
   3    -38.2964837  0.615825E-04  0.667E-02    1.33       1.0  T
   4    -38.2965570 -0.733178E-04  0.228E-02    1.35       1.0  T
   5    -38.2965591 -0.212898E-05  0.141E-02    1.35       1.3  T
   6    -38.2965598 -0.635120E-06  0.490E-03    1.35       3.7  T
   7    -38.2965600 -0.193826E-06  0.203E-03    1.35       8.8  T
   8    -38.2965600 -0.759412E-08  0.146E-03    1.35      12.3  T
   9    -38.2965600 -0.677569E-08  0.617E-04    1.35      29.1  T
  10    -38.2965600  0.107534E-09  0.212E-04    1.35      84.5  T
     SCC iter.                  ...        0 min,  1.095 sec
     gradient                   ...        0 min,  0.224 sec
 * total energy  :   -37.6603435 Eh     change       -0.3046749E-04 Eh
   gradient norm :     0.0318584 Eh/α   predicted    -0.5884467E-03 (1831.39%)
   displ. norm   :     0.1717318 α      lambda       -0.8250172E-03
   maximum displ.:     0.1058065 α      in ANC's #3, #4, #5, ...

........................................................................
.............................. CYCLE   39 ..............................
........................................................................
   1    -38.3057479 -0.383057E+02  0.108E-01    1.37       0.0  T
   2    -38.3057503 -0.239728E-05  0.731E-02    1.37       1.0  T
   3    -38.3057393  0.109927E-04  0.313E-02    1.37       1.0  T
   4    -38.3057512 -0.119188E-04  0.145E-02    1.37       1.2  T
   5    -38.3057518 -0.567868E-06  0.749E-03    1.37       2.4  T
   6    -38.3057524 -0.643164E-06  0.183E-03    1.37       9.8  T
   7    -38.3057524 -0.155661E-07  0.115E-03    1.37      15.6  T
   8    -38.3057524 -0.267441E-08  0.879E-04    1.37      20.4  T
   9    -38.3057524 -0.250957E-08  0.359E-04    1.37      50.0  T
     SCC iter.                  ...        0 min,  1.222 sec
     gradient                   ...        0 min,  0.236 sec
 * total energy  :   -37.6607651 Eh     change       -0.4215497E-03 Eh
   gradient norm :     0.0065765 Eh/α   predicted    -0.4246840E-03 (   0.74%)
   displ. norm   :     0.1760284 α      lambda       -0.1623349E-03
   maximum displ.:     0.1016055 α      in ANC's #3, #2, #1, ...

........................................................................
.............................. CYCLE   40 ..............................
........................................................................
   1    -38.3068587 -0.383069E+02  0.422E-02    1.38       0.0  T
   2    -38.3068601 -0.137289E-05  0.270E-02    1.38       1.0  T
   3    -38.3068568  0.325858E-05  0.145E-02    1.38       1.2  T
   4    -38.3068609 -0.409603E-05  0.506E-03    1.38       3.6  T
   5    -38.3068611 -0.218552E-06  0.247E-03    1.38       7.3  T
   6    -38.3068611 -0.798792E-09  0.125E-03    1.38      14.3  T
   7    -38.3068611 -0.102574E-07  0.531E-04    1.38      33.8  T
   8    -38.3068612 -0.502332E-09  0.400E-04    1.38      44.9  T
     SCC iter.                  ...        0 min,  1.003 sec
     gradient                   ...        0 min,  0.105 sec
 * total energy  :   -37.6608943 Eh     change       -0.1291957E-03 Eh
   gradient norm :     0.0051357 Eh/α   predicted    -0.8368372E-04 ( -35.23%)
   displ. norm   :     0.4398465 α      lambda       -0.3089141E-03
   maximum displ.:     0.2595736 α      in ANC's #3, #2, #1, ...

........................................................................
.............................. CYCLE   41 ..............................
........................................................................
   1    -38.3066147 -0.383066E+02  0.859E-02    1.37       0.0  T
   2    -38.3066211 -0.642747E-05  0.558E-02    1.37       1.0  T
   3    -38.3066049  0.161993E-04  0.308E-02    1.37       1.0  T
   4    -38.3066266 -0.216951E-04  0.990E-03    1.37       1.8  T
   5    -38.3066275 -0.828686E-06  0.521E-03    1.37       3.4  T
   6    -38.3066275 -0.960277E-09  0.267E-03    1.37       6.7  T
   7    -38.3066275 -0.565824E-07  0.128E-03    1.37      14.0  T
   8    -38.3066275 -0.210194E-08  0.903E-04    1.37      19.9  T
   9    -38.3066275 -0.195122E-08  0.300E-04    1.37      59.9  T
     SCC iter.                  ...        0 min,  1.045 sec
     gradient                   ...        0 min,  0.144 sec
 * total energy  :   -37.6611102 Eh     change       -0.2158999E-03 Eh
   gradient norm :     0.0051576 Eh/α   predicted    -0.1843413E-03 ( -14.62%)
   displ. norm   :     0.3067598 α      lambda       -0.1558528E-03
   maximum displ.:     0.1652783 α      in ANC's #3, #2, #1, ...

........................................................................
.............................. CYCLE   42 ..............................
........................................................................
   1    -38.3066107 -0.383066E+02  0.643E-02    1.36       0.0  T
   2    -38.3066126 -0.187311E-05  0.426E-02    1.37       1.0  T
   3    -38.3066036  0.900820E-05  0.195E-02    1.36       1.0  T
   4    -38.3066140 -0.104196E-04  0.646E-03    1.37       2.8  T
   5    -38.3066143 -0.297716E-06  0.376E-03    1.37       4.8  T
   6    -38.3066143 -0.331450E-07  0.135E-03    1.37      13.3  T
   7    -38.3066144 -0.983170E-08  0.822E-04    1.37      21.9  T
   8    -38.3066144 -0.214868E-09  0.591E-04    1.37      30.4  T
     SCC iter.                  ...        0 min,  0.887 sec
     gradient                   ...        0 min,  0.099 sec
 * total energy  :   -37.6612117 Eh     change       -0.1015435E-03 Eh
   gradient norm :     0.0045258 Eh/α   predicted    -0.8526178E-04 ( -16.03%)
   displ. norm   :     0.2430585 α      lambda       -0.1236568E-03
   maximum displ.:     0.1374909 α      in ANC's #2, #3, #1, ...
 * RMSD in coord.:     0.9509895 α      energy gain  -0.5388849E-02 Eh

generating ANC from model Hessian ...
Using Lindh-Hessian (1995)
 Shifting diagonal of input Hessian by    1.0025663378759004E-002
 Lowest  eigenvalues of input Hessian
    0.010000    0.000000    0.000000    0.000000    0.000000    0.000000
    0.000000    0.010333    0.010557    0.010655    0.010966    0.011659
    0.011800    0.012134    0.012240    0.013758    0.017592    0.017782
 Highest eigenvalues
    1.739050    1.741786    1.757103    1.893064    3.690681    4.777801


........................................................................
.............................. CYCLE   43 ..............................
........................................................................
   1    -38.3080213 -0.383080E+02  0.851E-02    1.36       0.0  T
   2    -38.3080225 -0.118146E-05  0.540E-02    1.36       1.0  T
   3    -38.3080090  0.134886E-04  0.290E-02    1.36       1.0  T
   4    -38.3080241 -0.150635E-04  0.524E-03    1.36       3.4  T
   5    -38.3080242 -0.841803E-07  0.357E-03    1.36       5.0  T
   6    -38.3080243 -0.106775E-06  0.155E-03    1.36      11.6  T
   7    -38.3080243 -0.310806E-08  0.947E-04    1.36      19.0  T
   8    -38.3080243  0.325656E-09  0.717E-04    1.36      25.1  T
     SCC iter.                  ...        0 min,  1.007 sec
     gradient                   ...        0 min,  0.311 sec
 * total energy  :   -37.6612853 Eh     change       -0.7363966E-04 Eh
   gradient norm :     0.0052298 Eh/α   predicted     0.0000000E+00 (-100.00%)
   displ. norm   :     0.0534459 α      lambda       -0.5732646E-04
   maximum displ.:     0.0270932 α      in ANC's #1, #6, #8, ...

........................................................................
.............................. CYCLE   44 ..............................
........................................................................
   1    -38.3091501 -0.383092E+02  0.292E-02    1.37       0.0  T
   2    -38.3091505 -0.413031E-06  0.172E-02    1.37       1.0  T
   3    -38.3091498  0.721975E-06  0.125E-02    1.37       1.4  T
   4    -38.3091508 -0.105373E-05  0.330E-03    1.37       5.4  T
   5    -38.3091508  0.470633E-07  0.286E-03    1.37       6.3  T
   6    -38.3091509 -0.745240E-07  0.109E-03    1.37      16.5  T
   7    -38.3091509 -0.687581E-08  0.467E-04    1.37      38.5  T
   8    -38.3091509  0.886970E-10  0.351E-04    1.37      51.2  T
     SCC iter.                  ...        0 min,  0.971 sec
     gradient                   ...        0 min,  0.239 sec
 * total energy  :   -37.6613365 Eh     change       -0.5116221E-04 Eh
   gradient norm :     0.0015391 Eh/α   predicted    -0.3544388E-04 ( -30.72%)
   displ. norm   :     0.1327807 α      lambda       -0.5180675E-04
   maximum displ.:     0.0763618 α      in ANC's #1, #6, #8, ...

........................................................................
.............................. CYCLE   45 ..............................
........................................................................
   1    -38.3102229 -0.383102E+02  0.589E-02    1.37       0.0  T
   2    -38.3102240 -0.110417E-05  0.364E-02    1.37       1.0  T
   3    -38.3102191  0.483347E-05  0.171E-02    1.37       1.1  T
   4    -38.3102247 -0.560914E-05  0.362E-03    1.37       5.0  T
   5    -38.3102248 -0.348958E-07  0.308E-03    1.37       5.8  T
   6    -38.3102248 -0.489420E-07  0.103E-03    1.37      17.4  T
   7    -38.3102248 -0.679827E-08  0.492E-04    1.37      36.5  T
   8    -38.3102248 -0.722906E-10  0.319E-04    1.37      56.3  T
     SCC iter.                  ...        0 min,  1.017 sec
     gradient                   ...        0 min,  0.216 sec
 * total energy  :   -37.6613752 Eh     change       -0.3866544E-04 Eh
   gradient norm :     0.0031045 Eh/α   predicted    -0.2611073E-04 ( -32.47%)
   displ. norm   :     0.0418661 α      lambda       -0.1797355E-04
   maximum displ.:     0.0286111 α      in ANC's #1, #6, #7, ...

........................................................................
.............................. CYCLE   46 ..............................
........................................................................
   1    -38.3098642 -0.383099E+02  0.134E-02    1.37       0.0  T
   2    -38.3098643 -0.504664E-07  0.819E-03    1.37       2.2  T
   3    -38.3098641  0.171156E-06  0.394E-03    1.37       4.6  T
   4    -38.3098643 -0.204334E-06  0.898E-04    1.37      20.0  T
   5    -38.3098643 -0.880661E-09  0.613E-04    1.37      29.3  T
     SCC iter.                  ...        0 min,  0.655 sec
     gradient                   ...        0 min,  0.231 sec
 * total energy  :   -37.6613898 Eh     change       -0.1467249E-04 Eh
   gradient norm :     0.0019043 Eh/α   predicted    -0.9004332E-05 ( -38.63%)
   displ. norm   :     0.1198334 α      lambda       -0.2882517E-04
   maximum displ.:     0.0834019 α      in ANC's #1, #6, #3, ...

........................................................................
.............................. CYCLE   47 ..............................
........................................................................
   1    -38.3088150 -0.383088E+02  0.420E-02    1.37       0.0  T
   2    -38.3088152 -0.287709E-06  0.266E-02    1.37       1.0  T
   3    -38.3088132  0.202455E-05  0.132E-02    1.37       1.4  T
   4    -38.3088155 -0.224190E-05  0.294E-03    1.37       6.1  T
   5    -38.3088155 -0.596086E-07  0.180E-03    1.37      10.0  T
   6    -38.3088155 -0.270633E-07  0.763E-04    1.37      23.6  T
   7    -38.3088156 -0.221096E-08  0.379E-04    1.37      47.4  T
     SCC iter.                  ...        0 min,  0.750 sec
     gradient                   ...        0 min,  0.194 sec
 * total energy  :   -37.6614137 Eh     change       -0.2390525E-04 Eh
   gradient norm :     0.0021775 Eh/α   predicted    -0.1451098E-04 ( -39.30%)
   displ. norm   :     0.0422892 α      lambda       -0.1043847E-04
   maximum displ.:     0.0320153 α      in ANC's #1, #4, #6, ...

........................................................................
.............................. CYCLE   48 ..............................
........................................................................
   1    -38.3089487 -0.383089E+02  0.104E-02    1.37       0.0  T
   2    -38.3089487 -0.294182E-07  0.652E-03    1.37       2.8  T
   3    -38.3089486  0.111183E-06  0.261E-03    1.37       6.9  T
   4    -38.3089488 -0.131102E-06  0.714E-04    1.37      25.2  T
   5    -38.3089488 -0.211813E-10  0.382E-04    1.37      47.0  T
     SCC iter.                  ...        0 min,  0.494 sec
     gradient                   ...        0 min,  0.108 sec
 * total energy  :   -37.6614231 Eh     change       -0.9335142E-05 Eh
   gradient norm :     0.0016482 Eh/α   predicted    -0.5229014E-05 ( -43.99%)
   displ. norm   :     0.0992848 α      lambda       -0.1792988E-04
   maximum displ.:     0.0721354 α      in ANC's #1, #4, #5, ...

........................................................................
.............................. CYCLE   49 ..............................
........................................................................
   1    -38.3097136 -0.383097E+02  0.245E-02    1.37       0.0  T
   2    -38.3097140 -0.401628E-06  0.147E-02    1.38       1.2  T
   3    -38.3097133  0.668541E-06  0.834E-03    1.38       2.2  T
   4    -38.3097143 -0.936018E-06  0.242E-03    1.38       7.4  T
   5    -38.3097143 -0.116441E-07  0.140E-03    1.38      12.9  T
   6    -38.3097143 -0.231630E-09  0.584E-04    1.38      30.7  T
   7    -38.3097143 -0.325644E-08  0.336E-04    1.38      53.5  T
     SCC iter.                  ...        0 min,  0.748 sec
     gradient                   ...        0 min,  0.276 sec
 * total energy  :   -37.6614433 Eh     change       -0.2018202E-04 Eh
   gradient norm :     0.0010623 Eh/α   predicted    -0.9005932E-05 ( -55.38%)
   displ. norm   :     0.1026575 α      lambda       -0.1217814E-04
   maximum displ.:     0.0748357 α      in ANC's #1, #4, #5, ...

........................................................................
.............................. CYCLE   50 ..............................
........................................................................
   1    -38.3097689 -0.383098E+02  0.236E-02    1.38       0.0  T
   2    -38.3097692 -0.334783E-06  0.153E-02    1.38       1.2  T
   3    -38.3097685  0.738415E-06  0.711E-03    1.38       2.5  T
   4    -38.3097695 -0.983596E-06  0.225E-03    1.38       8.0  T
   5    -38.3097695 -0.198857E-07  0.127E-03    1.38      14.2  T
   6    -38.3097695 -0.322461E-08  0.563E-04    1.38      31.9  T
   7    -38.3097695 -0.166582E-08  0.292E-04    1.38      61.6  T
     SCC iter.                  ...        0 min,  0.640 sec
     gradient                   ...        0 min,  0.246 sec
 * total energy  :   -37.6614589 Eh     change       -0.1561320E-04 Eh
   gradient norm :     0.0013174 Eh/α   predicted    -0.6121576E-05 ( -60.79%)
   displ. norm   :     0.1017050 α      lambda       -0.1133991E-04
   maximum displ.:     0.0732374 α      in ANC's #1, #4, #2, ...

........................................................................
.............................. CYCLE   51 ..............................
........................................................................
   1    -38.3096843 -0.383097E+02  0.285E-02    1.38       0.0  T
   2    -38.3096846 -0.315133E-06  0.177E-02    1.38       1.0  T
   3    -38.3096837  0.983467E-06  0.832E-03    1.38       2.2  T
   4    -38.3096849 -0.120997E-05  0.251E-03    1.38       7.2  T
   5    -38.3096849 -0.145121E-07  0.135E-03    1.38      13.3  T
   6    -38.3096849 -0.159356E-08  0.562E-04    1.38      32.0  T
   7    -38.3096849 -0.233282E-08  0.337E-04    1.38      53.2  T
     SCC iter.                  ...        0 min,  0.605 sec
     gradient                   ...        0 min,  0.265 sec
 * total energy  :   -37.6614735 Eh     change       -0.1463857E-04 Eh
   gradient norm :     0.0009606 Eh/α   predicted    -0.5698856E-05 ( -61.07%)
   displ. norm   :     0.1095665 α      lambda       -0.1114336E-04
   maximum displ.:     0.0796652 α      in ANC's #1, #4, #2, ...

........................................................................
.............................. CYCLE   52 ..............................
........................................................................
   1    -38.3095367 -0.383095E+02  0.268E-02    1.38       0.0  T
   2    -38.3095369 -0.274791E-06  0.177E-02    1.38       1.0  T
   3    -38.3095359  0.104689E-05  0.705E-03    1.38       2.5  T
   4    -38.3095371 -0.124015E-05  0.221E-03    1.38       8.1  T
   5    -38.3095372 -0.196125E-07  0.125E-03    1.38      14.3  T
   6    -38.3095372 -0.370361E-08  0.444E-04    1.38      40.5  T
   7    -38.3095372 -0.203158E-08  0.253E-04    1.38      71.0  T
     SCC iter.                  ...        0 min,  0.556 sec
     gradient                   ...        0 min,  0.207 sec
 * total energy  :   -37.6614874 Eh     change       -0.1386967E-04 Eh
   gradient norm :     0.0004436 Eh/α   predicted    -0.5602343E-05 ( -59.61%)
   displ. norm   :     0.1085377 α      lambda       -0.9027593E-05
   maximum displ.:     0.0784890 α      in ANC's #1, #4, #2, ...

........................................................................
.............................. CYCLE   53 ..............................
........................................................................
   1    -38.3093362 -0.383093E+02  0.238E-02    1.38       0.0  T
   2    -38.3093365 -0.213745E-06  0.157E-02    1.38       1.1  T
   3    -38.3093357  0.718239E-06  0.703E-03    1.38       2.6  T
   4    -38.3093366 -0.861063E-06  0.202E-03    1.38       8.9  T
   5    -38.3093366 -0.310749E-07  0.116E-03    1.38      15.5  T
   6    -38.3093366 -0.315325E-08  0.398E-04    1.38      45.1  T
   7    -38.3093366 -0.150359E-08  0.232E-04    1.38      77.4  T
     SCC iter.                  ...        0 min,  0.543 sec
     gradient                   ...        0 min,  0.237 sec
 * total energy  :   -37.6614986 Eh     change       -0.1119279E-04 Eh
   gradient norm :     0.0004756 Eh/α   predicted    -0.4538228E-05 ( -59.45%)
   displ. norm   :     0.0994737 α      lambda       -0.6896113E-05
   maximum displ.:     0.0721249 α      in ANC's #1, #4, #2, ...

........................................................................
.............................. CYCLE   54 ..............................
........................................................................
   1    -38.3094139 -0.383094E+02  0.285E-02    1.38       0.0  T
   2    -38.3094141 -0.153667E-06  0.183E-02    1.38       1.0  T
   3    -38.3094133  0.783954E-06  0.645E-03    1.38       2.8  T
   4    -38.3094142 -0.867662E-06  0.225E-03    1.38       8.0  T
   5    -38.3094142 -0.235526E-07  0.121E-03    1.38      14.8  T
   6    -38.3094142 -0.356927E-09  0.382E-04    1.38      47.0  T
   7    -38.3094142 -0.127428E-08  0.223E-04    1.38      80.6  T
     SCC iter.                  ...        0 min,  0.660 sec
     gradient                   ...        0 min,  0.163 sec
 * total energy  :   -37.6615070 Eh     change       -0.8381087E-05 Eh
   gradient norm :     0.0006118 Eh/α   predicted    -0.3463672E-05 ( -58.67%)
   displ. norm   :     0.0836800 α      lambda       -0.4650493E-05
   maximum displ.:     0.0611454 α      in ANC's #1, #4, #2, ...

........................................................................
.............................. CYCLE   55 ..............................
........................................................................
   1    -38.3094128 -0.383094E+02  0.229E-02    1.38       0.0  T
   2    -38.3094129 -0.951440E-07  0.149E-02    1.38       1.2  T
   3    -38.3094121  0.798562E-06  0.759E-03    1.38       2.4  T
   4    -38.3094130 -0.888577E-06  0.151E-03    1.38      11.9  T
   5    -38.3094130 -0.253860E-07  0.860E-04    1.38      20.9  T
   6    -38.3094130 -0.820407E-09  0.229E-04    1.38      78.3  T
     SCC iter.                  ...        0 min,  0.585 sec
     gradient                   ...        0 min,  0.184 sec
 * total energy  :   -37.6615125 Eh     change       -0.5518142E-05 Eh
   gradient norm :     0.0003799 Eh/α   predicted    -0.2333308E-05 ( -57.72%)
   displ. norm   :     0.0664966 α      lambda       -0.2740068E-05
   maximum displ.:     0.0490183 α      in ANC's #1, #4, #2, ...

........................................................................
.............................. CYCLE   56 ..............................
........................................................................
   1    -38.3094589 -0.383095E+02  0.214E-02    1.38       0.0  T
   2    -38.3094590 -0.673820E-07  0.137E-02    1.38       1.3  T
   3    -38.3094584  0.609625E-06  0.581E-03    1.38       3.1  T
   4    -38.3094590 -0.660151E-06  0.169E-03    1.38      10.6  T
   5    -38.3094590 -0.181536E-07  0.841E-04    1.38      21.4  T
   6    -38.3094590 -0.663512E-09  0.273E-04    1.38      65.7  T
     SCC iter.                  ...        0 min,  0.586 sec
     gradient                   ...        0 min,  0.235 sec
 * total energy  :   -37.6615158 Eh     change       -0.3289348E-05 Eh
   gradient norm :     0.0002658 Eh/α   predicted    -0.1373618E-05 ( -58.24%)
   displ. norm   :     0.0565107 α      lambda       -0.1690584E-05
   maximum displ.:     0.0413422 α      in ANC's #1, #4, #2, ...

   *** GEOMETRY OPTIMIZATION CONVERGED AFTER 56 ITERATIONS ***

------------------------------------------------------------------------
 total energy gain   :        -0.1957993 Eh     -122.8659 kcal/mol
 total RMSD          :         1.2865226 a0        0.6808 Å
 total power (kW/mol):        -9.1798377 (step)   -6.7175 (real)
------------------------------------------------------------------------

 ANCopt (total)                0 d,  0 h,  1 min, 16.527 sec
 optimizer setup                ...        0 min,  0.000 sec (  0.000%)
 model hessian                  ...        0 min,  0.164 sec (  0.215%)
 ANC generation                 ...        0 min,  0.039 sec (  0.051%)
 coordinate transformation      ...        0 min,  0.001 sec (  0.001%)
 single point calculation       ...        1 min, 14.970 sec ( 97.966%)
 optimization log               ...        0 min,  0.006 sec (  0.007%)
 hessian update                 ...        0 min,  1.145 sec (  1.497%)
 rational function              ...        0 min,  0.194 sec (  0.254%)

================
 final structure:
================
31
 xtb: 6.5.1 (b24c23e)
Zr          -1.27841592640501       -0.01713516213592        0.41140620721707
C           -1.18523758426387        1.20910301862516       -1.52688016514456
C           -0.24328106794743       -2.19525459923308        1.07270417604191
C            0.49026116710083       -1.68599378353073       -0.02414096684981
C           -0.36530276829595       -1.67852184686398       -1.15456984181396
C           -1.63422902829187       -2.15450402555844       -0.74717977779854
C           -1.55886877064753       -2.46852068240767        0.63681709366964
H            0.16738187874189       -2.47076725011986        2.03666793845179
H            1.55806546020640       -1.49493869078919       -0.04385008674512
H           -0.05610198121683       -1.49817307907182       -2.17663864651210
H           -2.45070191633799       -2.40055322399042       -1.41669697722087
H           -2.29805288224449       -3.02062282121563        1.20679565612616
C            0.31454246222013        0.56259474191666        2.21447264791345
C           -0.94725068303064        0.38722406905033        2.83363171031771
C           -1.80225266900339        1.41970712484411        2.37709510719656
C           -1.08164865518376        2.21117494125212        1.45345602814490
C            0.22891359043178        1.67331967717121        1.34441834367615
H            1.22579684690059        0.03475881374114        2.47066912828487
H           -1.15926961971975       -0.29280690797690        3.65204653230819
H           -2.76698916135708        1.67353746629782        2.80156569069852
H           -1.40524931937302        3.15824078028527        1.03949079597047
H            1.05935642744508        2.13779383677571        0.82373845010659
H           -0.11853340719837        1.33712381129471       -1.77957097567921
H           -1.65690766424528        0.71181609113381       -2.38681774152364
H           -1.61433448108767        2.21856380748221       -1.46704965272583
C           -3.82378247869777       -0.44997461166151        0.73668139607878
C           -3.75361837623807        0.60585776385963       -0.08735095801256
H           -3.71277281430221        1.62869978496898        0.28717166933107
H           -3.95592647356397        0.49013039476813       -1.15039640514633
H           -3.84439128363634       -0.33850292337001        1.82211318075721
H           -4.11627917078759       -1.42384154555055        0.35328475290121

 Bond Distances (Angstroems)
 ---------------------------
Zr1-C2=2.2955        Zr1-C3=2.5006        Zr1-C4=2.4704        Zr1-C5=2.4589        Zr1-C6=2.4571        Zr1-C7=2.4777        
Zr1-C13=2.4748       Zr1-C14=2.4780       Zr1-C15=2.4906       Zr1-C16=2.4678       Zr1-C17=2.4495       Zr1-C26=2.6023       
Zr1-C27=2.6007       C2-Zr1=2.2955        C2-H23=1.1037        C2-H24=1.0997        C2-H25=1.0985        C3-Zr1=2.5006        
C3-C4=1.4144         C3-C7=1.4126         C3-H8=1.0834         C4-Zr1=2.4704        C4-C3=1.4144         C4-C5=1.4177         
C4-H9=1.0849         C5-Zr1=2.4589        C5-C4=1.4177         C5-C6=1.4152         C5-H10=1.0829        C6-Zr1=2.4571        
C6-C5=1.4152         C6-C7=1.4212         C6-H11=1.0842        C7-Zr1=2.4777        C7-C3=1.4126         C7-C6=1.4212         
C7-H12=1.0845        H8-C3=1.0834         H9-C4=1.0849         H10-C5=1.0829        H11-C6=1.0842        H12-C7=1.0845        
C13-Zr1=2.4748       C13-C14=1.4164       C13-C17=1.4135       C13-H18=1.0838       C14-Zr1=2.4780       C14-C13=1.4164       
C14-C15=1.4161       C14-H19=1.0850       C15-Zr1=2.4906       C15-C14=1.4161       C15-C16=1.4138       C15-H20=1.0841       
C16-Zr1=2.4678       C16-C15=1.4138       C16-C17=1.4208       C16-H21=1.0831       C17-Zr1=2.4495       C17-C13=1.4135       
C17-C16=1.4208       C17-H22=1.0847       H18-C13=1.0838       H19-C14=1.0850       H20-C15=1.0841       H21-C16=1.0831       
H22-C17=1.0847       H23-C2=1.1037        H24-C2=1.0997        H25-C2=1.0985        C26-Zr1=2.6023       C26-C27=1.3412       
C26-H30=1.0913       C26-H31=1.0867       C27-Zr1=2.6007       C27-C26=1.3412       C27-H28=1.0900       C27-H29=1.0883       
H28-C27=1.0900       H29-C27=1.0883       H30-C26=1.0913       H31-C26=1.0867       
 C  H  Rav=1.0882 sigma=0.0063  Rmin=1.0829  Rmax=1.1037    17
 C  C  Rav=1.4094 sigma=0.0217  Rmin=1.3412  Rmax=1.4212    11
 Zr C  Rav=2.4788 sigma=0.0714  Rmin=2.2955  Rmax=2.6023    13

 selected bond angles (degree)
 --------------------
C3-Zr1-C2=132.21               C4-Zr1-C2=100.54               C4-Zr1-C3= 33.05               C5-Zr1-C2= 78.94               
C5-Zr1-C3= 54.98               C5-Zr1-C4= 33.43               C6-Zr1-C2= 94.15               C6-Zr1-C3= 55.04               
C6-Zr1-C4= 55.45               C6-Zr1-C5= 33.46               C7-Zr1-C2=127.59               C7-Zr1-C3= 32.96               
C7-Zr1-C4= 55.16               C7-Zr1-C5= 55.35               C7-Zr1-C6= 33.47               C13-Zr1-C2=117.64              
C13-Zr1-C3= 75.22              C13-Zr1-C4= 79.97              C13-Zr1-C5=112.53              C13-Zr1-C6=129.83              
C13-Zr1-C7=103.79              C14-Zr1-C2=137.12              C14-Zr1-C3= 80.11              C14-Zr1-C4=100.77              
C14-Zr1-C5=133.09              C14-Zr1-C6=128.48              C14-Zr1-C7= 95.03              C14-Zr1-C13= 33.24             
C15-Zr1-C2=111.52              C15-Zr1-C3=112.39              C15-Zr1-C4=132.80              C15-Zr1-C5=166.06              
C15-Zr1-C6=147.52              C15-Zr1-C7=118.37              C15-Zr1-C13= 54.92             C15-Zr1-C14= 33.12             
C16-Zr1-C2= 82.59              C16-Zr1-C3=129.93              C16-Zr1-C4=128.85              C16-Zr1-C5=148.15              
C16-Zr1-C6=174.95              C16-Zr1-C7=149.77              C16-Zr1-C13= 55.22             C16-Zr1-C14= 55.20             
C16-Zr1-C15= 33.13             C17-Zr1-C2= 85.87              C17-Zr1-C3=104.22              C17-Zr1-C4= 95.32              
C17-Zr1-C5=118.71              C17-Zr1-C6=150.35              C17-Zr1-C7=135.87              C17-Zr1-C13= 33.36             
C17-Zr1-C14= 55.45             C17-Zr1-C15= 55.30             C17-Zr1-C16= 33.59             C26-Zr1-C2=103.54              
C26-Zr1-C3=103.12              C26-Zr1-C4=127.59              C26-Zr1-C5=109.30              C26-Zr1-C6= 76.86              
C26-Zr1-C7= 73.34              C26-Zr1-C13=125.27             C26-Zr1-C14= 92.04             C26-Zr1-C15= 77.97             
C26-Zr1-C16=100.10             C26-Zr1-C17=131.99             C27-Zr1-C2= 75.45              C27-Zr1-C3=130.80              
C27-Zr1-C4=144.04              C27-Zr1-C5=113.15              C27-Zr1-C6= 88.86              C27-Zr1-C7= 98.44              
C27-Zr1-C13=134.12             C27-Zr1-C14=106.00             C27-Zr1-C15= 79.22             C27-Zr1-C16= 86.59             
C27-Zr1-C17=119.56             C27-Zr1-C26= 29.88             H23-C2-Zr1=107.13              H24-C2-Zr1=113.66              
H24-C2-H23=106.74              H25-C2-Zr1=115.41              H25-C2-H23=106.46              H25-C2-H24=106.89              
C4-C3-Zr1= 72.30               C7-C3-Zr1= 72.62               C7-C3-C4=108.26                H8-C3-Zr1=127.86               
H8-C3-C4=125.80                H8-C3-C7=125.34                C3-C4-Zr1= 74.65               C5-C4-Zr1= 72.84               
C5-C4-C3=107.89                H9-C4-Zr1=126.08               H9-C4-C3=126.01                H9-C4-C5=125.35                
C4-C5-Zr1= 73.73               C6-C5-Zr1= 73.20               C6-C5-C4=108.05                H10-C5-Zr1=126.48              
H10-C5-C4=125.53               H10-C5-C6=125.71               C5-C6-Zr1= 73.34               C7-C6-Zr1= 74.06               
C7-C6-C5=107.89                H11-C6-Zr1=126.70              H11-C6-C5=125.02               H11-C6-C7=126.24               
C3-C7-Zr1= 74.41               C6-C7-Zr1= 72.47               C6-C7-C3=107.89                H12-C7-Zr1=128.95              
H12-C7-C3=124.83               H12-C7-C6=126.03               

 selected dihedral angles (degree)
 ---------------------------------
H23-C2-Zr1-C3=308.06          H23-C2-Zr1-C4=318.89          H23-C2-Zr1-C5=293.22          H23-C2-Zr1-C6=263.28          
H23-C2-Zr1-C7=265.05          H23-C2-Zr1-C13= 43.00         H23-C2-Zr1-C14= 77.56         H23-C2-Zr1-C15=103.60         
H23-C2-Zr1-C16= 87.15         H23-C2-Zr1-C17= 53.54         H23-C2-Zr1-C26=185.81         H23-C2-Zr1-C27=175.54         
H24-C2-Zr1-C3= 65.70          H24-C2-Zr1-C4= 76.53          H24-C2-Zr1-C5= 50.87          H24-C2-Zr1-C6= 20.92          
H24-C2-Zr1-C7= 22.70          H24-C2-Zr1-C13=160.65         H24-C2-Zr1-C14=195.20         H24-C2-Zr1-C15=221.25         
H24-C2-Zr1-C16=204.80         H24-C2-Zr1-C17=171.19         H24-C2-Zr1-C26=303.46         H24-C2-Zr1-C27=293.18         
H25-C2-Zr1-C3=189.72          H25-C2-Zr1-C4=200.55          H25-C2-Zr1-C5=174.88          H25-C2-Zr1-C6=144.94          
H25-C2-Zr1-C7=146.71          H25-C2-Zr1-C13=284.66         H25-C2-Zr1-C14=319.22         H25-C2-Zr1-C15=345.26         
H25-C2-Zr1-C16=328.81         H25-C2-Zr1-C17=295.20         H25-C2-Zr1-C26= 67.47         H25-C2-Zr1-C27= 57.20         
C4-C3-Zr1-C2= 19.80           C4-C3-Zr1-C5= 37.66           C4-C3-Zr1-C6= 78.81           C4-C3-Zr1-C7=116.39           
C4-C3-Zr1-C13=265.69          C4-C3-Zr1-C14=232.00          C4-C3-Zr1-C15=224.41          C4-C3-Zr1-C16=257.66          
C4-C3-Zr1-C17=282.35          C4-C3-Zr1-C26=142.20          C4-C3-Zr1-C27=129.35          C7-C3-Zr1-C2=263.40           
C7-C3-Zr1-C4=243.61           C7-C3-Zr1-C5=281.27           C7-C3-Zr1-C6=322.41           C7-C3-Zr1-C13=149.29          
C7-C3-Zr1-C14=115.61          C7-C3-Zr1-C15=108.02          C7-C3-Zr1-C16=141.27          C7-C3-Zr1-C17=165.96          
C7-C3-Zr1-C26= 25.81          C7-C3-Zr1-C27= 12.95          H8-C3-Zr1-C2=141.78           H8-C3-Zr1-C4=121.98           
H8-C3-Zr1-C5=159.64           H8-C3-Zr1-C6=200.79           H8-C3-Zr1-C7=238.38           H8-C3-Zr1-C13= 27.67          
H8-C3-Zr1-C14=353.99          H8-C3-Zr1-C15=346.40          H8-C3-Zr1-C16= 19.64          H8-C3-Zr1-C17= 44.34          
H8-C3-Zr1-C26=264.18          H8-C3-Zr1-C27=251.33          C3-C4-Zr1-C2=194.78           C3-C4-Zr1-C5=245.27           
C3-C4-Zr1-C6=282.57           C3-C4-Zr1-C7=323.57           C3-C4-Zr1-C13= 78.28          C3-C4-Zr1-C14= 52.21          
C3-C4-Zr1-C15= 61.88          C3-C4-Zr1-C16=105.85          C3-C4-Zr1-C17=108.01          C3-C4-Zr1-C26=311.12          
C3-C4-Zr1-C27=274.49          C5-C4-Zr1-C2=309.51           C5-C4-Zr1-C3=114.73           C5-C4-Zr1-C6= 37.29           
C5-C4-Zr1-C7= 78.29           C5-C4-Zr1-C13=193.00          C5-C4-Zr1-C14=166.94          C5-C4-Zr1-C15=176.60          
C5-C4-Zr1-C16=220.58          C5-C4-Zr1-C17=222.73          C5-C4-Zr1-C26= 65.85          C5-C4-Zr1-C27= 29.21          
H9-C4-Zr1-C2= 71.12           H9-C4-Zr1-C3=236.34           H9-C4-Zr1-C5=121.61           H9-C4-Zr1-C6=158.90           
H9-C4-Zr1-C7=199.91           H9-C4-Zr1-C13=314.62          H9-C4-Zr1-C14=288.55          H9-C4-Zr1-C15=298.22          
H9-C4-Zr1-C16=342.19          H9-C4-Zr1-C17=344.35          H9-C4-Zr1-C26=187.46          H9-C4-Zr1-C27=150.83          
Zr1-C4-C3-C7= 64.19           Zr1-C4-C3-H8=235.66           C5-C4-C3-Zr1=294.22           C5-C4-C3-C7=358.41            
C5-C4-C3-H8=169.88            H9-C4-C3-Zr1=123.73           H9-C4-C3-C7=187.92            H9-C4-C3-H8=359.39            
C4-C5-Zr1-C2=129.39           C4-C5-Zr1-C3=322.78           C4-C5-Zr1-C6=244.83           C4-C5-Zr1-C7=282.34           
C4-C5-Zr1-C13= 13.88          C4-C5-Zr1-C14=342.30          C4-C5-Zr1-C15=349.60          C4-C5-Zr1-C16= 73.71          
C4-C5-Zr1-C17= 50.38          C4-C5-Zr1-C26=230.01          C4-C5-Zr1-C27=198.16          C6-C5-Zr1-C2=244.55           
C6-C5-Zr1-C3= 77.94           C6-C5-Zr1-C4=115.17           C6-C5-Zr1-C7= 37.50           C6-C5-Zr1-C13=129.04          
C6-C5-Zr1-C14= 97.46          C6-C5-Zr1-C15=104.77          C6-C5-Zr1-C16=188.88          C6-C5-Zr1-C17=165.55          
C6-C5-Zr1-C26=345.17          C6-C5-Zr1-C27=313.33          H10-C5-Zr1-C2=  6.90          H10-C5-Zr1-C3=200.29          
H10-C5-Zr1-C4=237.51          H10-C5-Zr1-C6=122.35          H10-C5-Zr1-C7=159.85          H10-C5-Zr1-C13=251.39         
H10-C5-Zr1-C14=219.81         H10-C5-Zr1-C15=227.12         H10-C5-Zr1-C16=311.22         H10-C5-Zr1-C17=287.90         
H10-C5-Zr1-C26=107.52         H10-C5-Zr1-C27= 75.68         Zr1-C5-C4-C3= 66.99           Zr1-C5-C4-H9=237.55           
C6-C5-C4-Zr1=294.32           C6-C5-C4-C3=  1.30            C6-C5-C4-H9=171.87            H10-C5-C4-Zr1=123.55          
H10-C5-C4-C3=190.54           H10-C5-C4-H9=  1.10           C5-C6-Zr1-C2= 62.69           C5-C6-Zr1-C3=282.23           
C5-C6-Zr1-C4=322.75           C5-C6-Zr1-C7=245.24           C5-C6-Zr1-C13=290.91          C5-C6-Zr1-C14=247.66          
C5-C6-Zr1-C15=205.71          C5-C6-Zr1-C16=112.26          C5-C6-Zr1-C17=333.75          C5-C6-Zr1-C26=165.64          
C5-C6-Zr1-C27=138.01          C7-C6-Zr1-C2=177.45           C7-C6-Zr1-C3= 37.00           C7-C6-Zr1-C4= 77.51           
C7-C6-Zr1-C5=114.76           C7-C6-Zr1-C13= 45.67          C7-C6-Zr1-C14=  2.42          C7-C6-Zr1-C15=320.47          
C7-C6-Zr1-C16=227.02          C7-C6-Zr1-C17= 88.51          C7-C6-Zr1-C26=280.40          C7-C6-Zr1-C27=252.77          
H11-C6-Zr1-C2=301.09          H11-C6-Zr1-C3=160.63          H11-C6-Zr1-C4=201.14          H11-C6-Zr1-C5=238.40          
H11-C6-Zr1-C7=123.64          H11-C6-Zr1-C13=169.31         H11-C6-Zr1-C14=126.06         H11-C6-Zr1-C15= 84.11         
H11-C6-Zr1-C16=350.66         H11-C6-Zr1-C17=212.14         H11-C6-Zr1-C26= 44.04         H11-C6-Zr1-C27= 16.41         
Zr1-C6-C5-C4= 66.04           Zr1-C6-C5-H10=236.78          C7-C6-C5-Zr1=293.44           C7-C6-C5-C4=359.48            
C7-C6-C5-H10=170.22           H11-C6-C5-Zr1=123.51          H11-C6-C5-C4=189.55           H11-C6-C5-H10=  0.29          
C3-C7-Zr1-C2=111.79           C3-C7-Zr1-C4= 36.53           C3-C7-Zr1-C5= 77.51           C3-C7-Zr1-C6=114.99           
C3-C7-Zr1-C13=329.44          C3-C7-Zr1-C14=296.90          C3-C7-Zr1-C15=272.13          C3-C7-Zr1-C16=287.65          
C3-C7-Zr1-C17=340.26          C3-C7-Zr1-C26=206.27          C3-C7-Zr1-C27=189.88          C6-C7-Zr1-C2=356.79           
C6-C7-Zr1-C3=245.01           C6-C7-Zr1-C4=281.54           C6-C7-Zr1-C5=322.51           C6-C7-Zr1-C13=214.45          
C6-C7-Zr1-C14=181.90          C6-C7-Zr1-C15=157.14          C6-C7-Zr1-C16=172.65          C6-C7-Zr1-C17=225.26          
C6-C7-Zr1-C26= 91.27          C6-C7-Zr1-C27= 74.88          H12-C7-Zr1-C2=234.26          H12-C7-Zr1-C3=122.47          
H12-C7-Zr1-C4=159.00          H12-C7-Zr1-C5=199.98          H12-C7-Zr1-C6=237.47          H12-C7-Zr1-C13= 91.91         
H12-C7-Zr1-C14= 59.37         H12-C7-Zr1-C15= 34.60         H12-C7-Zr1-C16= 50.12         H12-C7-Zr1-C17=102.73         
H12-C7-Zr1-C26=328.74         H12-C7-Zr1-C27=312.35         Zr1-C7-C3-C4=296.02           Zr1-C7-C3-H8=124.50           
C6-C7-C3-Zr1= 65.25           C6-C7-C3-C4=  1.27            C6-C7-C3-H8=189.75            H12-C7-C3-Zr1=233.06          
H12-C7-C3-C4=169.08           H12-C7-C3-H8=357.56           Zr1-C7-C6-C5= 66.08           Zr1-C7-C6-H11=235.86          
C3-C7-C6-Zr1=293.46           C3-C7-C6-C5=359.54            C3-C7-C6-H11=169.31           H12-C7-C6-Zr1=125.84          
H12-C7-C6-C5=191.92           H12-C7-C6-H11=  1.69          

 CMA Distance (Angstroems)
 ---------------------------
R(CMA):  2.8992
           -------------------------------------------------
          |                Final Singlepoint                |
           -------------------------------------------------

          ...................................................
          :                      SETUP                      :
          :.................................................:
          :  # basis functions                  79          :
          :  # atomic orbitals                  78          :
          :  # shells                           46          :
          :  # electrons                        72          :
          :  max. iterations                   250          :
          :  Hamiltonian                  GFN2-xTB          :
          :  restarted?                      false          :
          :  GBSA solvation                  false          :
          :  PC potential                    false          :
          :  electronic temp.          300.0000000     K    :
          :  accuracy                    1.0000000          :
          :  -> integral cutoff          0.2500000E+02      :
          :  -> integral neglect         0.1000000E-07      :
          :  -> SCF convergence          0.1000000E-05 Eh   :
          :  -> wf. convergence          0.1000000E-03 e    :
          :  Broyden damping             0.4000000          :
          ...................................................

 iter      E             dE          RMSdq      gap      omega  full diag
   1    -38.3094590 -0.383095E+02  0.158E-04    1.38       0.0  T
   2    -38.3094590 -0.108997E-10  0.110E-04    1.38     163.1  T
   3    -38.3094590  0.343690E-10  0.585E-05    1.38     306.8  T

   *** convergence criteria satisfied after 3 iterations ***

         #    Occupation            Energy/Eh            Energy/eV
      -------------------------------------------------------------
         1        2.0000           -0.8697628             -23.6675
       ...           ...                  ...                  ...
        30        2.0000           -0.5726783             -15.5834
        31        2.0000           -0.5711679             -15.5423
        32        2.0000           -0.5218684             -14.2008
        33        2.0000           -0.5174281             -14.0799
        34        2.0000           -0.5072824             -13.8039
        35        2.0000           -0.5019579             -13.6590
        36        2.0000           -0.4888305             -13.3018 (HOMO)
        37                         -0.4381036             -11.9214 (LUMO)
        38                         -0.4091884             -11.1346
        39                         -0.4077859             -11.0964
        40                         -0.4035947             -10.9824
        41                         -0.3964059             -10.7868
       ...                                ...                  ...
        78                          2.4696330              67.2021
      -------------------------------------------------------------
                  HL-Gap            0.0507269 Eh            1.3803 eV
             Fermi-level           -0.4634671 Eh          -12.6116 eV

 SCC (total)                   0 d,  0 h,  0 min,  0.651 sec
 SCC setup                      ...        0 min,  0.011 sec (  1.725%)
 Dispersion                     ...        0 min,  0.036 sec (  5.588%)
 classical contributions        ...        0 min,  0.016 sec (  2.502%)
 integral evaluation            ...        0 min,  0.077 sec ( 11.778%)
 iterations                     ...        0 min,  0.319 sec ( 49.033%)
 molecular gradient             ...        0 min,  0.191 sec ( 29.336%)
 printout                       ...        0 min,  0.000 sec (  0.033%)

         :::::::::::::::::::::::::::::::::::::::::::::::::::::
         ::                     SUMMARY                     ::
         :::::::::::::::::::::::::::::::::::::::::::::::::::::
         :: total energy             -37.661515761303 Eh    ::
         :: gradient norm              0.000265925920 Eh/a0 ::
         :: HOMO-LUMO gap              1.380348201099 eV    ::
         ::.................................................::
         :: SCC energy               -38.309459043926 Eh    ::
         :: -> isotropic ES            0.093266167653 Eh    ::
         :: -> anisotropic ES         -0.013468150677 Eh    ::
         :: -> anisotropic XC          0.022268889659 Eh    ::
         :: -> dispersion             -0.028065248036 Eh    ::
         :: repulsion energy           0.647153413286 Eh    ::
         :: add. restraining           0.000074596489 Eh    ::
         :: total charge               1.000000000000 e     ::
         :::::::::::::::::::::::::::::::::::::::::::::::::::::

           -------------------------------------------------
          |                Property Printout                |
           -------------------------------------------------

    * Orbital Energies and Occupations

         #    Occupation            Energy/Eh            Energy/eV
      -------------------------------------------------------------
         1        2.0000           -0.8697628             -23.6675
       ...           ...                  ...                  ...
        24        2.0000           -0.5920945             -16.1117
        25        2.0000           -0.5910996             -16.0846
        26        2.0000           -0.5877650             -15.9939
        27        2.0000           -0.5871115             -15.9761
        28        2.0000           -0.5859268             -15.9439
        29        2.0000           -0.5854830             -15.9318
        30        2.0000           -0.5726783             -15.5834
        31        2.0000           -0.5711679             -15.5423
        32        2.0000           -0.5218684             -14.2008
        33        2.0000           -0.5174281             -14.0799
        34        2.0000           -0.5072824             -13.8039
        35        2.0000           -0.5019579             -13.6590
        36        2.0000           -0.4888305             -13.3018 (HOMO)
        37                         -0.4381036             -11.9214 (LUMO)
        38                         -0.4091884             -11.1346
        39                         -0.4077859             -11.0964
        40                         -0.4035947             -10.9824
        41                         -0.3964059             -10.7868
        42                         -0.3832426             -10.4286
        43                         -0.3047716              -8.2933
        44                         -0.3037900              -8.2665
        45                         -0.3008221              -8.1858
        46                         -0.3005640              -8.1788
        47                         -0.0678566              -1.8465
       ...                                ...                  ...
        78                          2.4696330              67.2021
      -------------------------------------------------------------
                  HL-Gap            0.0507269 Eh            1.3803 eV
             Fermi-level           -0.4634671 Eh          -12.6116 eV

     #   Z          covCN         q      C6AA      α(0)
     1  40 Zr       9.627     0.930   139.373    17.739
     2   6 C        3.566    -0.328    28.491     7.773
     3   6 C        3.741    -0.081    22.131     6.712
     4   6 C        3.754    -0.087    22.210     6.720
     5   6 C        3.759    -0.079    22.057     6.695
     6   6 C        3.759    -0.097    22.395     6.747
     7   6 C        3.750    -0.097    22.407     6.751
     8   1 H        0.925     0.082     1.961     2.190
     9   1 H        0.925     0.081     1.969     2.195
    10   1 H        0.925     0.091     1.869     2.138
    11   1 H        0.925     0.072     2.058     2.244
    12   1 H        0.925     0.071     2.078     2.254
    13   6 C        3.754    -0.083    22.145     6.710
    14   6 C        3.750    -0.092    22.322     6.738
    15   6 C        3.745    -0.098    22.449     6.759
    16   6 C        3.756    -0.088    22.238     6.724
    17   6 C        3.761    -0.084    22.150     6.709
    18   1 H        0.925     0.082     1.963     2.191
    19   1 H        0.925     0.075     2.028     2.227
    20   1 H        0.925     0.065     2.136     2.286
    21   1 H        0.925     0.083     1.951     2.184
    22   1 H        0.925     0.087     1.907     2.159
    23   1 H        0.927     0.058     2.221     2.331
    24   1 H        0.925     0.050     2.315     2.379
    25   1 H        0.924     0.054     2.275     2.359
    26   6 C        3.500    -0.096    24.096     7.285
    27   6 C        3.501    -0.084    23.824     7.241
    28   1 H        0.925     0.133     1.509     1.921
    29   1 H        0.925     0.137     1.485     1.905
    30   1 H        0.925     0.119     1.620     1.990
    31   1 H        0.925     0.123     1.592     1.973

 Mol. C6AA /au·bohr⁶  :       9527.416091
 Mol. C8AA /au·bohr⁸  :     323401.255201
 Mol. α(0) /au        :        144.229933


Wiberg/Mayer (AO) data.
largest (>0.10) Wiberg bond orders for each atom

 ---------------------------------------------------------------------------
     #   Z sym  total        # sym  WBO       # sym  WBO       # sym  WBO
 ---------------------------------------------------------------------------
     1  40 Zr   4.289 --     2 C    0.852    17 C    0.262     5 C    0.250
                             4 C    0.249    16 C    0.244     6 C    0.240
                            14 C    0.229     7 C    0.228    13 C    0.226
                            15 C    0.221     3 C    0.216    27 C    0.195
                            26 C    0.194
     2   6 C    3.823 --    25 H    0.931    24 H    0.930    23 H    0.911
                             1 Zr   0.852
     3   6 C    3.982 --     7 C    1.317     4 C    1.313     8 H    0.927
                             1 Zr   0.216
     4   6 C    3.980 --     3 C    1.313     5 C    1.289     9 H    0.922
                             1 Zr   0.249
     5   6 C    3.983 --     6 C    1.306     4 C    1.289    10 H    0.924
                             1 Zr   0.250
     6   6 C    3.977 --     5 C    1.306     7 C    1.284    11 H    0.927
                             1 Zr   0.240
     7   6 C    3.978 --     3 C    1.317     6 C    1.284    12 H    0.927
                             1 Zr   0.228
     8   1 H    0.991 --     3 C    0.927
     9   1 H    0.991 --     4 C    0.922
    10   1 H    0.990 --     5 C    0.924
    11   1 H    0.992 --     6 C    0.927
    12   1 H    0.993 --     7 C    0.927
    13   6 C    3.981 --    17 C    1.312    14 C    1.307    18 H    0.925
                             1 Zr   0.226
    14   6 C    3.978 --    13 C    1.307    15 C    1.304    19 H    0.925
                             1 Zr   0.229
    15   6 C    3.976 --    16 C    1.312    14 C    1.304    20 H    0.930
                             1 Zr   0.221
    16   6 C    3.980 --    15 C    1.312    17 C    1.280    21 H    0.927
                             1 Zr   0.244
    17   6 C    3.981 --    13 C    1.312    16 C    1.280    22 H    0.920
                             1 Zr   0.262
    18   1 H    0.991 --    13 C    0.925
    19   1 H    0.992 --    14 C    0.925
    20   1 H    0.993 --    15 C    0.930
    21   1 H    0.990 --    16 C    0.927
    22   1 H    0.990 --    17 C    0.920
    23   1 H    0.996 --     2 C    0.911
    24   1 H    0.996 --     2 C    0.930
    25   1 H    0.996 --     2 C    0.931
    26   6 C    3.987 --    27 C    1.837    31 H    0.928    30 H    0.907
                             1 Zr   0.194
    27   6 C    3.979 --    26 C    1.837    29 H    0.921    28 H    0.907
                             1 Zr   0.195
    28   1 H    0.981 --    27 C    0.907
    29   1 H    0.980 --    27 C    0.921
    30   1 H    0.985 --    26 C    0.907
    31   1 H    0.984 --    26 C    0.928
 ---------------------------------------------------------------------------

Topologies differ in total number of bonds
Writing topology from bond orders to xtbtopo.mol

molecular dipole:
                 x           y           z       tot (Debye)
 q only:       -3.903      -0.152       0.983
   full:       -3.907      -0.240       1.073      10.317
molecular quadrupole (traceless):
                xx          xy          yy          xz          yz          zz
 q only:       22.503       0.170     -12.078      -4.706      -1.895     -10.425
  q+dip:       21.438       1.441     -13.943      -6.007      -6.552      -7.495
   full:       23.063       1.407     -13.865      -6.273      -4.142      -9.197

           -------------------------------------------------
          |                Geometry Summary                 |
           -------------------------------------------------

      molecular mass/u    :      264.4982010
   center of mass at/Å    :       -1.2343084      -0.1206136       0.5795828
  moments of inertia/u·Å² :        0.5921011E+03   0.7600899E+03   0.8844893E+03
rotational constants/cm⁻¹ :        0.2847087E-01   0.2217847E-01   0.1905917E-01

 * 39 selected distances

     #   Z          #   Z                                           value/Å
     1  40 Zr       2   6 C                                       2.2954950
     1  40 Zr       3   6 C                                       2.5006049 (max)
     1  40 Zr       4   6 C                                       2.4704271
     3   6 C        4   6 C                                       1.4143905
     1  40 Zr       5   6 C                                       2.4589151
     4   6 C        5   6 C                                       1.4177148
     1  40 Zr       6   6 C                                       2.4570859
     5   6 C        6   6 C                                       1.4151678
     1  40 Zr       7   6 C                                       2.4776513
     3   6 C        7   6 C                                       1.4126016
     6   6 C        7   6 C                                       1.4211732
     3   6 C        8   1 H                                       1.0834102
     4   6 C        9   1 H                                       1.0849409
     5   6 C       10   1 H                                       1.0829384 (min)
     6   6 C       11   1 H                                       1.0841687
     7   6 C       12   1 H                                       1.0844749
     1  40 Zr      13   6 C                                       2.4748036
     1  40 Zr      14   6 C                                       2.4779738
    13   6 C       14   6 C                                       1.4164163
     1  40 Zr      15   6 C                                       2.4905531
    14   6 C       15   6 C                                       1.4161482
     1  40 Zr      16   6 C                                       2.4677829
    15   6 C       16   6 C                                       1.4137896
     1  40 Zr      17   6 C                                       2.4495291
    13   6 C       17   6 C                                       1.4135194
    16   6 C       17   6 C                                       1.4208277
    13   6 C       18   1 H                                       1.0838045
    14   6 C       19   1 H                                       1.0849872
    15   6 C       20   1 H                                       1.0841226
    16   6 C       21   1 H                                       1.0830598
    17   6 C       22   1 H                                       1.0846563
     2   6 C       23   1 H                                       1.1036757
     2   6 C       24   1 H                                       1.0996635
     2   6 C       25   1 H                                       1.0985059
    26   6 C       27   6 C                                       1.3411691
    27   6 C       28   1 H                                       1.0900191
    27   6 C       29   1 H                                       1.0882956
    26   6 C       30   1 H                                       1.0913354
    26   6 C       31   1 H                                       1.0867218

 * 3 distinct bonds (by element types)

   Z      Z             #   av. dist./Å        max./Å        min./Å
   1 H    6 C          17     1.0881636     1.1036757     1.0829384
   6 C    6 C          11     1.4093562     1.4211732     1.3411691
   6 C   40 Zr         11     2.4564383     2.5006049     2.2954950


optimized geometry written to: xtbopt.xyz


           -------------------------------------------------
          | TOTAL ENERGY              -37.661515761303 Eh   |
          | GRADIENT NORM               0.000265925920 Eh/α |
          | HOMO-LUMO GAP               1.380348201099 eV   |
           -------------------------------------------------

------------------------------------------------------------------------
 * finished run on 2026/08/18 at 18:30:30.000     
------------------------------------------------------------------------
 total:
 * wall-time:     0 d,  0 h,  1 min, 19.827 sec
 *  cpu-time:     0 d,  0 h,  2 min, 10.992 sec
 * ratio c/w:     1.641 speedup
 SCF:
 * wall-time:     0 d,  0 h,  0 min,  2.439 sec
 *  cpu-time:     0 d,  0 h,  0 min,  3.822 sec
 * ratio c/w:     1.567 speedup
 ANC optimizer:
 * wall-time:     0 d,  0 h,  1 min, 17.192 sec
 *  cpu-time:     0 d,  0 h,  2 min,  6.918 sec
 * ratio c/w:     1.644 speedup

