31
 energy: -37.661515761303 gnorm: 0.000265925920 xtb: 6.5.1 (b24c23e)
Zr          -1.27841592640501       -0.01713516213592        0.41140620721707
C           -1.18523758426387        1.20910301862516       -1.52688016514456
C           -0.24328106794743       -2.19525459923308        1.07270417604191
C            0.49026116710083       -1.68599378353073       -0.02414096684981
C           -0.36530276829595       -1.67852184686398       -1.15456984181396
C           -1.63422902829187       -2.15450402555844       -0.74717977779854
C           -1.55886877064753       -2.46852068240767        0.63681709366964
H            0.16738187874189       -2.47076725011986        2.03666793845179
H            1.55806546020640       -1.49493869078919       -0.04385008674512
H           -0.05610198121683       -1.49817307907182       -2.17663864651210
H           -2.45070191633799       -2.40055322399042       -1.41669697722087
H           -2.29805288224449       -3.02062282121563        1.20679565612616
C            0.31454246222013        0.56259474191666        2.21447264791345
C           -0.94725068303064        0.38722406905033        2.83363171031771
C           -1.80225266900339        1.41970712484411        2.37709510719656
C           -1.08164865518376        2.21117494125212        1.45345602814490
C            0.22891359043178        1.67331967717121        1.34441834367615
H            1.22579684690059        0.03475881374114        2.47066912828487
H           -1.15926961971975       -0.29280690797690        3.65204653230819
H           -2.76698916135708        1.67353746629782        2.80156569069852
H           -1.40524931937302        3.15824078028527        1.03949079597047
H            1.05935642744508        2.13779383677571        0.82373845010659
H           -0.11853340719837        1.33712381129471       -1.77957097567921
H           -1.65690766424528        0.71181609113381       -2.38681774152364
H           -1.61433448108767        2.21856380748221       -1.46704965272583
C           -3.82378247869777       -0.44997461166151        0.73668139607878
C           -3.75361837623807        0.60585776385963       -0.08735095801256
H           -3.71277281430221        1.62869978496898        0.28717166933107
H           -3.95592647356397        0.49013039476813       -1.15039640514633
H           -3.84439128363634       -0.33850292337001        1.82211318075721
H           -4.11627917078759       -1.42384154555055        0.35328475290121
