      -----------------------------------------------------------      
     |                   =====================                   |     
     |                           x T B                           |     
     |                   =====================                   |     
     |                         S. Grimme                         |     
     |          Mulliken Center for Theoretical Chemistry        |     
     |                    University of Bonn                     |     
      -----------------------------------------------------------      

   * xtb version 6.5.1 (b24c23e) compiled by 'conda@728c89f4b128' on 2022-07-12

   xtb is free software: you can redistribute it and/or modify it under
   the terms of the GNU Lesser General Public License as published by
   the Free Software Foundation, either version 3 of the License, or
   (at your option) any later version.
   
   xtb is distributed in the hope that it will be useful,
   but WITHOUT ANY WARRANTY; without even the implied warranty of
   MERCHANTABILITY or FITNESS FOR A PARTICULAR PURPOSE.  See the
   GNU Lesser General Public License for more details.
   
   Cite this work as:
   * C. Bannwarth, E. Caldeweyher, S. Ehlert, A. Hansen, P. Pracht,
     J. Seibert, S. Spicher, S. Grimme, WIREs Comput. Mol. Sci., 2020, 11,
     e01493. DOI: 10.1002/wcms.1493
   
   for GFN2-xTB:
   * C. Bannwarth, S. Ehlert and S. Grimme., J. Chem. Theory Comput., 2019,
     15, 1652-1671. DOI: 10.1021/acs.jctc.8b01176
   for GFN1-xTB:
   * S. Grimme, C. Bannwarth, P. Shushkov, J. Chem. Theory Comput., 2017,
     13, 1989-2009. DOI: 10.1021/acs.jctc.7b00118
   for GFN0-xTB:
   * P. Pracht, E. Caldeweyher, S. Ehlert, S. Grimme, ChemRxiv, 2019, preprint.
     DOI: 10.26434/chemrxiv.8326202.v1
   for GFN-FF:
   * S. Spicher and S. Grimme, Angew. Chem. Int. Ed., 2020, 59, 15665-15673.
     DOI: 10.1002/anie.202004239
   
   for ALPB and GBSA implicit solvation:
   * S. Ehlert, M. Stahn, S. Spicher, S. Grimme, J. Chem. Theory Comput.,
     2021, 17, 4250-4261. DOI: 10.1021/acs.jctc.1c00471
   
   for DFT-D4:
   * E. Caldeweyher, C. Bannwarth and S. Grimme, J. Chem. Phys., 2017,
     147, 034112. DOI: 10.1063/1.4993215
   * E. Caldeweyher, S. Ehlert, A. Hansen, H. Neugebauer, S. Spicher,
     C. Bannwarth and S. Grimme, J. Chem. Phys., 2019, 150, 154122.
     DOI: 10.1063/1.5090222
   * E. Caldeweyher, J.-M. Mewes, S. Ehlert and S. Grimme, Phys. Chem. Chem. Phys.
     2020, 22, 8499-8512. DOI: 10.1039/D0CP00502A
   
   for sTDA-xTB:
   * S. Grimme and C. Bannwarth, J. Chem. Phys., 2016, 145, 054103.
     DOI: 10.1063/1.4959605
   
   in the mass-spec context:
   * V. Asgeirsson, C. Bauer and S. Grimme, Chem. Sci., 2017, 8, 4879.
     DOI: 10.1039/c7sc00601b
   * J. Koopman and S. Grimme, ACS Omega 2019, 4, 12, 15120-15133.
     DOI: 10.1021/acsomega.9b02011
   
   for metadynamics refer to:
   * S. Grimme, J. Chem. Theory Comput., 2019, 155, 2847-2862
     DOI: 10.1021/acs.jctc.9b00143
   
   for SPH calculations refer to:
   * S. Spicher and S. Grimme, J. Chem. Theory Comput., 2021, 17, 1701-1714
     DOI: 10.1021/acs.jctc.0c01306
   
   with help from (in alphabetical order)
   P. Atkinson, C. Bannwarth, F. Bohle, G. Brandenburg, E. Caldeweyher
   M. Checinski, S. Dohm, S. Ehlert, S. Ehrlich, I. Gerasimov, C. Hölzer
   A. Katbashev, J. Koopman, C. Lavigne, S. Lehtola, F. März, M. Müller,
   F. Musil, H. Neugebauer, J. Pisarek, C. Plett, P. Pracht, F. Pultar,
   J. Seibert, P. Shushkov, S. Spicher, M. Stahn, M. Steiner, T. Strunk,
   J. Stückrath, T. Rose, and J. Unsleber
   
 * started run on 2026/08/18 at 18:28:43.299     

           -------------------------------------------------
          |                Calculation Setup                |
           -------------------------------------------------

          program call               : /h/332/chchoi/miniconda3/envs/el-agente/bin/xtb reactant.xyz --opt --gfn 2 -P 4 --chrg 1 --uhf 0
          coordinate file            : reactant.xyz
          omp threads                :                     4

   ID    Z sym.   atoms
    1   40 Zr     1
    2    6 C      2-7, 13-17, 26, 27
    3    1 H      8-12, 18-25, 28-31

molecular fragmentation (1/2 indicates fragments):
1111111111111111111111111222222
# atoms in fragment 1/2:    25     6
 fragment masses (1/2) :      236.44       28.05
CMA distance (Bohr)    :   5.713
constraining FC (au)   :  0.0500

           -------------------------------------------------
          |                 G F N 2 - x T B                 |
           -------------------------------------------------

        Reference                      10.1021/acs.jctc.8b01176
      * Hamiltonian:
        H0-scaling (s, p, d)           1.850000    2.230000    2.230000
        zeta-weighting                 0.500000
      * Dispersion:
        s8                             2.700000
        a1                             0.520000
        a2                             5.000000
        s9                             5.000000
      * Repulsion:
        kExp                           1.500000    1.000000
        rExp                           1.000000
      * Coulomb:
        alpha                          2.000000
        third order                    shell-resolved
        anisotropic                    true
        a3                             3.000000
        a5                             4.000000
        cn-shift                       1.200000
        cn-exp                         4.000000
        max-rad                        5.000000


          ...................................................
          :                      SETUP                      :
          :.................................................:
          :  # basis functions                  79          :
          :  # atomic orbitals                  78          :
          :  # shells                           46          :
          :  # electrons                        72          :
          :  max. iterations                   250          :
          :  Hamiltonian                  GFN2-xTB          :
          :  restarted?                      false          :
          :  GBSA solvation                  false          :
          :  PC potential                    false          :
          :  electronic temp.          300.0000000     K    :
          :  accuracy                    1.0000000          :
          :  -> integral cutoff          0.2500000E+02      :
          :  -> integral neglect         0.1000000E-07      :
          :  -> SCF convergence          0.1000000E-05 Eh   :
          :  -> wf. convergence          0.1000000E-03 e    :
          :  Broyden damping             0.4000000          :
          ...................................................

 iter      E             dE          RMSdq      gap      omega  full diag
   1    -37.9601354 -0.379601E+02  0.424E+00    0.57       0.0  T
   2    -38.0666125 -0.106477E+00  0.367E+00    1.52       1.0  T
   3    -38.1191899 -0.525774E-01  0.295E+00    0.94       1.0  T
   4    -38.1164784  0.271147E-02  0.140E+00    0.99       1.0  T
   5    -38.1137949  0.268351E-02  0.793E-01    0.73       1.0  T
   6    -38.1202114 -0.641645E-02  0.383E-01    0.95       1.0  T
   7    -38.1212743 -0.106294E-02  0.247E-01    0.88       1.0  T
   8    -38.1213143 -0.400100E-04  0.137E-01    0.87       1.0  T
   9    -38.1213019  0.124517E-04  0.649E-02    0.91       1.0  T
  10    -38.1213409 -0.390356E-04  0.371E-02    0.90       1.0  T
  11    -38.1213579 -0.169922E-04  0.152E-02    0.89       1.2  T
  12    -38.1213590 -0.111221E-05  0.447E-03    0.89       4.0  T
  13    -38.1213590 -0.387946E-07  0.188E-03    0.89       9.6  T
  14    -38.1213591 -0.224945E-07  0.122E-03    0.89      14.7  T
  15    -38.1213591 -0.155101E-07  0.446E-04    0.89      40.3  T
  16    -38.1213591 -0.213873E-10  0.258E-04    0.89      69.5  T

   *** convergence criteria satisfied after 16 iterations ***

         #    Occupation            Energy/Eh            Energy/eV
      -------------------------------------------------------------
         1        2.0000           -0.8637396             -23.5035
       ...           ...                  ...                  ...
        30        2.0000           -0.5741030             -15.6221
        31        2.0000           -0.5713656             -15.5476
        32        2.0000           -0.5095815             -13.8664
        33        2.0000           -0.5047474             -13.7349
        34        2.0000           -0.4945029             -13.4561
        35        2.0000           -0.4921678             -13.3926
        36        2.0000           -0.4861161             -13.2279 (HOMO)
        37                         -0.4533385             -12.3360 (LUMO)
        38                         -0.4377844             -11.9127
        39                         -0.4352875             -11.8448
        40                         -0.4313603             -11.7379
        41                         -0.4233749             -11.5206
       ...                                ...                  ...
        78                          1.3827423              37.6263
      -------------------------------------------------------------
                  HL-Gap            0.0327776 Eh            0.8919 eV
             Fermi-level           -0.4697264 Eh          -12.7819 eV

 SCC (total)                   0 d,  0 h,  0 min,  1.109 sec
 SCC setup                      ...        0 min,  0.011 sec (  0.957%)
 Dispersion                     ...        0 min,  0.023 sec (  2.045%)
 classical contributions        ...        0 min,  0.010 sec (  0.892%)
 integral evaluation            ...        0 min,  0.045 sec (  4.073%)
 iterations                     ...        0 min,  0.923 sec ( 83.193%)
 molecular gradient             ...        0 min,  0.098 sec (  8.823%)
 printout                       ...        0 min,  0.000 sec (  0.015%)

         :::::::::::::::::::::::::::::::::::::::::::::::::::::
         ::                     SUMMARY                     ::
         :::::::::::::::::::::::::::::::::::::::::::::::::::::
         :: total energy             -37.560850535385 Eh    ::
         :: gradient norm              0.190754152770 Eh/a0 ::
         :: HOMO-LUMO gap              0.891924041258 eV    ::
         ::.................................................::
         :: SCC energy               -38.121359078810 Eh    ::
         :: -> isotropic ES            0.097382457233 Eh    ::
         :: -> anisotropic ES         -0.002946632308 Eh    ::
         :: -> anisotropic XC          0.021570818862 Eh    ::
         :: -> dispersion             -0.027694242490 Eh    ::
         :: repulsion energy           0.559701657130 Eh    ::
         :: add. restraining           0.000000000000 Eh    ::
         :: total charge               1.000000000120 e     ::
         :::::::::::::::::::::::::::::::::::::::::::::::::::::

      ----------------------------------------------------------- 
     |                   =====================                   |
     |                        A N C O P T                        |
     |                   =====================                   |
     |               Approximate Normal Coordinate               |
     |                Rational Function Optimizer                |
      ----------------------------------------------------------- 

          ...................................................
          :                      SETUP                      :
          :.................................................:
          :   optimization level            normal          :
          :   max. optcycles                   200          :
          :   ANC micro-cycles                  20          :
          :   degrees of freedom                87          :
          :.................................................:
          :   RF solver                   davidson          :
          :   write xtbopt.log                true          :
          :   linear?                        false          :
          :   energy convergence         0.5000000E-05 Eh   :
          :   grad. convergence          0.1000000E-02 Eh/α :
          :   maximium RF displ.         1.0000000          :
          :   Hlow (freq-cutoff)         0.1000000E-01      :
          :   Hmax (freq-cutoff)         5.0000000          :
          :   S6 in model hess.         20.0000000          :
          ...................................................

generating ANC from model Hessian ...
Using Lindh-Hessian (1995)
 Shifting diagonal of input Hessian by    1.3758886144149621E-002
 Lowest  eigenvalues of input Hessian
    0.010000    0.013408    0.000000    0.000000    0.000000    0.000000
    0.000000    0.000000    0.013967    0.014016    0.014086    0.014233
    0.014286    0.014450    0.014533    0.014545    0.014730    0.014871
 Highest eigenvalues
    1.493740    1.494787    1.494887    1.495135    1.495224    1.888394


........................................................................
.............................. CYCLE    1 ..............................
........................................................................
   1    -38.1213591 -0.381214E+02  0.101E-04    0.89       0.0  T
   2    -38.1213591  0.883915E-11  0.118E-04    0.89     152.1  T
   3    -38.1213591 -0.117282E-09  0.649E-05    0.89     276.6  T
     SCC iter.                  ...        0 min,  0.191 sec
     gradient                   ...        0 min,  0.045 sec
 * total energy  :   -37.5608505 Eh     change       -0.4172946E-09 Eh
   gradient norm :     0.1907537 Eh/α   predicted     0.0000000E+00 (-100.00%)
   displ. norm   :     0.6716377 α      lambda       -0.8695138E-01
   maximum displ.:     0.3949458 α      in ANC's #24, #33, #59, ...

........................................................................
.............................. CYCLE    2 ..............................
........................................................................
   1    -38.2218990 -0.382219E+02  0.854E-01    1.56       0.0  T
   2    -38.2230112 -0.111214E-02  0.606E-01    1.53       1.0  T
   3    -38.2234877 -0.476544E-03  0.407E-01    1.62       1.0  T
   4    -38.2238599 -0.372238E-03  0.141E-01    1.58       1.0  T
   5    -38.2237707  0.892650E-04  0.130E-01    1.60       1.0  T
   6    -38.2239075 -0.136801E-03  0.529E-02    1.59       1.0  T
   7    -38.2239228 -0.153345E-04  0.188E-02    1.57       1.0  T
   8    -38.2239229 -0.116788E-06  0.972E-03    1.57       1.8  T
   9    -38.2239240 -0.106932E-05  0.386E-03    1.58       4.7  T
  10    -38.2239241 -0.745734E-07  0.166E-03    1.58      10.8  T
  11    -38.2239241 -0.130480E-08  0.746E-04    1.58      24.1  T
  12    -38.2239241 -0.659696E-08  0.224E-04    1.58      80.2  T
     SCC iter.                  ...        0 min,  0.351 sec
     gradient                   ...        0 min,  0.074 sec
 * total energy  :   -37.6222813 Eh     change       -0.6143079E-01 Eh
   gradient norm :     0.0713611 Eh/α   predicted    -0.6311276E-01 (   2.74%)
   displ. norm   :     0.7110704 α      lambda       -0.4144712E-01
   maximum displ.:     0.3635527 α      in ANC's #28, #24, #27, ...

........................................................................
.............................. CYCLE    3 ..............................
........................................................................
   1    -38.2822209 -0.382822E+02  0.763E-01    1.86       0.0  T
   2    -38.2829250 -0.704105E-03  0.503E-01    1.84       1.0  T
   3    -38.2826680  0.256914E-03  0.347E-01    1.90       1.0  T
   4    -38.2833063 -0.638291E-03  0.158E-01    1.89       1.0  T
   5    -38.2832084  0.979559E-04  0.114E-01    1.87       1.0  T
   6    -38.2833328 -0.124415E-03  0.451E-02    1.87       1.0  T
   7    -38.2833438 -0.110238E-04  0.183E-02    1.87       1.0  T
   8    -38.2833448 -0.965148E-06  0.810E-03    1.86       2.2  T
   9    -38.2833450 -0.188158E-06  0.274E-03    1.87       6.5  T
  10    -38.2833450 -0.401081E-07  0.113E-03    1.87      15.9  T
  11    -38.2833450  0.124101E-08  0.497E-04    1.87      36.1  T
  12    -38.2833450 -0.315082E-08  0.171E-04    1.87     104.9  T
     SCC iter.                  ...        0 min,  0.290 sec
     gradient                   ...        0 min,  0.007 sec
 * total energy  :   -37.6383700 Eh     change       -0.1608865E-01 Eh
   gradient norm :     0.0657059 Eh/α   predicted    -0.3120182E-01 (  93.94%)
   displ. norm   :     0.5074748 α      lambda       -0.1274233E-01
   maximum displ.:     0.2958305 α      in ANC's #13, #11, #27, ...

........................................................................
.............................. CYCLE    4 ..............................
........................................................................
   1    -38.2874778 -0.382875E+02  0.338E-01    1.84       0.0  T
   2    -38.2876252 -0.147460E-03  0.254E-01    1.87       1.0  T
   3    -38.2875951  0.301389E-04  0.141E-01    1.85       1.0  T
   4    -38.2877191 -0.124041E-03  0.463E-02    1.86       1.0  T
   5    -38.2877383 -0.191718E-04  0.256E-02    1.86       1.0  T
   6    -38.2877385 -0.169426E-06  0.134E-02    1.86       1.3  T
   7    -38.2877392 -0.711845E-06  0.679E-03    1.86       2.6  T
   8    -38.2877392 -0.697349E-07  0.340E-03    1.86       5.3  T
   9    -38.2877393 -0.913217E-07  0.190E-03    1.86       9.4  T
  10    -38.2877394 -0.131295E-07  0.629E-04    1.86      28.5  T
  11    -38.2877394 -0.567724E-10  0.230E-04    1.86      78.0  T
     SCC iter.                  ...        0 min,  0.320 sec
     gradient                   ...        0 min,  0.013 sec
 * total energy  :   -37.6465982 Eh     change       -0.8228248E-02 Eh
   gradient norm :     0.0247926 Eh/α   predicted    -0.8011945E-02 (  -2.63%)
   displ. norm   :     0.7063642 α      lambda       -0.9908160E-02
   maximum displ.:     0.3679191 α      in ANC's #13, #1, #11, ...

........................................................................
.............................. CYCLE    5 ..............................
........................................................................
   1    -38.2813730 -0.382814E+02  0.651E-01    1.64       0.0  T
   2    -38.2822142 -0.841200E-03  0.610E-01    1.61       1.0  T
   3    -38.2824225 -0.208318E-03  0.453E-01    1.60       1.0  T
   4    -38.2818338  0.588644E-03  0.198E-01    1.62       1.0  T
   5    -38.2825893 -0.755495E-03  0.112E-01    1.60       1.0  T
   6    -38.2826111 -0.217644E-04  0.494E-02    1.61       1.0  T
   7    -38.2826199 -0.875672E-05  0.162E-02    1.62       1.1  T
   8    -38.2826200 -0.175433E-06  0.759E-03    1.61       2.4  T
   9    -38.2826207 -0.704102E-06  0.421E-03    1.62       4.3  T
  10    -38.2826208 -0.549317E-07  0.149E-03    1.62      12.0  T
  11    -38.2826208 -0.358758E-08  0.462E-04    1.62      38.9  T
  12    -38.2826208 -0.150543E-08  0.182E-04    1.62      98.5  T
     SCC iter.                  ...        0 min,  0.339 sec
     gradient                   ...        0 min,  0.017 sec
 * total energy  :   -37.6378618 Eh     change        0.8736386E-02 Eh
   gradient norm :     0.0864032 Eh/α   predicted    -0.7425926E-02 (-185.00%)
   displ. norm   :     0.3930834 α      lambda       -0.2721923E-01
   maximum displ.:     0.3234822 α      in ANC's #1, #19, #13, ...

........................................................................
.............................. CYCLE    6 ..............................
........................................................................
   1    -38.2970535 -0.382971E+02  0.532E-01    1.75       0.0  T
   2    -38.2976952 -0.641747E-03  0.534E-01    1.73       1.0  T
   3    -38.2977675 -0.722930E-04  0.460E-01    1.74       1.0  T
   4    -38.2977359  0.316107E-04  0.137E-01    1.74       1.0  T
   5    -38.2978960 -0.160079E-03  0.890E-02    1.74       1.0  T
   6    -38.2979167 -0.206655E-04  0.332E-02    1.74       1.0  T
   7    -38.2979185 -0.183387E-05  0.172E-02    1.74       1.0  T
   8    -38.2979194 -0.906770E-06  0.660E-03    1.74       2.7  T
   9    -38.2979197 -0.315983E-06  0.410E-03    1.74       4.4  T
  10    -38.2979198 -0.327311E-07  0.226E-03    1.74       7.9  T
  11    -38.2979198 -0.135803E-07  0.361E-04    1.74      49.8  T
  12    -38.2979198 -0.473790E-09  0.160E-04    1.74     112.2  T
     SCC iter.                  ...        0 min,  0.348 sec
     gradient                   ...        0 min,  0.018 sec
 * total energy  :   -37.6510995 Eh     change       -0.1323762E-01 Eh
   gradient norm :     0.0351795 Eh/α   predicted    -0.1571251E-01 (  18.70%)
   displ. norm   :     0.4053323 α      lambda       -0.8161766E-02
   maximum displ.:     0.2265060 α      in ANC's #28, #8, #2, ...

........................................................................
.............................. CYCLE    7 ..............................
........................................................................
   1    -38.3095172 -0.383095E+02  0.570E-01    1.88       0.0  T
   2    -38.3099597 -0.442515E-03  0.460E-01    1.79       1.0  T
   3    -38.3098682  0.915214E-04  0.275E-01    1.80       1.0  T
   4    -38.3100067 -0.138527E-03  0.101E-01    1.79       1.0  T
   5    -38.3101353 -0.128546E-03  0.656E-02    1.78       1.0  T
   6    -38.3101575 -0.222456E-04  0.349E-02    1.80       1.0  T
   7    -38.3101598 -0.233919E-05  0.125E-02    1.80       1.4  T
   8    -38.3101600 -0.120498E-06  0.685E-03    1.80       2.6  T
   9    -38.3101604 -0.431273E-06  0.337E-03    1.80       5.3  T
  10    -38.3101604 -0.171322E-07  0.104E-03    1.80      17.2  T
  11    -38.3101604 -0.676604E-08  0.440E-04    1.80      40.9  T
  12    -38.3101604 -0.104880E-08  0.137E-04    1.80     131.5  T
     SCC iter.                  ...        0 min,  0.287 sec
     gradient                   ...        0 min,  0.056 sec
 * total energy  :   -37.6449766 Eh     change        0.6122810E-02 Eh
   gradient norm :     0.0773926 Eh/α   predicted    -0.4751458E-02 (-177.60%)
   displ. norm   :     0.2881149 α      lambda       -0.1729176E-01
   maximum displ.:     0.1546953 α      in ANC's #28, #13, #2, ...

........................................................................
.............................. CYCLE    8 ..............................
........................................................................
   1    -38.3013387 -0.383013E+02  0.460E-01    1.83       0.0  T
   2    -38.3015987 -0.259940E-03  0.373E-01    1.83       1.0  T
   3    -38.3015166  0.820754E-04  0.231E-01    1.79       1.0  T
   4    -38.3015500 -0.333672E-04  0.104E-01    1.83       1.0  T
   5    -38.3017134 -0.163452E-03  0.559E-02    1.81       1.0  T
   6    -38.3017210 -0.761280E-05  0.312E-02    1.82       1.0  T
   7    -38.3017228 -0.176286E-05  0.101E-02    1.82       1.8  T
   8    -38.3017230 -0.229916E-06  0.480E-03    1.82       3.7  T
   9    -38.3017233 -0.244006E-06  0.215E-03    1.82       8.4  T
  10    -38.3017233 -0.537121E-08  0.838E-04    1.82      21.4  T
  11    -38.3017233 -0.389518E-08  0.231E-04    1.82      77.8  T
     SCC iter.                  ...        0 min,  0.334 sec
     gradient                   ...        0 min,  0.083 sec
 * total energy  :   -37.6535548 Eh     change       -0.8578128E-02 Eh
   gradient norm :     0.0107639 Eh/α   predicted    -0.9362995E-02 (   9.15%)
   displ. norm   :     0.4318190 α      lambda       -0.2213515E-02
   maximum displ.:     0.2281474 α      in ANC's #13, #6, #2, ...

........................................................................
.............................. CYCLE    9 ..............................
........................................................................
   1    -38.3039093 -0.383039E+02  0.296E-01    1.85       0.0  T
   2    -38.3039645 -0.552043E-04  0.185E-01    1.84       1.0  T
   3    -38.3039013  0.631825E-04  0.101E-01    1.86       1.0  T
   4    -38.3039893 -0.879821E-04  0.335E-02    1.85       1.0  T
   5    -38.3039937 -0.434758E-05  0.226E-02    1.85       1.0  T
   6    -38.3039956 -0.195281E-05  0.104E-02    1.85       1.7  T
   7    -38.3039963 -0.659104E-06  0.408E-03    1.85       4.4  T
   8    -38.3039963 -0.537334E-07  0.213E-03    1.85       8.4  T
   9    -38.3039964 -0.141291E-07  0.123E-03    1.85      14.6  T
  10    -38.3039964 -0.777760E-08  0.404E-04    1.85      44.5  T
  11    -38.3039964 -0.225882E-09  0.217E-04    1.85      82.8  T
     SCC iter.                  ...        0 min,  0.259 sec
     gradient                   ...        0 min,  0.076 sec
 * total energy  :   -37.6547701 Eh     change       -0.1215298E-02 Eh
   gradient norm :     0.0181127 Eh/α   predicted    -0.1313008E-02 (   8.04%)
   displ. norm   :     0.3814203 α      lambda       -0.1462453E-02
   maximum displ.:     0.1604177 α      in ANC's #13, #6, #3, ...

........................................................................
.............................. CYCLE   10 ..............................
........................................................................
   1    -38.3055417 -0.383055E+02  0.308E-01    1.87       0.0  T
   2    -38.3055629 -0.212114E-04  0.196E-01    1.85       1.0  T
   3    -38.3054821  0.807923E-04  0.933E-02    1.87       1.0  T
   4    -38.3055729 -0.907305E-04  0.282E-02    1.86       1.0  T
   5    -38.3055807 -0.788070E-05  0.164E-02    1.86       1.1  T
   6    -38.3055811 -0.360100E-06  0.758E-03    1.86       2.4  T
   7    -38.3055814 -0.342883E-06  0.290E-03    1.86       6.2  T
   8    -38.3055814  0.222242E-08  0.148E-03    1.86      12.2  T
   9    -38.3055815 -0.191377E-07  0.653E-04    1.86      27.5  T
  10    -38.3055815 -0.390136E-08  0.270E-04    1.86      66.4  T
     SCC iter.                  ...        0 min,  0.279 sec
     gradient                   ...        0 min,  0.014 sec
 * total energy  :   -37.6557341 Eh     change       -0.9640075E-03 Eh
   gradient norm :     0.0099848 Eh/α   predicted    -0.8375422E-03 ( -13.12%)
   displ. norm   :     0.3896692 α      lambda       -0.1063081E-02
   maximum displ.:     0.1875563 α      in ANC's #12, #8, #3, ...

........................................................................
.............................. CYCLE   11 ..............................
........................................................................
   1    -38.3059353 -0.383059E+02  0.319E-01    1.86       0.0  T
   2    -38.3059551 -0.198100E-04  0.204E-01    1.86       1.0  T
   3    -38.3058201  0.134965E-03  0.922E-02    1.87       1.0  T
   4    -38.3059728 -0.152720E-03  0.185E-02    1.86       1.0  T
   5    -38.3059732 -0.335117E-06  0.133E-02    1.86       1.4  T
   6    -38.3059744 -0.121781E-05  0.613E-03    1.86       2.9  T
   7    -38.3059745 -0.149697E-06  0.256E-03    1.86       7.0  T
   8    -38.3059746 -0.182962E-07  0.177E-03    1.86      10.1  T
   9    -38.3059746 -0.170994E-07  0.725E-04    1.86      24.8  T
  10    -38.3059746 -0.974644E-09  0.248E-04    1.86      72.4  T
     SCC iter.                  ...        0 min,  0.277 sec
     gradient                   ...        0 min,  0.014 sec
 * total energy  :   -37.6564270 Eh     change       -0.6929020E-03 Eh
   gradient norm :     0.0099404 Eh/α   predicted    -0.6122032E-03 ( -11.65%)
   displ. norm   :     0.3746980 α      lambda       -0.7120555E-03
   maximum displ.:     0.2201356 α      in ANC's #12, #8, #6, ...

........................................................................
.............................. CYCLE   12 ..............................
........................................................................
   1    -38.3051765 -0.383052E+02  0.246E-01    1.87       0.0  T
   2    -38.3051949 -0.183991E-04  0.149E-01    1.87       1.0  T
   3    -38.3051016  0.933274E-04  0.876E-02    1.88       1.0  T
   4    -38.3052142 -0.112586E-03  0.171E-02    1.87       1.0  T
   5    -38.3052148 -0.574894E-06  0.116E-02    1.87       1.5  T
   6    -38.3052148 -0.247510E-07  0.607E-03    1.87       3.0  T
   7    -38.3052152 -0.450901E-06  0.199E-03    1.87       9.0  T
   8    -38.3052152 -0.374023E-09  0.157E-03    1.87      11.5  T
   9    -38.3052153 -0.101220E-07  0.489E-04    1.87      36.7  T
  10    -38.3052153 -0.669942E-09  0.171E-04    1.87     105.0  T
     SCC iter.                  ...        0 min,  0.231 sec
     gradient                   ...        0 min,  0.041 sec
 * total energy  :   -37.6569395 Eh     change       -0.5124995E-03 Eh
   gradient norm :     0.0126896 Eh/α   predicted    -0.4059877E-03 ( -20.78%)
   displ. norm   :     0.3856636 α      lambda       -0.7608142E-03
   maximum displ.:     0.2310160 α      in ANC's #12, #8, #7, ...

........................................................................
.............................. CYCLE   13 ..............................
........................................................................
   1    -38.3075961 -0.383076E+02  0.219E-01    1.88       0.0  T
   2    -38.3076089 -0.128208E-04  0.134E-01    1.87       1.0  T
   3    -38.3075231  0.857648E-04  0.861E-02    1.88       1.0  T
   4    -38.3076254 -0.102278E-03  0.153E-02    1.88       1.2  T
   5    -38.3076263 -0.925280E-06  0.986E-03    1.88       1.8  T
   6    -38.3076262  0.109881E-06  0.479E-03    1.88       3.7  T
   7    -38.3076265 -0.265283E-06  0.150E-03    1.88      12.0  T
   8    -38.3076265 -0.677531E-09  0.110E-03    1.88      16.4  T
   9    -38.3076265 -0.805935E-08  0.363E-04    1.88      49.5  T
  10    -38.3076265 -0.150791E-09  0.151E-04    1.88     119.0  T
     SCC iter.                  ...        0 min,  0.309 sec
     gradient                   ...        0 min,  0.072 sec
 * total energy  :   -37.6574882 Eh     change       -0.5487360E-03 Eh
   gradient norm :     0.0129396 Eh/α   predicted    -0.4369571E-03 ( -20.37%)
   displ. norm   :     0.3316965 α      lambda       -0.7525822E-03
   maximum displ.:     0.1902840 α      in ANC's #12, #7, #19, ...

........................................................................
.............................. CYCLE   14 ..............................
........................................................................
   1    -38.3102664 -0.383103E+02  0.134E-01    1.88       0.0  T
   2    -38.3102738 -0.742880E-05  0.756E-02    1.87       1.0  T
   3    -38.3102436  0.301951E-04  0.650E-02    1.88       1.0  T
   4    -38.3102920 -0.484298E-04  0.110E-02    1.88       1.6  T
   5    -38.3102925 -0.479132E-06  0.685E-03    1.87       2.6  T
   6    -38.3102924  0.151452E-06  0.397E-03    1.87       4.5  T
   7    -38.3102925 -0.180715E-06  0.896E-04    1.87      20.0  T
   8    -38.3102925 -0.731723E-08  0.484E-04    1.87      37.1  T
     SCC iter.                  ...        0 min,  0.184 sec
     gradient                   ...        0 min,  0.064 sec
 * total energy  :   -37.6580381 Eh     change       -0.5498450E-03 Eh
   gradient norm :     0.0116420 Eh/α   predicted    -0.4176661E-03 ( -24.04%)
   displ. norm   :     0.4644491 α      lambda       -0.8980450E-03
   maximum displ.:     0.3105852 α      in ANC's #12, #17, #19, ...

........................................................................
.............................. CYCLE   15 ..............................
........................................................................
   1    -38.3067803 -0.383068E+02  0.182E-01    1.86       0.0  T
   2    -38.3067917 -0.113931E-04  0.985E-02    1.87       1.0  T
   3    -38.3067440  0.477543E-04  0.882E-02    1.85       1.0  T
   4    -38.3068242 -0.802156E-04  0.189E-02    1.86       1.0  T
   5    -38.3068247 -0.514093E-06  0.122E-02    1.86       1.5  T
   6    -38.3068246  0.385845E-07  0.332E-03    1.86       5.4  T
   7    -38.3068248 -0.122229E-06  0.108E-03    1.86      16.6  T
   8    -38.3068248 -0.427534E-09  0.554E-04    1.86      32.4  T
   9    -38.3068248 -0.304819E-08  0.321E-04    1.86      56.0  T
     SCC iter.                  ...        0 min,  0.236 sec
     gradient                   ...        0 min,  0.087 sec
 * total energy  :   -37.6585304 Eh     change       -0.4922944E-03 Eh
   gradient norm :     0.0184418 Eh/α   predicted    -0.5458322E-03 (  10.88%)
   displ. norm   :     0.3076932 α      lambda       -0.1339316E-02
   maximum displ.:     0.1178461 α      in ANC's #19, #17, #67, ...

........................................................................
.............................. CYCLE   16 ..............................
........................................................................
   1    -38.3118697 -0.383119E+02  0.217E-01    1.85       0.0  T
   2    -38.3119123 -0.425666E-04  0.114E-01    1.83       1.0  T
   3    -38.3118776  0.346142E-04  0.826E-02    1.84       1.0  T
   4    -38.3119371 -0.594933E-04  0.355E-02    1.84       1.0  T
   5    -38.3119442 -0.706022E-05  0.171E-02    1.84       1.0  T
   6    -38.3119437  0.485324E-06  0.847E-03    1.83       2.1  T
   7    -38.3119443 -0.632653E-06  0.243E-03    1.83       7.4  T
   8    -38.3119444 -0.342885E-07  0.215E-03    1.83       8.4  T
   9    -38.3119444 -0.751882E-08  0.134E-03    1.83      13.4  T
  10    -38.3119444 -0.894218E-09  0.334E-04    1.83      53.8  T
  11    -38.3119444 -0.499092E-09  0.204E-04    1.83      88.2  T
     SCC iter.                  ...        0 min,  0.288 sec
     gradient                   ...        0 min,  0.061 sec
 * total energy  :   -37.6588945 Eh     change       -0.3641773E-03 Eh
   gradient norm :     0.0170450 Eh/α   predicted    -0.7330016E-03 ( 101.28%)
   displ. norm   :     0.3523750 α      lambda       -0.1276904E-02
   maximum displ.:     0.2617924 α      in ANC's #12, #19, #7, ...

........................................................................
.............................. CYCLE   17 ..............................
........................................................................
   1    -38.3107507 -0.383108E+02  0.240E-01    1.81       0.0  T
   2    -38.3107824 -0.316407E-04  0.132E-01    1.83       1.0  T
   3    -38.3107327  0.496801E-04  0.996E-02    1.82       1.0  T
   4    -38.3108052 -0.725417E-04  0.253E-02    1.82       1.0  T
   5    -38.3108106 -0.534661E-05  0.156E-02    1.83       1.1  T
   6    -38.3108101  0.466156E-06  0.865E-03    1.83       2.1  T
   7    -38.3108108 -0.652554E-06  0.256E-03    1.83       7.0  T
   8    -38.3108108 -0.166648E-07  0.179E-03    1.83      10.1  T
   9    -38.3108108 -0.709208E-08  0.110E-03    1.83      16.4  T
  10    -38.3108108 -0.119464E-08  0.403E-04    1.83      44.6  T
  11    -38.3108108 -0.113343E-08  0.184E-04    1.83      97.5  T
     SCC iter.                  ...        0 min,  0.312 sec
     gradient                   ...        0 min,  0.010 sec
 * total energy  :   -37.6595238 Eh     change       -0.6292928E-03 Eh
   gradient norm :     0.0128492 Eh/α   predicted    -0.7176916E-03 (  14.05%)
   displ. norm   :     0.1463227 α      lambda       -0.4035520E-03
   maximum displ.:     0.0761511 α      in ANC's #12, #13, #18, ...

........................................................................
.............................. CYCLE   18 ..............................
........................................................................
   1    -38.3087302 -0.383087E+02  0.832E-02    1.84       0.0  T
   2    -38.3087321 -0.193459E-05  0.516E-02    1.84       1.0  T
   3    -38.3087238  0.830107E-05  0.245E-02    1.84       1.0  T
   4    -38.3087335 -0.970472E-05  0.583E-03    1.84       3.1  T
   5    -38.3087336 -0.614720E-07  0.407E-03    1.84       4.4  T
   6    -38.3087337 -0.112692E-06  0.154E-03    1.84      11.6  T
   7    -38.3087337 -0.129697E-07  0.867E-04    1.84      20.7  T
   8    -38.3087337 -0.194838E-09  0.511E-04    1.84      35.1  T
     SCC iter.                  ...        0 min,  0.169 sec
     gradient                   ...        0 min,  0.004 sec
 * total energy  :   -37.6597905 Eh     change       -0.2667171E-03 Eh
   gradient norm :     0.0090722 Eh/α   predicted    -0.2061019E-03 ( -22.73%)
   displ. norm   :     0.1731329 α      lambda       -0.4217695E-03
   maximum displ.:     0.0684735 α      in ANC's #12, #4, #13, ...

........................................................................
.............................. CYCLE   19 ..............................
........................................................................
   1    -38.3116387 -0.383116E+02  0.115E-01    1.86       0.0  T
   2    -38.3116447 -0.601206E-05  0.659E-02    1.85       1.0  T
   3    -38.3116401  0.461151E-05  0.382E-02    1.86       1.0  T
   4    -38.3116472 -0.706232E-05  0.981E-03    1.85       1.8  T
   5    -38.3116473 -0.645135E-07  0.691E-03    1.85       2.6  T
   6    -38.3116473 -0.553311E-07  0.229E-03    1.85       7.8  T
   7    -38.3116474 -0.593271E-07  0.103E-03    1.85      17.4  T
   8    -38.3116474  0.232444E-08  0.712E-04    1.85      25.2  T
   9    -38.3116474 -0.372079E-08  0.280E-04    1.85      64.1  T
     SCC iter.                  ...        0 min,  0.183 sec
     gradient                   ...        0 min,  0.006 sec
 * total energy  :   -37.6600249 Eh     change       -0.2343788E-03 Eh
   gradient norm :     0.0078754 Eh/α   predicted    -0.2172126E-03 (  -7.32%)
   displ. norm   :     0.3444530 α      lambda       -0.3904416E-03
   maximum displ.:     0.2266522 α      in ANC's #12, #17, #67, ...

........................................................................
.............................. CYCLE   20 ..............................
........................................................................
   1    -38.3088404 -0.383088E+02  0.134E-01    1.84       0.0  T
   2    -38.3088510 -0.106774E-04  0.755E-02    1.85       1.0  T
   3    -38.3088342  0.168528E-04  0.566E-02    1.84       1.0  T
   4    -38.3088621 -0.279005E-04  0.153E-02    1.85       1.2  T
   5    -38.3088637 -0.158311E-05  0.983E-03    1.85       1.8  T
   6    -38.3088634  0.289203E-06  0.451E-03    1.85       4.0  T
   7    -38.3088637 -0.333593E-06  0.137E-03    1.85      13.1  T
   8    -38.3088637 -0.331850E-08  0.780E-04    1.85      23.0  T
   9    -38.3088637 -0.192413E-08  0.376E-04    1.85      47.8  T
     SCC iter.                  ...        0 min,  0.207 sec
     gradient                   ...        0 min,  0.005 sec
 * total energy  :   -37.6601354 Eh     change       -0.1104552E-03 Eh
   gradient norm :     0.0131201 Eh/α   predicted    -0.2183997E-03 (  97.73%)
   displ. norm   :     0.1033911 α      lambda       -0.3344100E-03
   maximum displ.:     0.0446293 α      in ANC's #6, #7, #17, ...
 * RMSD in coord.:     0.8106159 α      energy gain  -0.9928485E-01 Eh

generating ANC from model Hessian ...
Using Lindh-Hessian (1995)
 Shifting diagonal of input Hessian by    9.7689344704815287E-003
 Lowest  eigenvalues of input Hessian
    0.000000    0.000000    0.000000    0.000000    0.000000    0.000000
    0.010000    0.010231    0.010274    0.010435    0.010580    0.011078
    0.011255    0.011423    0.011600    0.011729    0.012400    0.013126
 Highest eigenvalues
    1.681311    1.733987    1.734269    1.740488    1.741332    1.875552


........................................................................
.............................. CYCLE   21 ..............................
........................................................................
   1    -38.3122131 -0.383122E+02  0.770E-02    1.85       0.0  T
   2    -38.3122177 -0.453352E-05  0.388E-02    1.84       1.0  T
   3    -38.3122148  0.287309E-05  0.318E-02    1.85       1.0  T
   4    -38.3122191 -0.426523E-05  0.950E-03    1.84       1.9  T
   5    -38.3122197 -0.646260E-06  0.558E-03    1.84       3.2  T
   6    -38.3122197  0.196586E-07  0.236E-03    1.84       7.6  T
   7    -38.3122198 -0.516800E-07  0.581E-04    1.84      30.9  T
   8    -38.3122198 -0.245645E-08  0.308E-04    1.84      58.4  T
     SCC iter.                  ...        0 min,  0.213 sec
     gradient                   ...        0 min,  0.006 sec
 * total energy  :   -37.6603184 Eh     change       -0.1829904E-03 Eh
   gradient norm :     0.0073010 Eh/α   predicted     0.0000000E+00 (-100.00%)
   displ. norm   :     0.1177338 α      lambda       -0.2457018E-03
   maximum displ.:     0.0752834 α      in ANC's #7, #8, #10, ...

........................................................................
.............................. CYCLE   22 ..............................
........................................................................
   1    -38.3126824 -0.383127E+02  0.495E-02    1.85       0.0  T
   2    -38.3126836 -0.117605E-05  0.298E-02    1.84       1.0  T
   3    -38.3126796  0.406073E-05  0.185E-02    1.84       1.0  T
   4    -38.3126847 -0.515682E-05  0.336E-03    1.84       5.3  T
   5    -38.3126849 -0.137728E-06  0.209E-03    1.84       8.6  T
   6    -38.3126849 -0.757326E-08  0.850E-04    1.84      21.1  T
   7    -38.3126849 -0.144372E-08  0.362E-04    1.84      49.7  T
     SCC iter.                  ...        0 min,  0.171 sec
     gradient                   ...        0 min,  0.018 sec
 * total energy  :   -37.6605131 Eh     change       -0.1947438E-03 Eh
   gradient norm :     0.0027065 Eh/α   predicted    -0.1245576E-03 ( -36.04%)
   displ. norm   :     0.2512495 α      lambda       -0.3118883E-03
   maximum displ.:     0.1573670 α      in ANC's #7, #8, #5, ...

........................................................................
.............................. CYCLE   23 ..............................
........................................................................
   1    -38.3121159 -0.383121E+02  0.857E-02    1.85       0.0  T
   2    -38.3121184 -0.248842E-05  0.511E-02    1.85       1.0  T
   3    -38.3121053  0.130536E-04  0.325E-02    1.85       1.0  T
   4    -38.3121217 -0.164370E-04  0.612E-03    1.85       2.9  T
   5    -38.3121220 -0.284977E-06  0.327E-03    1.85       5.5  T
   6    -38.3121220  0.265342E-07  0.160E-03    1.85      11.2  T
   7    -38.3121220 -0.456585E-07  0.506E-04    1.85      35.5  T
   8    -38.3121220 -0.140759E-09  0.318E-04    1.85      56.5  T
     SCC iter.                  ...        0 min,  0.200 sec
     gradient                   ...        0 min,  0.009 sec
 * total energy  :   -37.6607167 Eh     change       -0.2035858E-03 Eh
   gradient norm :     0.0051399 Eh/α   predicted    -0.1658063E-03 ( -18.56%)
   displ. norm   :     0.1554042 α      lambda       -0.1183853E-03
   maximum displ.:     0.0958214 α      in ANC's #7, #8, #5, ...

........................................................................
.............................. CYCLE   24 ..............................
........................................................................
   1    -38.3119384 -0.383119E+02  0.562E-02    1.85       0.0  T
   2    -38.3119391 -0.625698E-06  0.326E-02    1.85       1.0  T
   3    -38.3119321  0.693849E-05  0.229E-02    1.85       1.0  T
   4    -38.3119406 -0.846135E-05  0.315E-03    1.85       5.7  T
   5    -38.3119406 -0.269726E-07  0.226E-03    1.85       7.9  T
   6    -38.3119406 -0.217919E-07  0.600E-04    1.85      29.9  T
   7    -38.3119406 -0.174692E-08  0.265E-04    1.85      67.7  T
     SCC iter.                  ...        0 min,  0.177 sec
     gradient                   ...        0 min,  0.009 sec
 * total energy  :   -37.6607996 Eh     change       -0.8286111E-04 Eh
   gradient norm :     0.0056102 Eh/α   predicted    -0.6062791E-04 ( -26.83%)
   displ. norm   :     0.1892668 α      lambda       -0.1356211E-03
   maximum displ.:     0.1125594 α      in ANC's #7, #8, #6, ...

........................................................................
.............................. CYCLE   25 ..............................
........................................................................
   1    -38.3122658 -0.383123E+02  0.765E-02    1.86       0.0  T
   2    -38.3122671 -0.126848E-05  0.438E-02    1.86       1.0  T
   3    -38.3122547  0.124141E-04  0.347E-02    1.87       1.0  T
   4    -38.3122709 -0.162047E-04  0.579E-03    1.86       3.1  T
   5    -38.3122709 -0.445044E-07  0.387E-03    1.86       4.6  T
   6    -38.3122709  0.345717E-08  0.132E-03    1.86      13.6  T
   7    -38.3122710 -0.367610E-07  0.542E-04    1.86      33.1  T
   8    -38.3122710 -0.268990E-09  0.293E-04    1.86      61.4  T
     SCC iter.                  ...        0 min,  0.200 sec
     gradient                   ...        0 min,  0.006 sec
 * total energy  :   -37.6608816 Eh     change       -0.8199881E-04 Eh
   gradient norm :     0.0034258 Eh/α   predicted    -0.7023991E-04 ( -14.34%)
   displ. norm   :     0.0899085 α      lambda       -0.5701108E-04
   maximum displ.:     0.0455882 α      in ANC's #7, #6, #3, ...

........................................................................
.............................. CYCLE   26 ..............................
........................................................................
   1    -38.3134152 -0.383134E+02  0.463E-02    1.86       0.0  T
   2    -38.3134158 -0.682107E-06  0.248E-02    1.86       1.0  T
   3    -38.3134142  0.160906E-05  0.156E-02    1.86       1.1  T
   4    -38.3134162 -0.194252E-05  0.428E-03    1.86       4.2  T
   5    -38.3134163 -0.132221E-06  0.227E-03    1.86       7.9  T
   6    -38.3134163  0.768921E-09  0.699E-04    1.86      25.7  T
   7    -38.3134163 -0.628343E-08  0.381E-04    1.86      47.2  T
     SCC iter.                  ...        0 min,  0.185 sec
     gradient                   ...        0 min,  0.006 sec
 * total energy  :   -37.6609104 Eh     change       -0.2880284E-04 Eh
   gradient norm :     0.0013353 Eh/α   predicted    -0.2873718E-04 (  -0.23%)
   displ. norm   :     0.1129615 α      lambda       -0.1697455E-04
   maximum displ.:     0.0700592 α      in ANC's #7, #3, #6, ...

........................................................................
.............................. CYCLE   27 ..............................
........................................................................
   1    -38.3129667 -0.383130E+02  0.437E-02    1.86       0.0  T
   2    -38.3129675 -0.750013E-06  0.267E-02    1.86       1.0  T
   3    -38.3129648  0.266821E-05  0.178E-02    1.86       1.0  T
   4    -38.3129685 -0.362967E-05  0.505E-03    1.86       3.6  T
   5    -38.3129686 -0.971036E-07  0.313E-03    1.86       5.7  T
   6    -38.3129685  0.844818E-08  0.112E-03    1.86      16.1  T
   7    -38.3129686 -0.173778E-07  0.357E-04    1.86      50.4  T
   8    -38.3129686 -0.313868E-09  0.236E-04    1.86      76.0  T
     SCC iter.                  ...        0 min,  0.221 sec
     gradient                   ...        0 min,  0.011 sec
 * total energy  :   -37.6609191 Eh     change       -0.8718035E-05 Eh
   gradient norm :     0.0013619 Eh/α   predicted    -0.8538600E-05 (  -2.06%)
   displ. norm   :     0.0415251 α      lambda       -0.1148325E-04
   maximum displ.:     0.0202511 α      in ANC's #8, #3, #5, ...

........................................................................
.............................. CYCLE   28 ..............................
........................................................................
   1    -38.3136989 -0.383137E+02  0.267E-02    1.86       0.0  T
   2    -38.3136995 -0.557551E-06  0.132E-02    1.86       1.4  T
   3    -38.3136992  0.292455E-06  0.103E-02    1.86       1.7  T
   4    -38.3136997 -0.505686E-06  0.340E-03    1.86       5.3  T
   5    -38.3136997 -0.502887E-07  0.199E-03    1.86       9.0  T
   6    -38.3136997  0.659930E-08  0.856E-04    1.86      21.0  T
   7    -38.3136997 -0.941460E-08  0.292E-04    1.86      61.4  T
     SCC iter.                  ...        0 min,  0.208 sec
     gradient                   ...        0 min,  0.016 sec
 * total energy  :   -37.6609275 Eh     change       -0.8451193E-05 Eh
   gradient norm :     0.0010147 Eh/α   predicted    -0.5767421E-05 ( -31.76%)
   displ. norm   :     0.0273758 α      lambda       -0.4712513E-05
   maximum displ.:     0.0175982 α      in ANC's #3, #1, #5, ...

........................................................................
.............................. CYCLE   29 ..............................
........................................................................
   1    -38.3134737 -0.383135E+02  0.119E-02    1.86       0.0  T
   2    -38.3134738 -0.902095E-07  0.696E-03    1.86       2.6  T
   3    -38.3134735  0.287477E-06  0.544E-03    1.86       3.3  T
   4    -38.3134740 -0.436766E-06  0.119E-03    1.86      15.2  T
   5    -38.3134740 -0.384308E-08  0.648E-04    1.86      27.7  T
   6    -38.3134740 -0.196315E-08  0.333E-04    1.86      53.9  T
     SCC iter.                  ...        0 min,  0.165 sec
     gradient                   ...        0 min,  0.007 sec
 * total energy  :   -37.6609318 Eh     change       -0.4296048E-05 Eh
   gradient norm :     0.0006163 Eh/α   predicted    -0.2357587E-05 ( -45.12%)
   displ. norm   :     0.0302599 α      lambda       -0.2678173E-05
   maximum displ.:     0.0208063 α      in ANC's #3, #1, #9, ...

   *** GEOMETRY OPTIMIZATION CONVERGED AFTER 29 ITERATIONS ***

------------------------------------------------------------------------
 total energy gain   :        -0.1000813 Eh      -62.8020 kcal/mol
 total RMSD          :         0.8322399 a0        0.4404 Å
 total power (kW/mol):        -9.0608069 (step)  -30.5444 (real)
------------------------------------------------------------------------

 ANCopt (total)                0 d,  0 h,  0 min,  8.603 sec
 optimizer setup                ...        0 min,  0.000 sec (  0.003%)
 model hessian                  ...        0 min,  0.026 sec (  0.305%)
 ANC generation                 ...        0 min,  0.018 sec (  0.211%)
 coordinate transformation      ...        0 min,  0.000 sec (  0.005%)
 single point calculation       ...        0 min,  8.467 sec ( 98.421%)
 optimization log               ...        0 min,  0.003 sec (  0.031%)
 hessian update                 ...        0 min,  0.056 sec (  0.646%)
 rational function              ...        0 min,  0.029 sec (  0.338%)

================
 final structure:
================
31
 xtb: 6.5.1 (b24c23e)
Zr          -1.18186486851097       -0.07357462070342        0.40310253740089
C           -1.00601609962343        1.02073963785184       -1.50359358334079
C            0.00815841269128       -2.14599643776840        1.13187493166968
C            0.48500882083425       -1.79494863575505       -0.15188601004084
C           -0.58530641397296       -1.95490167402933       -1.07170918324338
C           -1.72695346131066       -2.37028654033686       -0.34462209405694
C           -1.36434423154599       -2.46871514201595        1.02392544651970
H            0.61964895100836       -2.27937490380052        2.01566226168543
H            1.52076570329030       -1.60771265361007       -0.41651591510545
H           -0.49800779288077       -1.92972014697177       -2.15077611204034
H           -2.63679961081742       -2.76117624795714       -0.78325210966288
H           -1.97087422877267       -2.91103037887305        1.80771771151602
C            0.40075230317649        0.70886395325488        2.15315165070132
C           -0.75920218671366        0.27587046874446        2.83913635110783
C           -1.83200976698901        1.11769325631277        2.46628862105373
C           -1.33252470127914        2.08314922320044        1.55398367230416
C            0.04905504921988        1.82262001672288        1.35512036688606
H            1.41065996047281        0.35354844956670        2.32291533831900
H           -0.78812205773677       -0.46347841198918        3.63108861052247
H           -2.80157281030487        1.14108354371295        2.95207629866077
H           -1.85110157300179        2.96992459234914        1.21027923711505
H            0.74139973093680        2.46439964770781        0.82173771622963
H            0.04410790784352        1.00309269300439       -1.84589525838644
H           -1.60485047677431        0.58241765129354       -2.31799904195053
H           -1.28863946733287        2.08272357174692       -1.44395358105606
C           -3.88151665495816       -0.16736805749129        0.03349073654874
C           -3.93602807505058        1.16364261732396       -0.02619997459968
H           -4.13148604090343        1.77299912217866        0.84783846488601
H           -3.91102335014664        1.68308124342823       -0.97721253041783
H           -4.08428450792119       -0.70164864802080        0.96515941414558
H           -3.89210881292776       -0.74638221907804       -0.88784966337292

 Bond Distances (Angstroems)
 ---------------------------
Zr1-C2=2.2054        Zr1-C3=2.4984        Zr1-C4=2.4596        Zr1-C5=2.4638        Zr1-C6=2.4761        Zr1-C7=2.4810        
Zr1-C13=2.4859       Zr1-C14=2.4970       Zr1-C15=2.4695       Zr1-C16=2.4492       Zr1-C17=2.4530       Zr1-C26=2.7265       
Zr1-C27=3.0497       C2-Zr1=2.2054        C2-H23=1.1046        C2-H24=1.1018        C2-H25=1.1006        C3-Zr1=2.4984        
C3-C4=1.4137         C3-C7=1.4141         C3-H8=1.0830         C4-Zr1=2.4596        C4-C3=1.4137         C4-C5=1.4203         
C4-H9=1.0853         C5-Zr1=2.4638        C5-C4=1.4203         C5-C6=1.4158         C5-H10=1.0829        C6-Zr1=2.4761        
C6-C5=1.4158         C6-C7=1.4192         C6-H11=1.0831        C7-Zr1=2.4810        C7-C3=1.4141         C7-C6=1.4192         
C7-H12=1.0853        H8-C3=1.0830         H9-C4=1.0853         H10-C5=1.0829        H11-C6=1.0831        H12-C7=1.0853        
C13-Zr1=2.4859       C13-C14=1.4155       C13-C17=1.4146       C13-H18=1.0840       C14-Zr1=2.4970       C14-C13=1.4155       
C14-C15=1.4137       C14-H19=1.0838       C15-Zr1=2.4695       C15-C14=1.4137       C15-C16=1.4191       C15-H20=1.0847       
C16-Zr1=2.4492       C16-C15=1.4191       C16-C17=1.4199       C16-H21=1.0832       C17-Zr1=2.4530       C17-C13=1.4146       
C17-C16=1.4199       C17-H22=1.0843       H18-C13=1.0840       H19-C14=1.0838       H20-C15=1.0847       H21-C16=1.0832       
H22-C17=1.0843       H23-C2=1.1046        H24-C2=1.1018        H25-C2=1.1006        C26-Zr1=2.7265       C26-C27=1.3335       
C26-H30=1.0930       C26-H31=1.0882       C27-Zr1=3.0497       C27-C26=1.3335       C27-H28=1.0833       C27-H29=1.0839       
H28-C27=1.0833       H29-C27=1.0839       H30-C26=1.0930       H31-C26=1.0882       
 C  H  Rav=1.0879 sigma=0.0071  Rmin=1.0829  Rmax=1.1046    17
 C  C  Rav=1.4090 sigma=0.0240  Rmin=1.3335  Rmax=1.4203    11
 Zr C  Rav=2.5165 sigma=0.1853  Rmin=2.2054  Rmax=3.0497    13

 selected bond angles (degree)
 --------------------
C3-Zr1-C2=128.74               C4-Zr1-C2= 95.63               C4-Zr1-C3= 33.12               C5-Zr1-C2= 80.91               
C5-Zr1-C3= 54.96               C5-Zr1-C4= 33.53               C6-Zr1-C2=102.52               C6-Zr1-C3= 54.80               
C6-Zr1-C4= 55.38               C6-Zr1-C5= 33.31               C7-Zr1-C2=134.52               C7-Zr1-C3= 32.99               
C7-Zr1-C4= 55.30               C7-Zr1-C5= 55.28               C7-Zr1-C6= 33.27               C13-Zr1-C2=113.68              
C13-Zr1-C3= 75.67              C13-Zr1-C4= 87.00              C13-Zr1-C5=120.50              C13-Zr1-C6=130.14              
C13-Zr1-C7=100.05              C14-Zr1-C2=139.51              C14-Zr1-C3= 75.58              C14-Zr1-C4=101.73              
C14-Zr1-C5=130.53              C14-Zr1-C6=117.50              C14-Zr1-C7= 84.46              C14-Zr1-C13= 33.01             
C15-Zr1-C2=120.26              C15-Zr1-C3=106.37              C15-Zr1-C4=134.79              C15-Zr1-C5=158.78              
C15-Zr1-C6=129.92              C15-Zr1-C7=103.73              C15-Zr1-C13= 55.08             C15-Zr1-C14= 33.07             
C16-Zr1-C2= 88.52              C16-Zr1-C3=128.51              C16-Zr1-C4=139.82              C16-Zr1-C5=165.60              
C16-Zr1-C6=160.93              C16-Zr1-C7=136.72              C16-Zr1-C13= 55.33             C16-Zr1-C14= 55.16             
C16-Zr1-C15= 33.53             C17-Zr1-C2= 84.95              C17-Zr1-C3=106.80              C17-Zr1-C4=106.77              
C17-Zr1-C5=134.51              C17-Zr1-C6=160.85              C17-Zr1-C7=133.32              C17-Zr1-C13= 33.28             
C17-Zr1-C14= 55.13             C17-Zr1-C15= 55.60             C17-Zr1-C16= 33.67             C26-Zr1-C2= 88.79              
C26-Zr1-C3=118.86              C26-Zr1-C4=128.05              C26-Zr1-C5= 97.60              C26-Zr1-C6= 73.09              
C26-Zr1-C7= 85.86              C26-Zr1-C13=137.45             C26-Zr1-C14=107.74             C26-Zr1-C15= 82.48             
C26-Zr1-C16= 91.90             C26-Zr1-C17=125.18             C27-Zr1-C2= 75.46              C27-Zr1-C3=143.87              
C27-Zr1-C4=149.79              C27-Zr1-C5=116.37              C27-Zr1-C6= 97.76              C27-Zr1-C7=111.13              
C27-Zr1-C13=123.12             C27-Zr1-C14=103.50             C27-Zr1-C15= 71.59             C27-Zr1-C16= 69.72             
C27-Zr1-C17=101.20             C27-Zr1-C26= 25.93             H23-C2-Zr1=109.62              H24-C2-Zr1=113.47              
H24-C2-H23=106.34              H25-C2-Zr1=114.30              H25-C2-H23=106.04              H25-C2-H24=106.52              
C4-C3-Zr1= 71.93               C7-C3-Zr1= 72.83               C7-C3-C4=108.34                H8-C3-Zr1=127.53               
H8-C3-C4=125.53                H8-C3-C7=125.61                C3-C4-Zr1= 74.95               C5-C4-Zr1= 73.40               
C5-C4-C3=107.81                H9-C4-Zr1=125.52               H9-C4-C3=125.88                H9-C4-C5=125.50                
C4-C5-Zr1= 73.07               C6-C5-Zr1= 73.82               C6-C5-C4=107.95                H10-C5-Zr1=126.74              
H10-C5-C4=125.59               H10-C5-C6=125.70               C5-C6-Zr1= 72.87               C7-C6-Zr1= 73.55               
C7-C6-C5=108.03                H11-C6-Zr1=129.94              H11-C6-C5=125.12               H11-C6-C7=125.46               
C3-C7-Zr1= 74.18               C6-C7-Zr1= 73.17               C6-C7-C3=107.81                H12-C7-Zr1=127.97              
H12-C7-C3=125.47               H12-C7-C6=125.58               

 selected dihedral angles (degree)
 ---------------------------------
H23-C2-Zr1-C3=322.87          H23-C2-Zr1-C4=323.99          H23-C2-Zr1-C5=293.77          H23-C2-Zr1-C6=268.25          
H23-C2-Zr1-C7=278.86          H23-C2-Zr1-C13= 53.18         H23-C2-Zr1-C14= 79.48         H23-C2-Zr1-C15=115.30         
H23-C2-Zr1-C16=103.94         H23-C2-Zr1-C17= 70.39         H23-C2-Zr1-C26=195.87         H23-C2-Zr1-C27=173.36         
H24-C2-Zr1-C3= 81.58          H24-C2-Zr1-C4= 82.70          H24-C2-Zr1-C5= 52.47          H24-C2-Zr1-C6= 26.96          
H24-C2-Zr1-C7= 37.57          H24-C2-Zr1-C13=171.89         H24-C2-Zr1-C14=198.18         H24-C2-Zr1-C15=234.00         
H24-C2-Zr1-C16=222.65         H24-C2-Zr1-C17=189.10         H24-C2-Zr1-C26=314.57         H24-C2-Zr1-C27=292.06         
H25-C2-Zr1-C3=204.00          H25-C2-Zr1-C4=205.13          H25-C2-Zr1-C5=174.90          H25-C2-Zr1-C6=149.38          
H25-C2-Zr1-C7=159.99          H25-C2-Zr1-C13=294.31         H25-C2-Zr1-C14=320.61         H25-C2-Zr1-C15=356.43         
H25-C2-Zr1-C16=345.07         H25-C2-Zr1-C17=311.52         H25-C2-Zr1-C26= 77.00         H25-C2-Zr1-C27= 54.49         
C4-C3-Zr1-C2=  2.04           C4-C3-Zr1-C5= 37.96           C4-C3-Zr1-C6= 78.98           C4-C3-Zr1-C7=116.57           
C4-C3-Zr1-C13=252.98          C4-C3-Zr1-C14=218.88          C4-C3-Zr1-C15=206.67          C4-C3-Zr1-C16=235.45          
C4-C3-Zr1-C17=264.90          C4-C3-Zr1-C26=116.32          C4-C3-Zr1-C27=125.64          C7-C3-Zr1-C2=245.47           
C7-C3-Zr1-C4=243.43           C7-C3-Zr1-C5=281.39           C7-C3-Zr1-C6=322.41           C7-C3-Zr1-C13=136.41          
C7-C3-Zr1-C14=102.30          C7-C3-Zr1-C15= 90.10          C7-C3-Zr1-C16=118.87          C7-C3-Zr1-C17=148.33          
C7-C3-Zr1-C26=359.74          C7-C3-Zr1-C27=  9.07          H8-C3-Zr1-C2=123.39           H8-C3-Zr1-C4=121.35           
H8-C3-Zr1-C5=159.31           H8-C3-Zr1-C6=200.33           H8-C3-Zr1-C7=237.92           H8-C3-Zr1-C13= 14.33          
H8-C3-Zr1-C14=340.23          H8-C3-Zr1-C15=328.02          H8-C3-Zr1-C16=356.79          H8-C3-Zr1-C17= 26.25          
H8-C3-Zr1-C26=237.67          H8-C3-Zr1-C27=246.99          C3-C4-Zr1-C2=181.60           C3-C4-Zr1-C5=245.75           
C3-C4-Zr1-C6=282.94           C3-C4-Zr1-C7=323.67           C3-C4-Zr1-C13= 68.08          C3-C4-Zr1-C14= 38.38          
C3-C4-Zr1-C15= 37.36          C3-C4-Zr1-C16= 87.21          C3-C4-Zr1-C17= 95.19          C3-C4-Zr1-C26=274.48          
C3-C4-Zr1-C27=252.22          C5-C4-Zr1-C2=295.85           C5-C4-Zr1-C3=114.25           C5-C4-Zr1-C6= 37.19           
C5-C4-Zr1-C7= 77.93           C5-C4-Zr1-C13=182.34          C5-C4-Zr1-C14=152.63          C5-C4-Zr1-C15=151.62          
C5-C4-Zr1-C16=201.46          C5-C4-Zr1-C17=209.45          C5-C4-Zr1-C26= 28.73          C5-C4-Zr1-C27=  6.47          
H9-C4-Zr1-C2= 57.97           H9-C4-Zr1-C3=236.37           H9-C4-Zr1-C5=122.12           H9-C4-Zr1-C6=159.31           
H9-C4-Zr1-C7=200.04           H9-C4-Zr1-C13=304.46          H9-C4-Zr1-C14=274.75          H9-C4-Zr1-C15=273.74          
H9-C4-Zr1-C16=323.58          H9-C4-Zr1-C17=331.57          H9-C4-Zr1-C26=150.85          H9-C4-Zr1-C27=128.59          
Zr1-C4-C3-C7= 64.19           Zr1-C4-C3-H8=236.33           C5-C4-C3-Zr1=293.41           C5-C4-C3-C7=357.59            
C5-C4-C3-H8=169.74            H9-C4-C3-Zr1=123.24           H9-C4-C3-C7=187.42            H9-C4-C3-H8=359.57            
C4-C5-Zr1-C2=114.91           C4-C5-Zr1-C3=322.52           C4-C5-Zr1-C6=244.93           C4-C5-Zr1-C7=282.02           
C4-C5-Zr1-C13=  2.71          C4-C5-Zr1-C14=323.69          C4-C5-Zr1-C15=291.26          C4-C5-Zr1-C16= 71.61          
C4-C5-Zr1-C17= 41.31          C4-C5-Zr1-C26=202.45          C4-C5-Zr1-C27=183.63          C6-C5-Zr1-C2=229.98           
C6-C5-Zr1-C3= 77.59           C6-C5-Zr1-C4=115.07           C6-C5-Zr1-C7= 37.09           C6-C5-Zr1-C13=117.77          
C6-C5-Zr1-C14= 78.75          C6-C5-Zr1-C15= 46.32          C6-C5-Zr1-C16=186.67          C6-C5-Zr1-C17=156.38          
C6-C5-Zr1-C26=317.52          C6-C5-Zr1-C27=298.69          H10-C5-Zr1-C2=352.78          H10-C5-Zr1-C3=200.39          
H10-C5-Zr1-C4=237.86          H10-C5-Zr1-C6=122.80          H10-C5-Zr1-C7=159.88          H10-C5-Zr1-C13=240.57         
H10-C5-Zr1-C14=201.55         H10-C5-Zr1-C15=169.12         H10-C5-Zr1-C16=309.47         H10-C5-Zr1-C17=279.17         
H10-C5-Zr1-C26= 80.31         H10-C5-Zr1-C27= 61.49         Zr1-C5-C4-C3= 67.64           Zr1-C5-C4-H9=237.85           
C6-C5-C4-Zr1=293.87           C6-C5-C4-C3=  1.51            C6-C5-C4-H9=171.73            H10-C5-C4-Zr1=123.45          
H10-C5-C4-C3=191.08           H10-C5-C4-H9=  1.30           C5-C6-Zr1-C2= 50.77           C5-C6-Zr1-C3=281.88           
C5-C6-Zr1-C4=322.55           C5-C6-Zr1-C7=244.61           C5-C6-Zr1-C13=274.26          C5-C6-Zr1-C14=237.18          
C5-C6-Zr1-C15=199.96          C5-C6-Zr1-C16=174.92          C5-C6-Zr1-C17=299.40          C5-C6-Zr1-C26=135.60          
C5-C6-Zr1-C27=127.52          C7-C6-Zr1-C2=166.16           C7-C6-Zr1-C3= 37.26           C7-C6-Zr1-C4= 77.94           
C7-C6-Zr1-C5=115.39           C7-C6-Zr1-C13= 29.65          C7-C6-Zr1-C14=352.57          C7-C6-Zr1-C15=315.35          
C7-C6-Zr1-C16=290.31          C7-C6-Zr1-C17= 54.78          C7-C6-Zr1-C26=250.98          C7-C6-Zr1-C27=242.90          
H11-C6-Zr1-C2=288.96          H11-C6-Zr1-C3=160.07          H11-C6-Zr1-C4=200.74          H11-C6-Zr1-C5=238.19          
H11-C6-Zr1-C7=122.81          H11-C6-Zr1-C13=152.45         H11-C6-Zr1-C14=115.37         H11-C6-Zr1-C15= 78.15         
H11-C6-Zr1-C16= 53.12         H11-C6-Zr1-C17=177.59         H11-C6-Zr1-C26= 13.79         H11-C6-Zr1-C27=  5.71         
Zr1-C6-C5-C4= 65.63           Zr1-C6-C5-H10=236.04          C7-C6-C5-Zr1=294.32           C7-C6-C5-C4=359.95            
C7-C6-C5-H10=170.37           H11-C6-C5-Zr1=127.20          H11-C6-C5-C4=192.82           H11-C6-C5-H10=  3.24          
C3-C7-Zr1-C2= 95.57           C3-C7-Zr1-C4= 36.47           C3-C7-Zr1-C5= 77.56           C3-C7-Zr1-C6=114.69           
C3-C7-Zr1-C13=317.27          C3-C7-Zr1-C14=288.07          C3-C7-Zr1-C15=260.99          C3-C7-Zr1-C16=268.15          
C3-C7-Zr1-C17=316.30          C3-C7-Zr1-C26=179.77          C3-C7-Zr1-C27=185.72          C6-C7-Zr1-C2=340.87           
C6-C7-Zr1-C3=245.31           C6-C7-Zr1-C4=281.78           C6-C7-Zr1-C5=322.87           C6-C7-Zr1-C13=202.58          
C6-C7-Zr1-C14=173.38          C6-C7-Zr1-C15=146.30          C6-C7-Zr1-C16=153.46          C6-C7-Zr1-C17=201.61          
C6-C7-Zr1-C26= 65.08          C6-C7-Zr1-C27= 71.03          H12-C7-Zr1-C2=218.52          H12-C7-Zr1-C3=122.96          
H12-C7-Zr1-C4=159.43          H12-C7-Zr1-C5=200.52          H12-C7-Zr1-C6=237.65          H12-C7-Zr1-C13= 80.23         
H12-C7-Zr1-C14= 51.03         H12-C7-Zr1-C15= 23.95         H12-C7-Zr1-C16= 31.10         H12-C7-Zr1-C17= 79.26         
H12-C7-Zr1-C26=302.73         H12-C7-Zr1-C27=308.67         Zr1-C7-C3-C4=296.39           Zr1-C7-C3-H8=124.26           
C6-C7-C3-Zr1= 65.98           C6-C7-C3-C4=  2.38            C6-C7-C3-H8=190.24            H12-C7-C3-Zr1=234.31          
H12-C7-C3-C4=170.71           H12-C7-C3-H8=358.57           Zr1-C7-C6-C5= 65.22           Zr1-C7-C6-H11=232.30          
C3-C7-C6-Zr1=293.34           C3-C7-C6-C5=358.57            C3-C7-C6-H11=165.64           H12-C7-C6-Zr1=125.03          
H12-C7-C6-C5=190.25           H12-C7-C6-H11=357.33          

 CMA Distance (Angstroems)
 ---------------------------
R(CMA):  3.1917
           -------------------------------------------------
          |                Final Singlepoint                |
           -------------------------------------------------

          ...................................................
          :                      SETUP                      :
          :.................................................:
          :  # basis functions                  79          :
          :  # atomic orbitals                  78          :
          :  # shells                           46          :
          :  # electrons                        72          :
          :  max. iterations                   250          :
          :  Hamiltonian                  GFN2-xTB          :
          :  restarted?                      false          :
          :  GBSA solvation                  false          :
          :  PC potential                    false          :
          :  electronic temp.          300.0000000     K    :
          :  accuracy                    1.0000000          :
          :  -> integral cutoff          0.2500000E+02      :
          :  -> integral neglect         0.1000000E-07      :
          :  -> SCF convergence          0.1000000E-05 Eh   :
          :  -> wf. convergence          0.1000000E-03 e    :
          :  Broyden damping             0.4000000          :
          ...................................................

 iter      E             dE          RMSdq      gap      omega  full diag
   1    -38.3134740 -0.383135E+02  0.104E-04    1.86       0.0  T
   2    -38.3134740 -0.491909E-10  0.609E-05    1.86     294.8  T
   3    -38.3134740 -0.339497E-10  0.407E-05    1.86     441.6  T

   *** convergence criteria satisfied after 3 iterations ***

         #    Occupation            Energy/Eh            Energy/eV
      -------------------------------------------------------------
         1        2.0000           -0.8630877             -23.4858
       ...           ...                  ...                  ...
        30        2.0000           -0.5767440             -15.6940
        31        2.0000           -0.5749081             -15.6440
        32        2.0000           -0.5220851             -14.2067
        33        2.0000           -0.5174584             -14.0808
        34        2.0000           -0.5076008             -13.8125
        35        2.0000           -0.5015533             -13.6480
        36        2.0000           -0.4954358             -13.4815 (HOMO)
        37                         -0.4271054             -11.6221 (LUMO)
        38                         -0.4177843             -11.3685
        39                         -0.4094207             -11.1409
        40                         -0.4037145             -10.9856
        41                         -0.3935834             -10.7099
       ...                                ...                  ...
        78                          2.4131302              65.6646
      -------------------------------------------------------------
                  HL-Gap            0.0683303 Eh            1.8594 eV
             Fermi-level           -0.4612706 Eh          -12.5518 eV

 SCC (total)                   0 d,  0 h,  0 min,  0.097 sec
 SCC setup                      ...        0 min,  0.005 sec (  5.116%)
 Dispersion                     ...        0 min,  0.001 sec (  0.821%)
 classical contributions        ...        0 min,  0.002 sec (  2.084%)
 integral evaluation            ...        0 min,  0.001 sec (  1.287%)
 iterations                     ...        0 min,  0.080 sec ( 83.337%)
 molecular gradient             ...        0 min,  0.007 sec (  7.192%)
 printout                       ...        0 min,  0.000 sec (  0.140%)

         :::::::::::::::::::::::::::::::::::::::::::::::::::::
         ::                     SUMMARY                     ::
         :::::::::::::::::::::::::::::::::::::::::::::::::::::
         :: total energy             -37.660931829324 Eh    ::
         :: gradient norm              0.000616431378 Eh/a0 ::
         :: HOMO-LUMO gap              1.859363219032 eV    ::
         ::.................................................::
         :: SCC energy               -38.313473968858 Eh    ::
         :: -> isotropic ES            0.090966644586 Eh    ::
         :: -> anisotropic ES         -0.013158119935 Eh    ::
         :: -> anisotropic XC          0.022676551434 Eh    ::
         :: -> dispersion             -0.027950311426 Eh    ::
         :: repulsion energy           0.651815490543 Eh    ::
         :: add. restraining           0.000000000000 Eh    ::
         :: total charge               1.000000000000 e     ::
         :::::::::::::::::::::::::::::::::::::::::::::::::::::

           -------------------------------------------------
          |                Property Printout                |
           -------------------------------------------------

    * Orbital Energies and Occupations

         #    Occupation            Energy/Eh            Energy/eV
      -------------------------------------------------------------
         1        2.0000           -0.8630877             -23.4858
       ...           ...                  ...                  ...
        24        2.0000           -0.5917375             -16.1020
        25        2.0000           -0.5907738             -16.0758
        26        2.0000           -0.5879341             -15.9985
        27        2.0000           -0.5872747             -15.9806
        28        2.0000           -0.5861159             -15.9490
        29        2.0000           -0.5852590             -15.9257
        30        2.0000           -0.5767440             -15.6940
        31        2.0000           -0.5749081             -15.6440
        32        2.0000           -0.5220851             -14.2067
        33        2.0000           -0.5174584             -14.0808
        34        2.0000           -0.5076008             -13.8125
        35        2.0000           -0.5015533             -13.6480
        36        2.0000           -0.4954358             -13.4815 (HOMO)
        37                         -0.4271054             -11.6221 (LUMO)
        38                         -0.4177843             -11.3685
        39                         -0.4094207             -11.1409
        40                         -0.4037145             -10.9856
        41                         -0.3935834             -10.7099
        42                         -0.3780857             -10.2882
        43                         -0.3052157              -8.3053
        44                         -0.3046434              -8.2898
        45                         -0.3012518              -8.1975
        46                         -0.3001978              -8.1688
        47                         -0.0592814              -1.6131
       ...                                ...                  ...
        78                          2.4131302              65.6646
      -------------------------------------------------------------
                  HL-Gap            0.0683303 Eh            1.8594 eV
             Fermi-level           -0.4612706 Eh          -12.5518 eV

     #   Z          covCN         q      C6AA      α(0)
     1  40 Zr       9.042     0.947   138.915    17.710
     2   6 C        3.574    -0.338    28.673     7.784
     3   6 C        3.743    -0.081    22.114     6.709
     4   6 C        3.756    -0.087    22.209     6.719
     5   6 C        3.756    -0.081    22.100     6.703
     6   6 C        3.752    -0.097    22.411     6.751
     7   6 C        3.747    -0.093    22.346     6.743
     8   1 H        0.925     0.083     1.953     2.185
     9   1 H        0.925     0.082     1.955     2.187
    10   1 H        0.925     0.089     1.890     2.150
    11   1 H        0.925     0.072     2.064     2.247
    12   1 H        0.925     0.073     2.048     2.238
    13   6 C        3.747    -0.085    22.184     6.718
    14   6 C        3.743    -0.085    22.191     6.720
    15   6 C        3.752    -0.098    22.423     6.753
    16   6 C        3.763    -0.094    22.331     6.736
    17   6 C        3.759    -0.082    22.109     6.703
    18   1 H        0.925     0.081     1.972     2.196
    19   1 H        0.925     0.079     1.985     2.203
    20   1 H        0.925     0.070     2.089     2.260
    21   1 H        0.925     0.081     1.964     2.192
    22   1 H        0.925     0.089     1.889     2.149
    23   1 H        0.931     0.059     2.205     2.322
    24   1 H        0.927     0.056     2.245     2.343
    25   1 H        0.927     0.058     2.217     2.328
    26   6 C        3.383    -0.095    26.588     8.022
    27   6 C        3.020    -0.067    29.643     8.931
    28   1 H        0.925     0.112     1.678     2.026
    29   1 H        0.925     0.122     1.598     1.977
    30   1 H        0.924     0.107     1.719     2.050
    31   1 H        0.925     0.119     1.619     1.990

 Mol. C6AA /au·bohr⁶  :       9696.058504
 Mol. C8AA /au·bohr⁸  :     328338.547855
 Mol. α(0) /au        :        146.745251


Wiberg/Mayer (AO) data.
largest (>0.10) Wiberg bond orders for each atom

 ---------------------------------------------------------------------------
     #   Z sym  total        # sym  WBO       # sym  WBO       # sym  WBO
 ---------------------------------------------------------------------------
     1  40 Zr   4.254 --     2 C    0.872    17 C    0.260     4 C    0.257
                             5 C    0.253    16 C    0.252     6 C    0.239
                            15 C    0.233     7 C    0.231    13 C    0.231
                            14 C    0.218     3 C    0.214    26 C    0.193
                            27 C    0.123
     2   6 C    3.806 --    25 H    0.924    24 H    0.922    23 H    0.911
                             1 Zr   0.872
     3   6 C    3.981 --     7 C    1.316     4 C    1.314     8 H    0.928
                             1 Zr   0.214
     4   6 C    3.978 --     3 C    1.314     5 C    1.281     9 H    0.920
                             1 Zr   0.257
     5   6 C    3.982 --     6 C    1.300     4 C    1.281    10 H    0.926
                             1 Zr   0.253
     6   6 C    3.978 --     5 C    1.300     7 C    1.289    11 H    0.928
                             1 Zr   0.239
     7   6 C    3.978 --     3 C    1.316     6 C    1.289    12 H    0.924
                             1 Zr   0.231
     8   1 H    0.991 --     3 C    0.928
     9   1 H    0.991 --     4 C    0.920
    10   1 H    0.990 --     5 C    0.926
    11   1 H    0.992 --     6 C    0.928
    12   1 H    0.993 --     7 C    0.924
    13   6 C    3.981 --    14 C    1.310    17 C    1.305    18 H    0.925
                             1 Zr   0.231
    14   6 C    3.981 --    15 C    1.313    13 C    1.310    19 H    0.927
                             1 Zr   0.218
    15   6 C    3.977 --    14 C    1.313    16 C    1.293    20 H    0.925
                             1 Zr   0.233
    16   6 C    3.978 --    15 C    1.293    17 C    1.285    21 H    0.925
                             1 Zr   0.252
    17   6 C    3.983 --    13 C    1.305    16 C    1.285    22 H    0.921
                             1 Zr   0.260
    18   1 H    0.991 --    13 C    0.925
    19   1 H    0.991 --    14 C    0.927
    20   1 H    0.993 --    15 C    0.925
    21   1 H    0.990 --    16 C    0.925
    22   1 H    0.989 --    17 C    0.921
    23   1 H    0.996 --     2 C    0.911
    24   1 H    0.996 --     2 C    0.922
    25   1 H    0.996 --     2 C    0.924
    26   6 C    3.992 --    27 C    1.897    31 H    0.914    30 H    0.908
                             1 Zr   0.193
    27   6 C    3.971 --    26 C    1.897    28 H    0.941    29 H    0.939
                             1 Zr   0.123
    28   1 H    0.986 --    27 C    0.941
    29   1 H    0.984 --    27 C    0.939
    30   1 H    0.988 --    26 C    0.908
    31   1 H    0.984 --    26 C    0.914
 ---------------------------------------------------------------------------

Topologies differ in total number of bonds
Writing topology from bond orders to xtbtopo.mol

molecular dipole:
                 x           y           z       tot (Debye)
 q only:       -3.691       0.028       0.826
   full:       -3.667      -0.071       0.896       9.596
molecular quadrupole (traceless):
                xx          xy          yy          xz          yz          zz
 q only:       20.838      -2.714     -10.581      -2.423      -1.337     -10.256
  q+dip:       20.204      -1.410     -12.958      -4.115      -5.758      -7.246
   full:       21.790      -1.010     -12.888      -4.183      -3.740      -8.901

           -------------------------------------------------
          |                Geometry Summary                 |
           -------------------------------------------------

      molecular mass/u    :      264.4982010
   center of mass at/Å    :       -1.2063339      -0.1459313       0.5904700
  moments of inertia/u·Å² :        0.6179904E+03   0.7538972E+03   0.9428106E+03
rotational constants/cm⁻¹ :        0.2727815E-01   0.2236065E-01   0.1788019E-01

 * 39 selected distances

     #   Z          #   Z                                           value/Å
     1  40 Zr       2   6 C                                       2.2054336
     1  40 Zr       3   6 C                                       2.4984391 (max)
     1  40 Zr       4   6 C                                       2.4595955
     3   6 C        4   6 C                                       1.4137409
     1  40 Zr       5   6 C                                       2.4638069
     4   6 C        5   6 C                                       1.4202939
     1  40 Zr       6   6 C                                       2.4761059
     5   6 C        6   6 C                                       1.4158243
     1  40 Zr       7   6 C                                       2.4810117
     3   6 C        7   6 C                                       1.4140595
     6   6 C        7   6 C                                       1.4191886
     3   6 C        8   1 H                                       1.0829546
     4   6 C        9   1 H                                       1.0853013
     5   6 C       10   1 H                                       1.0828854 (min)
     6   6 C       11   1 H                                       1.0830565
     7   6 C       12   1 H                                       1.0852889
     1  40 Zr      13   6 C                                       2.4858721
     1  40 Zr      14   6 C                                       2.4970017
    13   6 C       14   6 C                                       1.4154692
     1  40 Zr      15   6 C                                       2.4695233
    14   6 C       15   6 C                                       1.4137176
     1  40 Zr      16   6 C                                       2.4492212
    15   6 C       16   6 C                                       1.4191164
     1  40 Zr      17   6 C                                       2.4529690
    13   6 C       17   6 C                                       1.4145663
    16   6 C       17   6 C                                       1.4199243
    13   6 C       18   1 H                                       1.0839661
    14   6 C       19   1 H                                       1.0838181
    15   6 C       20   1 H                                       1.0847071
    16   6 C       21   1 H                                       1.0832477
    17   6 C       22   1 H                                       1.0843060
     2   6 C       23   1 H                                       1.1046459
     2   6 C       24   1 H                                       1.1018100
     2   6 C       25   1 H                                       1.1005649
    26   6 C       27   6 C                                       1.3334632
    27   6 C       28   1 H                                       1.0832648
    27   6 C       29   1 H                                       1.0839127
    26   6 C       30   1 H                                       1.0929672
    26   6 C       31   1 H                                       1.0882270

 * 3 distinct bonds (by element types)

   Z      Z             #   av. dist./Å        max./Å        min./Å
   1 H    6 C          17     1.0879367     1.1046459     1.0828854
   6 C    6 C          11     1.4090331     1.4202939     1.3334632
   6 C   40 Zr         11     2.4489982     2.4984391     2.2054336


optimized geometry written to: xtbopt.xyz


           -------------------------------------------------
          | TOTAL ENERGY              -37.660931829324 Eh   |
          | GRADIENT NORM               0.000616431378 Eh/α |
          | HOMO-LUMO GAP               1.859363219032 eV   |
           -------------------------------------------------

------------------------------------------------------------------------
 * finished run on 2026/08/18 at 18:28:53.232     
------------------------------------------------------------------------
 total:
 * wall-time:     0 d,  0 h,  0 min,  9.933 sec
 *  cpu-time:     0 d,  0 h,  1 min, 10.038 sec
 * ratio c/w:     7.051 speedup
 SCF:
 * wall-time:     0 d,  0 h,  0 min,  1.109 sec
 *  cpu-time:     0 d,  0 h,  0 min,  4.832 sec
 * ratio c/w:     4.356 speedup
 ANC optimizer:
 * wall-time:     0 d,  0 h,  0 min,  8.705 sec
 *  cpu-time:     0 d,  0 h,  1 min,  4.700 sec
 * ratio c/w:     7.433 speedup

