31
 energy: -37.660931829324 gnorm: 0.000616431378 xtb: 6.5.1 (b24c23e)
Zr          -1.18186486851097       -0.07357462070342        0.40310253740089
C           -1.00601609962343        1.02073963785184       -1.50359358334079
C            0.00815841269128       -2.14599643776840        1.13187493166968
C            0.48500882083425       -1.79494863575505       -0.15188601004084
C           -0.58530641397296       -1.95490167402933       -1.07170918324338
C           -1.72695346131066       -2.37028654033686       -0.34462209405694
C           -1.36434423154599       -2.46871514201595        1.02392544651970
H            0.61964895100836       -2.27937490380052        2.01566226168543
H            1.52076570329030       -1.60771265361007       -0.41651591510545
H           -0.49800779288077       -1.92972014697177       -2.15077611204034
H           -2.63679961081742       -2.76117624795714       -0.78325210966288
H           -1.97087422877267       -2.91103037887305        1.80771771151602
C            0.40075230317649        0.70886395325488        2.15315165070132
C           -0.75920218671366        0.27587046874446        2.83913635110783
C           -1.83200976698901        1.11769325631277        2.46628862105373
C           -1.33252470127914        2.08314922320044        1.55398367230416
C            0.04905504921988        1.82262001672288        1.35512036688606
H            1.41065996047281        0.35354844956670        2.32291533831900
H           -0.78812205773677       -0.46347841198918        3.63108861052247
H           -2.80157281030487        1.14108354371295        2.95207629866077
H           -1.85110157300179        2.96992459234914        1.21027923711505
H            0.74139973093680        2.46439964770781        0.82173771622963
H            0.04410790784352        1.00309269300439       -1.84589525838644
H           -1.60485047677431        0.58241765129354       -2.31799904195053
H           -1.28863946733287        2.08272357174692       -1.44395358105606
C           -3.88151665495816       -0.16736805749129        0.03349073654874
C           -3.93602807505058        1.16364261732396       -0.02619997459968
H           -4.13148604090343        1.77299912217866        0.84783846488601
H           -3.91102335014664        1.68308124342823       -0.97721253041783
H           -4.08428450792119       -0.70164864802080        0.96515941414558
H           -3.89210881292776       -0.74638221907804       -0.88784966337292
