31
 energy: -37.631732216316 gnorm: 0.000301782348 xtb: 6.5.1 (b24c23e)
Zr          -1.25601700557542       -0.12852548841983        0.59645190439466
C           -1.90054892210329        1.14213190853736       -1.56720591772228
C           -0.23059072402060       -2.27679553780408        1.10323917226941
C            0.58521613604901       -1.66566514063820        0.11448782641593
C           -0.17258687234505       -1.56805801404924       -1.07798305724933
C           -1.45560117506902       -2.11083058404139       -0.82890753537873
C           -1.49560248244033       -2.54510615256211        0.52323175706956
H            0.10409007130419       -2.62864298812776        2.07349916729789
H            1.64883130533748       -1.47052050941323        0.20142585818526
H            0.21699048607461       -1.28692895214775       -2.05039050125835
H           -2.21843426304936       -2.29939900145680       -1.57481517171325
H           -2.27914162710375       -3.14573881996384        0.97290919945738
C            0.36492514604358        0.49754110361398        2.32415773867155
C           -0.91282875719610        0.44367696914930        2.93692444244669
C           -1.70074249177613        1.48819107338726        2.38622836987694
C           -0.92273129995413        2.15985743968559        1.41275739004694
C            0.35187516178042        1.53791728536153        1.36271954840406
H            1.23992621373677       -0.05901087149904        2.63929707753056
H           -1.17391290586660       -0.15614991295410        3.80363964544866
H           -2.65906396587558        1.82172176755898        2.76736507320201
H           -1.19345388292870        3.08394413599958        0.91468662383534
H            1.21797438042845        1.91237701088814        0.82531493799425
H           -0.79919217004011        1.21624675963169       -1.38529375935000
H           -2.09668995304939        0.47336014113321       -2.40330678939107
H           -2.27498123830024        2.13293053485372       -1.79594526444728
C           -3.73489114597876       -0.36171197527750        0.60233250579047
C           -3.46557956220087        0.71655025379555       -0.23248466605649
H           -3.49084843507906        1.70375405111825        0.23948076283076
H           -4.06364907971669        0.71974625263095       -1.14443656608172
H           -3.82020198337655       -0.22563634150389        1.68491545489142
H           -4.19761930773792       -1.25169142749558        0.18878908260661
