      -----------------------------------------------------------      
     |                   =====================                   |     
     |                           x T B                           |     
     |                   =====================                   |     
     |                         S. Grimme                         |     
     |          Mulliken Center for Theoretical Chemistry        |     
     |                    University of Bonn                     |     
      -----------------------------------------------------------      

   * xtb version 6.5.1 (b24c23e) compiled by 'conda@728c89f4b128' on 2022-07-12

   xtb is free software: you can redistribute it and/or modify it under
   the terms of the GNU Lesser General Public License as published by
   the Free Software Foundation, either version 3 of the License, or
   (at your option) any later version.
   
   xtb is distributed in the hope that it will be useful,
   but WITHOUT ANY WARRANTY; without even the implied warranty of
   MERCHANTABILITY or FITNESS FOR A PARTICULAR PURPOSE.  See the
   GNU Lesser General Public License for more details.
   
   Cite this work as:
   * C. Bannwarth, E. Caldeweyher, S. Ehlert, A. Hansen, P. Pracht,
     J. Seibert, S. Spicher, S. Grimme, WIREs Comput. Mol. Sci., 2020, 11,
     e01493. DOI: 10.1002/wcms.1493
   
   for GFN2-xTB:
   * C. Bannwarth, S. Ehlert and S. Grimme., J. Chem. Theory Comput., 2019,
     15, 1652-1671. DOI: 10.1021/acs.jctc.8b01176
   for GFN1-xTB:
   * S. Grimme, C. Bannwarth, P. Shushkov, J. Chem. Theory Comput., 2017,
     13, 1989-2009. DOI: 10.1021/acs.jctc.7b00118
   for GFN0-xTB:
   * P. Pracht, E. Caldeweyher, S. Ehlert, S. Grimme, ChemRxiv, 2019, preprint.
     DOI: 10.26434/chemrxiv.8326202.v1
   for GFN-FF:
   * S. Spicher and S. Grimme, Angew. Chem. Int. Ed., 2020, 59, 15665-15673.
     DOI: 10.1002/anie.202004239
   
   for ALPB and GBSA implicit solvation:
   * S. Ehlert, M. Stahn, S. Spicher, S. Grimme, J. Chem. Theory Comput.,
     2021, 17, 4250-4261. DOI: 10.1021/acs.jctc.1c00471
   
   for DFT-D4:
   * E. Caldeweyher, C. Bannwarth and S. Grimme, J. Chem. Phys., 2017,
     147, 034112. DOI: 10.1063/1.4993215
   * E. Caldeweyher, S. Ehlert, A. Hansen, H. Neugebauer, S. Spicher,
     C. Bannwarth and S. Grimme, J. Chem. Phys., 2019, 150, 154122.
     DOI: 10.1063/1.5090222
   * E. Caldeweyher, J.-M. Mewes, S. Ehlert and S. Grimme, Phys. Chem. Chem. Phys.
     2020, 22, 8499-8512. DOI: 10.1039/D0CP00502A
   
   for sTDA-xTB:
   * S. Grimme and C. Bannwarth, J. Chem. Phys., 2016, 145, 054103.
     DOI: 10.1063/1.4959605
   
   in the mass-spec context:
   * V. Asgeirsson, C. Bauer and S. Grimme, Chem. Sci., 2017, 8, 4879.
     DOI: 10.1039/c7sc00601b
   * J. Koopman and S. Grimme, ACS Omega 2019, 4, 12, 15120-15133.
     DOI: 10.1021/acsomega.9b02011
   
   for metadynamics refer to:
   * S. Grimme, J. Chem. Theory Comput., 2019, 155, 2847-2862
     DOI: 10.1021/acs.jctc.9b00143
   
   for SPH calculations refer to:
   * S. Spicher and S. Grimme, J. Chem. Theory Comput., 2021, 17, 1701-1714
     DOI: 10.1021/acs.jctc.0c01306
   
   with help from (in alphabetical order)
   P. Atkinson, C. Bannwarth, F. Bohle, G. Brandenburg, E. Caldeweyher
   M. Checinski, S. Dohm, S. Ehlert, S. Ehrlich, I. Gerasimov, C. Hölzer
   A. Katbashev, J. Koopman, C. Lavigne, S. Lehtola, F. März, M. Müller,
   F. Musil, H. Neugebauer, J. Pisarek, C. Plett, P. Pracht, F. Pultar,
   J. Seibert, P. Shushkov, S. Spicher, M. Stahn, M. Steiner, T. Strunk,
   J. Stückrath, T. Rose, and J. Unsleber
   
 * started run on 2026/08/18 at 18:30:40.686     

           -------------------------------------------------
          |                Calculation Setup                |
           -------------------------------------------------

          program call               : /h/332/chchoi/miniconda3/envs/el-agente/bin/xtb reactant_bound.xyz --opt --gfn 2 -P 4 --chrg 1 --uhf 0 --input detailed_input.inp
          coordinate file            : reactant_bound.xyz
          omp threads                :                     4

   ID    Z sym.   atoms
    1   40 Zr     1
    2    6 C      2-7, 13-17, 26, 27
    3    1 H      8-12, 18-25, 28-31
constraining bond 2 26 to    2.1000000 Å, actual value:    3.8520347 Å
constraining bond 1 2 to    2.6000000 Å, actual value:    2.2954950 Å
constraining bond 1 26 to    2.5000000 Å, actual value:    2.6023155 Å
constraining bond 1 27 to    2.4000000 Å, actual value:    2.6006744 Å

           -------------------------------------------------
          |                 G F N 2 - x T B                 |
           -------------------------------------------------

        Reference                      10.1021/acs.jctc.8b01176
      * Hamiltonian:
        H0-scaling (s, p, d)           1.850000    2.230000    2.230000
        zeta-weighting                 0.500000
      * Dispersion:
        s8                             2.700000
        a1                             0.520000
        a2                             5.000000
        s9                             5.000000
      * Repulsion:
        kExp                           1.500000    1.000000
        rExp                           1.000000
      * Coulomb:
        alpha                          2.000000
        third order                    shell-resolved
        anisotropic                    true
        a3                             3.000000
        a5                             4.000000
        cn-shift                       1.200000
        cn-exp                         4.000000
        max-rad                        5.000000


          ...................................................
          :                      SETUP                      :
          :.................................................:
          :  # basis functions                  79          :
          :  # atomic orbitals                  78          :
          :  # shells                           46          :
          :  # electrons                        72          :
          :  max. iterations                   250          :
          :  Hamiltonian                  GFN2-xTB          :
          :  restarted?                      false          :
          :  GBSA solvation                  false          :
          :  PC potential                    false          :
          :  electronic temp.          300.0000000     K    :
          :  accuracy                    1.0000000          :
          :  -> integral cutoff          0.2500000E+02      :
          :  -> integral neglect         0.1000000E-07      :
          :  -> SCF convergence          0.1000000E-05 Eh   :
          :  -> wf. convergence          0.1000000E-03 e    :
          :  Broyden damping             0.4000000          :
          ...................................................

 iter      E             dE          RMSdq      gap      omega  full diag
   1    -38.1908084 -0.381908E+02  0.410E+00    1.23       0.0  T
   2    -38.2936255 -0.102817E+00  0.344E+00    1.65       1.0  T
   3    -38.3086499 -0.150244E-01  0.247E+00    1.35       1.0  T
   4    -38.3070826  0.156727E-02  0.443E-01    1.51       1.0  T
   5    -38.3088940 -0.181141E-02  0.376E-01    1.30       1.0  T
   6    -38.3094273 -0.533259E-03  0.197E-01    1.34       1.0  T
   7    -38.3094127  0.146268E-04  0.119E-01    1.36       1.0  T
   8    -38.3094515 -0.388065E-04  0.399E-02    1.37       1.0  T
   9    -38.3094578 -0.629877E-05  0.157E-02    1.38       1.1  T
  10    -38.3094585 -0.729866E-06  0.843E-03    1.38       2.1  T
  11    -38.3094590 -0.511954E-06  0.258E-03    1.38       6.9  T
  12    -38.3094590 -0.222230E-07  0.127E-03    1.38      14.2  T
  13    -38.3094590 -0.135564E-07  0.499E-04    1.38      36.0  T
  14    -38.3094590 -0.173139E-08  0.163E-04    1.38     110.4  T

   *** convergence criteria satisfied after 14 iterations ***

         #    Occupation            Energy/Eh            Energy/eV
      -------------------------------------------------------------
         1        2.0000           -0.8697623             -23.6674
       ...           ...                  ...                  ...
        30        2.0000           -0.5726782             -15.5834
        31        2.0000           -0.5711676             -15.5423
        32        2.0000           -0.5218681             -14.2008
        33        2.0000           -0.5174278             -14.0799
        34        2.0000           -0.5072821             -13.8038
        35        2.0000           -0.5019576             -13.6590
        36        2.0000           -0.4888302             -13.3017 (HOMO)
        37                         -0.4381032             -11.9214 (LUMO)
        38                         -0.4091881             -11.1346
        39                         -0.4077855             -11.0964
        40                         -0.4035943             -10.9824
        41                         -0.3964054             -10.7867
       ...                                ...                  ...
        78                          2.4696341              67.2022
      -------------------------------------------------------------
                  HL-Gap            0.0507271 Eh            1.3804 eV
             Fermi-level           -0.4634667 Eh          -12.6116 eV

 SCC (total)                   0 d,  0 h,  0 min,  1.949 sec
 SCC setup                      ...        0 min,  0.029 sec (  1.510%)
 Dispersion                     ...        0 min,  0.040 sec (  2.039%)
 classical contributions        ...        0 min,  0.044 sec (  2.266%)
 integral evaluation            ...        0 min,  0.075 sec (  3.848%)
 iterations                     ...        0 min,  1.597 sec ( 81.981%)
 molecular gradient             ...        0 min,  0.163 sec (  8.342%)
 printout                       ...        0 min,  0.000 sec (  0.012%)

         :::::::::::::::::::::::::::::::::::::::::::::::::::::
         ::                     SUMMARY                     ::
         :::::::::::::::::::::::::::::::::::::::::::::::::::::
         :: total energy             -28.482276740990 Eh    ::
         :: gradient norm              7.363324567700 Eh/a0 ::
         :: HOMO-LUMO gap              1.380353759251 eV    ::
         ::.................................................::
         :: SCC energy               -38.309459043800 Eh    ::
         :: -> isotropic ES            0.093266463131 Eh    ::
         :: -> anisotropic ES         -0.013468164243 Eh    ::
         :: -> anisotropic XC          0.022268909797 Eh    ::
         :: -> dispersion             -0.028065242965 Eh    ::
         :: repulsion energy           0.647153413286 Eh    ::
         :: add. restraining           9.179313616677 Eh    ::
         :: total charge               1.000000000000 e     ::
         :::::::::::::::::::::::::::::::::::::::::::::::::::::

      ----------------------------------------------------------- 
     |                   =====================                   |
     |                        A N C O P T                        |
     |                   =====================                   |
     |               Approximate Normal Coordinate               |
     |                Rational Function Optimizer                |
      ----------------------------------------------------------- 

          ...................................................
          :                      SETUP                      :
          :.................................................:
          :   optimization level            normal          :
          :   max. optcycles                   200          :
          :   ANC micro-cycles                  20          :
          :   degrees of freedom                87          :
          :.................................................:
          :   RF solver                   davidson          :
          :   write xtbopt.log                true          :
          :   linear?                        false          :
          :   energy convergence         0.5000000E-05 Eh   :
          :   grad. convergence          0.1000000E-02 Eh/α :
          :   maximium RF displ.         1.0000000          :
          :   Hlow (freq-cutoff)         0.1000000E-01      :
          :   Hmax (freq-cutoff)         5.0000000          :
          :   S6 in model hess.         20.0000000          :
          ...................................................

generating ANC from model Hessian ...
Using Lindh-Hessian (1995)
 Shifting diagonal of input Hessian by    6.1862917865514754E-002
 Lowest  eigenvalues of input Hessian
    0.010000    0.000000    0.000000    0.000000    0.000000    0.000000
    0.000000    0.062370    0.062649    0.063467    0.063515    0.065372
    0.066980    0.067809    0.069407    0.069654    0.069894    0.071303
 Highest eigenvalues
    1.794473    2.224698    2.369634    3.235094    4.467266    5.714836


........................................................................
.............................. CYCLE    1 ..............................
........................................................................
   1    -38.3094590 -0.383095E+02  0.814E-05    1.38       0.0  T
   2    -38.3094590 -0.579234E-10  0.549E-05    1.38     327.0  T
   3    -38.3094590 -0.501430E-10  0.283E-05    1.38     633.7  T
     SCC iter.                  ...        0 min,  0.440 sec
     gradient                   ...        0 min,  0.236 sec
 * total energy  :   -28.4822767 Eh     change       -0.1691944E-09 Eh
   gradient norm :     7.3633245 Eh/α   predicted     0.0000000E+00 (-100.00%)
   displ. norm   :     0.7691424 α      lambda       -0.5587149E+01
   maximum displ.:     0.5857551 α      in ANC's #87, #85, #56, ...

........................................................................
.............................. CYCLE    2 ..............................
........................................................................
   1    -38.2714045 -0.382714E+02  0.916E-01    2.02       0.0  T
   2    -38.2730833 -0.167886E-02  0.471E-01    1.92       1.0  T
   3    -38.2730941 -0.108137E-04  0.249E-01    1.95       1.0  T
   4    -38.2731932 -0.990754E-04  0.113E-01    1.95       1.0  T
   5    -38.2733395 -0.146299E-03  0.616E-02    1.93       1.0  T
   6    -38.2733415 -0.197385E-05  0.314E-02    1.95       1.0  T
   7    -38.2733470 -0.550620E-05  0.821E-03    1.94       2.2  T
   8    -38.2733472 -0.173942E-06  0.616E-03    1.94       2.9  T
   9    -38.2733474 -0.274761E-06  0.208E-03    1.94       8.6  T
  10    -38.2733475 -0.776508E-08  0.963E-04    1.94      18.6  T
  11    -38.2733475 -0.337407E-08  0.540E-04    1.94      33.2  T
     SCC iter.                  ...        0 min,  1.426 sec
     gradient                   ...        0 min,  0.057 sec
 * total energy  :   -32.8837636 Eh     change       -0.4401487E+01 Eh
   gradient norm :     4.2235512 Eh/α   predicted    -0.4446383E+01 (   1.02%)
   displ. norm   :     0.7445223 α      lambda       -0.2969388E+01
   maximum displ.:     0.4010824 α      in ANC's #85, #87, #65, ...

........................................................................
.............................. CYCLE    3 ..............................
........................................................................
   1    -38.1693790 -0.381694E+02  0.145E+00    2.04       0.0  T
   2    -38.1723260 -0.294693E-02  0.773E-01    2.15       1.0  T
   3    -38.1724790 -0.153037E-03  0.601E-01    2.03       1.0  T
   4    -38.1747517 -0.227268E-02  0.216E-01    2.17       1.0  T
   5    -38.1748831 -0.131384E-03  0.113E-01    2.15       1.0  T
   6    -38.1748819  0.119465E-05  0.581E-02    2.15       1.0  T
   7    -38.1749136 -0.317580E-04  0.297E-02    2.14       1.0  T
   8    -38.1749157 -0.210572E-05  0.114E-02    2.14       1.6  T
   9    -38.1749164 -0.670794E-06  0.465E-03    2.14       3.9  T
  10    -38.1749164 -0.101346E-07  0.349E-03    2.14       5.1  T
  11    -38.1749165 -0.705607E-07  0.211E-03    2.14       8.5  T
  12    -38.1749165 -0.159877E-07  0.781E-04    2.14      23.0  T
  13    -38.1749165 -0.190619E-08  0.380E-04    2.14      47.3  T
     SCC iter.                  ...        0 min,  1.641 sec
     gradient                   ...        0 min,  0.264 sec
 * total energy  :   -35.2292364 Eh     change       -0.2345473E+01 Eh
   gradient norm :     2.3446860 Eh/α   predicted    -0.2307705E+01 (  -1.61%)
   displ. norm   :     0.7588853 α      lambda       -0.1659378E+01
   maximum displ.:     0.2950641 α      in ANC's #56, #70, #65, ...

........................................................................
.............................. CYCLE    4 ..............................
........................................................................
   1    -38.0055398 -0.380055E+02  0.192E+00    1.72       0.0  T
   2    -38.0023596  0.318015E-02  0.179E+00    1.94       1.0  T
   3    -38.0350461 -0.326864E-01  0.905E-01    1.84       1.0  T
   4    -38.0347387  0.307347E-03  0.253E-01    1.91       1.0  T
   5    -38.0357543 -0.101560E-02  0.182E-01    1.87       1.0  T
   6    -38.0359644 -0.210085E-03  0.897E-02    1.89       1.0  T
   7    -38.0359979 -0.334811E-04  0.527E-02    1.89       1.0  T
   8    -38.0360309 -0.329675E-04  0.187E-02    1.89       1.0  T
   9    -38.0360317 -0.886570E-06  0.636E-03    1.89       2.8  T
  10    -38.0360320 -0.262067E-06  0.407E-03    1.89       4.4  T
  11    -38.0360321 -0.500866E-07  0.274E-03    1.89       6.5  T
  12    -38.0360321 -0.305933E-07  0.128E-03    1.89      14.0  T
  13    -38.0360321 -0.745802E-08  0.609E-04    1.89      29.5  T
  14    -38.0360321 -0.187772E-08  0.264E-04    1.89      68.0  T
     SCC iter.                  ...        0 min,  1.600 sec
     gradient                   ...        0 min,  0.243 sec
 * total energy  :   -36.4857449 Eh     change       -0.1256509E+01 Eh
   gradient norm :     1.2580225 Eh/α   predicted    -0.1307513E+01 (   4.06%)
   displ. norm   :     0.6788077 α      lambda       -0.7905567E+00
   maximum displ.:     0.2948727 α      in ANC's #70, #65, #56, ...

........................................................................
.............................. CYCLE    5 ..............................
........................................................................
   1    -37.8947807 -0.378948E+02  0.153E+00    1.20       0.0  T
   2    -37.8721127  0.226680E-01  0.192E+00    1.13       1.0  T
   3    -37.9311816 -0.590689E-01  0.632E-01    1.20       1.0  T
   4    -37.9268786  0.430294E-02  0.456E-01    1.24       1.0  T
   5    -37.9309817 -0.410306E-02  0.186E-01    1.18       1.0  T
   6    -37.9316176 -0.635958E-03  0.976E-02    1.19       1.0  T
   7    -37.9317027 -0.850895E-04  0.461E-02    1.19       1.0  T
   8    -37.9317337 -0.309907E-04  0.239E-02    1.19       1.0  T
   9    -37.9317348 -0.103241E-05  0.120E-02    1.19       1.5  T
  10    -37.9317357 -0.915586E-06  0.521E-03    1.19       3.4  T
  11    -37.9317359 -0.234501E-06  0.272E-03    1.19       6.6  T
  12    -37.9317359 -0.257747E-08  0.140E-03    1.19      12.8  T
  13    -37.9317359 -0.201585E-07  0.611E-04    1.19      29.4  T
  14    -37.9317359 -0.376730E-10  0.344E-04    1.19      52.2  T
     SCC iter.                  ...        0 min,  1.710 sec
     gradient                   ...        0 min,  0.333 sec
 * total energy  :   -37.0499053 Eh     change       -0.5641604E+00 Eh
   gradient norm :     0.6128628 Eh/α   predicted    -0.5774147E+00 (   2.35%)
   displ. norm   :     0.6086562 α      lambda       -0.3108735E+00
   maximum displ.:     0.2511625 α      in ANC's #24, #70, #51, ...

........................................................................
.............................. CYCLE    6 ..............................
........................................................................
   1    -37.8847171 -0.378847E+02  0.130E+00    1.27       0.0  T
   2    -37.8651170  0.196001E-01  0.137E+00    1.05       1.0  T
   3    -37.8991784 -0.340614E-01  0.689E-01    1.15       1.0  T
   4    -37.9012222 -0.204383E-02  0.464E-01    1.09       1.0  T
   5    -37.9035239 -0.230172E-02  0.331E-01    1.14       1.0  T
   6    -37.9044823 -0.958448E-03  0.119E-01    1.11       1.0  T
   7    -37.9045424 -0.600287E-04  0.661E-02    1.13       1.0  T
   8    -37.9045911 -0.486867E-04  0.251E-02    1.12       1.0  T
   9    -37.9045942 -0.311145E-05  0.109E-02    1.12       1.7  T
  10    -37.9045950 -0.811192E-06  0.490E-03    1.12       3.7  T
  11    -37.9045951 -0.114513E-06  0.345E-03    1.12       5.2  T
  12    -37.9045951  0.153985E-07  0.230E-03    1.12       7.8  T
  13    -37.9045951 -0.543727E-07  0.780E-04    1.12      23.0  T
  14    -37.9045951 -0.400779E-08  0.308E-04    1.12      58.3  T
     SCC iter.                  ...        0 min,  1.828 sec
     gradient                   ...        0 min,  0.292 sec
 * total energy  :   -37.2359130 Eh     change       -0.1860077E+00 Eh
   gradient norm :     0.2173868 Eh/α   predicted    -0.2130203E+00 (  14.52%)
   displ. norm   :     0.6734251 α      lambda       -0.9600103E-01
   maximum displ.:     0.3420442 α      in ANC's #24, #1, #21, ...

........................................................................
.............................. CYCLE    7 ..............................
........................................................................
   1    -37.9520476 -0.379520E+02  0.800E-01    1.15       0.0  T
   2    -37.9514093  0.638370E-03  0.419E-01    1.12       1.0  T
   3    -37.9474704  0.393882E-02  0.562E-01    1.12       1.0  T
   4    -37.9537680 -0.629750E-02  0.276E-01    1.16       1.0  T
   5    -37.9544358 -0.667845E-03  0.896E-02    1.13       1.0  T
   6    -37.9544230  0.127478E-04  0.772E-02    1.14       1.0  T
   7    -37.9544611 -0.380152E-04  0.369E-02    1.13       1.0  T
   8    -37.9544673 -0.627200E-05  0.160E-02    1.13       1.1  T
   9    -37.9544697 -0.237104E-05  0.392E-03    1.13       4.6  T
  10    -37.9544698 -0.941562E-07  0.250E-03    1.13       7.2  T
  11    -37.9544698 -0.140818E-07  0.116E-03    1.13      15.5  T
  12    -37.9544698 -0.604018E-08  0.554E-04    1.13      32.4  T
  13    -37.9544698 -0.177451E-08  0.202E-04    1.13      89.0  T
     SCC iter.                  ...        0 min,  1.329 sec
     gradient                   ...        0 min,  0.351 sec
 * total energy  :   -37.2967823 Eh     change       -0.6086927E-01 Eh
   gradient norm :     0.2377748 Eh/α   predicted    -0.6976886E-01 (  14.62%)
   displ. norm   :     0.7686341 α      lambda       -0.8400684E-01
   maximum displ.:     0.3781057 α      in ANC's #24, #21, #1, ...

........................................................................
.............................. CYCLE    8 ..............................
........................................................................
   1    -38.0407723 -0.380408E+02  0.966E-01    1.52       0.0  T
   2    -38.0419380 -0.116569E-02  0.691E-01    1.47       1.0  T
   3    -38.0410366  0.901391E-03  0.538E-01    1.58       1.0  T
   4    -38.0420227 -0.986095E-03  0.369E-01    1.53       1.0  T
   5    -38.0429322 -0.909485E-03  0.285E-01    1.57       1.0  T
   6    -38.0432814 -0.349136E-03  0.165E-01    1.60       1.0  T
   7    -38.0432759  0.542603E-05  0.947E-02    1.62       1.0  T
   8    -38.0433628 -0.868946E-04  0.475E-02    1.63       1.0  T
   9    -38.0433676 -0.473389E-05  0.267E-02    1.63       1.0  T
  10    -38.0433676 -0.436771E-07  0.134E-02    1.64       1.3  T
  11    -38.0433696 -0.196528E-05  0.668E-03    1.64       2.7  T
  12    -38.0433699 -0.311024E-06  0.398E-03    1.64       4.5  T
  13    -38.0433699 -0.306790E-07  0.191E-03    1.64       9.4  T
  14    -38.0433699 -0.219327E-07  0.730E-04    1.64      24.6  T
  15    -38.0433699 -0.305881E-08  0.284E-04    1.64      63.3  T
     SCC iter.                  ...        0 min,  1.841 sec
     gradient                   ...        0 min,  0.332 sec
 * total energy  :   -37.3500694 Eh     change       -0.5328711E-01 Eh
   gradient norm :     0.1746021 Eh/α   predicted    -0.6681896E-01 (  25.39%)
   displ. norm   :     0.7544165 α      lambda       -0.6836768E-01
   maximum displ.:     0.3022215 α      in ANC's #1, #5, #21, ...

........................................................................
.............................. CYCLE    9 ..............................
........................................................................
   1    -38.0711866 -0.380712E+02  0.598E-01    1.76       0.0  T
   2    -38.0709690  0.217607E-03  0.417E-01    1.80       1.0  T
   3    -38.0710820 -0.113009E-03  0.318E-01    1.75       1.0  T
   4    -38.0726166 -0.153453E-02  0.985E-02    1.79       1.0  T
   5    -38.0727159 -0.993079E-04  0.407E-02    1.78       1.0  T
   6    -38.0727181 -0.224276E-05  0.287E-02    1.78       1.0  T
   7    -38.0727235 -0.539970E-05  0.155E-02    1.78       1.2  T
   8    -38.0727244 -0.878808E-06  0.734E-03    1.78       2.4  T
   9    -38.0727248 -0.435315E-06  0.234E-03    1.78       7.7  T
  10    -38.0727249 -0.222756E-07  0.130E-03    1.78      13.8  T
  11    -38.0727249 -0.193372E-08  0.481E-04    1.78      37.4  T
  12    -38.0727249 -0.881933E-09  0.263E-04    1.78      68.4  T
     SCC iter.                  ...        0 min,  1.126 sec
     gradient                   ...        0 min,  0.170 sec
 * total energy  :   -37.3980375 Eh     change       -0.4796814E-01 Eh
   gradient norm :     0.2181070 Eh/α   predicted    -0.5363939E-01 (  11.82%)
   displ. norm   :     0.7040937 α      lambda       -0.6649176E-01
   maximum displ.:     0.3228830 α      in ANC's #8, #21, #24, ...

........................................................................
.............................. CYCLE   10 ..............................
........................................................................
   1    -38.1124142 -0.381124E+02  0.576E-01    2.06       0.0  T
   2    -38.1130071 -0.592842E-03  0.364E-01    2.01       1.0  T
   3    -38.1126106  0.396442E-03  0.233E-01    2.02       1.0  T
   4    -38.1133865 -0.775891E-03  0.773E-02    2.04       1.0  T
   5    -38.1134675 -0.809525E-04  0.449E-02    2.02       1.0  T
   6    -38.1134773 -0.978840E-05  0.219E-02    2.02       1.0  T
   7    -38.1134792 -0.194064E-05  0.168E-02    2.02       1.1  T
   8    -38.1134793 -0.108192E-06  0.802E-03    2.02       2.2  T
   9    -38.1134797 -0.352139E-06  0.470E-03    2.02       3.8  T
  10    -38.1134798 -0.130429E-06  0.246E-03    2.02       7.3  T
  11    -38.1134798 -0.732167E-08  0.774E-04    2.02      23.2  T
  12    -38.1134798 -0.289879E-08  0.551E-04    2.02      32.6  T
     SCC iter.                  ...        0 min,  0.839 sec
     gradient                   ...        0 min,  0.181 sec
 * total energy  :   -37.4516631 Eh     change       -0.5362555E-01 Eh
   gradient norm :     0.1547207 Eh/α   predicted    -0.4972751E-01 (  -7.27%)
   displ. norm   :     0.7314697 α      lambda       -0.6145953E-01
   maximum displ.:     0.3009326 α      in ANC's #21, #8, #1, ...

........................................................................
.............................. CYCLE   11 ..............................
........................................................................
   1    -38.1445826 -0.381446E+02  0.717E-01    2.05       0.0  T
   2    -38.1454890 -0.906356E-03  0.568E-01    2.03       1.0  T
   3    -38.1478213 -0.233229E-02  0.354E-01    2.02       1.0  T
   4    -38.1481494 -0.328082E-03  0.292E-01    2.01       1.0  T
   5    -38.1482237 -0.742793E-04  0.229E-01    2.00       1.0  T
   6    -38.1482400 -0.163501E-04  0.827E-02    1.99       1.0  T
   7    -38.1483157 -0.756532E-04  0.383E-02    1.99       1.0  T
   8    -38.1483238 -0.811321E-05  0.124E-02    1.99       1.5  T
   9    -38.1483252 -0.139704E-05  0.501E-03    1.99       3.6  T
  10    -38.1483252 -0.265024E-07  0.295E-03    1.99       6.1  T
  11    -38.1483253 -0.589894E-07  0.848E-04    1.99      21.2  T
  12    -38.1483253 -0.201736E-08  0.598E-04    1.99      30.0  T
     SCC iter.                  ...        0 min,  0.728 sec
     gradient                   ...        0 min,  0.198 sec
 * total energy  :   -37.5021064 Eh     change       -0.5044329E-01 Eh
   gradient norm :     0.1397990 Eh/α   predicted    -0.4717168E-01 (  -6.49%)
   displ. norm   :     0.7848580 α      lambda       -0.6286745E-01
   maximum displ.:     0.2929682 α      in ANC's #21, #23, #24, ...

........................................................................
.............................. CYCLE   12 ..............................
........................................................................
   1    -38.2211790 -0.382212E+02  0.970E-01    2.17       0.0  T
   2    -38.2232738 -0.209479E-02  0.642E-01    2.09       1.0  T
   3    -38.2241076 -0.833830E-03  0.360E-01    2.12       1.0  T
   4    -38.2249089 -0.801356E-03  0.900E-02    2.14       1.0  T
   5    -38.2250765 -0.167501E-03  0.468E-02    2.12       1.0  T
   6    -38.2250782 -0.179364E-05  0.250E-02    2.12       1.0  T
   7    -38.2250791 -0.836008E-06  0.141E-02    2.12       1.3  T
   8    -38.2250798 -0.681696E-06  0.718E-03    2.12       2.5  T
   9    -38.2250799 -0.167732E-06  0.193E-03    2.12       9.3  T
  10    -38.2250800 -0.238407E-07  0.115E-03    2.12      15.7  T
  11    -38.2250800 -0.324644E-08  0.398E-04    2.12      45.2  T
  12    -38.2250800 -0.774527E-09  0.182E-04    2.12      98.4  T
     SCC iter.                  ...        0 min,  0.904 sec
     gradient                   ...        0 min,  0.112 sec
 * total energy  :   -37.5516236 Eh     change       -0.4951719E-01 Eh
   gradient norm :     0.2091426 Eh/α   predicted    -0.5079701E-01 (   2.58%)
   displ. norm   :     0.6157421 α      lambda       -0.4837845E-01
   maximum displ.:     0.2480167 α      in ANC's #20, #23, #24, ...

........................................................................
.............................. CYCLE   13 ..............................
........................................................................
   1    -38.2689429 -0.382689E+02  0.725E-01    2.12       0.0  T
   2    -38.2703176 -0.137467E-02  0.484E-01    2.07       1.0  T
   3    -38.2710517 -0.734032E-03  0.294E-01    2.08       1.0  T
   4    -38.2713566 -0.304998E-03  0.763E-02    2.12       1.0  T
   5    -38.2714950 -0.138380E-03  0.371E-02    2.09       1.0  T
   6    -38.2714990 -0.399022E-05  0.184E-02    2.09       1.0  T
   7    -38.2714997 -0.656426E-06  0.107E-02    2.09       1.7  T
   8    -38.2714999 -0.269620E-06  0.472E-03    2.09       3.8  T
   9    -38.2715000 -0.788072E-07  0.177E-03    2.09      10.1  T
  10    -38.2715000 -0.180797E-07  0.116E-03    2.09      15.4  T
  11    -38.2715000 -0.602255E-08  0.489E-04    2.09      36.7  T
  12    -38.2715000 -0.196266E-09  0.149E-04    2.09     120.6  T
     SCC iter.                  ...        0 min,  0.886 sec
     gradient                   ...        0 min,  0.108 sec
 * total energy  :   -37.5886105 Eh     change       -0.3698691E-01 Eh
   gradient norm :     0.1292949 Eh/α   predicted    -0.3336032E-01 (  -9.81%)
   displ. norm   :     0.6325102 α      lambda       -0.4672724E-01
   maximum displ.:     0.2717426 α      in ANC's #6, #20, #54, ...

........................................................................
.............................. CYCLE   14 ..............................
........................................................................
   1    -38.3032476 -0.383032E+02  0.570E-01    2.06       0.0  T
   2    -38.3041895 -0.941879E-03  0.348E-01    1.98       1.0  T
   3    -38.3048175 -0.628030E-03  0.236E-01    2.01       1.0  T
   4    -38.3050520 -0.234450E-03  0.704E-02    2.03       1.0  T
   5    -38.3051301 -0.781555E-04  0.359E-02    2.01       1.0  T
   6    -38.3051324 -0.227632E-05  0.190E-02    2.02       1.0  T
   7    -38.3051339 -0.150719E-05  0.967E-03    2.02       1.9  T
   8    -38.3051342 -0.293603E-06  0.516E-03    2.02       3.5  T
   9    -38.3051343 -0.906708E-07  0.234E-03    2.02       7.7  T
  10    -38.3051343 -0.110126E-07  0.127E-03    2.02      14.1  T
  11    -38.3051343 -0.817855E-08  0.481E-04    2.02      37.3  T
  12    -38.3051343 -0.151715E-08  0.148E-04    2.02     121.0  T
     SCC iter.                  ...        0 min,  1.222 sec
     gradient                   ...        0 min,  0.207 sec
 * total energy  :   -37.6203737 Eh     change       -0.3176318E-01 Eh
   gradient norm :     0.1039100 Eh/α   predicted    -0.3271068E-01 (   2.98%)
   displ. norm   :     0.5689646 α      lambda       -0.3061331E-01
   maximum displ.:     0.2405333 α      in ANC's #7, #55, #20, ...

........................................................................
.............................. CYCLE   15 ..............................
........................................................................
   1    -38.3110793 -0.383111E+02  0.423E-01    1.95       0.0  T
   2    -38.3114625 -0.383185E-03  0.270E-01    1.90       1.0  T
   3    -38.3114371  0.253828E-04  0.168E-01    1.93       1.0  T
   4    -38.3116365 -0.199428E-03  0.488E-02    1.92       1.0  T
   5    -38.3116723 -0.357406E-04  0.215E-02    1.92       1.0  T
   6    -38.3116731 -0.841403E-06  0.140E-02    1.92       1.3  T
   7    -38.3116742 -0.107688E-05  0.686E-03    1.92       2.6  T
   8    -38.3116742 -0.669263E-07  0.340E-03    1.92       5.3  T
   9    -38.3116743 -0.475188E-07  0.172E-03    1.92      10.4  T
  10    -38.3116743 -0.122058E-08  0.877E-04    1.92      20.5  T
  11    -38.3116743 -0.619726E-08  0.294E-04    1.92      61.2  T
     SCC iter.                  ...        0 min,  0.924 sec
     gradient                   ...        0 min,  0.206 sec
 * total energy  :   -37.6380970 Eh     change       -0.1772334E-01 Eh
   gradient norm :     0.1266752 Eh/α   predicted    -0.2026173E-01 (  14.32%)
   displ. norm   :     0.5302296 α      lambda       -0.2766312E-01
   maximum displ.:     0.2018068 α      in ANC's #6, #7, #55, ...

........................................................................
.............................. CYCLE   16 ..............................
........................................................................
   1    -38.3239197 -0.383239E+02  0.441E-01    1.84       0.0  T
   2    -38.3241311 -0.211423E-03  0.289E-01    1.82       1.0  T
   3    -38.3239500  0.181111E-03  0.164E-01    1.82       1.0  T
   4    -38.3243083 -0.358317E-03  0.351E-02    1.81       1.0  T
   5    -38.3243204 -0.120720E-04  0.208E-02    1.82       1.0  T
   6    -38.3243203  0.906891E-07  0.130E-02    1.82       1.4  T
   7    -38.3243214 -0.107497E-05  0.452E-03    1.82       4.0  T
   8    -38.3243214 -0.243280E-07  0.304E-03    1.82       5.9  T
   9    -38.3243214 -0.216726E-07  0.168E-03    1.82      10.7  T
  10    -38.3243215 -0.144376E-07  0.736E-04    1.82      24.4  T
  11    -38.3243215 -0.198333E-08  0.203E-04    1.82      88.3  T
     SCC iter.                  ...        0 min,  1.183 sec
     gradient                   ...        0 min,  0.241 sec
 * total energy  :   -37.6510650 Eh     change       -0.1296804E-01 Eh
   gradient norm :     0.0720294 Eh/α   predicted    -0.1772023E-01 (  36.65%)
   displ. norm   :     0.3776925 α      lambda       -0.1351260E-01
   maximum displ.:     0.1780425 α      in ANC's #8, #14, #20, ...

........................................................................
.............................. CYCLE   17 ..............................
........................................................................
   1    -38.3363196 -0.383363E+02  0.377E-01    1.76       0.0  T
   2    -38.3364454 -0.125740E-03  0.238E-01    1.80       1.0  T
   3    -38.3363144  0.130962E-03  0.112E-01    1.76       1.0  T
   4    -38.3364877 -0.173268E-03  0.433E-02    1.78       1.0  T
   5    -38.3364908 -0.311471E-05  0.321E-02    1.78       1.0  T
   6    -38.3364916 -0.808945E-06  0.141E-02    1.78       1.3  T
   7    -38.3364926 -0.104908E-05  0.399E-03    1.79       4.5  T
   8    -38.3364926 -0.640693E-08  0.286E-03    1.79       6.3  T
   9    -38.3364927 -0.496295E-07  0.183E-03    1.79       9.8  T
  10    -38.3364927 -0.644597E-08  0.732E-04    1.79      24.5  T
  11    -38.3364927 -0.221469E-09  0.197E-04    1.79      91.0  T
     SCC iter.                  ...        0 min,  1.284 sec
     gradient                   ...        0 min,  0.227 sec
 * total energy  :   -37.6557597 Eh     change       -0.4694624E-02 Eh
   gradient norm :     0.0850807 Eh/α   predicted    -0.7720117E-02 (  64.45%)
   displ. norm   :     0.2105112 α      lambda       -0.6881361E-02
   maximum displ.:     0.1255939 α      in ANC's #12, #4, #23, ...

........................................................................
.............................. CYCLE   18 ..............................
........................................................................
   1    -38.3297318 -0.383297E+02  0.202E-01    1.81       0.0  T
   2    -38.3297761 -0.443551E-04  0.125E-01    1.80       1.0  T
   3    -38.3297716  0.453687E-05  0.580E-02    1.82       1.0  T
   4    -38.3297813 -0.972197E-05  0.228E-02    1.81       1.0  T
   5    -38.3297830 -0.166962E-05  0.143E-02    1.81       1.3  T
   6    -38.3297834 -0.428947E-06  0.638E-03    1.81       2.8  T
   7    -38.3297839 -0.493771E-06  0.245E-03    1.81       7.3  T
   8    -38.3297839 -0.199563E-07  0.163E-03    1.81      11.0  T
   9    -38.3297839 -0.656714E-08  0.842E-04    1.81      21.3  T
  10    -38.3297839 -0.648960E-09  0.490E-04    1.81      36.7  T
     SCC iter.                  ...        0 min,  1.323 sec
     gradient                   ...        0 min,  0.245 sec
 * total energy  :   -37.6595098 Eh     change       -0.3750146E-02 Eh
   gradient norm :     0.0434062 Eh/α   predicted    -0.3593166E-02 (  -4.19%)
   displ. norm   :     0.1853821 α      lambda       -0.3023681E-02
   maximum displ.:     0.1157741 α      in ANC's #12, #4, #6, ...

........................................................................
.............................. CYCLE   19 ..............................
........................................................................
   1    -38.3282827 -0.383283E+02  0.172E-01    1.83       0.0  T
   2    -38.3283105 -0.278132E-04  0.109E-01    1.82       1.0  T
   3    -38.3282945  0.160305E-04  0.712E-02    1.83       1.0  T
   4    -38.3283200 -0.255164E-04  0.216E-02    1.83       1.0  T
   5    -38.3283230 -0.297880E-05  0.148E-02    1.83       1.2  T
   6    -38.3283239 -0.903651E-06  0.546E-03    1.83       3.3  T
   7    -38.3283240 -0.140188E-06  0.337E-03    1.83       5.3  T
   8    -38.3283240 -0.346195E-07  0.234E-03    1.83       7.7  T
   9    -38.3283241 -0.131241E-07  0.870E-04    1.83      20.7  T
  10    -38.3283241 -0.895191E-09  0.277E-04    1.83      64.9  T
     SCC iter.                  ...        0 min,  1.037 sec
     gradient                   ...        0 min,  0.218 sec
 * total energy  :   -37.6612899 Eh     change       -0.1780152E-02 Eh
   gradient norm :     0.0296257 Eh/α   predicted    -0.1563800E-02 ( -12.15%)
   displ. norm   :     0.2449395 α      lambda       -0.2492046E-02
   maximum displ.:     0.1388700 α      in ANC's #12, #4, #22, ...

........................................................................
.............................. CYCLE   20 ..............................
........................................................................
   1    -38.3303373 -0.383303E+02  0.183E-01    1.80       0.0  T
   2    -38.3303593 -0.219998E-04  0.122E-01    1.81       1.0  T
   3    -38.3303172  0.420737E-04  0.629E-02    1.80       1.0  T
   4    -38.3303708 -0.535821E-04  0.229E-02    1.81       1.0  T
   5    -38.3303758 -0.507067E-05  0.160E-02    1.81       1.1  T
   6    -38.3303764 -0.550743E-06  0.704E-03    1.81       2.5  T
   7    -38.3303765 -0.162490E-06  0.379E-03    1.81       4.7  T
   8    -38.3303765 -0.225052E-08  0.135E-03    1.81      13.3  T
   9    -38.3303766 -0.142964E-07  0.648E-04    1.81      27.7  T
  10    -38.3303766 -0.150949E-08  0.178E-04    1.81     101.1  T
     SCC iter.                  ...        0 min,  0.923 sec
     gradient                   ...        0 min,  0.145 sec
 * total energy  :   -37.6627811 Eh     change       -0.1491137E-02 Eh
   gradient norm :     0.0272774 Eh/α   predicted    -0.1320791E-02 ( -11.42%)
   displ. norm   :     0.2323372 α      lambda       -0.1562491E-02
   maximum displ.:     0.1352119 α      in ANC's #12, #4, #3, ...
 * RMSD in coord.:     1.1027696 α      energy gain  -0.9180504E+01 Eh

generating ANC from model Hessian ...
Using Lindh-Hessian (1995)
 Shifting diagonal of input Hessian by    9.4983887414119127E-003
 Lowest  eigenvalues of input Hessian
    0.000000    0.000000    0.000000    0.000000    0.000000    0.000000
    0.010000    0.010085    0.011101    0.011678    0.012626    0.012728
    0.013470    0.014313    0.015793    0.015973    0.016363    0.018268
 Highest eigenvalues
    1.743599    1.746428    2.147213    2.831012    4.092586    6.360334


........................................................................
.............................. CYCLE   21 ..............................
........................................................................
   1    -38.3335519 -0.383336E+02  0.170E-01    1.78       0.0  T
   2    -38.3335662 -0.142588E-04  0.109E-01    1.78       1.0  T
   3    -38.3335198  0.463785E-04  0.537E-02    1.78       1.0  T
   4    -38.3335765 -0.566909E-04  0.125E-02    1.78       1.4  T
   5    -38.3335768 -0.257998E-06  0.903E-03    1.78       2.0  T
   6    -38.3335769 -0.136174E-06  0.380E-03    1.78       4.7  T
   7    -38.3335770 -0.990819E-07  0.200E-03    1.78       9.0  T
   8    -38.3335770 -0.735685E-08  0.137E-03    1.78      13.1  T
   9    -38.3335770 -0.997023E-08  0.583E-04    1.78      30.8  T
  10    -38.3335770 -0.953470E-09  0.225E-04    1.78      79.7  T
     SCC iter.                  ...        0 min,  0.962 sec
     gradient                   ...        0 min,  0.134 sec
 * total energy  :   -37.6637994 Eh     change       -0.1018362E-02 Eh
   gradient norm :     0.0253046 Eh/α   predicted     0.0000000E+00 (-100.00%)
   displ. norm   :     0.2968153 α      lambda       -0.2296005E-02
   maximum displ.:     0.2571965 α      in ANC's #7, #2, #12, ...

........................................................................
.............................. CYCLE   22 ..............................
........................................................................
   1    -38.3341835 -0.383342E+02  0.281E-01    1.74       0.0  T
   2    -38.3342105 -0.270491E-04  0.193E-01    1.75       1.0  T
   3    -38.3341048  0.105717E-03  0.797E-02    1.73       1.0  T
   4    -38.3342252 -0.120395E-03  0.358E-02    1.75       1.0  T
   5    -38.3342332 -0.800796E-05  0.191E-02    1.75       1.0  T
   6    -38.3342339 -0.655504E-06  0.648E-03    1.75       2.8  T
   7    -38.3342340 -0.120194E-06  0.429E-03    1.75       4.2  T
   8    -38.3342340 -0.294731E-07  0.203E-03    1.75       8.8  T
   9    -38.3342340 -0.380041E-07  0.933E-04    1.75      19.3  T
  10    -38.3342340 -0.311895E-08  0.315E-04    1.75      57.0  T
     SCC iter.                  ...        0 min,  1.081 sec
     gradient                   ...        0 min,  0.171 sec
 * total energy  :   -37.6650929 Eh     change       -0.1293451E-02 Eh
   gradient norm :     0.0080486 Eh/α   predicted    -0.1259026E-02 (  -2.66%)
   displ. norm   :     0.3537678 α      lambda       -0.1380442E-02
   maximum displ.:     0.1865968 α      in ANC's #6, #7, #5, ...

........................................................................
.............................. CYCLE   23 ..............................
........................................................................
   1    -38.3340232 -0.383340E+02  0.245E-01    1.75       0.0  T
   2    -38.3340502 -0.270600E-04  0.161E-01    1.73       1.0  T
   3    -38.3340119  0.383288E-04  0.634E-02    1.75       1.0  T
   4    -38.3340630 -0.510759E-04  0.219E-02    1.73       1.0  T
   5    -38.3340626  0.367149E-06  0.146E-02    1.73       1.2  T
   6    -38.3340644 -0.175959E-05  0.750E-03    1.73       2.4  T
   7    -38.3340645 -0.116006E-06  0.522E-03    1.73       3.4  T
   8    -38.3340644  0.276532E-07  0.209E-03    1.73       8.6  T
   9    -38.3340645 -0.584305E-07  0.707E-04    1.73      25.4  T
  10    -38.3340645 -0.103482E-08  0.400E-04    1.73      44.9  T
     SCC iter.                  ...        0 min,  1.039 sec
     gradient                   ...        0 min,  0.160 sec
 * total energy  :   -37.6657212 Eh     change       -0.6282653E-03 Eh
   gradient norm :     0.0146226 Eh/α   predicted    -0.7766448E-03 (  23.62%)
   displ. norm   :     0.2117182 α      lambda       -0.6267143E-03
   maximum displ.:     0.1425929 α      in ANC's #7, #8, #5, ...

........................................................................
.............................. CYCLE   24 ..............................
........................................................................
   1    -38.3348222 -0.383348E+02  0.942E-02    1.73       0.0  T
   2    -38.3348264 -0.427920E-05  0.600E-02    1.73       1.0  T
   3    -38.3348131  0.133067E-04  0.287E-02    1.73       1.0  T
   4    -38.3348290 -0.158699E-04  0.921E-03    1.73       1.9  T
   5    -38.3348294 -0.433046E-06  0.518E-03    1.73       3.5  T
   6    -38.3348295 -0.622714E-07  0.220E-03    1.73       8.2  T
   7    -38.3348295 -0.315116E-07  0.894E-04    1.73      20.1  T
   8    -38.3348295 -0.395374E-08  0.628E-04    1.73      28.6  T
     SCC iter.                  ...        0 min,  0.602 sec
     gradient                   ...        0 min,  0.019 sec
 * total energy  :   -37.6661965 Eh     change       -0.4753457E-03 Eh
   gradient norm :     0.0092261 Eh/α   predicted    -0.3274351E-03 ( -31.12%)
   displ. norm   :     0.3614292 α      lambda       -0.7173910E-03
   maximum displ.:     0.2516536 α      in ANC's #8, #7, #12, ...

........................................................................
.............................. CYCLE   25 ..............................
........................................................................
   1    -38.3354712 -0.383355E+02  0.138E-01    1.72       0.0  T
   2    -38.3354787 -0.741752E-05  0.799E-02    1.71       1.0  T
   3    -38.3354611  0.175355E-04  0.388E-02    1.72       1.0  T
   4    -38.3354836 -0.224660E-04  0.112E-02    1.72       1.6  T
   5    -38.3354836  0.221636E-07  0.715E-03    1.71       2.5  T
   6    -38.3354839 -0.320293E-06  0.344E-03    1.71       5.2  T
   7    -38.3354839 -0.138599E-07  0.242E-03    1.71       7.4  T
   8    -38.3354839 -0.157968E-08  0.142E-03    1.71      12.7  T
   9    -38.3354839 -0.119351E-07  0.429E-04    1.71      41.9  T
  10    -38.3354839 -0.283407E-09  0.202E-04    1.71      88.8  T
     SCC iter.                  ...        0 min,  0.670 sec
     gradient                   ...        0 min,  0.116 sec
 * total energy  :   -37.6666572 Eh     change       -0.4607005E-03 Eh
   gradient norm :     0.0107781 Eh/α   predicted    -0.4055525E-03 ( -11.97%)
   displ. norm   :     0.3573191 α      lambda       -0.5138953E-03
   maximum displ.:     0.2707819 α      in ANC's #8, #5, #7, ...

........................................................................
.............................. CYCLE   26 ..............................
........................................................................
   1    -38.3352171 -0.383352E+02  0.107E-01    1.70       0.0  T
   2    -38.3352246 -0.751069E-05  0.666E-02    1.69       1.0  T
   3    -38.3352048  0.197612E-04  0.357E-02    1.70       1.0  T
   4    -38.3352301 -0.252901E-04  0.100E-02    1.70       1.8  T
   5    -38.3352306 -0.491165E-06  0.711E-03    1.70       2.5  T
   6    -38.3352306  0.687816E-08  0.377E-03    1.70       4.8  T
   7    -38.3352307 -0.863754E-07  0.214E-03    1.70       8.4  T
   8    -38.3352307 -0.590290E-08  0.116E-03    1.70      15.5  T
   9    -38.3352307 -0.177387E-08  0.248E-04    1.70      72.4  T
  10    -38.3352307 -0.549328E-09  0.118E-04    1.70     152.4  T
     SCC iter.                  ...        0 min,  0.763 sec
     gradient                   ...        0 min,  0.173 sec
 * total energy  :   -37.6669682 Eh     change       -0.3110301E-03 Eh
   gradient norm :     0.0152701 Eh/α   predicted    -0.2897543E-03 (  -6.84%)
   displ. norm   :     0.1919771 α      lambda       -0.3743277E-03
   maximum displ.:     0.1654885 α      in ANC's #8, #1, #12, ...

........................................................................
.............................. CYCLE   27 ..............................
........................................................................
   1    -38.3367685 -0.383368E+02  0.818E-02    1.70       0.0  T
   2    -38.3367705 -0.199341E-05  0.559E-02    1.69       1.0  T
   3    -38.3367643  0.618728E-05  0.185E-02    1.70       1.0  T
   4    -38.3367709 -0.657375E-05  0.582E-03    1.69       3.1  T
   5    -38.3367713 -0.389482E-06  0.316E-03    1.69       5.7  T
   6    -38.3367714 -0.434512E-07  0.124E-03    1.69      14.5  T
   7    -38.3367714 -0.119149E-07  0.400E-04    1.69      44.9  T
   8    -38.3367714 -0.546365E-09  0.254E-04    1.69      70.6  T
     SCC iter.                  ...        0 min,  0.461 sec
     gradient                   ...        0 min,  0.106 sec
 * total energy  :   -37.6672692 Eh     change       -0.3009112E-03 Eh
   gradient norm :     0.0073422 Eh/α   predicted    -0.1940645E-03 ( -35.51%)
   displ. norm   :     0.2933984 α      lambda       -0.4071203E-03
   maximum displ.:     0.2577090 α      in ANC's #8, #12, #1, ...

........................................................................
.............................. CYCLE   28 ..............................
........................................................................
   1    -38.3367294 -0.383367E+02  0.116E-01    1.69       0.0  T
   2    -38.3367330 -0.362397E-05  0.805E-02    1.68       1.0  T
   3    -38.3367191  0.138943E-04  0.261E-02    1.69       1.0  T
   4    -38.3367338 -0.147404E-04  0.938E-03    1.68       1.9  T
   5    -38.3367348 -0.936436E-06  0.533E-03    1.68       3.4  T
   6    -38.3367348 -0.727914E-07  0.150E-03    1.68      12.0  T
   7    -38.3367349 -0.169300E-07  0.689E-04    1.68      26.1  T
   8    -38.3367349  0.760217E-09  0.397E-04    1.68      45.2  T
     SCC iter.                  ...        0 min,  0.405 sec
     gradient                   ...        0 min,  0.139 sec
 * total energy  :   -37.6675622 Eh     change       -0.2930216E-03 Eh
   gradient norm :     0.0111766 Eh/α   predicted    -0.2210833E-03 ( -24.55%)
   displ. norm   :     0.3101744 α      lambda       -0.3015946E-03
   maximum displ.:     0.2688410 α      in ANC's #8, #4, #12, ...

........................................................................
.............................. CYCLE   29 ..............................
........................................................................
   1    -38.3370331 -0.383370E+02  0.991E-02    1.68       0.0  T
   2    -38.3370400 -0.686164E-05  0.639E-02    1.68       1.0  T
   3    -38.3370249  0.151215E-04  0.334E-02    1.68       1.0  T
   4    -38.3370444 -0.194851E-04  0.797E-03    1.68       2.3  T
   5    -38.3370447 -0.374986E-06  0.499E-03    1.68       3.6  T
   6    -38.3370448 -0.384660E-07  0.208E-03    1.68       8.7  T
   7    -38.3370448 -0.501417E-07  0.838E-04    1.68      21.4  T
   8    -38.3370448 -0.554429E-09  0.582E-04    1.68      30.9  T
     SCC iter.                  ...        0 min,  0.701 sec
     gradient                   ...        0 min,  0.150 sec
 * total energy  :   -37.6677547 Eh     change       -0.1925431E-03 Eh
   gradient norm :     0.0047974 Eh/α   predicted    -0.1653057E-03 ( -14.15%)
   displ. norm   :     0.2631256 α      lambda       -0.1498711E-03
   maximum displ.:     0.2291057 α      in ANC's #8, #7, #4, ...

........................................................................
.............................. CYCLE   30 ..............................
........................................................................
   1    -38.3355642 -0.383356E+02  0.699E-02    1.67       0.0  T
   2    -38.3355676 -0.336926E-05  0.461E-02    1.66       1.0  T
   3    -38.3355605  0.715093E-05  0.235E-02    1.67       1.0  T
   4    -38.3355701 -0.960886E-05  0.646E-03    1.66       2.8  T
   5    -38.3355702 -0.169989E-06  0.361E-03    1.66       5.0  T
   6    -38.3355703 -0.464206E-07  0.130E-03    1.66      13.8  T
   7    -38.3355703 -0.226532E-07  0.481E-04    1.66      37.4  T
   8    -38.3355703 -0.492484E-09  0.266E-04    1.66      67.6  T
     SCC iter.                  ...        0 min,  0.595 sec
     gradient                   ...        0 min,  0.091 sec
 * total energy  :   -37.6678316 Eh     change       -0.7693136E-04 Eh
   gradient norm :     0.0157707 Eh/α   predicted    -0.8012829E-04 (   4.16%)
   displ. norm   :     0.1580043 α      lambda       -0.1809664E-03
   maximum displ.:     0.0942935 α      in ANC's #8, #2, #10, ...

........................................................................
.............................. CYCLE   31 ..............................
........................................................................
   1    -38.3370773 -0.383371E+02  0.448E-02    1.66       0.0  T
   2    -38.3370820 -0.469772E-05  0.261E-02    1.66       1.0  T
   3    -38.3370827 -0.701420E-06  0.180E-02    1.66       1.0  T
   4    -38.3370855 -0.283477E-05  0.491E-03    1.66       3.7  T
   5    -38.3370856 -0.481771E-07  0.354E-03    1.66       5.1  T
   6    -38.3370856 -0.344426E-07  0.140E-03    1.66      12.9  T
   7    -38.3370856 -0.125599E-07  0.428E-04    1.66      41.9  T
   8    -38.3370856 -0.221902E-09  0.277E-04    1.66      64.8  T
     SCC iter.                  ...        0 min,  0.453 sec
     gradient                   ...        0 min,  0.071 sec
 * total energy  :   -37.6679339 Eh     change       -0.1022831E-03 Eh
   gradient norm :     0.0037295 Eh/α   predicted    -0.9274458E-04 (  -9.33%)
   displ. norm   :     0.1278572 α      lambda       -0.6062180E-04
   maximum displ.:     0.0839900 α      in ANC's #8, #2, #1, ...

........................................................................
.............................. CYCLE   32 ..............................
........................................................................
   1    -38.3370395 -0.383370E+02  0.304E-02    1.66       0.0  T
   2    -38.3370406 -0.109703E-05  0.186E-02    1.65       1.0  T
   3    -38.3370398  0.856420E-06  0.108E-02    1.65       1.7  T
   4    -38.3370414 -0.167154E-05  0.228E-03    1.65       7.9  T
   5    -38.3370414 -0.191362E-07  0.162E-03    1.65      11.1  T
   6    -38.3370414 -0.553227E-08  0.631E-04    1.65      28.5  T
   7    -38.3370415 -0.345437E-08  0.252E-04    1.65      71.3  T
     SCC iter.                  ...        0 min,  0.372 sec
     gradient                   ...        0 min,  0.116 sec
 * total energy  :   -37.6679790 Eh     change       -0.4506101E-04 Eh
   gradient norm :     0.0024794 Eh/α   predicted    -0.3081015E-04 ( -31.63%)
   displ. norm   :     0.1119349 α      lambda       -0.5190333E-04
   maximum displ.:     0.0738746 α      in ANC's #2, #1, #8, ...

........................................................................
.............................. CYCLE   33 ..............................
........................................................................
   1    -38.3374162 -0.383374E+02  0.246E-02    1.65       0.0  T
   2    -38.3374168 -0.602377E-06  0.160E-02    1.65       1.1  T
   3    -38.3374163  0.504452E-06  0.939E-03    1.65       1.9  T
   4    -38.3374172 -0.889597E-06  0.252E-03    1.65       7.1  T
   5    -38.3374172 -0.388414E-07  0.185E-03    1.65       9.7  T
   6    -38.3374172 -0.155249E-07  0.477E-04    1.65      37.7  T
   7    -38.3374172 -0.200260E-08  0.197E-04    1.65      91.1  T
     SCC iter.                  ...        0 min,  0.347 sec
     gradient                   ...        0 min,  0.102 sec
 * total energy  :   -37.6680189 Eh     change       -0.3987604E-04 Eh
   gradient norm :     0.0017430 Eh/α   predicted    -0.2628093E-04 ( -34.09%)
   displ. norm   :     0.1586083 α      lambda       -0.3756465E-04
   maximum displ.:     0.1124882 α      in ANC's #2, #1, #8, ...

........................................................................
.............................. CYCLE   34 ..............................
........................................................................
   1    -38.3373467 -0.383373E+02  0.345E-02    1.65       0.0  T
   2    -38.3373477 -0.989203E-06  0.230E-02    1.64       1.0  T
   3    -38.3373462  0.144150E-05  0.130E-02    1.65       1.4  T
   4    -38.3373483 -0.206633E-05  0.352E-03    1.64       5.1  T
   5    -38.3373484 -0.119575E-06  0.217E-03    1.64       8.3  T
   6    -38.3373484 -0.134838E-07  0.486E-04    1.64      37.0  T
   7    -38.3373484 -0.218874E-08  0.241E-04    1.64      74.7  T
     SCC iter.                  ...        0 min,  0.371 sec
     gradient                   ...        0 min,  0.109 sec
 * total energy  :   -37.6680596 Eh     change       -0.4077026E-04 Eh
   gradient norm :     0.0019783 Eh/α   predicted    -0.1899318E-04 ( -53.41%)
   displ. norm   :     0.1021922 α      lambda       -0.2167280E-04
   maximum displ.:     0.0785469 α      in ANC's #2, #1, #10, ...

........................................................................
.............................. CYCLE   35 ..............................
........................................................................
   1    -38.3374608 -0.383375E+02  0.202E-02    1.65       0.0  T
   2    -38.3374612 -0.484017E-06  0.130E-02    1.65       1.4  T
   3    -38.3374608  0.421004E-06  0.845E-03    1.64       2.1  T
   4    -38.3374616 -0.828754E-06  0.181E-03    1.65       9.9  T
   5    -38.3374617 -0.431568E-07  0.103E-03    1.65      17.5  T
   6    -38.3374617 -0.269227E-08  0.298E-04    1.64      60.2  T
   7    -38.3374617 -0.258254E-09  0.157E-04    1.65     114.8  T
     SCC iter.                  ...        0 min,  0.321 sec
     gradient                   ...        0 min,  0.112 sec
 * total energy  :   -37.6680844 Eh     change       -0.2475481E-04 Eh
   gradient norm :     0.0027288 Eh/α   predicted    -0.1089109E-04 ( -56.00%)
   displ. norm   :     0.0660069 α      lambda       -0.1617380E-04
   maximum displ.:     0.0486556 α      in ANC's #2, #1, #8, ...

........................................................................
.............................. CYCLE   36 ..............................
........................................................................
   1    -38.3373082 -0.383373E+02  0.146E-02    1.64       0.0  T
   2    -38.3373085 -0.379323E-06  0.957E-03    1.64       1.9  T
   3    -38.3373085  0.880483E-07  0.536E-03    1.64       3.4  T
   4    -38.3373088 -0.328381E-06  0.107E-03    1.64      16.8  T
   5    -38.3373088 -0.220572E-07  0.562E-04    1.64      32.0  T
   6    -38.3373088 -0.136438E-08  0.258E-04    1.64      69.6  T
     SCC iter.                  ...        0 min,  0.313 sec
     gradient                   ...        0 min,  0.025 sec
 * total energy  :   -37.6680961 Eh     change       -0.1165937E-04 Eh
   gradient norm :     0.0012465 Eh/α   predicted    -0.8124725E-05 ( -30.32%)
   displ. norm   :     0.0819386 α      lambda       -0.9732813E-05
   maximum displ.:     0.0622858 α      in ANC's #2, #1, #11, ...

........................................................................
.............................. CYCLE   37 ..............................
........................................................................
   1    -38.3370849 -0.383371E+02  0.130E-02    1.65       0.0  T
   2    -38.3370854 -0.547585E-06  0.781E-03    1.65       2.3  T
   3    -38.3370857 -0.229777E-06  0.508E-03    1.65       3.5  T
   4    -38.3370859 -0.195579E-06  0.112E-03    1.65      16.1  T
   5    -38.3370859 -0.264988E-07  0.543E-04    1.65      33.1  T
   6    -38.3370859 -0.729997E-09  0.239E-04    1.65      75.2  T
     SCC iter.                  ...        0 min,  0.313 sec
     gradient                   ...        0 min,  0.025 sec
 * total energy  :   -37.6681051 Eh     change       -0.9085481E-05 Eh
   gradient norm :     0.0013468 Eh/α   predicted    -0.4882548E-05 ( -46.26%)
   displ. norm   :     0.0475975 α      lambda       -0.4201662E-05
   maximum displ.:     0.0365513 α      in ANC's #2, #1, #8, ...

........................................................................
.............................. CYCLE   38 ..............................
........................................................................
   1    -38.3373721 -0.383374E+02  0.101E-02    1.65       0.0  T
   2    -38.3373724 -0.234793E-06  0.569E-03    1.64       3.2  T
   3    -38.3373724 -0.197983E-07  0.398E-03    1.64       4.5  T
   4    -38.3373725 -0.113714E-06  0.967E-04    1.64      18.6  T
   5    -38.3373725 -0.661724E-08  0.732E-04    1.64      24.5  T
     SCC iter.                  ...        0 min,  0.224 sec
     gradient                   ...        0 min,  0.043 sec
 * total energy  :   -37.6681078 Eh     change       -0.2684315E-05 Eh
   gradient norm :     0.0011649 Eh/α   predicted    -0.2104666E-05 ( -21.59%)
   displ. norm   :     0.0257977 α      lambda       -0.2396739E-05
   maximum displ.:     0.0183334 α      in ANC's #2, #1, #4, ...

........................................................................
.............................. CYCLE   39 ..............................
........................................................................
   1    -38.3373468 -0.383373E+02  0.607E-03    1.64       0.0  T
   2    -38.3373468 -0.873577E-07  0.358E-03    1.64       5.0  T
   3    -38.3373469 -0.892359E-08  0.230E-03    1.64       7.8  T
   4    -38.3373469 -0.441692E-07  0.515E-04    1.64      34.9  T
   5    -38.3373469 -0.122680E-08  0.365E-04    1.64      49.2  T
     SCC iter.                  ...        0 min,  0.217 sec
     gradient                   ...        0 min,  0.026 sec
 * total energy  :   -37.6681101 Eh     change       -0.2269859E-05 Eh
   gradient norm :     0.0004686 Eh/α   predicted    -0.1200025E-05 ( -47.13%)
   displ. norm   :     0.0224527 α      lambda       -0.1122378E-05
   maximum displ.:     0.0165548 α      in ANC's #2, #1, #7, ...

   *** GEOMETRY OPTIMIZATION CONVERGED AFTER 39 ITERATIONS ***

------------------------------------------------------------------------
 total energy gain   :        -9.1858334 Eh    -5764.1975 kcal/mol
 total RMSD          :         1.1347792 a0        0.6005 Å
 total power (kW/mol):      -618.3949272 (step) -528.6544 (real)
------------------------------------------------------------------------

 ANCopt (total)                0 d,  0 h,  0 min, 45.620 sec
 optimizer setup                ...        0 min,  0.000 sec (  0.001%)
 model hessian                  ...        0 min,  0.109 sec (  0.238%)
 ANC generation                 ...        0 min,  0.057 sec (  0.126%)
 coordinate transformation      ...        0 min,  0.001 sec (  0.001%)
 single point calculation       ...        0 min, 44.803 sec ( 98.209%)
 optimization log               ...        0 min,  0.009 sec (  0.020%)
 hessian update                 ...        0 min,  0.572 sec (  1.253%)
 rational function              ...        0 min,  0.065 sec (  0.143%)

================
 final structure:
================
31
 xtb: 6.5.1 (b24c23e)
Zr          -1.07982947338783        0.12664860843083        0.28741816277354
C           -2.95542006083222        0.76054269827015       -1.41118155443734
C           -0.18211481541013       -2.09329605826404        1.04993926540205
C            0.59660995144593       -1.73507232945399       -0.07406482703432
C           -0.23546875431364       -1.79015892640707       -1.21624848569694
C           -1.53310474626169       -2.14436066564359       -0.79614216472716
C           -1.50816553398938       -2.31153257962738        0.61780154478472
H            0.20449343914345       -2.32714530610685        2.03399877990307
H            1.67164864122564       -1.59202694076405       -0.08595724205715
H            0.09595232203836       -1.68732703911726       -2.24205401657197
H           -2.33326676072086       -2.46826020119421       -1.45342996557322
H           -2.28948138898194       -2.77206073024299        1.21217496075619
C            0.40730821472791        0.54476128948794        2.26298235928538
C           -0.89981543372497        0.27107921448933        2.75305660496170
C           -1.72204971015279        1.37032245154572        2.41725482848394
C           -0.94285677120366        2.29769941050175        1.69071533915825
C            0.37564779049756        1.79581063962716        1.61567806384324
H            1.30776239499231       -0.01319739157260        2.49562376820863
H           -1.16030557788959       -0.51256695665223        3.45627604175986
H           -2.71473149440811        1.55084708919970        2.81249256209694
H           -1.24628498988672        3.29299953110591        1.38926079901783
H            1.23262405805014        2.32773791320739        1.22225864788621
H           -0.25274406254855        1.02327463933675       -0.94507683820870
H           -2.40361283992738       -0.17006904615810       -1.58577373550085
H           -2.41311997889526        1.56209665351432       -1.95673897784084
C           -3.56881522292443       -0.09264735930112        0.44072169737407
C           -3.25768433179133        1.08326467415667       -0.04562451156000
H           -3.37243355780262        2.07694633866640        0.37318157245774
H           -3.89868445276041        0.67957114387042       -1.98432285993028
H           -3.98201730511882       -0.21509281664302        1.45297117423749
H           -3.72511989921823       -0.96925297827021       -0.17410668323211

 Bond Distances (Angstroems)
 ---------------------------
Zr1-C2=2.6086        Zr1-C3=2.5131        Zr1-C4=2.5312        Zr1-C5=2.5784        Zr1-C6=2.5568        Zr1-C7=2.4975        
Zr1-C13=2.5078       Zr1-C14=2.4764       Zr1-C15=2.5486       Zr1-C16=2.5887       Zr1-C17=2.5824       Zr1-H23=1.7341       
Zr1-H24=2.3129       Zr1-C26=2.5033       Zr1-C27=2.4019       C2-Zr1=2.6086        C2-H24=1.0959        C2-H25=1.1110        
C2-C27=1.4354        C2-H29=1.1067        C3-Zr1=2.5131        C3-C4=1.4135         C3-C7=1.4117         C3-H8=1.0828         
C4-Zr1=2.5312        C4-C3=1.4135         C4-C5=1.4142         C4-H9=1.0846         C5-Zr1=2.5784        C5-C4=1.4142         
C5-C6=1.4092         C5-H10=1.0829        C6-Zr1=2.5568        C6-C5=1.4092         C6-C7=1.4240         C6-H11=1.0850        
C7-Zr1=2.4975        C7-C3=1.4117         C7-C6=1.4240         C7-H12=1.0844        H8-C3=1.0828         H9-C4=1.0846         
H10-C5=1.0829        H11-C6=1.0850        H12-C7=1.0844        C13-Zr1=2.5078       C13-C14=1.4225       C13-C17=1.4089       
C13-H18=1.0846       C14-Zr1=2.4764       C14-C13=1.4225       C14-C15=1.4132       C14-H19=1.0847       C15-Zr1=2.5486       
C15-C14=1.4132       C15-C16=1.4125       C15-H20=1.0836       C16-Zr1=2.5887       C16-C15=1.4125       C16-C17=1.4128       
C16-H21=1.0833       C17-Zr1=2.5824       C17-C13=1.4089       C17-C16=1.4128       C17-H22=1.0827       H18-C13=1.0846       
H19-C14=1.0847       H20-C15=1.0836       H21-C16=1.0833       H22-C17=1.0827       H23-Zr1=1.7341       H24-Zr1=2.3129       
H24-C2=1.0959        H25-C2=1.1110        C26-Zr1=2.5033       C26-C27=1.3100       C26-H30=1.1002       C26-H31=1.0821       
C27-Zr1=2.4019       C27-C2=1.4354        C27-C26=1.3100       C27-H28=1.0844       H28-C27=1.0844       H29-C2=1.1067        
H30-C26=1.1002       H31-C26=1.0821       
 C  H  Rav=1.0887 sigma=0.0090  Rmin=1.0821  Rmax=1.1110    16
 C  C  Rav=1.4073 sigma=0.0302  Rmin=1.3100  Rmax=1.4354    12
 Zr H  Rav=2.0235 sigma=0.2894  Rmin=1.7341  Rmax=2.3129     2
 Zr C  Rav=2.5304 sigma=0.0538  Rmin=2.4019  Rmax=2.6086    13

 selected bond angles (degree)
 --------------------
C3-Zr1-C2=132.00               C4-Zr1-C2=124.19               C4-Zr1-C3= 32.55               C5-Zr1-C2= 92.08               
C5-Zr1-C3= 53.36               C5-Zr1-C4= 32.12               C6-Zr1-C2= 79.19               C6-Zr1-C3= 53.65               
C6-Zr1-C4= 53.39               C6-Zr1-C5= 31.85               C7-Zr1-C2=101.54               C7-Zr1-C3= 32.73               
C7-Zr1-C4= 54.16               C7-Zr1-C5= 53.67               C7-Zr1-C6= 32.70               C13-Zr1-C2=154.00              
C13-Zr1-C3= 72.33              C13-Zr1-C4= 80.93              C13-Zr1-C5=112.90              C13-Zr1-C6=125.95              
C13-Zr1-C7= 99.22              C14-Zr1-C2=133.35              C14-Zr1-C3= 73.95              C14-Zr1-C4= 97.87              
C14-Zr1-C5=126.88              C14-Zr1-C6=119.12              C14-Zr1-C7= 86.43              C14-Zr1-C13= 33.16             
C15-Zr1-C2=104.15              C15-Zr1-C3=105.52              C15-Zr1-C4=130.18              C15-Zr1-C5=158.85              
C15-Zr1-C6=137.98              C15-Zr1-C7=108.82              C15-Zr1-C13= 53.83             C15-Zr1-C14= 32.63             
C16-Zr1-C2=100.79              C16-Zr1-C3=123.88              C16-Zr1-C4=131.24              C16-Zr1-C5=157.26              
C16-Zr1-C6=169.75              C16-Zr1-C7=139.12              C16-Zr1-C13= 53.26             C16-Zr1-C14= 53.67             
C16-Zr1-C15= 31.90             C17-Zr1-C2=125.67              C17-Zr1-C3=102.33              C17-Zr1-C4=100.11              
C17-Zr1-C5=126.58              C17-Zr1-C6=153.13              C17-Zr1-C7=131.27              C17-Zr1-C13= 32.10             
C17-Zr1-C14= 53.79             C17-Zr1-C15= 52.90             C17-Zr1-C16= 31.71             H23-Zr1-C2= 75.79              
H23-Zr1-C3=120.13              H23-Zr1-C4= 87.87              H23-Zr1-C5= 79.26              H23-Zr1-C6=104.04              
H23-Zr1-C7=132.89              H23-Zr1-C13=101.00             H23-Zr1-C14=130.00             H23-Zr1-C15=117.51             
H23-Zr1-C16= 85.78             H23-Zr1-C17= 76.26             H24-Zr1-C2= 24.81              H24-Zr1-C3=109.69              
H24-Zr1-C4= 99.73              H24-Zr1-C5= 67.65              H24-Zr1-C6= 56.04              H24-Zr1-C7= 83.32              
H24-Zr1-C13=177.20             H24-Zr1-C14=148.81             H24-Zr1-C15=126.53             H24-Zr1-C16=125.23             
H24-Zr1-C17=145.29             H24-Zr1-H23= 76.33             C26-Zr1-C2= 49.18              C26-Zr1-C3=105.02              
C26-Zr1-C4=127.07              C26-Zr1-C5=107.23              C26-Zr1-C6= 76.81              C26-Zr1-C7= 74.68              
C26-Zr1-C13=123.78             C26-Zr1-C14= 90.94             C26-Zr1-C15= 74.99             C26-Zr1-C16= 95.33             
C26-Zr1-C17=125.84             C26-Zr1-H23=124.27             C26-Zr1-H24= 57.95             C27-Zr1-C2= 32.97              
C27-Zr1-C3=135.87              C27-Zr1-C4=150.89              C27-Zr1-C5=120.81              C27-Zr1-C6= 97.72              
C27-Zr1-C7=104.58              C27-Zr1-C13=125.49             C27-Zr1-C14=100.41             C27-Zr1-C15= 72.12             
C27-Zr1-C16= 77.83             C27-Zr1-C17=108.96             C27-Zr1-H23= 97.35             C27-Zr1-H24= 54.54             
C27-Zr1-C26= 30.89             H24-C2-Zr1= 62.31              H25-C2-Zr1= 98.29              H25-C2-H24=106.78              
C27-C2-Zr1= 65.58              C27-C2-H24=116.65              C27-C2-H25=114.06              H29-C2-Zr1=158.79              
H29-C2-H24=106.53              H29-C2-H25=102.39              H29-C2-C27=109.25              C4-C3-Zr1= 74.43               
C7-C3-Zr1= 73.03               C7-C3-C4=108.26                H8-C3-Zr1=126.45               H8-C3-C4=125.50                
H8-C3-C7=125.46                C3-C4-Zr1= 73.02               C5-C4-Zr1= 75.78               C5-C4-C3=107.95                
H9-C4-Zr1=124.13               H9-C4-C3=126.03                H9-C4-C5=125.41                C4-C5-Zr1= 72.10               
C6-C5-Zr1= 73.23               C6-C5-C4=108.11                H10-C5-Zr1=125.60              H10-C5-C4=125.54               
H10-C5-C6=126.02               C5-C6-Zr1= 74.92               C7-C6-Zr1= 71.36               C7-C6-C5=108.02                
H11-C6-Zr1=130.74              H11-C6-C5=125.00               H11-C6-C7=125.41               C3-C7-Zr1= 74.24               
C6-C7-Zr1= 75.94               C6-C7-C3=107.59                H12-C7-Zr1=127.64              H12-C7-C3=125.08               
H12-C7-C6=125.56               

 selected dihedral angles (degree)
 ---------------------------------
H24-C2-Zr1-C3=330.15          H24-C2-Zr1-C4= 10.71          H24-C2-Zr1-C5=  9.73          H24-C2-Zr1-C6=340.46          
H24-C2-Zr1-C7=316.43          H24-C2-Zr1-C13=174.08         H24-C2-Zr1-C14=220.39         H24-C2-Zr1-C15=203.41         
H24-C2-Zr1-C16=170.89         H24-C2-Zr1-C17=149.20         H24-C2-Zr1-H23= 88.10         H24-C2-Zr1-C26=258.62         
H24-C2-Zr1-C27=217.39         H25-C2-Zr1-C3=225.49          H25-C2-Zr1-C4=266.06          H25-C2-Zr1-C5=265.08          
H25-C2-Zr1-C6=235.80          H25-C2-Zr1-C7=211.78          H25-C2-Zr1-C13= 69.43         H25-C2-Zr1-C14=115.73         
H25-C2-Zr1-C15= 98.76         H25-C2-Zr1-C16= 66.24         H25-C2-Zr1-C17= 44.55         H25-C2-Zr1-H23=343.45         
H25-C2-Zr1-H24=255.34         H25-C2-Zr1-C26=153.96         H25-C2-Zr1-C27=112.73         C27-C2-Zr1-C3=112.76          
C27-C2-Zr1-C4=153.33          C27-C2-Zr1-C5=152.34          C27-C2-Zr1-C6=123.07          C27-C2-Zr1-C7= 99.04          
C27-C2-Zr1-C13=316.69         C27-C2-Zr1-C14=  3.00         C27-C2-Zr1-C15=346.02         C27-C2-Zr1-C16=313.50         
C27-C2-Zr1-C17=291.82         C27-C2-Zr1-H23=230.72         C27-C2-Zr1-H24=142.61         C27-C2-Zr1-C26= 41.23         
H29-C2-Zr1-C3= 32.51          H29-C2-Zr1-C4= 73.07          H29-C2-Zr1-C5= 72.09          H29-C2-Zr1-C6= 42.82          
H29-C2-Zr1-C7= 18.79          H29-C2-Zr1-C13=236.44         H29-C2-Zr1-C14=282.75         H29-C2-Zr1-C15=265.77         
H29-C2-Zr1-C16=233.25         H29-C2-Zr1-C17=211.56         H29-C2-Zr1-H23=150.46         H29-C2-Zr1-H24= 62.36         
H29-C2-Zr1-C26=320.97         H29-C2-Zr1-C27=279.75         C4-C3-Zr1-C2= 89.70           C4-C3-Zr1-C5= 37.18           
C4-C3-Zr1-C6= 77.10           C4-C3-Zr1-C7=115.15           C4-C3-Zr1-C13=258.95          C4-C3-Zr1-C14=224.29          
C4-C3-Zr1-C15=215.95          C4-C3-Zr1-C16=244.92          C4-C3-Zr1-C17=270.49          C4-C3-Zr1-H23=351.62          
C4-C3-Zr1-H24= 76.89          C4-C3-Zr1-C26=137.70          C4-C3-Zr1-C27=135.81          C7-C3-Zr1-C2=334.55           
C7-C3-Zr1-C4=244.85           C7-C3-Zr1-C5=282.03           C7-C3-Zr1-C6=321.95           C7-C3-Zr1-C13=143.79          
C7-C3-Zr1-C14=109.14          C7-C3-Zr1-C15=100.80          C7-C3-Zr1-C16=129.77          C7-C3-Zr1-C17=155.34          
C7-C3-Zr1-H23=236.47          C7-C3-Zr1-H24=321.74          C7-C3-Zr1-C26= 22.55          C7-C3-Zr1-C27= 20.66          
H8-C3-Zr1-C2=212.63           H8-C3-Zr1-C4=122.93           H8-C3-Zr1-C5=160.11           H8-C3-Zr1-C6=200.03           
H8-C3-Zr1-C7=238.08           H8-C3-Zr1-C13= 21.88          H8-C3-Zr1-C14=347.22          H8-C3-Zr1-C15=338.88          
H8-C3-Zr1-C16=  7.85          H8-C3-Zr1-C17= 33.42          H8-C3-Zr1-H23=114.55          H8-C3-Zr1-H24=199.82          
H8-C3-Zr1-C26=260.63          H8-C3-Zr1-C27=258.74          C3-C4-Zr1-C2=243.96           C3-C4-Zr1-C5=245.81           
C3-C4-Zr1-C6=282.02           C3-C4-Zr1-C7=322.87           C3-C4-Zr1-C13= 71.26          C3-C4-Zr1-C14= 42.64          
C3-C4-Zr1-C15= 47.76          C3-C4-Zr1-C16= 90.25          C3-C4-Zr1-C17= 97.11          C3-C4-Zr1-H23=172.75          
C3-C4-Zr1-H24=248.50          C3-C4-Zr1-C26=305.45          C3-C4-Zr1-C27=274.09          C5-C4-Zr1-C2=358.15           
C5-C4-Zr1-C3=114.19           C5-C4-Zr1-C6= 36.22           C5-C4-Zr1-C7= 77.06           C5-C4-Zr1-C13=185.45          
C5-C4-Zr1-C14=156.84          C5-C4-Zr1-C15=161.95          C5-C4-Zr1-C16=204.45          C5-C4-Zr1-C17=211.31          
C5-C4-Zr1-H23=286.95          C5-C4-Zr1-H24=  2.69          C5-C4-Zr1-C26= 59.65          C5-C4-Zr1-C27= 28.29          
H9-C4-Zr1-C2=121.54           H9-C4-Zr1-C3=237.59           H9-C4-Zr1-C5=123.39           H9-C4-Zr1-C6=159.61           
H9-C4-Zr1-C7=200.45           H9-C4-Zr1-C13=308.84          H9-C4-Zr1-C14=280.23          H9-C4-Zr1-C15=285.35          
H9-C4-Zr1-C16=327.84          H9-C4-Zr1-C17=334.70          H9-C4-Zr1-H23= 50.34          H9-C4-Zr1-H24=126.08          
H9-C4-Zr1-C26=183.04          H9-C4-Zr1-C27=151.68          Zr1-C4-C3-C7= 65.74           Zr1-C4-C3-H8=236.03           
C5-C4-C3-Zr1=291.65           C5-C4-C3-C7=357.39            C5-C4-C3-H8=167.68            H9-C4-C3-Zr1=120.22           
H9-C4-C3-C7=185.95            H9-C4-C3-H8=356.25            C4-C5-Zr1-C2=178.47           C4-C5-Zr1-C3=322.30           
C4-C5-Zr1-C6=244.00           C4-C5-Zr1-C7=281.28           C4-C5-Zr1-C13=  5.84          C4-C5-Zr1-C14=330.85          
C4-C5-Zr1-C15=319.00          C4-C5-Zr1-C16= 53.61          C4-C5-Zr1-C17= 39.57          C4-C5-Zr1-H23=103.36          
C4-C5-Zr1-H24=182.87          C4-C5-Zr1-C26=226.12          C4-C5-Zr1-C27=195.57          C6-C5-Zr1-C2=294.47           
C6-C5-Zr1-C3= 78.30           C6-C5-Zr1-C4=116.00           C6-C5-Zr1-C7= 37.28           C6-C5-Zr1-C13=121.85          
C6-C5-Zr1-C14= 86.85          C6-C5-Zr1-C15= 75.00          C6-C5-Zr1-C16=169.62          C6-C5-Zr1-C17=155.57          
C6-C5-Zr1-H23=219.36          C6-C5-Zr1-H24=298.87          C6-C5-Zr1-C26=342.13          C6-C5-Zr1-C27=311.58          
H10-C5-Zr1-C2= 57.13          H10-C5-Zr1-C3=200.96          H10-C5-Zr1-C4=238.66          H10-C5-Zr1-C6=122.66          
H10-C5-Zr1-C7=159.94          H10-C5-Zr1-C13=244.51         H10-C5-Zr1-C14=209.51         H10-C5-Zr1-C15=197.66         
H10-C5-Zr1-C16=292.28         H10-C5-Zr1-C17=278.23         H10-C5-Zr1-H23=342.02         H10-C5-Zr1-H24= 61.53         
H10-C5-Zr1-C26=104.79         H10-C5-Zr1-C27= 74.23         Zr1-C5-C4-C3= 66.50           Zr1-C5-C4-H9=238.00           
C6-C5-C4-Zr1=295.13           C6-C5-C4-C3=  1.62            C6-C5-C4-H9=173.12            H10-C5-C4-Zr1=121.40          
H10-C5-C4-C3=187.90           H10-C5-C4-H9=359.40           C5-C6-Zr1-C2=112.18           C5-C6-Zr1-C3=282.68           
C5-C6-Zr1-C4=323.47           C5-C6-Zr1-C7=244.59           C5-C6-Zr1-C13=284.85          C5-C6-Zr1-C14=246.09          
C5-C6-Zr1-C15=211.37          C5-C6-Zr1-C16=203.05          C5-C6-Zr1-C17=312.72          C5-C6-Zr1-H23= 39.97          
C5-C6-Zr1-H24=102.44          C5-C6-Zr1-C26=162.48          C5-C6-Zr1-C27=139.58          C7-C6-Zr1-C2=227.59           
C7-C6-Zr1-C3= 38.08           C7-C6-Zr1-C4= 78.87           C7-C6-Zr1-C5=115.41           C7-C6-Zr1-C13= 40.26          
C7-C6-Zr1-C14=  1.50          C7-C6-Zr1-C15=326.78          C7-C6-Zr1-C16=318.45          C7-C6-Zr1-C17= 68.12          
C7-C6-Zr1-H23=155.37          C7-C6-Zr1-H24=217.85          C7-C6-Zr1-C26=277.89          C7-C6-Zr1-C27=254.99          
H11-C6-Zr1-C2=348.69          H11-C6-Zr1-C3=159.18          H11-C6-Zr1-C4=199.97          H11-C6-Zr1-C5=236.50          
H11-C6-Zr1-C7=121.10          H11-C6-Zr1-C13=161.36         H11-C6-Zr1-C14=122.60         H11-C6-Zr1-C15= 87.88         
H11-C6-Zr1-C16= 79.55         H11-C6-Zr1-C17=189.22         H11-C6-Zr1-H23=276.47         H11-C6-Zr1-H24=338.94         
H11-C6-Zr1-C26= 38.98         H11-C6-Zr1-C27= 16.08         Zr1-C6-C5-C4= 64.14           Zr1-C6-C5-H10=237.83          
C7-C6-C5-Zr1=295.84           C7-C6-C5-C4=359.97            C7-C6-C5-H10=173.66           H11-C6-C5-Zr1=129.53          
H11-C6-C5-C4=193.67           H11-C6-C5-H10=  7.36          C3-C7-Zr1-C2=160.98           C3-C7-Zr1-C4= 36.92           
C3-C7-Zr1-C5= 76.95           C3-C7-Zr1-C6=113.23           C3-C7-Zr1-C13=325.24          C3-C7-Zr1-C14=294.54          
C3-C7-Zr1-C15=270.44          C3-C7-Zr1-C16=282.84          C3-C7-Zr1-C17=327.15          C3-C7-Zr1-H23= 79.74          
C3-C7-Zr1-H24=144.05          C3-C7-Zr1-C26=202.59          C3-C7-Zr1-C27=194.70          C6-C7-Zr1-C2= 47.75           
C6-C7-Zr1-C3=246.77           C6-C7-Zr1-C4=283.69           C6-C7-Zr1-C5=323.72           C6-C7-Zr1-C13=212.01          
C6-C7-Zr1-C14=181.31          C6-C7-Zr1-C15=157.21          C6-C7-Zr1-C16=169.61          C6-C7-Zr1-C17=213.92          
C6-C7-Zr1-H23=326.51          C6-C7-Zr1-H24= 30.82          C6-C7-Zr1-C26= 89.36          C6-C7-Zr1-C27= 81.47          
H12-C7-Zr1-C2=283.42          H12-C7-Zr1-C3=122.45          H12-C7-Zr1-C4=159.37          H12-C7-Zr1-C5=199.40          
H12-C7-Zr1-C6=235.68          H12-C7-Zr1-C13= 87.68         H12-C7-Zr1-C14= 56.99         H12-C7-Zr1-C15= 32.88         
H12-C7-Zr1-C16= 45.29         H12-C7-Zr1-C17= 89.60         H12-C7-Zr1-H23=202.19         H12-C7-Zr1-H24=266.50         
H12-C7-Zr1-C26=325.03         H12-C7-Zr1-C27=317.15         Zr1-C7-C3-C4=293.33           Zr1-C7-C3-H8=123.04           
C6-C7-C3-Zr1= 69.25           C6-C7-C3-C4=  2.58            C6-C7-C3-H8=192.29            H12-C7-C3-Zr1=234.74          
H12-C7-C3-C4=168.08           H12-C7-C3-H8=357.78           Zr1-C7-C6-C5= 66.52           Zr1-C7-C6-H11=232.75          
C3-C7-C6-Zr1=291.91           C3-C7-C6-C5=358.42            C3-C7-C6-H11=164.66           H12-C7-C6-Zr1=126.50          
H12-C7-C6-C5=193.02           H12-C7-C6-H11=359.25          
           -------------------------------------------------
          |                Final Singlepoint                |
           -------------------------------------------------

          ...................................................
          :                      SETUP                      :
          :.................................................:
          :  # basis functions                  79          :
          :  # atomic orbitals                  78          :
          :  # shells                           46          :
          :  # electrons                        72          :
          :  max. iterations                   250          :
          :  Hamiltonian                  GFN2-xTB          :
          :  restarted?                      false          :
          :  GBSA solvation                  false          :
          :  PC potential                    false          :
          :  electronic temp.          300.0000000     K    :
          :  accuracy                    1.0000000          :
          :  -> integral cutoff          0.2500000E+02      :
          :  -> integral neglect         0.1000000E-07      :
          :  -> SCF convergence          0.1000000E-05 Eh   :
          :  -> wf. convergence          0.1000000E-03 e    :
          :  Broyden damping             0.4000000          :
          ...................................................

 iter      E             dE          RMSdq      gap      omega  full diag
   1    -38.3373469 -0.383373E+02  0.127E-04    1.64       0.0  T
   2    -38.3373469 -0.803198E-10  0.924E-05    1.64     194.3  T
   3    -38.3373469 -0.112983E-09  0.552E-05    1.64     325.5  T

   *** convergence criteria satisfied after 3 iterations ***

         #    Occupation            Energy/Eh            Energy/eV
      -------------------------------------------------------------
         1        2.0000           -0.8889541             -24.1897
       ...           ...                  ...                  ...
        30        2.0000           -0.5821539             -15.8412
        31        2.0000           -0.5810898             -15.8123
        32        2.0000           -0.5643463             -15.3566
        33        2.0000           -0.5175715             -14.0838
        34        2.0000           -0.5098842             -13.8747
        35        2.0000           -0.5045079             -13.7284
        36        2.0000           -0.5001732             -13.6104 (HOMO)
        37                         -0.4397571             -11.9664 (LUMO)
        38                         -0.4181886             -11.3795
        39                         -0.4161778             -11.3248
        40                         -0.4122908             -11.2190
        41                         -0.4041341             -10.9970
       ...                                ...                  ...
        78                          2.5045415              68.1520
      -------------------------------------------------------------
                  HL-Gap            0.0604161 Eh            1.6440 eV
             Fermi-level           -0.4699651 Eh          -12.7884 eV

 SCC (total)                   0 d,  0 h,  0 min,  0.205 sec
 SCC setup                      ...        0 min,  0.000 sec (  0.195%)
 Dispersion                     ...        0 min,  0.000 sec (  0.059%)
 classical contributions        ...        0 min,  0.000 sec (  0.015%)
 integral evaluation            ...        0 min,  0.010 sec (  4.962%)
 iterations                     ...        0 min,  0.145 sec ( 70.686%)
 molecular gradient             ...        0 min,  0.049 sec ( 23.991%)
 printout                       ...        0 min,  0.000 sec (  0.078%)

         :::::::::::::::::::::::::::::::::::::::::::::::::::::
         ::                     SUMMARY                     ::
         :::::::::::::::::::::::::::::::::::::::::::::::::::::
         :: total energy             -37.668110092843 Eh    ::
         :: gradient norm              0.000468252832 Eh/a0 ::
         :: HOMO-LUMO gap              1.644005463121 eV    ::
         ::.................................................::
         :: SCC energy               -38.337346899409 Eh    ::
         :: -> isotropic ES            0.097914258011 Eh    ::
         :: -> anisotropic ES         -0.014033101062 Eh    ::
         :: -> anisotropic XC          0.021740366821 Eh    ::
         :: -> dispersion             -0.033075429414 Eh    ::
         :: repulsion energy           0.665907442658 Eh    ::
         :: add. restraining           0.002699477279 Eh    ::
         :: total charge               1.000000000000 e     ::
         :::::::::::::::::::::::::::::::::::::::::::::::::::::

           -------------------------------------------------
          |                Property Printout                |
           -------------------------------------------------

    * Orbital Energies and Occupations

         #    Occupation            Energy/Eh            Energy/eV
      -------------------------------------------------------------
         1        2.0000           -0.8889541             -24.1897
       ...           ...                  ...                  ...
        24        2.0000           -0.5965683             -16.2335
        25        2.0000           -0.5933695             -16.1464
        26        2.0000           -0.5906027             -16.0711
        27        2.0000           -0.5896222             -16.0444
        28        2.0000           -0.5863852             -15.9564
        29        2.0000           -0.5857038             -15.9378
        30        2.0000           -0.5821539             -15.8412
        31        2.0000           -0.5810898             -15.8123
        32        2.0000           -0.5643463             -15.3566
        33        2.0000           -0.5175715             -14.0838
        34        2.0000           -0.5098842             -13.8747
        35        2.0000           -0.5045079             -13.7284
        36        2.0000           -0.5001732             -13.6104 (HOMO)
        37                         -0.4397571             -11.9664 (LUMO)
        38                         -0.4181886             -11.3795
        39                         -0.4161778             -11.3248
        40                         -0.4122908             -11.2190
        41                         -0.4041341             -10.9970
        42                         -0.3817757             -10.3886
        43                         -0.3106507              -8.4532
        44                         -0.3028072              -8.2398
        45                         -0.3002522              -8.1703
        46                         -0.2945626              -8.0155
        47                         -0.0980323              -2.6676
       ...                                ...                  ...
        78                          2.5045415              68.1520
      -------------------------------------------------------------
                  HL-Gap            0.0604161 Eh            1.6440 eV
             Fermi-level           -0.4699651 Eh          -12.7884 eV

     #   Z          covCN         q      C6AA      α(0)
     1  40 Zr      10.529     1.066   135.819    17.512
     2   6 C        4.653    -0.154    23.369     6.865
     3   6 C        3.739    -0.087    22.244     6.730
     4   6 C        3.728    -0.077    22.067     6.706
     5   6 C        3.695    -0.070    22.026     6.714
     6   6 C        3.713    -0.101    22.575     6.789
     7   6 C        3.742    -0.105    22.584     6.780
     8   1 H        0.925     0.089     1.885     2.147
     9   1 H        0.925     0.090     1.875     2.141
    10   1 H        0.925     0.084     1.937     2.177
    11   1 H        0.925     0.067     2.124     2.279
    12   1 H        0.925     0.076     2.016     2.221
    13   6 C        3.741    -0.088    22.258     6.731
    14   6 C        3.754    -0.102    22.511     6.765
    15   6 C        3.718    -0.100    22.535     6.781
    16   6 C        3.691    -0.086    22.344     6.764
    17   6 C        3.694    -0.062    21.880     6.692
    18   1 H        0.925     0.089     1.886     2.147
    19   1 H        0.925     0.082     1.958     2.188
    20   1 H        0.925     0.068     2.105     2.269
    21   1 H        0.925     0.073     2.051     2.239
    22   1 H        0.925     0.090     1.878     2.143
    23   1 H        0.854    -0.432    66.966    12.822
    24   1 H        1.301     0.132     1.511     1.919
    25   1 H        0.922     0.113     1.673     2.023
    26   6 C        3.805    -0.127    22.930     6.817
    27   6 C        3.660    -0.024    21.290     6.621
    28   1 H        0.925     0.146     1.417     1.862
    29   1 H        0.922     0.121     1.607     1.982
    30   1 H        0.923     0.101     1.776     2.084
    31   1 H        0.927     0.128     1.551     1.948

 Mol. C6AA /au·bohr⁶  :      10560.245788
 Mol. C8AA /au·bohr⁸  :     340559.301003
 Mol. α(0) /au        :        151.859766


Wiberg/Mayer (AO) data.
largest (>0.10) Wiberg bond orders for each atom

 ---------------------------------------------------------------------------
     #   Z sym  total        # sym  WBO       # sym  WBO       # sym  WBO
 ---------------------------------------------------------------------------
     1  40 Zr   4.095 --    23 H    0.650     4 C    0.263    14 C    0.260
                            13 C    0.257    17 C    0.251     7 C    0.246
                            16 C    0.231     3 C    0.229     5 C    0.228
                            15 C    0.225     6 C    0.218    26 C    0.174
                            27 C    0.172     2 C    0.119
     2   6 C    3.981 --    27 C    1.017    29 H    0.929    25 H    0.928
                            24 H    0.859     1 Zr   0.119
     3   6 C    3.981 --     7 C    1.317     4 C    1.306     8 H    0.924
                             1 Zr   0.229
     4   6 C    3.983 --     3 C    1.306     5 C    1.300     9 H    0.921
                             1 Zr   0.263
     5   6 C    3.984 --     6 C    1.329     4 C    1.300    10 H    0.930
                             1 Zr   0.228
     6   6 C    3.975 --     5 C    1.329     7 C    1.264    11 H    0.930
                             1 Zr   0.218
     7   6 C    3.976 --     3 C    1.317     6 C    1.264    12 H    0.926
                             1 Zr   0.246
     8   1 H    0.991 --     3 C    0.924
     9   1 H    0.989 --     4 C    0.921
    10   1 H    0.990 --     5 C    0.930
    11   1 H    0.993 --     6 C    0.930
    12   1 H    0.993 --     7 C    0.926
    13   6 C    3.981 --    17 C    1.322    14 C    1.274    18 H    0.920
                             1 Zr   0.257
    14   6 C    3.976 --    15 C    1.307    13 C    1.274    19 H    0.922
                             1 Zr   0.260
    15   6 C    3.977 --    16 C    1.314    14 C    1.307    20 H    0.932
                             1 Zr   0.225
    16   6 C    3.980 --    15 C    1.314    17 C    1.303    21 H    0.932
                             1 Zr   0.231
    17   6 C    3.985 --    13 C    1.322    16 C    1.303    22 H    0.927
                             1 Zr   0.251
    18   1 H    0.989 --    13 C    0.920
    19   1 H    0.992 --    14 C    0.922
    20   1 H    0.993 --    15 C    0.932
    21   1 H    0.991 --    16 C    0.932
    22   1 H    0.989 --    17 C    0.927
    23   1 H    0.813 --     1 Zr   0.650
    24   1 H    0.982 --     2 C    0.859
    25   1 H    0.986 --     2 C    0.928
    26   6 C    3.986 --    27 C    1.787    30 H    0.926    31 H    0.907
                             1 Zr   0.174
    27   6 C    3.981 --    26 C    1.787     2 C    1.017    28 H    0.892
                             1 Zr   0.172
    28   1 H    0.977 --    27 C    0.892
    29   1 H    0.984 --     2 C    0.929
    30   1 H    0.989 --    26 C    0.926
    31   1 H    0.983 --    26 C    0.907
 ---------------------------------------------------------------------------

Topologies differ in total number of bonds
Writing topology from bond orders to xtbtopo.mol

molecular dipole:
                 x           y           z       tot (Debye)
 q only:       -4.153      -0.044       0.613
   full:       -4.391       0.059       0.407      11.211
molecular quadrupole (traceless):
                xx          xy          yy          xz          yz          zz
 q only:       20.988      -4.395     -11.867       2.885      -0.737      -9.121
  q+dip:       23.222      -3.910     -12.531       1.918      -2.668     -10.691
   full:       23.487      -4.222     -13.106       2.201      -2.440     -10.381

           -------------------------------------------------
          |                Geometry Summary                 |
           -------------------------------------------------

      molecular mass/u    :      264.4982010
   center of mass at/Å    :       -1.1692436      -0.0499318       0.5446029
  moments of inertia/u·Å² :        0.5829775E+03   0.7181636E+03   0.9801368E+03
rotational constants/cm⁻¹ :        0.2891644E-01   0.2347325E-01   0.1719927E-01

 * 42 selected distances

     #   Z          #   Z                                           value/Å
     1  40 Zr       2   6 C                                       2.6086211 (max)
     1  40 Zr       3   6 C                                       2.5130630
     1  40 Zr       4   6 C                                       2.5312300
     3   6 C        4   6 C                                       1.4135495
     1  40 Zr       5   6 C                                       2.5783931
     4   6 C        5   6 C                                       1.4142042
     1  40 Zr       6   6 C                                       2.5567647
     5   6 C        6   6 C                                       1.4091869
     1  40 Zr       7   6 C                                       2.4974694
     3   6 C        7   6 C                                       1.4116590
     6   6 C        7   6 C                                       1.4240104
     3   6 C        8   1 H                                       1.0828318
     4   6 C        9   1 H                                       1.0845791
     5   6 C       10   1 H                                       1.0829088
     6   6 C       11   1 H                                       1.0849874
     7   6 C       12   1 H                                       1.0843526
     1  40 Zr      13   6 C                                       2.5078381
     1  40 Zr      14   6 C                                       2.4764166
    13   6 C       14   6 C                                       1.4225496
     1  40 Zr      15   6 C                                       2.5486029
    14   6 C       15   6 C                                       1.4132120
     1  40 Zr      16   6 C                                       2.5887192
    15   6 C       16   6 C                                       1.4124552
     1  40 Zr      17   6 C                                       2.5824003
    13   6 C       17   6 C                                       1.4089464
    16   6 C       17   6 C                                       1.4127907
    13   6 C       18   1 H                                       1.0845542
    14   6 C       19   1 H                                       1.0846540
    15   6 C       20   1 H                                       1.0836140
    16   6 C       21   1 H                                       1.0833125
    17   6 C       22   1 H                                       1.0826514
     1  40 Zr      23   1 H                                       1.7340856
     2   6 C       24   1 H                                       1.0959070
     2   6 C       25   1 H                                       1.1109506
     1  40 Zr      26   6 C                                       2.5033266
     1  40 Zr      27   6 C                                       2.4018919
     2   6 C       27   6 C                                       1.4353604
    26   6 C       27   6 C                                       1.3100017
    27   6 C       28   1 H                                       1.0844212
     2   6 C       29   1 H                                       1.1067047
    26   6 C       30   1 H                                       1.1001718
    26   6 C       31   1 H                                       1.0820733 (min)

 * 4 distinct bonds (by element types)

   Z      Z             #   av. dist./Å        max./Å        min./Å
   1 H    6 C          16     1.0886672     1.1109506     1.0820733
   6 C    6 C          12     1.4073272     1.4353604     1.3100017
   1 H   40 Zr          1     1.7340856     1.7340856     1.7340856
   6 C   40 Zr         13     2.5303644     2.6086211     2.4018919


optimized geometry written to: xtbopt.xyz


           -------------------------------------------------
          | TOTAL ENERGY              -37.668110092843 Eh   |
          | GRADIENT NORM               0.000468252832 Eh/α |
          | HOMO-LUMO GAP               1.644005463121 eV   |
           -------------------------------------------------

------------------------------------------------------------------------
 * finished run on 2026/08/18 at 18:31:28.702     
------------------------------------------------------------------------
 total:
 * wall-time:     0 d,  0 h,  0 min, 48.017 sec
 *  cpu-time:     0 d,  0 h,  1 min, 44.377 sec
 * ratio c/w:     2.174 speedup
 SCF:
 * wall-time:     0 d,  0 h,  0 min,  1.949 sec
 *  cpu-time:     0 d,  0 h,  0 min,  3.455 sec
 * ratio c/w:     1.773 speedup
 ANC optimizer:
 * wall-time:     0 d,  0 h,  0 min, 45.837 sec
 *  cpu-time:     0 d,  0 h,  1 min, 40.580 sec
 * ratio c/w:     2.194 speedup

