      -----------------------------------------------------------      
     |                   =====================                   |     
     |                           x T B                           |     
     |                   =====================                   |     
     |                         S. Grimme                         |     
     |          Mulliken Center for Theoretical Chemistry        |     
     |                    University of Bonn                     |     
      -----------------------------------------------------------      

   * xtb version 6.5.1 (b24c23e) compiled by 'conda@728c89f4b128' on 2022-07-12

   xtb is free software: you can redistribute it and/or modify it under
   the terms of the GNU Lesser General Public License as published by
   the Free Software Foundation, either version 3 of the License, or
   (at your option) any later version.
   
   xtb is distributed in the hope that it will be useful,
   but WITHOUT ANY WARRANTY; without even the implied warranty of
   MERCHANTABILITY or FITNESS FOR A PARTICULAR PURPOSE.  See the
   GNU Lesser General Public License for more details.
   
   Cite this work as:
   * C. Bannwarth, E. Caldeweyher, S. Ehlert, A. Hansen, P. Pracht,
     J. Seibert, S. Spicher, S. Grimme, WIREs Comput. Mol. Sci., 2020, 11,
     e01493. DOI: 10.1002/wcms.1493
   
   for GFN2-xTB:
   * C. Bannwarth, S. Ehlert and S. Grimme., J. Chem. Theory Comput., 2019,
     15, 1652-1671. DOI: 10.1021/acs.jctc.8b01176
   for GFN1-xTB:
   * S. Grimme, C. Bannwarth, P. Shushkov, J. Chem. Theory Comput., 2017,
     13, 1989-2009. DOI: 10.1021/acs.jctc.7b00118
   for GFN0-xTB:
   * P. Pracht, E. Caldeweyher, S. Ehlert, S. Grimme, ChemRxiv, 2019, preprint.
     DOI: 10.26434/chemrxiv.8326202.v1
   for GFN-FF:
   * S. Spicher and S. Grimme, Angew. Chem. Int. Ed., 2020, 59, 15665-15673.
     DOI: 10.1002/anie.202004239
   
   for ALPB and GBSA implicit solvation:
   * S. Ehlert, M. Stahn, S. Spicher, S. Grimme, J. Chem. Theory Comput.,
     2021, 17, 4250-4261. DOI: 10.1021/acs.jctc.1c00471
   
   for DFT-D4:
   * E. Caldeweyher, C. Bannwarth and S. Grimme, J. Chem. Phys., 2017,
     147, 034112. DOI: 10.1063/1.4993215
   * E. Caldeweyher, S. Ehlert, A. Hansen, H. Neugebauer, S. Spicher,
     C. Bannwarth and S. Grimme, J. Chem. Phys., 2019, 150, 154122.
     DOI: 10.1063/1.5090222
   * E. Caldeweyher, J.-M. Mewes, S. Ehlert and S. Grimme, Phys. Chem. Chem. Phys.
     2020, 22, 8499-8512. DOI: 10.1039/D0CP00502A
   
   for sTDA-xTB:
   * S. Grimme and C. Bannwarth, J. Chem. Phys., 2016, 145, 054103.
     DOI: 10.1063/1.4959605
   
   in the mass-spec context:
   * V. Asgeirsson, C. Bauer and S. Grimme, Chem. Sci., 2017, 8, 4879.
     DOI: 10.1039/c7sc00601b
   * J. Koopman and S. Grimme, ACS Omega 2019, 4, 12, 15120-15133.
     DOI: 10.1021/acsomega.9b02011
   
   for metadynamics refer to:
   * S. Grimme, J. Chem. Theory Comput., 2019, 155, 2847-2862
     DOI: 10.1021/acs.jctc.9b00143
   
   for SPH calculations refer to:
   * S. Spicher and S. Grimme, J. Chem. Theory Comput., 2021, 17, 1701-1714
     DOI: 10.1021/acs.jctc.0c01306
   
   with help from (in alphabetical order)
   P. Atkinson, C. Bannwarth, F. Bohle, G. Brandenburg, E. Caldeweyher
   M. Checinski, S. Dohm, S. Ehlert, S. Ehrlich, I. Gerasimov, C. Hölzer
   A. Katbashev, J. Koopman, C. Lavigne, S. Lehtola, F. März, M. Müller,
   F. Musil, H. Neugebauer, J. Pisarek, C. Plett, P. Pracht, F. Pultar,
   J. Seibert, P. Shushkov, S. Spicher, M. Stahn, M. Steiner, T. Strunk,
   J. Stückrath, T. Rose, and J. Unsleber
   
 * started run on 2026/08/18 at 18:42:44.381     

           -------------------------------------------------
          |                Calculation Setup                |
           -------------------------------------------------

          program call               : /h/332/chchoi/miniconda3/envs/el-agente/bin/xtb reactant_bound.xyz --opt --gfn 2 -P 4 --chrg 1 --uhf 0 --input detailed_input.inp
          coordinate file            : reactant_bound.xyz
          omp threads                :                     4

   ID    Z sym.   atoms
    1   40 Zr     1
    2    6 C      2-7, 13-17, 26, 27
    3    1 H      8-12, 18-25, 28-31
constraining bond 2 27 to    2.1000000 Å, actual value:    3.0054502 Å
constraining bond 1 2 to    2.6000000 Å, actual value:    2.2954950 Å
constraining bond 1 26 to    2.5000000 Å, actual value:    2.6023155 Å
constraining bond 1 27 to    2.5000000 Å, actual value:    2.6006744 Å
constraining bond 26 27 to    1.3800000 Å, actual value:    1.3411691 Å

           -------------------------------------------------
          |                 G F N 2 - x T B                 |
           -------------------------------------------------

        Reference                      10.1021/acs.jctc.8b01176
      * Hamiltonian:
        H0-scaling (s, p, d)           1.850000    2.230000    2.230000
        zeta-weighting                 0.500000
      * Dispersion:
        s8                             2.700000
        a1                             0.520000
        a2                             5.000000
        s9                             5.000000
      * Repulsion:
        kExp                           1.500000    1.000000
        rExp                           1.000000
      * Coulomb:
        alpha                          2.000000
        third order                    shell-resolved
        anisotropic                    true
        a3                             3.000000
        a5                             4.000000
        cn-shift                       1.200000
        cn-exp                         4.000000
        max-rad                        5.000000


          ...................................................
          :                      SETUP                      :
          :.................................................:
          :  # basis functions                  79          :
          :  # atomic orbitals                  78          :
          :  # shells                           46          :
          :  # electrons                        72          :
          :  max. iterations                   250          :
          :  Hamiltonian                  GFN2-xTB          :
          :  restarted?                      false          :
          :  GBSA solvation                  false          :
          :  PC potential                    false          :
          :  electronic temp.          300.0000000     K    :
          :  accuracy                    1.0000000          :
          :  -> integral cutoff          0.2500000E+02      :
          :  -> integral neglect         0.1000000E-07      :
          :  -> SCF convergence          0.1000000E-05 Eh   :
          :  -> wf. convergence          0.1000000E-03 e    :
          :  Broyden damping             0.4000000          :
          ...................................................

 iter      E             dE          RMSdq      gap      omega  full diag
   1    -38.1908084 -0.381908E+02  0.410E+00    1.23       0.0  T
   2    -38.2936255 -0.102817E+00  0.344E+00    1.65       1.0  T
   3    -38.3086499 -0.150244E-01  0.247E+00    1.35       1.0  T
   4    -38.3070826  0.156727E-02  0.443E-01    1.51       1.0  T
   5    -38.3088940 -0.181141E-02  0.376E-01    1.30       1.0  T
   6    -38.3094273 -0.533259E-03  0.197E-01    1.34       1.0  T
   7    -38.3094127  0.146268E-04  0.119E-01    1.36       1.0  T
   8    -38.3094515 -0.388065E-04  0.399E-02    1.37       1.0  T
   9    -38.3094578 -0.629877E-05  0.157E-02    1.38       1.1  T
  10    -38.3094585 -0.729866E-06  0.843E-03    1.38       2.1  T
  11    -38.3094590 -0.511954E-06  0.258E-03    1.38       6.9  T
  12    -38.3094590 -0.222230E-07  0.127E-03    1.38      14.2  T
  13    -38.3094590 -0.135564E-07  0.499E-04    1.38      36.0  T
  14    -38.3094590 -0.173133E-08  0.163E-04    1.38     110.4  T

   *** convergence criteria satisfied after 14 iterations ***

         #    Occupation            Energy/Eh            Energy/eV
      -------------------------------------------------------------
         1        2.0000           -0.8697623             -23.6674
       ...           ...                  ...                  ...
        30        2.0000           -0.5726782             -15.5834
        31        2.0000           -0.5711676             -15.5423
        32        2.0000           -0.5218681             -14.2008
        33        2.0000           -0.5174278             -14.0799
        34        2.0000           -0.5072821             -13.8038
        35        2.0000           -0.5019576             -13.6590
        36        2.0000           -0.4888302             -13.3017 (HOMO)
        37                         -0.4381032             -11.9214 (LUMO)
        38                         -0.4091881             -11.1346
        39                         -0.4077855             -11.0964
        40                         -0.4035943             -10.9824
        41                         -0.3964054             -10.7867
       ...                                ...                  ...
        78                          2.4696341              67.2022
      -------------------------------------------------------------
                  HL-Gap            0.0507271 Eh            1.3804 eV
             Fermi-level           -0.4634667 Eh          -12.6116 eV

 SCC (total)                   0 d,  0 h,  0 min,  0.492 sec
 SCC setup                      ...        0 min,  0.004 sec (  0.894%)
 Dispersion                     ...        0 min,  0.001 sec (  0.110%)
 classical contributions        ...        0 min,  0.003 sec (  0.668%)
 integral evaluation            ...        0 min,  0.003 sec (  0.586%)
 iterations                     ...        0 min,  0.457 sec ( 92.859%)
 molecular gradient             ...        0 min,  0.024 sec (  4.810%)
 printout                       ...        0 min,  0.000 sec (  0.063%)

         :::::::::::::::::::::::::::::::::::::::::::::::::::::
         ::                     SUMMARY                     ::
         :::::::::::::::::::::::::::::::::::::::::::::::::::::
         :: total energy             -34.991362999077 Eh    ::
         :: gradient norm              3.982631672707 Eh/a0 ::
         :: HOMO-LUMO gap              1.380353759251 eV    ::
         ::.................................................::
         :: SCC energy               -38.309459043800 Eh    ::
         :: -> isotropic ES            0.093266463131 Eh    ::
         :: -> anisotropic ES         -0.013468164243 Eh    ::
         :: -> anisotropic XC          0.022268909797 Eh    ::
         :: -> dispersion             -0.028065242965 Eh    ::
         :: repulsion energy           0.647153413286 Eh    ::
         :: add. restraining           2.670227358590 Eh    ::
         :: total charge               1.000000000000 e     ::
         :::::::::::::::::::::::::::::::::::::::::::::::::::::

      ----------------------------------------------------------- 
     |                   =====================                   |
     |                        A N C O P T                        |
     |                   =====================                   |
     |               Approximate Normal Coordinate               |
     |                Rational Function Optimizer                |
      ----------------------------------------------------------- 

          ...................................................
          :                      SETUP                      :
          :.................................................:
          :   optimization level            normal          :
          :   max. optcycles                   200          :
          :   ANC micro-cycles                  20          :
          :   degrees of freedom                87          :
          :.................................................:
          :   RF solver                   davidson          :
          :   write xtbopt.log                true          :
          :   linear?                        false          :
          :   energy convergence         0.5000000E-05 Eh   :
          :   grad. convergence          0.1000000E-02 Eh/α :
          :   maximium RF displ.         1.0000000          :
          :   Hlow (freq-cutoff)         0.1000000E-01      :
          :   Hmax (freq-cutoff)         5.0000000          :
          :   S6 in model hess.         20.0000000          :
          ...................................................

generating ANC from model Hessian ...
Using Lindh-Hessian (1995)
 Shifting diagonal of input Hessian by    8.0901347187296871E-002
 Lowest  eigenvalues of input Hessian
    0.010000    0.000000    0.000000    0.000000    0.000000    0.000000
    0.000000    0.081408    0.081675    0.082502    0.082552    0.084402
    0.085175    0.085966    0.086970    0.088451    0.088695    0.088933
 Highest eigenvalues
    1.813511    2.093739    2.594700    3.964448    5.345711    6.003848


........................................................................
.............................. CYCLE    1 ..............................
........................................................................
   1    -38.3094590 -0.383095E+02  0.814E-05    1.38       0.0  T
   2    -38.3094590 -0.578666E-10  0.549E-05    1.38     327.0  T
   3    -38.3094590 -0.501643E-10  0.283E-05    1.38     633.7  T
     SCC iter.                  ...        0 min,  0.105 sec
     gradient                   ...        0 min,  0.043 sec
 * total energy  :   -34.9913630 Eh     change       -0.1692442E-09 Eh
   gradient norm :     3.9826317 Eh/α   predicted     0.0000000E+00 (-100.00%)
   displ. norm   :     0.6678528 α      lambda       -0.2574510E+01
   maximum displ.:     0.3696548 α      in ANC's #87, #84, #74, ...

........................................................................
.............................. CYCLE    2 ..............................
........................................................................
   1    -38.2113640 -0.382114E+02  0.180E+00    1.04       0.0  T
   2    -38.1958724  0.154916E-01  0.213E+00    1.92       1.0  T
   3    -38.2491321 -0.532597E-01  0.950E-01    1.55       1.0  T
   4    -38.2497764 -0.644286E-03  0.491E-01    1.25       1.0  T
   5    -38.2522202 -0.244382E-02  0.315E-01    1.30       1.0  T
   6    -38.2534466 -0.122641E-02  0.716E-02    1.33       1.0  T
   7    -38.2534386  0.799064E-05  0.537E-02    1.36       1.0  T
   8    -38.2534671 -0.285224E-04  0.205E-02    1.34       1.0  T
   9    -38.2534690 -0.185162E-05  0.109E-02    1.34       1.7  T
  10    -38.2534697 -0.731739E-06  0.560E-03    1.34       3.2  T
  11    -38.2534699 -0.172572E-06  0.155E-03    1.34      11.6  T
  12    -38.2534699 -0.517375E-08  0.116E-03    1.34      15.4  T
  13    -38.2534699 -0.141426E-07  0.303E-04    1.34      59.2  T
  14    -38.2534699 -0.108963E-08  0.168E-04    1.34     106.8  T
     SCC iter.                  ...        0 min,  0.485 sec
     gradient                   ...        0 min,  0.020 sec
 * total energy  :   -36.8683161 Eh     change       -0.1876953E+01 Eh
   gradient norm :     1.7957740 Eh/α   predicted    -0.1861408E+01 (  -0.83%)
   displ. norm   :     0.5604255 α      lambda       -0.9324924E+00
   maximum displ.:     0.2806717 α      in ANC's #84, #74, #83, ...

........................................................................
.............................. CYCLE    3 ..............................
........................................................................
   1    -38.1620122 -0.381620E+02  0.162E+00    1.43       0.0  T
   2    -38.1266775  0.353347E-01  0.194E+00    1.65       1.0  T
   3    -38.1970714 -0.703939E-01  0.780E-01    1.47       1.0  T
   4    -38.1955395  0.153196E-02  0.357E-01    1.41       1.0  T
   5    -38.1978086 -0.226911E-02  0.148E-01    1.47       1.0  T
   6    -38.1979735 -0.164935E-03  0.753E-02    1.44       1.0  T
   7    -38.1979608  0.127679E-04  0.510E-02    1.46       1.0  T
   8    -38.1979836 -0.228698E-04  0.139E-02    1.45       1.3  T
   9    -38.1979862 -0.260411E-05  0.824E-03    1.45       2.2  T
  10    -38.1979867 -0.446689E-06  0.252E-03    1.45       7.1  T
  11    -38.1979867 -0.157229E-07  0.186E-03    1.45       9.6  T
  12    -38.1979867 -0.191125E-07  0.910E-04    1.45      19.7  T
  13    -38.1979867 -0.485078E-08  0.312E-04    1.45      57.6  T
     SCC iter.                  ...        0 min,  0.425 sec
     gradient                   ...        0 min,  0.017 sec
 * total energy  :   -37.4754869 Eh     change       -0.6071708E+00 Eh
   gradient norm :     0.5645854 Eh/α   predicted    -0.6127029E+00 (   0.91%)
   displ. norm   :     0.3954246 α      lambda       -0.1523822E+00
   maximum displ.:     0.1575478 α      in ANC's #22, #52, #24, ...

........................................................................
.............................. CYCLE    4 ..............................
........................................................................
   1    -38.1905964 -0.381906E+02  0.603E-01    1.43       0.0  T
   2    -38.1870543  0.354213E-02  0.682E-01    1.48       1.0  T
   3    -38.1955726 -0.851826E-02  0.271E-01    1.44       1.0  T
   4    -38.1953961  0.176493E-03  0.948E-02    1.45       1.0  T
   5    -38.1955947 -0.198621E-03  0.494E-02    1.45       1.0  T
   6    -38.1955923  0.242215E-05  0.301E-02    1.44       1.0  T
   7    -38.1956034 -0.111469E-04  0.145E-02    1.44       1.2  T
   8    -38.1956052 -0.180098E-05  0.333E-03    1.44       5.4  T
   9    -38.1956052 -0.351060E-07  0.207E-03    1.44       8.7  T
  10    -38.1956053 -0.562467E-07  0.113E-03    1.44      15.9  T
  11    -38.1956053 -0.912372E-09  0.632E-04    1.44      28.4  T
  12    -38.1956053 -0.251429E-08  0.275E-04    1.44      65.3  T
     SCC iter.                  ...        0 min,  0.370 sec
     gradient                   ...        0 min,  0.039 sec
 * total energy  :   -37.5650843 Eh     change       -0.8959735E-01 Eh
   gradient norm :     0.1033265 Eh/α   predicted    -0.8810442E-01 (  -1.67%)
   displ. norm   :     0.4280657 α      lambda       -0.3023259E-01
   maximum displ.:     0.2271020 α      in ANC's #22, #24, #21, ...

........................................................................
.............................. CYCLE    5 ..............................
........................................................................
   1    -38.2199710 -0.382200E+02  0.402E-01    1.41       0.0  T
   2    -38.2199735 -0.249722E-05  0.308E-01    1.42       1.0  T
   3    -38.2198163  0.157240E-03  0.200E-01    1.41       1.0  T
   4    -38.2202992 -0.482961E-03  0.770E-02    1.42       1.0  T
   5    -38.2203576 -0.583492E-04  0.378E-02    1.41       1.0  T
   6    -38.2203615 -0.396477E-05  0.187E-02    1.42       1.0  T
   7    -38.2203661 -0.457100E-05  0.809E-03    1.41       2.2  T
   8    -38.2203662 -0.150441E-06  0.531E-03    1.42       3.4  T
   9    -38.2203664 -0.104458E-06  0.297E-03    1.41       6.0  T
  10    -38.2203664 -0.228075E-07  0.140E-03    1.41      12.9  T
  11    -38.2203664 -0.587799E-08  0.335E-04    1.41      53.6  T
  12    -38.2203664 -0.371102E-09  0.144E-04    1.41     124.7  T
     SCC iter.                  ...        0 min,  0.437 sec
     gradient                   ...        0 min,  0.104 sec
 * total energy  :   -37.5874873 Eh     change       -0.2240307E-01 Eh
   gradient norm :     0.0894071 Eh/α   predicted    -0.1788657E-01 ( -20.16%)
   displ. norm   :     0.7082363 α      lambda       -0.3512571E-01
   maximum displ.:     0.3677874 α      in ANC's #1, #22, #24, ...

........................................................................
.............................. CYCLE    6 ..............................
........................................................................
   1    -38.2426526 -0.382427E+02  0.701E-01    1.32       0.0  T
   2    -38.2431113 -0.458712E-03  0.481E-01    1.30       1.0  T
   3    -38.2425797  0.531586E-03  0.287E-01    1.33       1.0  T
   4    -38.2432542 -0.674486E-03  0.150E-01    1.33       1.0  T
   5    -38.2433954 -0.141157E-03  0.854E-02    1.31       1.0  T
   6    -38.2434562 -0.607942E-04  0.451E-02    1.33       1.0  T
   7    -38.2434717 -0.155399E-04  0.196E-02    1.31       1.0  T
   8    -38.2434727 -0.101175E-05  0.114E-02    1.32       1.6  T
   9    -38.2434734 -0.706250E-06  0.601E-03    1.32       3.0  T
  10    -38.2434736 -0.163359E-06  0.328E-03    1.32       5.5  T
  11    -38.2434736 -0.177464E-07  0.634E-04    1.32      28.3  T
  12    -38.2434736 -0.129086E-08  0.231E-04    1.32      77.8  T
     SCC iter.                  ...        0 min,  0.402 sec
     gradient                   ...        0 min,  0.027 sec
 * total energy  :   -37.6041987 Eh     change       -0.1671140E-01 Eh
   gradient norm :     0.1298416 Eh/α   predicted    -0.2637238E-01 (  57.81%)
   displ. norm   :     0.5789852 α      lambda       -0.3089956E-01
   maximum displ.:     0.3332546 α      in ANC's #1, #22, #24, ...

........................................................................
.............................. CYCLE    7 ..............................
........................................................................
   1    -38.2516777 -0.382517E+02  0.830E-01    1.30       0.0  T
   2    -38.2520473 -0.369564E-03  0.526E-01    1.29       1.0  T
   3    -38.2519782  0.690249E-04  0.168E-01    1.31       1.0  T
   4    -38.2521046 -0.126388E-03  0.118E-01    1.29       1.0  T
   5    -38.2521802 -0.756047E-04  0.660E-02    1.30       1.0  T
   6    -38.2522003 -0.200831E-04  0.313E-02    1.30       1.0  T
   7    -38.2522107 -0.103895E-04  0.172E-02    1.30       1.0  T
   8    -38.2522113 -0.597337E-06  0.938E-03    1.30       1.9  T
   9    -38.2522119 -0.639447E-06  0.562E-03    1.30       3.2  T
  10    -38.2522120 -0.707641E-07  0.298E-03    1.30       6.0  T
  11    -38.2522120 -0.220433E-07  0.715E-04    1.30      25.1  T
  12    -38.2522120 -0.165825E-08  0.287E-04    1.30      62.5  T
     SCC iter.                  ...        0 min,  0.343 sec
     gradient                   ...        0 min,  0.010 sec
 * total energy  :   -37.6203566 Eh     change       -0.1615784E-01 Eh
   gradient norm :     0.1124262 Eh/α   predicted    -0.2062894E-01 (  27.67%)
   displ. norm   :     0.1962079 α      lambda       -0.9376287E-02
   maximum displ.:     0.0831513 α      in ANC's #14, #8, #52, ...

........................................................................
.............................. CYCLE    8 ..............................
........................................................................
   1    -38.2588389 -0.382588E+02  0.352E-01    1.29       0.0  T
   2    -38.2588741 -0.352083E-04  0.233E-01    1.26       1.0  T
   3    -38.2586945  0.179595E-03  0.143E-01    1.31       1.0  T
   4    -38.2588724 -0.177879E-03  0.470E-02    1.27       1.0  T
   5    -38.2589166 -0.442300E-04  0.303E-02    1.28       1.0  T
   6    -38.2589210 -0.434883E-05  0.108E-02    1.28       1.7  T
   7    -38.2589213 -0.369081E-06  0.554E-03    1.28       3.2  T
   8    -38.2589214 -0.610799E-07  0.211E-03    1.28       8.5  T
   9    -38.2589215 -0.782274E-07  0.793E-04    1.28      22.6  T
  10    -38.2589215 -0.410166E-08  0.364E-04    1.28      49.3  T
     SCC iter.                  ...        0 min,  0.329 sec
     gradient                   ...        0 min,  0.008 sec
 * total energy  :   -37.6264065 Eh     change       -0.6049984E-02 Eh
   gradient norm :     0.0381294 Eh/α   predicted    -0.4868749E-02 ( -19.52%)
   displ. norm   :     0.1666615 α      lambda       -0.3208359E-02
   maximum displ.:     0.0909444 α      in ANC's #1, #14, #24, ...

........................................................................
.............................. CYCLE    9 ..............................
........................................................................
   1    -38.2633333 -0.382633E+02  0.200E-01    1.29       0.0  T
   2    -38.2633537 -0.203555E-04  0.150E-01    1.27       1.0  T
   3    -38.2632662  0.874405E-04  0.699E-02    1.29       1.0  T
   4    -38.2633635 -0.972436E-04  0.367E-02    1.28       1.0  T
   5    -38.2633757 -0.122328E-04  0.183E-02    1.28       1.0  T
   6    -38.2633774 -0.167600E-05  0.101E-02    1.28       1.8  T
   7    -38.2633781 -0.683899E-06  0.431E-03    1.28       4.2  T
   8    -38.2633781 -0.125055E-07  0.299E-03    1.28       6.0  T
   9    -38.2633781 -0.449221E-07  0.143E-03    1.28      12.6  T
  10    -38.2633781 -0.450765E-08  0.840E-04    1.28      21.4  T
  11    -38.2633781 -0.234898E-08  0.217E-04    1.28      82.8  T
     SCC iter.                  ...        0 min,  0.292 sec
     gradient                   ...        0 min,  0.008 sec
 * total energy  :   -37.6282589 Eh     change       -0.1852341E-02 Eh
   gradient norm :     0.0179743 Eh/α   predicted    -0.1648745E-02 ( -10.99%)
   displ. norm   :     0.1035292 α      lambda       -0.8213900E-03
   maximum displ.:     0.0626803 α      in ANC's #14, #4, #8, ...

........................................................................
.............................. CYCLE   10 ..............................
........................................................................
   1    -38.2637756 -0.382638E+02  0.927E-02    1.27       0.0  T
   2    -38.2637720  0.361645E-05  0.769E-02    1.27       1.0  T
   3    -38.2637978 -0.257910E-04  0.429E-02    1.27       1.0  T
   4    -38.2638063 -0.850700E-05  0.124E-02    1.27       1.4  T
   5    -38.2638089 -0.258682E-05  0.637E-03    1.27       2.8  T
   6    -38.2638090 -0.167226E-06  0.349E-03    1.27       5.1  T
   7    -38.2638091 -0.484854E-07  0.137E-03    1.27      13.1  T
   8    -38.2638091 -0.472053E-08  0.115E-03    1.27      15.6  T
   9    -38.2638091 -0.330980E-08  0.532E-04    1.27      33.8  T
  10    -38.2638091 -0.560199E-09  0.320E-04    1.27      56.0  T
     SCC iter.                  ...        0 min,  0.336 sec
     gradient                   ...        0 min,  0.098 sec
 * total energy  :   -37.6289019 Eh     change       -0.6430501E-03 Eh
   gradient norm :     0.0124663 Eh/α   predicted    -0.4151067E-03 ( -35.45%)
   displ. norm   :     0.2256415 α      lambda       -0.1182787E-02
   maximum displ.:     0.1353089 α      in ANC's #14, #4, #8, ...

........................................................................
.............................. CYCLE   11 ..............................
........................................................................
   1    -38.2636059 -0.382636E+02  0.174E-01    1.26       0.0  T
   2    -38.2635943  0.115994E-04  0.151E-01    1.26       1.0  T
   3    -38.2637068 -0.112469E-03  0.799E-02    1.26       1.0  T
   4    -38.2637221 -0.153878E-04  0.235E-02    1.26       1.0  T
   5    -38.2637341 -0.119419E-04  0.948E-03    1.26       1.9  T
   6    -38.2637343 -0.246656E-06  0.589E-03    1.26       3.1  T
   7    -38.2637344 -0.116998E-06  0.197E-03    1.26       9.1  T
   8    -38.2637345 -0.159248E-07  0.178E-03    1.26      10.1  T
   9    -38.2637345 -0.591128E-08  0.906E-04    1.26      19.8  T
  10    -38.2637345 -0.179528E-08  0.556E-04    1.26      32.3  T
     SCC iter.                  ...        0 min,  0.299 sec
     gradient                   ...        0 min,  0.005 sec
 * total energy  :   -37.6296665 Eh     change       -0.7645600E-03 Eh
   gradient norm :     0.0124364 Eh/α   predicted    -0.6215115E-03 ( -18.71%)
   displ. norm   :     0.1451897 α      lambda       -0.4334491E-03
   maximum displ.:     0.0758594 α      in ANC's #14, #4, #8, ...

........................................................................
.............................. CYCLE   12 ..............................
........................................................................
   1    -38.2630199 -0.382630E+02  0.992E-02    1.26       0.0  T
   2    -38.2630181  0.178888E-05  0.833E-02    1.26       1.0  T
   3    -38.2630482 -0.300251E-04  0.449E-02    1.26       1.0  T
   4    -38.2630549 -0.671421E-05  0.170E-02    1.26       1.1  T
   5    -38.2630596 -0.470096E-05  0.618E-03    1.26       2.9  T
   6    -38.2630599 -0.268983E-06  0.400E-03    1.26       4.5  T
   7    -38.2630599 -0.383153E-07  0.125E-03    1.26      14.3  T
   8    -38.2630599 -0.911881E-08  0.112E-03    1.26      16.0  T
   9    -38.2630599 -0.251583E-08  0.623E-04    1.26      28.8  T
  10    -38.2630599 -0.495511E-09  0.324E-04    1.26      55.4  T
     SCC iter.                  ...        0 min,  0.260 sec
     gradient                   ...        0 min,  0.019 sec
 * total energy  :   -37.6299759 Eh     change       -0.3094027E-03 Eh
   gradient norm :     0.0106414 Eh/α   predicted    -0.2212981E-03 ( -28.48%)
   displ. norm   :     0.1569142 α      lambda       -0.3817616E-03
   maximum displ.:     0.0820970 α      in ANC's #4, #14, #8, ...

........................................................................
.............................. CYCLE   13 ..............................
........................................................................
   1    -38.2631209 -0.382631E+02  0.112E-01    1.26       0.0  T
   2    -38.2631221 -0.118879E-05  0.908E-02    1.26       1.0  T
   3    -38.2631180  0.414274E-05  0.482E-02    1.26       1.0  T
   4    -38.2631448 -0.268781E-04  0.177E-02    1.26       1.0  T
   5    -38.2631492 -0.433377E-05  0.708E-03    1.26       2.5  T
   6    -38.2631496 -0.463074E-06  0.405E-03    1.26       4.4  T
   7    -38.2631497 -0.386710E-07  0.130E-03    1.26      13.8  T
   8    -38.2631497 -0.548341E-08  0.106E-03    1.26      17.0  T
   9    -38.2631497 -0.282756E-08  0.576E-04    1.26      31.2  T
  10    -38.2631497 -0.548518E-09  0.360E-04    1.26      49.9  T
     SCC iter.                  ...        0 min,  0.220 sec
     gradient                   ...        0 min,  0.007 sec
 * total energy  :   -37.6302413 Eh     change       -0.2653819E-03 Eh
   gradient norm :     0.0057977 Eh/α   predicted    -0.1955846E-03 ( -26.30%)
   displ. norm   :     0.1254873 α      lambda       -0.2692447E-03
   maximum displ.:     0.0734924 α      in ANC's #4, #3, #12, ...

........................................................................
.............................. CYCLE   14 ..............................
........................................................................
   1    -38.2633021 -0.382633E+02  0.817E-02    1.26       0.0  T
   2    -38.2633034 -0.126714E-05  0.600E-02    1.26       1.0  T
   3    -38.2632835  0.198622E-04  0.345E-02    1.26       1.0  T
   4    -38.2633100 -0.264918E-04  0.129E-02    1.26       1.4  T
   5    -38.2633116 -0.158504E-05  0.522E-03    1.26       3.4  T
   6    -38.2633119 -0.296384E-06  0.315E-03    1.26       5.7  T
   7    -38.2633119 -0.284798E-07  0.818E-04    1.26      22.0  T
   8    -38.2633119 -0.205817E-08  0.740E-04    1.26      24.3  T
     SCC iter.                  ...        0 min,  0.210 sec
     gradient                   ...        0 min,  0.065 sec
 * total energy  :   -37.6304372 Eh     change       -0.1958963E-03 Eh
   gradient norm :     0.0058685 Eh/α   predicted    -0.1367437E-03 ( -30.20%)
   displ. norm   :     0.1348268 α      lambda       -0.2504179E-03
   maximum displ.:     0.0809152 α      in ANC's #4, #3, #12, ...

........................................................................
.............................. CYCLE   15 ..............................
........................................................................
   1    -38.2637647 -0.382638E+02  0.817E-02    1.27       0.0  T
   2    -38.2637657 -0.103764E-05  0.587E-02    1.26       1.0  T
   3    -38.2637382  0.274897E-04  0.322E-02    1.27       1.0  T
   4    -38.2637693 -0.310978E-04  0.854E-03    1.27       2.1  T
   5    -38.2637699 -0.621637E-06  0.450E-03    1.27       4.0  T
   6    -38.2637700 -0.376507E-07  0.222E-03    1.27       8.1  T
   7    -38.2637700 -0.336185E-07  0.627E-04    1.27      28.6  T
   8    -38.2637700  0.499227E-10  0.517E-04    1.27      34.8  T
     SCC iter.                  ...        0 min,  0.196 sec
     gradient                   ...        0 min,  0.004 sec
 * total energy  :   -37.6306176 Eh     change       -0.1803895E-03 Eh
   gradient norm :     0.0077497 Eh/α   predicted    -0.1274902E-03 ( -29.33%)
   displ. norm   :     0.1395887 α      lambda       -0.2144913E-03
   maximum displ.:     0.0808562 α      in ANC's #4, #3, #9, ...

........................................................................
.............................. CYCLE   16 ..............................
........................................................................
   1    -38.2640721 -0.382641E+02  0.740E-02    1.27       0.0  T
   2    -38.2640728 -0.710779E-06  0.542E-02    1.27       1.0  T
   3    -38.2640532  0.195853E-04  0.294E-02    1.28       1.0  T
   4    -38.2640754 -0.222305E-04  0.606E-03    1.27       3.0  T
   5    -38.2640758 -0.397729E-06  0.401E-03    1.27       4.5  T
   6    -38.2640759 -0.585124E-07  0.186E-03    1.27       9.6  T
   7    -38.2640759 -0.188506E-07  0.847E-04    1.27      21.2  T
   8    -38.2640759 -0.233617E-08  0.719E-04    1.27      25.0  T
     SCC iter.                  ...        0 min,  0.163 sec
     gradient                   ...        0 min,  0.016 sec
 * total energy  :   -37.6307733 Eh     change       -0.1557003E-03 Eh
   gradient norm :     0.0066577 Eh/α   predicted    -0.1093385E-03 ( -29.78%)
   displ. norm   :     0.1306850 α      lambda       -0.1800959E-03
   maximum displ.:     0.0708574 α      in ANC's #4, #9, #3, ...

........................................................................
.............................. CYCLE   17 ..............................
........................................................................
   1    -38.2646701 -0.382647E+02  0.650E-02    1.27       0.0  T
   2    -38.2646712 -0.102311E-05  0.510E-02    1.26       1.0  T
   3    -38.2646635  0.764832E-05  0.234E-02    1.28       1.0  T
   4    -38.2646727 -0.920161E-05  0.598E-03    1.27       3.0  T
   5    -38.2646727 -0.249298E-07  0.613E-03    1.27       2.9  T
   6    -38.2646730 -0.282077E-06  0.245E-03    1.27       7.3  T
   7    -38.2646731 -0.433877E-07  0.108E-03    1.27      16.6  T
   8    -38.2646731 -0.884810E-08  0.673E-04    1.27      26.7  T
   9    -38.2646731 -0.179101E-08  0.213E-04    1.27      84.4  T
     SCC iter.                  ...        0 min,  0.205 sec
     gradient                   ...        0 min,  0.008 sec
 * total energy  :   -37.6308982 Eh     change       -0.1249577E-03 Eh
   gradient norm :     0.0044662 Eh/α   predicted    -0.9159252E-04 ( -26.70%)
   displ. norm   :     0.0846212 α      lambda       -0.1061622E-03
   maximum displ.:     0.0393051 α      in ANC's #4, #9, #3, ...

........................................................................
.............................. CYCLE   18 ..............................
........................................................................
   1    -38.2653255 -0.382653E+02  0.456E-02    1.27       0.0  T
   2    -38.2653262 -0.617016E-06  0.358E-02    1.26       1.0  T
   3    -38.2653234  0.278202E-05  0.152E-02    1.27       1.2  T
   4    -38.2653266 -0.322709E-05  0.678E-03    1.26       2.6  T
   5    -38.2653266 -0.272166E-07  0.403E-03    1.27       4.5  T
   6    -38.2653268 -0.122563E-06  0.246E-03    1.27       7.3  T
   7    -38.2653268 -0.558318E-07  0.764E-04    1.27      23.5  T
   8    -38.2653268 -0.531601E-08  0.446E-04    1.27      40.3  T
     SCC iter.                  ...        0 min,  0.195 sec
     gradient                   ...        0 min,  0.023 sec
 * total energy  :   -37.6309721 Eh     change       -0.7390948E-04 Eh
   gradient norm :     0.0035534 Eh/α   predicted    -0.5346877E-04 ( -27.66%)
   displ. norm   :     0.0571414 α      lambda       -0.6890106E-04
   maximum displ.:     0.0257691 α      in ANC's #3, #9, #4, ...

........................................................................
.............................. CYCLE   19 ..............................
........................................................................
   1    -38.2658375 -0.382658E+02  0.352E-02    1.26       0.0  T
   2    -38.2658376 -0.578338E-07  0.288E-02    1.26       1.0  T
   3    -38.2658340  0.361819E-05  0.151E-02    1.26       1.2  T
   4    -38.2658384 -0.443325E-05  0.665E-03    1.26       2.7  T
   5    -38.2658388 -0.379259E-06  0.358E-03    1.26       5.0  T
   6    -38.2658388 -0.234244E-07  0.138E-03    1.26      13.0  T
   7    -38.2658388 -0.203150E-07  0.426E-04    1.26      42.2  T
   8    -38.2658388 -0.102538E-08  0.211E-04    1.26      85.3  T
     SCC iter.                  ...        0 min,  0.220 sec
     gradient                   ...        0 min,  0.007 sec
 * total energy  :   -37.6310224 Eh     change       -0.5022074E-04 Eh
   gradient norm :     0.0034636 Eh/α   predicted    -0.3456512E-04 ( -31.17%)
   displ. norm   :     0.0652429 α      lambda       -0.6885065E-04
   maximum displ.:     0.0303044 α      in ANC's #3, #9, #5, ...

........................................................................
.............................. CYCLE   20 ..............................
........................................................................
   1    -38.2660062 -0.382660E+02  0.404E-02    1.26       0.0  T
   2    -38.2660057  0.460985E-06  0.343E-02    1.26       1.0  T
   3    -38.2660045  0.122066E-05  0.192E-02    1.26       1.0  T
   4    -38.2660087 -0.419364E-05  0.512E-03    1.26       3.5  T
   5    -38.2660089 -0.158206E-06  0.374E-03    1.26       4.8  T
   6    -38.2660089 -0.524470E-07  0.123E-03    1.26      14.6  T
   7    -38.2660089 -0.432740E-08  0.686E-04    1.26      26.2  T
   8    -38.2660089 -0.396288E-08  0.192E-04    1.26      93.5  T
     SCC iter.                  ...        0 min,  0.195 sec
     gradient                   ...        0 min,  0.006 sec
 * total energy  :   -37.6310741 Eh     change       -0.5174657E-04 Eh
   gradient norm :     0.0036517 Eh/α   predicted    -0.3457519E-04 ( -33.18%)
   displ. norm   :     0.0923546 α      lambda       -0.8633987E-04
   maximum displ.:     0.0427072 α      in ANC's #3, #9, #5, ...
 * RMSD in coord.:     0.5147166 α      energy gain  -0.2639711E+01 Eh

generating ANC from model Hessian ...
Using Lindh-Hessian (1995)
 Shifting diagonal of input Hessian by    1.0330082676424986E-002
 Lowest  eigenvalues of input Hessian
    0.010000    0.000000    0.000000    0.000000    0.000000    0.000000
    0.000000    0.010517    0.010709    0.010819    0.011240    0.011675
    0.012018    0.013083    0.014707    0.016841    0.018685    0.018817
 Highest eigenvalues
    1.733519    2.045268    2.503178    3.089053    5.514641    5.856006


........................................................................
.............................. CYCLE   21 ..............................
........................................................................
   1    -38.2657822 -0.382658E+02  0.554E-02    1.26       0.0  T
   2    -38.2657807  0.151069E-05  0.478E-02    1.26       1.0  T
   3    -38.2657842 -0.350954E-05  0.277E-02    1.26       1.0  T
   4    -38.2657890 -0.479183E-05  0.567E-03    1.26       3.2  T
   5    -38.2657893 -0.299184E-06  0.370E-03    1.26       4.9  T
   6    -38.2657893 -0.158701E-07  0.167E-03    1.26      10.8  T
   7    -38.2657893 -0.125972E-07  0.886E-04    1.26      20.3  T
   8    -38.2657893 -0.682591E-08  0.321E-04    1.26      56.0  T
     SCC iter.                  ...        0 min,  0.200 sec
     gradient                   ...        0 min,  0.005 sec
 * total energy  :   -37.6311379 Eh     change       -0.6381685E-04 Eh
   gradient norm :     0.0043059 Eh/α   predicted     0.0000000E+00 (-100.00%)
   displ. norm   :     0.0970817 α      lambda       -0.1754695E-03
   maximum displ.:     0.0512862 α      in ANC's #1, #7, #3, ...

........................................................................
.............................. CYCLE   22 ..............................
........................................................................
   1    -38.2655203 -0.382655E+02  0.582E-02    1.25       0.0  T
   2    -38.2655214 -0.109051E-05  0.485E-02    1.26       1.0  T
   3    -38.2655138  0.764548E-05  0.237E-02    1.25       1.0  T
   4    -38.2655228 -0.897025E-05  0.129E-02    1.26       1.4  T
   5    -38.2655238 -0.106690E-05  0.681E-03    1.26       2.6  T
   6    -38.2655240 -0.198901E-06  0.299E-03    1.26       6.0  T
   7    -38.2655241 -0.676578E-07  0.114E-03    1.26      15.8  T
   8    -38.2655241 -0.165903E-07  0.510E-04    1.26      35.2  T
   9    -38.2655241 -0.715637E-09  0.202E-04    1.26      89.0  T
     SCC iter.                  ...        0 min,  0.203 sec
     gradient                   ...        0 min,  0.025 sec
 * total energy  :   -37.6312490 Eh     change       -0.1111118E-03 Eh
   gradient norm :     0.0021388 Eh/α   predicted    -0.8931403E-04 ( -19.62%)
   displ. norm   :     0.1598637 α      lambda       -0.1623121E-03
   maximum displ.:     0.0863144 α      in ANC's #2, #9, #3, ...

........................................................................
.............................. CYCLE   23 ..............................
........................................................................
   1    -38.2648417 -0.382648E+02  0.663E-02    1.26       0.0  T
   2    -38.2648423 -0.517574E-06  0.420E-02    1.26       1.0  T
   3    -38.2648396  0.267381E-05  0.132E-02    1.26       1.4  T
   4    -38.2648427 -0.310271E-05  0.551E-03    1.26       3.3  T
   5    -38.2648426  0.875357E-07  0.427E-03    1.26       4.2  T
   6    -38.2648427 -0.147650E-06  0.180E-03    1.26      10.0  T
   7    -38.2648428 -0.899240E-08  0.120E-03    1.26      15.0  T
   8    -38.2648428 -0.829630E-08  0.657E-04    1.26      27.3  T
   9    -38.2648428 -0.219197E-08  0.167E-04    1.26     107.4  T
     SCC iter.                  ...        0 min,  0.209 sec
     gradient                   ...        0 min,  0.006 sec
 * total energy  :   -37.6313429 Eh     change       -0.9388302E-04 Eh
   gradient norm :     0.0032023 Eh/α   predicted    -0.8323096E-04 ( -11.35%)
   displ. norm   :     0.1232386 α      lambda       -0.8107614E-04
   maximum displ.:     0.0688827 α      in ANC's #2, #9, #3, ...

........................................................................
.............................. CYCLE   24 ..............................
........................................................................
   1    -38.2645481 -0.382645E+02  0.419E-02    1.25       0.0  T
   2    -38.2645482 -0.102600E-06  0.279E-02    1.26       1.0  T
   3    -38.2645419  0.630108E-05  0.193E-02    1.25       1.0  T
   4    -38.2645490 -0.710228E-05  0.350E-03    1.26       5.1  T
   5    -38.2645490 -0.398299E-07  0.213E-03    1.26       8.4  T
   6    -38.2645490 -0.271438E-07  0.996E-04    1.26      18.0  T
   7    -38.2645490 -0.917833E-08  0.361E-04    1.26      49.8  T
     SCC iter.                  ...        0 min,  0.182 sec
     gradient                   ...        0 min,  0.006 sec
 * total energy  :   -37.6314050 Eh     change       -0.6204644E-04 Eh
   gradient norm :     0.0030279 Eh/α   predicted    -0.4115493E-04 ( -33.67%)
   displ. norm   :     0.1877715 α      lambda       -0.1026263E-03
   maximum displ.:     0.1108080 α      in ANC's #2, #9, #1, ...

........................................................................
.............................. CYCLE   25 ..............................
........................................................................
   1    -38.2643431 -0.382643E+02  0.545E-02    1.25       0.0  T
   2    -38.2643432 -0.121614E-06  0.370E-02    1.25       1.0  T
   3    -38.2643312  0.120719E-04  0.230E-02    1.25       1.0  T
   4    -38.2643446 -0.134660E-04  0.467E-03    1.25       3.8  T
   5    -38.2643449 -0.250421E-06  0.274E-03    1.25       6.6  T
   6    -38.2643449 -0.273595E-07  0.928E-04    1.25      19.4  T
   7    -38.2643449 -0.587161E-08  0.470E-04    1.25      38.2  T
     SCC iter.                  ...        0 min,  0.189 sec
     gradient                   ...        0 min,  0.074 sec
 * total energy  :   -37.6314766 Eh     change       -0.7163912E-04 Eh
   gradient norm :     0.0026575 Eh/α   predicted    -0.5312269E-04 ( -25.85%)
   displ. norm   :     0.1516939 α      lambda       -0.6278418E-04
   maximum displ.:     0.1032253 α      in ANC's #2, #9, #1, ...

........................................................................
.............................. CYCLE   26 ..............................
........................................................................
   1    -38.2646517 -0.382647E+02  0.438E-02    1.25       0.0  T
   2    -38.2646519 -0.153388E-06  0.289E-02    1.24       1.0  T
   3    -38.2646455  0.635911E-05  0.168E-02    1.25       1.1  T
   4    -38.2646525 -0.695087E-05  0.333E-03    1.25       5.4  T
   5    -38.2646526 -0.101056E-06  0.195E-03    1.24       9.2  T
   6    -38.2646526 -0.359983E-08  0.899E-04    1.25      20.0  T
   7    -38.2646526 -0.674102E-08  0.399E-04    1.24      45.0  T
     SCC iter.                  ...        0 min,  0.163 sec
     gradient                   ...        0 min,  0.012 sec
 * total energy  :   -37.6315216 Eh     change       -0.4501695E-04 Eh
   gradient norm :     0.0019316 Eh/α   predicted    -0.3212060E-04 ( -28.65%)
   displ. norm   :     0.1682532 α      lambda       -0.4393409E-04
   maximum displ.:     0.1198506 α      in ANC's #2, #1, #9, ...

........................................................................
.............................. CYCLE   27 ..............................
........................................................................
   1    -38.2653186 -0.382653E+02  0.514E-02    1.24       0.0  T
   2    -38.2653188 -0.211913E-06  0.374E-02    1.24       1.0  T
   3    -38.2653056  0.131353E-04  0.215E-02    1.24       1.0  T
   4    -38.2653201 -0.144088E-04  0.553E-03    1.24       3.2  T
   5    -38.2653202 -0.193758E-06  0.305E-03    1.24       5.9  T
   6    -38.2653203 -0.114809E-07  0.153E-03    1.24      11.7  T
   7    -38.2653203 -0.238875E-07  0.457E-04    1.24      39.3  T
   8    -38.2653203 -0.830532E-09  0.357E-04    1.24      50.3  T
     SCC iter.                  ...        0 min,  0.213 sec
     gradient                   ...        0 min,  0.007 sec
 * total energy  :   -37.6315654 Eh     change       -0.4373371E-04 Eh
   gradient norm :     0.0030496 Eh/α   predicted    -0.2224433E-04 ( -49.14%)
   displ. norm   :     0.0790879 α      lambda       -0.2928981E-04
   maximum displ.:     0.0623698 α      in ANC's #2, #4, #1, ...

........................................................................
.............................. CYCLE   28 ..............................
........................................................................
   1    -38.2655612 -0.382656E+02  0.187E-02    1.24       0.0  T
   2    -38.2655613 -0.145472E-06  0.104E-02    1.24       1.7  T
   3    -38.2655603  0.971481E-06  0.909E-03    1.24       2.0  T
   4    -38.2655616 -0.123401E-05  0.213E-03    1.24       8.4  T
   5    -38.2655616 -0.271496E-07  0.143E-03    1.24      12.6  T
   6    -38.2655616 -0.104133E-07  0.554E-04    1.24      32.4  T
   7    -38.2655616 -0.432353E-08  0.173E-04    1.24     103.9  T
     SCC iter.                  ...        0 min,  0.186 sec
     gradient                   ...        0 min,  0.005 sec
 * total energy  :   -37.6315896 Eh     change       -0.2429033E-04 Eh
   gradient norm :     0.0016238 Eh/α   predicted    -0.1473790E-04 ( -39.33%)
   displ. norm   :     0.1152723 α      lambda       -0.2840365E-04
   maximum displ.:     0.0860244 α      in ANC's #2, #4, #7, ...

........................................................................
.............................. CYCLE   29 ..............................
........................................................................
   1    -38.2657424 -0.382657E+02  0.352E-02    1.24       0.0  T
   2    -38.2657427 -0.281525E-06  0.204E-02    1.24       1.0  T
   3    -38.2657393  0.345911E-05  0.189E-02    1.24       1.0  T
   4    -38.2657444 -0.509790E-05  0.407E-03    1.24       4.4  T
   5    -38.2657445 -0.170150E-06  0.169E-03    1.24      10.7  T
   6    -38.2657445 -0.430354E-08  0.710E-04    1.24      25.3  T
   7    -38.2657445 -0.736836E-08  0.277E-04    1.24      64.9  T
     SCC iter.                  ...        0 min,  0.177 sec
     gradient                   ...        0 min,  0.018 sec
 * total energy  :   -37.6316217 Eh     change       -0.3205794E-04 Eh
   gradient norm :     0.0013471 Eh/α   predicted    -0.1429003E-04 ( -55.42%)
   displ. norm   :     0.1007302 α      lambda       -0.1895547E-04
   maximum displ.:     0.0770284 α      in ANC's #2, #4, #1, ...

........................................................................
.............................. CYCLE   30 ..............................
........................................................................
   1    -38.2652112 -0.382652E+02  0.263E-02    1.24       0.0  T
   2    -38.2652113 -0.143726E-06  0.159E-02    1.24       1.1  T
   3    -38.2652098  0.151155E-05  0.107E-02    1.24       1.7  T
   4    -38.2652115 -0.165054E-05  0.235E-03    1.24       7.6  T
   5    -38.2652115 -0.476754E-07  0.165E-03    1.24      10.9  T
   6    -38.2652115 -0.137183E-07  0.390E-04    1.24      46.1  T
   7    -38.2652115 -0.260656E-08  0.150E-04    1.24     119.9  T
     SCC iter.                  ...        0 min,  0.188 sec
     gradient                   ...        0 min,  0.006 sec
 * total energy  :   -37.6316447 Eh     change       -0.2298636E-04 Eh
   gradient norm :     0.0022027 Eh/α   predicted    -0.9521393E-05 ( -58.58%)
   displ. norm   :     0.0710357 α      lambda       -0.1900781E-04
   maximum displ.:     0.0537717 α      in ANC's #2, #4, #9, ...

........................................................................
.............................. CYCLE   31 ..............................
........................................................................
   1    -38.2652143 -0.382652E+02  0.147E-02    1.25       0.0  T
   2    -38.2652143 -0.408388E-08  0.901E-03    1.25       2.0  T
   3    -38.2652136  0.718066E-06  0.776E-03    1.25       2.3  T
   4    -38.2652146 -0.971571E-06  0.152E-03    1.25      11.8  T
   5    -38.2652146 -0.130638E-07  0.976E-04    1.25      18.4  T
   6    -38.2652146 -0.140782E-08  0.572E-04    1.25      31.4  T
     SCC iter.                  ...        0 min,  0.169 sec
     gradient                   ...        0 min,  0.020 sec
 * total energy  :   -37.6316609 Eh     change       -0.1624939E-04 Eh
   gradient norm :     0.0010320 Eh/α   predicted    -0.9553980E-05 ( -41.20%)
   displ. norm   :     0.1233930 α      lambda       -0.1947962E-04
   maximum displ.:     0.0933952 α      in ANC's #2, #1, #9, ...

........................................................................
.............................. CYCLE   32 ..............................
........................................................................
   1    -38.2652071 -0.382652E+02  0.264E-02    1.25       0.0  T
   2    -38.2652073 -0.256780E-06  0.163E-02    1.25       1.1  T
   3    -38.2652062  0.119440E-05  0.933E-03    1.24       1.9  T
   4    -38.2652076 -0.140036E-05  0.191E-03    1.25       9.4  T
   5    -38.2652076 -0.130771E-07  0.165E-03    1.25      10.9  T
   6    -38.2652076 -0.927941E-08  0.526E-04    1.25      34.1  T
   7    -38.2652076 -0.353602E-08  0.247E-04    1.25      72.7  T
     SCC iter.                  ...        0 min,  0.213 sec
     gradient                   ...        0 min,  0.010 sec
 * total energy  :   -37.6316845 Eh     change       -0.2354816E-04 Eh
   gradient norm :     0.0008083 Eh/α   predicted    -0.9808595E-05 ( -58.35%)
   displ. norm   :     0.1012858 α      lambda       -0.1267221E-04
   maximum displ.:     0.0806979 α      in ANC's #2, #1, #6, ...

........................................................................
.............................. CYCLE   33 ..............................
........................................................................
   1    -38.2651905 -0.382652E+02  0.252E-02    1.25       0.0  T
   2    -38.2651907 -0.175200E-06  0.159E-02    1.25       1.1  T
   3    -38.2651893  0.134448E-05  0.881E-03    1.24       2.0  T
   4    -38.2651908 -0.147702E-05  0.234E-03    1.25       7.7  T
   5    -38.2651909 -0.543867E-07  0.108E-03    1.25      16.6  T
   6    -38.2651909 -0.185837E-08  0.653E-04    1.25      27.5  T
   7    -38.2651909 -0.425558E-08  0.166E-04    1.25     108.3  T
     SCC iter.                  ...        0 min,  0.302 sec
     gradient                   ...        0 min,  0.021 sec
 * total energy  :   -37.6317005 Eh     change       -0.1601287E-04 Eh
   gradient norm :     0.0007658 Eh/α   predicted    -0.6366168E-05 ( -60.24%)
   displ. norm   :     0.0728793 α      lambda       -0.8570482E-05
   maximum displ.:     0.0617562 α      in ANC's #2, #1, #3, ...

........................................................................
.............................. CYCLE   34 ..............................
........................................................................
   1    -38.2653994 -0.382654E+02  0.195E-02    1.25       0.0  T
   2    -38.2653995 -0.592800E-07  0.128E-02    1.25       1.4  T
   3    -38.2653980  0.147112E-05  0.811E-03    1.25       2.2  T
   4    -38.2653996 -0.161061E-05  0.187E-03    1.25       9.6  T
   5    -38.2653997 -0.380651E-07  0.717E-04    1.25      25.0  T
   6    -38.2653997 -0.331646E-09  0.294E-04    1.25      61.1  T
     SCC iter.                  ...        0 min,  0.336 sec
     gradient                   ...        0 min,  0.091 sec
 * total energy  :   -37.6317118 Eh     change       -0.1127935E-04 Eh
   gradient norm :     0.0006336 Eh/α   predicted    -0.4297751E-05 ( -61.90%)
   displ. norm   :     0.0596331 α      lambda       -0.6610464E-05
   maximum displ.:     0.0501464 α      in ANC's #2, #1, #8, ...

........................................................................
.............................. CYCLE   35 ..............................
........................................................................
   1    -38.2655098 -0.382655E+02  0.180E-02    1.25       0.0  T
   2    -38.2655099 -0.390537E-07  0.119E-02    1.25       1.5  T
   3    -38.2655092  0.630273E-06  0.477E-03    1.25       3.8  T
   4    -38.2655099 -0.661978E-06  0.168E-03    1.25      10.7  T
   5    -38.2655099 -0.219465E-07  0.801E-04    1.25      22.4  T
   6    -38.2655099 -0.122157E-09  0.426E-04    1.25      42.2  T
     SCC iter.                  ...        0 min,  0.277 sec
     gradient                   ...        0 min,  0.032 sec
 * total energy  :   -37.6317205 Eh     change       -0.8693194E-05 Eh
   gradient norm :     0.0004109 Eh/α   predicted    -0.3311393E-05 ( -61.91%)
   displ. norm   :     0.0518865 α      lambda       -0.5292185E-05
   maximum displ.:     0.0447888 α      in ANC's #2, #1, #8, ...

........................................................................
.............................. CYCLE   36 ..............................
........................................................................
   1    -38.2655521 -0.382656E+02  0.142E-02    1.25       0.0  T
   2    -38.2655521 -0.337494E-07  0.973E-03    1.25       1.8  T
   3    -38.2655514  0.677008E-06  0.525E-03    1.25       3.4  T
   4    -38.2655522 -0.734410E-06  0.141E-03    1.25      12.7  T
   5    -38.2655522 -0.229017E-07  0.708E-04    1.25      25.4  T
   6    -38.2655522 -0.309058E-09  0.352E-04    1.25      51.0  T
     SCC iter.                  ...        0 min,  0.263 sec
     gradient                   ...        0 min,  0.038 sec
 * total energy  :   -37.6317273 Eh     change       -0.6845088E-05 Eh
   gradient norm :     0.0005463 Eh/α   predicted    -0.2649765E-05 ( -61.29%)
   displ. norm   :     0.0434287 α      lambda       -0.3697849E-05
   maximum displ.:     0.0376963 α      in ANC's #2, #1, #5, ...

........................................................................
.............................. CYCLE   37 ..............................
........................................................................
   1    -38.2655744 -0.382656E+02  0.112E-02    1.25       0.0  T
   2    -38.2655744 -0.284335E-07  0.723E-03    1.25       2.5  T
   3    -38.2655741  0.306604E-06  0.366E-03    1.25       4.9  T
   4    -38.2655744 -0.337305E-06  0.873E-04    1.25      20.6  T
   5    -38.2655744 -0.518471E-08  0.639E-04    1.25      28.1  T
     SCC iter.                  ...        0 min,  0.278 sec
     gradient                   ...        0 min,  0.004 sec
 * total energy  :   -37.6317322 Eh     change       -0.4899430E-05 Eh
   gradient norm :     0.0003139 Eh/α   predicted    -0.1851665E-05 ( -62.21%)
   displ. norm   :     0.0376444 α      lambda       -0.2762824E-05
   maximum displ.:     0.0327062 α      in ANC's #2, #1, #4, ...

   *** GEOMETRY OPTIMIZATION CONVERGED AFTER 37 ITERATIONS ***

------------------------------------------------------------------------
 total energy gain   :        -2.6403692 Eh    -1656.8567 kcal/mol
 total RMSD          :         0.6151679 a0        0.3255 Å
 total power (kW/mol):      -187.3591466 (step) -631.1150 (real)
------------------------------------------------------------------------

 ANCopt (total)                0 d,  0 h,  0 min, 10.984 sec
 optimizer setup                ...        0 min,  0.001 sec (  0.008%)
 model hessian                  ...        0 min,  0.032 sec (  0.295%)
 ANC generation                 ...        0 min,  0.003 sec (  0.031%)
 coordinate transformation      ...        0 min,  0.001 sec (  0.006%)
 single point calculation       ...        0 min, 10.807 sec ( 98.390%)
 optimization log               ...        0 min,  0.004 sec (  0.034%)
 hessian update                 ...        0 min,  0.095 sec (  0.861%)
 rational function              ...        0 min,  0.037 sec (  0.334%)

================
 final structure:
================
31
 xtb: 6.5.1 (b24c23e)
Zr          -1.25601700557542       -0.12852548841983        0.59645190439466
C           -1.90054892210329        1.14213190853736       -1.56720591772228
C           -0.23059072402060       -2.27679553780408        1.10323917226941
C            0.58521613604901       -1.66566514063820        0.11448782641593
C           -0.17258687234505       -1.56805801404924       -1.07798305724933
C           -1.45560117506902       -2.11083058404139       -0.82890753537873
C           -1.49560248244033       -2.54510615256211        0.52323175706956
H            0.10409007130419       -2.62864298812776        2.07349916729789
H            1.64883130533748       -1.47052050941323        0.20142585818526
H            0.21699048607461       -1.28692895214775       -2.05039050125835
H           -2.21843426304936       -2.29939900145680       -1.57481517171325
H           -2.27914162710375       -3.14573881996384        0.97290919945738
C            0.36492514604358        0.49754110361398        2.32415773867155
C           -0.91282875719610        0.44367696914930        2.93692444244669
C           -1.70074249177613        1.48819107338726        2.38622836987694
C           -0.92273129995413        2.15985743968559        1.41275739004694
C            0.35187516178042        1.53791728536153        1.36271954840406
H            1.23992621373677       -0.05901087149904        2.63929707753056
H           -1.17391290586660       -0.15614991295410        3.80363964544866
H           -2.65906396587558        1.82172176755898        2.76736507320201
H           -1.19345388292870        3.08394413599958        0.91468662383534
H            1.21797438042845        1.91237701088814        0.82531493799425
H           -0.79919217004011        1.21624675963169       -1.38529375935000
H           -2.09668995304939        0.47336014113321       -2.40330678939107
H           -2.27498123830024        2.13293053485372       -1.79594526444728
C           -3.73489114597876       -0.36171197527750        0.60233250579047
C           -3.46557956220087        0.71655025379555       -0.23248466605649
H           -3.49084843507906        1.70375405111825        0.23948076283076
H           -4.06364907971669        0.71974625263095       -1.14443656608172
H           -3.82020198337655       -0.22563634150389        1.68491545489142
H           -4.19761930773792       -1.25169142749558        0.18878908260661

 Bond Distances (Angstroems)
 ---------------------------
Zr1-C2=2.5906        Zr1-C3=2.4338        Zr1-C4=2.4465        Zr1-C5=2.4596        Zr1-C6=2.4497        Zr1-C7=2.4295        
Zr1-C13=2.4504       Zr1-C14=2.4337       Zr1-C15=2.4525       Zr1-C16=2.4524       Zr1-C17=2.4392       Zr1-H23=2.4381       
Zr1-C26=2.4898       Zr1-C27=2.5067       C2-Zr1=2.5906        C2-H23=1.1187        C2-H24=1.0885        C2-H25=1.0836        
C3-Zr1=2.4338        C3-C4=1.4201         C3-C7=1.4173         C3-H8=1.0850         C4-Zr1=2.4465        C4-C3=1.4201         
C4-C5=1.4163         C4-H9=1.0849         C5-Zr1=2.4596        C5-C4=1.4163         C5-C6=1.4152         C5-H10=1.0846        
C6-Zr1=2.4497        C6-C5=1.4152         C6-C7=1.4207         C6-H11=1.0834        C7-Zr1=2.4295        C7-C3=1.4173         
C7-C6=1.4207         C7-H12=1.0849        H8-C3=1.0850         H9-C4=1.0849         H10-C5=1.0846        H11-C6=1.0834        
H12-C7=1.0849        C13-Zr1=2.4504       C13-C14=1.4181       C13-C17=1.4167       C13-H18=1.0838       C14-Zr1=2.4337       
C14-C13=1.4181       C14-C15=1.4195       C14-H19=1.0859       C15-Zr1=2.4525       C15-C14=1.4195       C15-C16=1.4157       
C15-H20=1.0839       C16-Zr1=2.4524       C16-C15=1.4157       C16-C17=1.4191       C16-H21=1.0841       C17-Zr1=2.4392       
C17-C13=1.4167       C17-C16=1.4191       C17-H22=1.0859       H18-C13=1.0838       H19-C14=1.0859       H20-C15=1.0839       
H21-C16=1.0841       H22-C17=1.0859       H23-Zr1=2.4381       H23-C2=1.1187        H24-C2=1.0885        H25-C2=1.0836        
C26-Zr1=2.4898       C26-C27=1.3900       C26-H30=1.0944       C26-H31=1.0850       C27-Zr1=2.5067       C27-C26=1.3900       
C27-H28=1.0945       C27-H29=1.0906       H28-C27=1.0945       H29-C27=1.0906       H30-C26=1.0944       H31-C26=1.0850       
 C  H  Rav=1.0883 sigma=0.0083  Rmin=1.0834  Rmax=1.1187    17
 C  C  Rav=1.4153 sigma=0.0082  Rmin=1.3900  Rmax=1.4207    11
 Zr H  Rav=2.4381 sigma=0.0000  Rmin=2.4381  Rmax=2.4381     1
 Zr C  Rav=2.4642 sigma=0.0422  Rmin=2.4295  Rmax=2.5906    13

 selected bond angles (degree)
 --------------------
C3-Zr1-C2=135.37               C4-Zr1-C2=109.32               C4-Zr1-C3= 33.83               C5-Zr1-C2= 80.10               
C5-Zr1-C3= 55.91               C5-Zr1-C4= 33.56               C6-Zr1-C2= 83.72               C6-Zr1-C3= 56.03               
C6-Zr1-C4= 55.82               C6-Zr1-C5= 33.51               C7-Zr1-C2=115.99               C7-Zr1-C3= 33.89               
C7-Zr1-C4= 56.17               C7-Zr1-C5= 56.00               C7-Zr1-C6= 33.85               C13-Zr1-C2=128.91              
C13-Zr1-C3= 78.46              C13-Zr1-C4= 78.56              C13-Zr1-C5=109.76              C13-Zr1-C6=132.14              
C13-Zr1-C7=109.91              C14-Zr1-C2=136.30              C14-Zr1-C3= 87.01              C14-Zr1-C4=103.36              
C14-Zr1-C5=136.90              C14-Zr1-C6=139.58              C14-Zr1-C7=106.07              C14-Zr1-C13= 33.76             
C15-Zr1-C2=103.95              C15-Zr1-C3=120.42              C15-Zr1-C4=133.98              C15-Zr1-C5=164.26              
C15-Zr1-C6=160.61              C15-Zr1-C7=131.28              C15-Zr1-C13= 55.74             C15-Zr1-C14= 33.78             
C16-Zr1-C2= 81.61              C16-Zr1-C3=134.19              C16-Zr1-C4=123.34              C16-Zr1-C5=135.47              
C16-Zr1-C6=163.71              C16-Zr1-C7=162.10              C16-Zr1-C13= 55.74             C16-Zr1-C14= 56.04             
C16-Zr1-C15= 33.55             C17-Zr1-C2= 95.24              C17-Zr1-C3=105.06              C17-Zr1-C4= 89.72              
C17-Zr1-C5=108.87              C17-Zr1-C6=142.12              C17-Zr1-C7=138.94              C17-Zr1-C13= 33.68             
C17-Zr1-C14= 56.24             C17-Zr1-C15= 55.94             C17-Zr1-C16= 33.73             H23-Zr1-C2= 25.48              
H23-Zr1-C3=125.25              H23-Zr1-C4= 92.60              H23-Zr1-C5= 71.76              H23-Zr1-C6= 89.35              
H23-Zr1-C7=122.86              H23-Zr1-C13=107.95             H23-Zr1-C14=128.72             H23-Zr1-C15=105.28             
H23-Zr1-C16= 74.36             H23-Zr1-C17= 75.82             C26-Zr1-C2= 78.48              C26-Zr1-C3=109.65              
C26-Zr1-C4=133.70              C26-Zr1-C5=112.66              C26-Zr1-C6= 81.05              C26-Zr1-C7= 78.97              
C26-Zr1-C13=132.91             C26-Zr1-C14= 99.22             C26-Zr1-C15= 83.08             C26-Zr1-C16=102.82             
C26-Zr1-C17=136.02             C26-Zr1-H23=103.89             C27-Zr1-C2= 48.64              C27-Zr1-C3=137.55              
C27-Zr1-C4=144.10              C27-Zr1-C5=111.13              C27-Zr1-C6= 90.49              C27-Zr1-C7=103.79              
C27-Zr1-C13=136.90             C27-Zr1-C14=111.29             C27-Zr1-C15= 81.91             C27-Zr1-C16= 85.14             
C27-Zr1-C17=117.04             C27-Zr1-H23= 73.17             C27-Zr1-C26= 32.30             H23-C2-Zr1= 69.62              
H24-C2-Zr1=112.64              H24-C2-H23=110.06              H25-C2-Zr1=135.30              H25-C2-H23=108.30              
H25-C2-H24=109.72              C4-C3-Zr1= 73.57               C7-C3-Zr1= 72.89               C7-C3-C4=108.02                
H8-C3-Zr1=127.04               H8-C3-C4=125.80                H8-C3-C7=125.44                C3-C4-Zr1= 72.59               
C5-C4-Zr1= 73.73               C5-C4-C3=107.97                H9-C4-Zr1=127.52               H9-C4-C3=125.79                
H9-C4-C5=125.43                C4-C5-Zr1= 72.71               C6-C5-Zr1= 72.86               C6-C5-C4=108.09                
H10-C5-Zr1=128.09              H10-C5-C4=125.49               H10-C5-C6=125.65               C5-C6-Zr1= 73.63               
C7-C6-Zr1= 72.29               C7-C6-C5=108.08                H11-C6-Zr1=126.78              H11-C6-C5=125.73               
H11-C6-C7=125.61               C3-C7-Zr1= 73.22               C6-C7-Zr1= 73.85               C6-C7-C3=107.85                
H12-C7-Zr1=127.55              H12-C7-C3=125.44               H12-C7-C6=125.74               

 selected dihedral angles (degree)
 ---------------------------------
H23-C2-Zr1-C3=282.48          H23-C2-Zr1-C4=308.61          H23-C2-Zr1-C5=291.87          H23-C2-Zr1-C6=258.21          
H23-C2-Zr1-C7=247.65          H23-C2-Zr1-C13= 39.35         H23-C2-Zr1-C14= 84.77         H23-C2-Zr1-C15= 96.32         
H23-C2-Zr1-C16= 71.09         H23-C2-Zr1-C17= 40.15         H23-C2-Zr1-C26=176.10         H23-C2-Zr1-C27=161.99         
H24-C2-Zr1-C3= 26.46          H24-C2-Zr1-C4= 52.59          H24-C2-Zr1-C5= 35.85          H24-C2-Zr1-C6=  2.19          
H24-C2-Zr1-C7=351.62          H24-C2-Zr1-C13=143.32         H24-C2-Zr1-C14=188.75         H24-C2-Zr1-C15=200.29         
H24-C2-Zr1-C16=175.07         H24-C2-Zr1-C17=144.13         H24-C2-Zr1-H23=103.97         H24-C2-Zr1-C26=280.08         
H24-C2-Zr1-C27=265.97         H25-C2-Zr1-C3=186.70          H25-C2-Zr1-C4=212.83          H25-C2-Zr1-C5=196.09          
H25-C2-Zr1-C6=162.43          H25-C2-Zr1-C7=151.87          H25-C2-Zr1-C13=303.57         H25-C2-Zr1-C14=348.99         
H25-C2-Zr1-C15=  0.54         H25-C2-Zr1-C16=335.31         H25-C2-Zr1-C17=304.37         H25-C2-Zr1-H23=264.22         
H25-C2-Zr1-C26= 80.32         H25-C2-Zr1-C27= 66.21         C4-C3-Zr1-C2= 48.28           C4-C3-Zr1-C5= 37.09           
C4-C3-Zr1-C6= 77.80           C4-C3-Zr1-C7=115.35           C4-C3-Zr1-C13=273.39          C4-C3-Zr1-C14=240.43          
C4-C3-Zr1-C15=235.22          C4-C3-Zr1-C16=274.23          C4-C3-Zr1-C17=294.25          C4-C3-Zr1-H23= 17.34          
C4-C3-Zr1-C26=141.71          C4-C3-Zr1-C27=121.65          C7-C3-Zr1-C2=292.93           C7-C3-Zr1-C4=244.65           
C7-C3-Zr1-C5=281.74           C7-C3-Zr1-C6=322.45           C7-C3-Zr1-C13=158.04          C7-C3-Zr1-C14=125.08          
C7-C3-Zr1-C15=119.88          C7-C3-Zr1-C16=158.88          C7-C3-Zr1-C17=178.91          C7-C3-Zr1-H23=261.99          
C7-C3-Zr1-C26= 26.36          C7-C3-Zr1-C27=  6.30          H8-C3-Zr1-C2=171.07           H8-C3-Zr1-C4=122.79           
H8-C3-Zr1-C5=159.88           H8-C3-Zr1-C6=200.59           H8-C3-Zr1-C7=238.14           H8-C3-Zr1-C13= 36.18          
H8-C3-Zr1-C14=  3.22          H8-C3-Zr1-C15=358.01          H8-C3-Zr1-C16= 37.02          H8-C3-Zr1-C17= 57.04          
H8-C3-Zr1-H23=140.13          H8-C3-Zr1-C26=264.50          H8-C3-Zr1-C27=244.44          C3-C4-Zr1-C2=213.76           
C3-C4-Zr1-C5=244.64           C3-C4-Zr1-C6=281.54           C3-C4-Zr1-C7=322.66           C3-C4-Zr1-C13= 86.30          
C3-C4-Zr1-C14= 63.22          C3-C4-Zr1-C15= 79.86          C3-C4-Zr1-C16=121.14          C3-C4-Zr1-C17=118.31          
C3-C4-Zr1-H23=194.10          C3-C4-Zr1-C26=306.18          C3-C4-Zr1-C27=258.53          C5-C4-Zr1-C2=329.12           
C5-C4-Zr1-C3=115.36           C5-C4-Zr1-C6= 36.90           C5-C4-Zr1-C7= 78.02           C5-C4-Zr1-C13=201.66          
C5-C4-Zr1-C14=178.58          C5-C4-Zr1-C15=195.22          C5-C4-Zr1-C16=236.50          C5-C4-Zr1-C17=233.67          
C5-C4-Zr1-H23=309.46          C5-C4-Zr1-C26= 61.54          C5-C4-Zr1-C27= 13.89          H9-C4-Zr1-C2= 91.62           
H9-C4-Zr1-C3=237.86           H9-C4-Zr1-C5=122.50           H9-C4-Zr1-C6=159.40           H9-C4-Zr1-C7=200.52           
H9-C4-Zr1-C13=324.16          H9-C4-Zr1-C14=301.08          H9-C4-Zr1-C15=317.72          H9-C4-Zr1-C16=359.00          
H9-C4-Zr1-C17=356.16          H9-C4-Zr1-H23= 71.95          H9-C4-Zr1-C26=184.04          H9-C4-Zr1-C27=136.39          
Zr1-C4-C3-C7= 65.27           Zr1-C4-C3-H8=235.83           C5-C4-C3-Zr1=294.22           C5-C4-C3-C7=359.49            
C5-C4-C3-H8=170.05            H9-C4-C3-Zr1=124.12           H9-C4-C3-C7=189.38            H9-C4-C3-H8=359.94            
C4-C5-Zr1-C2=150.55           C4-C5-Zr1-C3=322.59           C4-C5-Zr1-C6=244.13           C4-C5-Zr1-C7=281.41           
C4-C5-Zr1-C13= 22.61          C4-C5-Zr1-C14=357.98          C4-C5-Zr1-C15= 44.12          C4-C5-Zr1-C16= 83.41          
C4-C5-Zr1-C17= 58.35          C4-C5-Zr1-H23=125.70          C4-C5-Zr1-C26=223.53          C4-C5-Zr1-C27=188.68          
C6-C5-Zr1-C2=266.41           C6-C5-Zr1-C3= 78.46           C6-C5-Zr1-C4=115.87           C6-C5-Zr1-C7= 37.28           
C6-C5-Zr1-C13=138.47          C6-C5-Zr1-C14=113.84          C6-C5-Zr1-C15=159.99          C6-C5-Zr1-C16=199.28          
C6-C5-Zr1-C17=174.22          C6-C5-Zr1-H23=241.56          C6-C5-Zr1-C26=339.40          C6-C5-Zr1-C27=304.54          
H10-C5-Zr1-C2= 28.64          H10-C5-Zr1-C3=200.68          H10-C5-Zr1-C4=238.09          H10-C5-Zr1-C6=122.22          
H10-C5-Zr1-C7=159.50          H10-C5-Zr1-C13=260.70         H10-C5-Zr1-C14=236.07         H10-C5-Zr1-C15=282.21         
H10-C5-Zr1-C16=321.50         H10-C5-Zr1-C17=296.44         H10-C5-Zr1-H23=  3.78         H10-C5-Zr1-C26=101.62         
H10-C5-Zr1-C27= 66.77         Zr1-C5-C4-C3= 65.02           Zr1-C5-C4-H9=235.18           C6-C5-C4-Zr1=295.23           
C6-C5-C4-C3=  0.26            C6-C5-C4-H9=170.41            H10-C5-C4-Zr1=124.86          H10-C5-C4-C3=189.88           
H10-C5-C4-H9=  0.03           C5-C6-Zr1-C2= 81.54           C5-C6-Zr1-C3=281.91           C5-C6-Zr1-C4=323.04           
C5-C6-Zr1-C7=244.33           C5-C6-Zr1-C13=302.72          C5-C6-Zr1-C14=254.54          C5-C6-Zr1-C15=196.24          
C5-C6-Zr1-C16= 55.61          C5-C6-Zr1-C17=351.07          C5-C6-Zr1-H23= 56.63          C5-C6-Zr1-C26=160.81          
C5-C6-Zr1-C27=129.79          C7-C6-Zr1-C2=197.21           C7-C6-Zr1-C3= 37.59           C7-C6-Zr1-C4= 78.72           
C7-C6-Zr1-C5=115.67           C7-C6-Zr1-C13= 58.39          C7-C6-Zr1-C14= 10.22          C7-C6-Zr1-C15=311.91          
C7-C6-Zr1-C16=171.29          C7-C6-Zr1-C17=106.74          C7-C6-Zr1-H23=172.31          C7-C6-Zr1-C26=276.48          
C7-C6-Zr1-C27=245.46          H11-C6-Zr1-C2=318.84          H11-C6-Zr1-C3=159.21          H11-C6-Zr1-C4=200.34          
H11-C6-Zr1-C5=237.30          H11-C6-Zr1-C7=121.63          H11-C6-Zr1-C13=180.02         H11-C6-Zr1-C14=131.84         
H11-C6-Zr1-C15= 73.54         H11-C6-Zr1-C16=292.91         H11-C6-Zr1-C17=228.37         H11-C6-Zr1-H23=293.93         
H11-C6-Zr1-C26= 38.11         H11-C6-Zr1-C27=  7.09         Zr1-C6-C5-C4= 64.67           Zr1-C6-C5-H10=235.03          
C7-C6-C5-Zr1=295.42           C7-C6-C5-C4=  0.09            C7-C6-C5-H10=170.45           H11-C6-C5-Zr1=123.88          
H11-C6-C5-C4=188.55           H11-C6-C5-H10=358.91          C3-C7-Zr1-C2=133.97           C3-C7-Zr1-C4= 37.28           
C3-C7-Zr1-C5= 77.99           C3-C7-Zr1-C6=114.87           C3-C7-Zr1-C13=337.07          C3-C7-Zr1-C14=301.74          
C3-C7-Zr1-C15=275.67          C3-C7-Zr1-C16=302.82          C3-C7-Zr1-C17=358.39          C3-C7-Zr1-H23=105.70          
C3-C7-Zr1-C26=205.22          C3-C7-Zr1-C27=184.37          C6-C7-Zr1-C2= 19.10           C6-C7-Zr1-C3=245.13           
C6-C7-Zr1-C4=282.41           C6-C7-Zr1-C5=323.12           C6-C7-Zr1-C13=222.20          C6-C7-Zr1-C14=186.87          
C6-C7-Zr1-C15=160.80          C6-C7-Zr1-C16=187.95          C6-C7-Zr1-C17=243.52          C6-C7-Zr1-H23=350.83          
C6-C7-Zr1-C26= 90.35          C6-C7-Zr1-C27= 69.50          H12-C7-Zr1-C2=256.12          H12-C7-Zr1-C3=122.15          
H12-C7-Zr1-C4=159.43          H12-C7-Zr1-C5=200.14          H12-C7-Zr1-C6=237.02          H12-C7-Zr1-C13= 99.22         
H12-C7-Zr1-C14= 63.89         H12-C7-Zr1-C15= 37.82         H12-C7-Zr1-C16= 64.97         H12-C7-Zr1-C17=120.54         
H12-C7-Zr1-H23=227.85         H12-C7-Zr1-C26=327.37         H12-C7-Zr1-C27=306.52         Zr1-C7-C3-C4=294.28           
Zr1-C7-C3-H8=123.68           C6-C7-C3-Zr1= 66.28           C6-C7-C3-C4=  0.56            C6-C7-C3-H8=189.96            
H12-C7-C3-Zr1=235.48          H12-C7-C3-C4=169.76           H12-C7-C3-H8=359.16           Zr1-C7-C6-C5= 65.46           
Zr1-C7-C6-H11=237.01          C3-C7-C6-Zr1=294.14           C3-C7-C6-C5=359.60            C3-C7-C6-H11=171.15           
H12-C7-C6-Zr1=124.98          H12-C7-C6-C5=190.44           H12-C7-C6-H11=  1.99          
           -------------------------------------------------
          |                Final Singlepoint                |
           -------------------------------------------------

          ...................................................
          :                      SETUP                      :
          :.................................................:
          :  # basis functions                  79          :
          :  # atomic orbitals                  78          :
          :  # shells                           46          :
          :  # electrons                        72          :
          :  max. iterations                   250          :
          :  Hamiltonian                  GFN2-xTB          :
          :  restarted?                      false          :
          :  GBSA solvation                  false          :
          :  PC potential                    false          :
          :  electronic temp.          300.0000000     K    :
          :  accuracy                    1.0000000          :
          :  -> integral cutoff          0.2500000E+02      :
          :  -> integral neglect         0.1000000E-07      :
          :  -> SCF convergence          0.1000000E-05 Eh   :
          :  -> wf. convergence          0.1000000E-03 e    :
          :  Broyden damping             0.4000000          :
          ...................................................

 iter      E             dE          RMSdq      gap      omega  full diag
   1    -38.2655744 -0.382656E+02  0.298E-04    1.25       0.0  T
   2    -38.2655744 -0.833680E-10  0.216E-04    1.25      83.0  T
   3    -38.2655744 -0.827747E-09  0.113E-04    1.25     158.4  T

   *** convergence criteria satisfied after 3 iterations ***

         #    Occupation            Energy/Eh            Energy/eV
      -------------------------------------------------------------
         1        2.0000           -0.8755988             -23.8263
       ...           ...                  ...                  ...
        30        2.0000           -0.5884572             -16.0127
        31        2.0000           -0.5725332             -15.5794
        32        2.0000           -0.5254928             -14.2994
        33        2.0000           -0.5246873             -14.2775
        34        2.0000           -0.5151937             -14.0191
        35        2.0000           -0.5097785             -13.8718
        36        2.0000           -0.4744607             -12.9107 (HOMO)
        37                         -0.4286335             -11.6637 (LUMO)
        38                         -0.4120557             -11.2126
        39                         -0.4103880             -11.1672
        40                         -0.4048395             -11.0162
        41                         -0.4036463             -10.9838
       ...                                ...                  ...
        78                          2.5864023              70.3796
      -------------------------------------------------------------
                  HL-Gap            0.0458273 Eh            1.2470 eV
             Fermi-level           -0.4515471 Eh          -12.2872 eV

 SCC (total)                   0 d,  0 h,  0 min,  0.297 sec
 SCC setup                      ...        0 min,  0.018 sec (  5.918%)
 Dispersion                     ...        0 min,  0.019 sec (  6.307%)
 classical contributions        ...        0 min,  0.012 sec (  3.972%)
 integral evaluation            ...        0 min,  0.048 sec ( 15.971%)
 iterations                     ...        0 min,  0.164 sec ( 55.188%)
 molecular gradient             ...        0 min,  0.037 sec ( 12.569%)
 printout                       ...        0 min,  0.000 sec (  0.064%)

         :::::::::::::::::::::::::::::::::::::::::::::::::::::
         ::                     SUMMARY                     ::
         :::::::::::::::::::::::::::::::::::::::::::::::::::::
         :: total energy             -37.631732216316 Eh    ::
         :: gradient norm              0.000301782348 Eh/a0 ::
         :: HOMO-LUMO gap              1.247023102053 eV    ::
         ::.................................................::
         :: SCC energy               -38.265574448292 Eh    ::
         :: -> isotropic ES            0.087488547762 Eh    ::
         :: -> anisotropic ES         -0.013402028300 Eh    ::
         :: -> anisotropic XC          0.020529592404 Eh    ::
         :: -> dispersion             -0.027821531262 Eh    ::
         :: repulsion energy           0.632198135862 Eh    ::
         :: add. restraining           0.000959954496 Eh    ::
         :: total charge               1.000000000000 e     ::
         :::::::::::::::::::::::::::::::::::::::::::::::::::::

           -------------------------------------------------
          |                Property Printout                |
           -------------------------------------------------

    * Orbital Energies and Occupations

         #    Occupation            Energy/Eh            Energy/eV
      -------------------------------------------------------------
         1        2.0000           -0.8755988             -23.8263
       ...           ...                  ...                  ...
        24        2.0000           -0.5978883             -16.2694
        25        2.0000           -0.5965321             -16.2325
        26        2.0000           -0.5946165             -16.1803
        27        2.0000           -0.5941901             -16.1687
        28        2.0000           -0.5925661             -16.1245
        29        2.0000           -0.5921555             -16.1134
        30        2.0000           -0.5884572             -16.0127
        31        2.0000           -0.5725332             -15.5794
        32        2.0000           -0.5254928             -14.2994
        33        2.0000           -0.5246873             -14.2775
        34        2.0000           -0.5151937             -14.0191
        35        2.0000           -0.5097785             -13.8718
        36        2.0000           -0.4744607             -12.9107 (HOMO)
        37                         -0.4286335             -11.6637 (LUMO)
        38                         -0.4120557             -11.2126
        39                         -0.4103880             -11.1672
        40                         -0.4048395             -11.0162
        41                         -0.4036463             -10.9838
        42                         -0.3510756              -9.5533
        43                         -0.3105490              -8.4505
        44                         -0.3101372              -8.4393
        45                         -0.3086583              -8.3990
        46                         -0.3082122              -8.3869
        47                         -0.0596600              -1.6234
       ...                                ...                  ...
        78                          2.5864023              70.3796
      -------------------------------------------------------------
                  HL-Gap            0.0458273 Eh            1.2470 eV
             Fermi-level           -0.4515471 Eh          -12.2872 eV

     #   Z          covCN         q      C6AA      α(0)
     1  40 Zr       9.955     0.954   138.737    17.699
     2   6 C        3.740    -0.238    25.352     7.184
     3   6 C        3.765    -0.087    22.192     6.714
     4   6 C        3.761    -0.088    22.225     6.721
     5   6 C        3.755    -0.087    22.212     6.720
     6   6 C        3.761    -0.088    22.225     6.720
     7   6 C        3.765    -0.088    22.223     6.719
     8   1 H        0.925     0.087     1.910     2.161
     9   1 H        0.925     0.083     1.945     2.181
    10   1 H        0.925     0.079     1.985     2.203
    11   1 H        0.925     0.088     1.894     2.152
    12   1 H        0.925     0.087     1.906     2.159
    13   6 C        3.762    -0.082    22.109     6.703
    14   6 C        3.763    -0.090    22.266     6.726
    15   6 C        3.760    -0.089    22.248     6.724
    16   6 C        3.759    -0.090    22.264     6.727
    17   6 C        3.762    -0.090    22.273     6.728
    18   1 H        0.925     0.087     1.909     2.161
    19   1 H        0.925     0.082     1.962     2.190
    20   1 H        0.925     0.081     1.970     2.195
    21   1 H        0.925     0.082     1.961     2.190
    22   1 H        0.925     0.078     1.995     2.209
    23   1 H        1.118     0.071     2.057     2.240
    24   1 H        0.925     0.074     2.039     2.233
    25   1 H        0.925     0.077     2.011     2.218
    26   6 C        3.570    -0.195    25.300     7.319
    27   6 C        3.852    -0.092    22.224     6.705
    28   1 H        0.925     0.106     1.730     2.057
    29   1 H        0.924     0.115     1.651     2.009
    30   1 H        0.932     0.084     1.936     2.176
    31   1 H        0.925     0.087     1.907     2.160

 Mol. C6AA /au·bohr⁶  :       9444.164006
 Mol. C8AA /au·bohr⁸  :     320611.445569
 Mol. α(0) /au        :        143.002308


Wiberg/Mayer (AO) data.
largest (>0.10) Wiberg bond orders for each atom

 ---------------------------------------------------------------------------
     #   Z sym  total        # sym  WBO       # sym  WBO       # sym  WBO
 ---------------------------------------------------------------------------
     1  40 Zr   4.336 --    26 C    0.496     2 C    0.460     7 C    0.255
                            14 C    0.254     3 C    0.252     4 C    0.247
                            17 C    0.244     6 C    0.240    27 C    0.239
                             5 C    0.235    13 C    0.235    15 C    0.234
                            16 C    0.232    23 H    0.117
     2   6 C    3.928 --    25 H    0.971    24 H    0.955    23 H    0.838
                             1 Zr   0.460    27 C    0.430    26 C    0.180
     3   6 C    3.980 --     7 C    1.299     4 C    1.293     8 H    0.921
                             1 Zr   0.252
     4   6 C    3.980 --     5 C    1.302     3 C    1.293     9 H    0.923
                             1 Zr   0.247
     5   6 C    3.981 --     6 C    1.310     4 C    1.302    10 H    0.924
                             1 Zr   0.235
     6   6 C    3.979 --     5 C    1.310     7 C    1.288    11 H    0.925
                             1 Zr   0.240
     7   6 C    3.981 --     3 C    1.299     6 C    1.288    12 H    0.919
                             1 Zr   0.255
     8   1 H    0.990 --     3 C    0.921
     9   1 H    0.990 --     4 C    0.923
    10   1 H    0.992 --     5 C    0.924
    11   1 H    0.989 --     6 C    0.925
    12   1 H    0.990 --     7 C    0.919
    13   6 C    3.981 --    17 C    1.306    14 C    1.301    18 H    0.925
                             1 Zr   0.235
    14   6 C    3.979 --    13 C    1.301    15 C    1.291    19 H    0.919
                             1 Zr   0.254
    15   6 C    3.979 --    16 C    1.311    14 C    1.291    20 H    0.926
                             1 Zr   0.234
    16   6 C    3.979 --    15 C    1.311    17 C    1.295    21 H    0.926
                             1 Zr   0.232
    17   6 C    3.979 --    13 C    1.306    16 C    1.295    22 H    0.920
                             1 Zr   0.244
    18   1 H    0.990 --    13 C    0.925
    19   1 H    0.991 --    14 C    0.919
    20   1 H    0.991 --    15 C    0.926
    21   1 H    0.991 --    16 C    0.926
    22   1 H    0.992 --    17 C    0.920
    23   1 H    0.995 --     2 C    0.838     1 Zr   0.117
    24   1 H    0.993 --     2 C    0.955
    25   1 H    0.993 --     2 C    0.971
    26   6 C    3.918 --    27 C    1.347    31 H    0.930    30 H    0.878
                             1 Zr   0.496     2 C    0.180
    27   6 C    3.988 --    26 C    1.347    29 H    0.939    28 H    0.915
                             2 C    0.430     1 Zr   0.239
    28   1 H    0.988 --    27 C    0.915
    29   1 H    0.985 --    27 C    0.939
    30   1 H    0.992 --    26 C    0.878
    31   1 H    0.990 --    26 C    0.930
 ---------------------------------------------------------------------------

Topologies differ in total number of bonds
Writing topology from bond orders to xtbtopo.mol

molecular dipole:
                 x           y           z       tot (Debye)
 q only:       -2.928      -0.045       0.871
   full:       -2.516       0.034       0.874       6.771
molecular quadrupole (traceless):
                xx          xy          yy          xz          yz          zz
 q only:       11.073      -1.092      -7.178      -2.361      -3.587      -3.895
  q+dip:        9.408      -0.519      -8.483      -2.392      -7.210      -0.926
   full:        8.257      -0.101      -7.453      -3.764      -6.037      -0.804

           -------------------------------------------------
          |                Geometry Summary                 |
           -------------------------------------------------

      molecular mass/u    :      264.4982010
   center of mass at/Å    :       -1.1987113      -0.1577131       0.6398010
  moments of inertia/u·Å² :        0.5950143E+03   0.7214790E+03   0.9190838E+03
rotational constants/cm⁻¹ :        0.2833147E-01   0.2336538E-01   0.1834178E-01

 * 41 selected distances

     #   Z          #   Z                                           value/Å
     1  40 Zr       2   6 C                                       2.5906385 (max)
     1  40 Zr       3   6 C                                       2.4338031
     1  40 Zr       4   6 C                                       2.4464726
     3   6 C        4   6 C                                       1.4200883
     1  40 Zr       5   6 C                                       2.4596358
     4   6 C        5   6 C                                       1.4162555
     1  40 Zr       6   6 C                                       2.4496975
     5   6 C        6   6 C                                       1.4151914
     1  40 Zr       7   6 C                                       2.4295320
     3   6 C        7   6 C                                       1.4172700
     6   6 C        7   6 C                                       1.4207309
     3   6 C        8   1 H                                       1.0849943
     4   6 C        9   1 H                                       1.0848581
     5   6 C       10   1 H                                       1.0846108
     6   6 C       11   1 H                                       1.0834439 (min)
     7   6 C       12   1 H                                       1.0848517
     1  40 Zr      13   6 C                                       2.4503839
     1  40 Zr      14   6 C                                       2.4337228
    13   6 C       14   6 C                                       1.4181113
     1  40 Zr      15   6 C                                       2.4525200
    14   6 C       15   6 C                                       1.4195367
     1  40 Zr      16   6 C                                       2.4523726
    15   6 C       16   6 C                                       1.4156565
     1  40 Zr      17   6 C                                       2.4391630
    13   6 C       17   6 C                                       1.4166569
    16   6 C       17   6 C                                       1.4191319
    13   6 C       18   1 H                                       1.0838312
    14   6 C       19   1 H                                       1.0858880
    15   6 C       20   1 H                                       1.0839226
    16   6 C       21   1 H                                       1.0841133
    17   6 C       22   1 H                                       1.0858876
     2   6 C       23   1 H                                       1.1187368
     2   6 C       24   1 H                                       1.0884815
     2   6 C       25   1 H                                       1.0836067
     1  40 Zr      26   6 C                                       2.4898250
     1  40 Zr      27   6 C                                       2.5066824
    26   6 C       27   6 C                                       1.3899994
    27   6 C       28   1 H                                       1.0945142
    27   6 C       29   1 H                                       1.0905750
    26   6 C       30   1 H                                       1.0944316
    26   6 C       31   1 H                                       1.0849881

 * 3 distinct bonds (by element types)

   Z      Z             #   av. dist./Å        max./Å        min./Å
   1 H    6 C          17     1.0883374     1.1187368     1.0834439
   6 C    6 C          11     1.4153299     1.4207309     1.3899994
   6 C   40 Zr         13     2.4641884     2.5906385     2.4295320


optimized geometry written to: xtbopt.xyz


           -------------------------------------------------
          | TOTAL ENERGY              -37.631732216316 Eh   |
          | GRADIENT NORM               0.000301782348 Eh/α |
          | HOMO-LUMO GAP               1.247023102053 eV   |
           -------------------------------------------------

------------------------------------------------------------------------
 * finished run on 2026/08/18 at 18:42:56.304     
------------------------------------------------------------------------
 total:
 * wall-time:     0 d,  0 h,  0 min, 11.923 sec
 *  cpu-time:     0 d,  0 h,  1 min, 22.522 sec
 * ratio c/w:     6.921 speedup
 SCF:
 * wall-time:     0 d,  0 h,  0 min,  0.493 sec
 *  cpu-time:     0 d,  0 h,  0 min,  3.738 sec
 * ratio c/w:     7.589 speedup
 ANC optimizer:
 * wall-time:     0 d,  0 h,  0 min, 11.297 sec
 *  cpu-time:     0 d,  0 h,  1 min, 17.827 sec
 * ratio c/w:     6.889 speedup

