23
Properties=species:S:1:pos:R:3 pbc="F F F"
Zr      -1.51900000       0.14080000       0.14070000
Cl      -0.64196149       1.38137873      -2.00791819
Cl      -4.15050000       0.14080000       0.14070000
C       -0.10488398      -1.98439677       1.22326159
C        0.45868400      -1.78517252      -0.11909603
C       -0.57089337      -2.14913354      -1.10245525
C       -1.77070466      -2.57327314      -0.36781600
C       -1.48270112      -2.47146238       1.06960569
H        0.40608400      -1.80376690       2.16205899
H        1.45843775      -1.43175430      -0.34442690
H       -0.46399338      -2.11134383      -2.18055412
H       -2.70439232      -2.90333665      -0.80876754
H       -2.16663518      -2.71323667       1.87518958
C        0.13919277       0.39482001       2.34841275
C       -1.22917472       0.43766030       2.88222757
C       -1.85813399       1.68277000       2.42005373
C       -0.87847467       2.40937852       1.60063684
C        0.35598794       1.61336767       1.55634925
H        0.86184206      -0.39674219       2.51047224
H       -1.69322171      -0.31678718       3.50725187
H       -2.86761233       2.00808479       2.64427820
H       -1.03830155       3.36487562       1.11418697
H        1.26669086       1.87856546       1.03149087
