      -----------------------------------------------------------      
     |                   =====================                   |     
     |                           x T B                           |     
     |                   =====================                   |     
     |                         S. Grimme                         |     
     |          Mulliken Center for Theoretical Chemistry        |     
     |                    University of Bonn                     |     
      -----------------------------------------------------------      

   * xtb version 6.5.1 (b24c23e) compiled by 'conda@728c89f4b128' on 2022-07-12

   xtb is free software: you can redistribute it and/or modify it under
   the terms of the GNU Lesser General Public License as published by
   the Free Software Foundation, either version 3 of the License, or
   (at your option) any later version.
   
   xtb is distributed in the hope that it will be useful,
   but WITHOUT ANY WARRANTY; without even the implied warranty of
   MERCHANTABILITY or FITNESS FOR A PARTICULAR PURPOSE.  See the
   GNU Lesser General Public License for more details.
   
   Cite this work as:
   * C. Bannwarth, E. Caldeweyher, S. Ehlert, A. Hansen, P. Pracht,
     J. Seibert, S. Spicher, S. Grimme, WIREs Comput. Mol. Sci., 2020, 11,
     e01493. DOI: 10.1002/wcms.1493
   
   for GFN2-xTB:
   * C. Bannwarth, S. Ehlert and S. Grimme., J. Chem. Theory Comput., 2019,
     15, 1652-1671. DOI: 10.1021/acs.jctc.8b01176
   for GFN1-xTB:
   * S. Grimme, C. Bannwarth, P. Shushkov, J. Chem. Theory Comput., 2017,
     13, 1989-2009. DOI: 10.1021/acs.jctc.7b00118
   for GFN0-xTB:
   * P. Pracht, E. Caldeweyher, S. Ehlert, S. Grimme, ChemRxiv, 2019, preprint.
     DOI: 10.26434/chemrxiv.8326202.v1
   for GFN-FF:
   * S. Spicher and S. Grimme, Angew. Chem. Int. Ed., 2020, 59, 15665-15673.
     DOI: 10.1002/anie.202004239
   
   for ALPB and GBSA implicit solvation:
   * S. Ehlert, M. Stahn, S. Spicher, S. Grimme, J. Chem. Theory Comput.,
     2021, 17, 4250-4261. DOI: 10.1021/acs.jctc.1c00471
   
   for DFT-D4:
   * E. Caldeweyher, C. Bannwarth and S. Grimme, J. Chem. Phys., 2017,
     147, 034112. DOI: 10.1063/1.4993215
   * E. Caldeweyher, S. Ehlert, A. Hansen, H. Neugebauer, S. Spicher,
     C. Bannwarth and S. Grimme, J. Chem. Phys., 2019, 150, 154122.
     DOI: 10.1063/1.5090222
   * E. Caldeweyher, J.-M. Mewes, S. Ehlert and S. Grimme, Phys. Chem. Chem. Phys.
     2020, 22, 8499-8512. DOI: 10.1039/D0CP00502A
   
   for sTDA-xTB:
   * S. Grimme and C. Bannwarth, J. Chem. Phys., 2016, 145, 054103.
     DOI: 10.1063/1.4959605
   
   in the mass-spec context:
   * V. Asgeirsson, C. Bauer and S. Grimme, Chem. Sci., 2017, 8, 4879.
     DOI: 10.1039/c7sc00601b
   * J. Koopman and S. Grimme, ACS Omega 2019, 4, 12, 15120-15133.
     DOI: 10.1021/acsomega.9b02011
   
   for metadynamics refer to:
   * S. Grimme, J. Chem. Theory Comput., 2019, 155, 2847-2862
     DOI: 10.1021/acs.jctc.9b00143
   
   for SPH calculations refer to:
   * S. Spicher and S. Grimme, J. Chem. Theory Comput., 2021, 17, 1701-1714
     DOI: 10.1021/acs.jctc.0c01306
   
   with help from (in alphabetical order)
   P. Atkinson, C. Bannwarth, F. Bohle, G. Brandenburg, E. Caldeweyher
   M. Checinski, S. Dohm, S. Ehlert, S. Ehrlich, I. Gerasimov, C. Hölzer
   A. Katbashev, J. Koopman, C. Lavigne, S. Lehtola, F. März, M. Müller,
   F. Musil, H. Neugebauer, J. Pisarek, C. Plett, P. Pracht, F. Pultar,
   J. Seibert, P. Shushkov, S. Spicher, M. Stahn, M. Steiner, T. Strunk,
   J. Stückrath, T. Rose, and J. Unsleber
   
 * started run on 2026/08/16 at 16:00:26.016     

           -------------------------------------------------
          |                Calculation Setup                |
           -------------------------------------------------

          program call               : /h/332/chchoi/miniconda3/envs/el-agente/bin/xtb ts_pre3.xyz --opt --gfn 2 -P 4 --chrg 1 --uhf 0 --input detailed_input.inp
          coordinate file            : ts_pre3.xyz
          omp threads                :                     4

   ID    Z sym.   atoms
    1   40 Zr     1
    2    6 C      2-7, 13-17, 26, 27
    3    1 H      8-12, 18-25, 28-31
constraining bond 1 2 to    2.6000000 Å, actual value:    2.4750002 Å
constraining bond 1 26 to    2.3000000 Å, actual value:    2.3500002 Å
constraining bond 26 27 to    1.4000000 Å, actual value:    1.3349601 Å
constraining bond 2 27 to    2.2500000 Å, actual value:    2.9572983 Å
constraining angle 2 1 26 to   90.0000000°, actual value:   94.2774570°

molecular fragmentation (1/2 indicates fragments):
1111111111111111111111111222222
# atoms in fragment 1/2:    25     6
 fragment masses (1/2) :      236.44       28.05
CMA distance (Bohr)    :   5.567
constraining FC (au)   :  1.0000

           -------------------------------------------------
          |                 G F N 2 - x T B                 |
           -------------------------------------------------

        Reference                      10.1021/acs.jctc.8b01176
      * Hamiltonian:
        H0-scaling (s, p, d)           1.850000    2.230000    2.230000
        zeta-weighting                 0.500000
      * Dispersion:
        s8                             2.700000
        a1                             0.520000
        a2                             5.000000
        s9                             5.000000
      * Repulsion:
        kExp                           1.500000    1.000000
        rExp                           1.000000
      * Coulomb:
        alpha                          2.000000
        third order                    shell-resolved
        anisotropic                    true
        a3                             3.000000
        a5                             4.000000
        cn-shift                       1.200000
        cn-exp                         4.000000
        max-rad                        5.000000


          ...................................................
          :                      SETUP                      :
          :.................................................:
          :  # basis functions                  79          :
          :  # atomic orbitals                  78          :
          :  # shells                           46          :
          :  # electrons                        72          :
          :  max. iterations                   250          :
          :  Hamiltonian                  GFN2-xTB          :
          :  restarted?                      false          :
          :  GBSA solvation                  false          :
          :  PC potential                    false          :
          :  electronic temp.          300.0000000     K    :
          :  accuracy                    1.0000000          :
          :  -> integral cutoff          0.2500000E+02      :
          :  -> integral neglect         0.1000000E-07      :
          :  -> SCF convergence          0.1000000E-05 Eh   :
          :  -> wf. convergence          0.1000000E-03 e    :
          :  Broyden damping             0.4000000          :
          ...................................................

 iter      E             dE          RMSdq      gap      omega  full diag
   1    -37.9509735 -0.379510E+02  0.479E+00    0.54       0.0  T
   2    -38.0535104 -0.102537E+00  0.387E+00    1.11       1.0  T
   3    -38.0459647  0.754566E-02  0.309E+00    0.36       1.0  T
   4    -38.0662513 -0.202866E-01  0.133E+00    1.23       1.0  T
   5    -38.0897158 -0.234645E-01  0.527E-01    0.58       1.0  T
   6    -38.0936191 -0.390329E-02  0.403E-01    0.58       1.0  T
   7    -38.0931373  0.481762E-03  0.310E-01    0.55       1.0  T
   8    -38.0934374 -0.300030E-03  0.189E-01    0.68       1.0  T
   9    -38.0937373 -0.299904E-03  0.104E-01    0.65       1.0  T
  10    -38.0938492 -0.111956E-03  0.440E-02    0.62       1.0  T
  11    -38.0938696 -0.203656E-04  0.174E-02    0.62       1.0  T
  12    -38.0938720 -0.237283E-05  0.961E-03    0.62       1.9  T
  13    -38.0938729 -0.974401E-06  0.587E-03    0.62       3.1  T
  14    -38.0938731 -0.138615E-06  0.266E-03    0.62       6.8  T
  15    -38.0938732 -0.799121E-07  0.113E-03    0.62      15.8  T
  16    -38.0938732  0.241535E-09  0.800E-04    0.62      22.4  T
  17    -38.0938732 -0.203277E-08  0.239E-04    0.62      75.2  T

   *** convergence criteria satisfied after 17 iterations ***

         #    Occupation            Energy/Eh            Energy/eV
      -------------------------------------------------------------
         1        2.0000           -0.8708942             -23.6982
       ...           ...                  ...                  ...
        30        2.0000           -0.5751620             -15.6510
        31        2.0000           -0.5506184             -14.9831
        32        2.0000           -0.5085792             -13.8391
        33        2.0000           -0.5050721             -13.7437
        34        2.0000           -0.4931081             -13.4182
        35        2.0000           -0.4926702             -13.4062
        36        2.0000           -0.4835702             -13.1586 (HOMO)
        37        0.0000           -0.4609224             -12.5423 (LUMO)
        38                         -0.4362313             -11.8705
        39                         -0.4328128             -11.7774
        40                         -0.4278230             -11.6417
        41                         -0.4153497             -11.3022
       ...                                ...                  ...
        78                          1.9242542              52.3616
      -------------------------------------------------------------
                  HL-Gap            0.0226478 Eh            0.6163 eV
             Fermi-level           -0.4722462 Eh          -12.8505 eV

 SCC (total)                   0 d,  0 h,  0 min,  1.411 sec
 SCC setup                      ...        0 min,  0.001 sec (  0.072%)
 Dispersion                     ...        0 min,  0.001 sec (  0.040%)
 classical contributions        ...        0 min,  0.003 sec (  0.205%)
 integral evaluation            ...        0 min,  0.054 sec (  3.805%)
 iterations                     ...        0 min,  1.345 sec ( 95.345%)
 molecular gradient             ...        0 min,  0.007 sec (  0.516%)
 printout                       ...        0 min,  0.000 sec (  0.016%)

         :::::::::::::::::::::::::::::::::::::::::::::::::::::
         ::                     SUMMARY                     ::
         :::::::::::::::::::::::::::::::::::::::::::::::::::::
         :: total energy             -35.654201570905 Eh    ::
         :: gradient norm              3.733051910001 Eh/a0 ::
         :: HOMO-LUMO gap              0.616277638142 eV    ::
         ::.................................................::
         :: SCC energy               -38.093873154388 Eh    ::
         :: -> isotropic ES            0.098509804413 Eh    ::
         :: -> anisotropic ES         -0.000958680034 Eh    ::
         :: -> anisotropic XC          0.020172480494 Eh    ::
         :: -> dispersion             -0.027731229809 Eh    ::
         :: repulsion energy           0.566954848354 Eh    ::
         :: add. restraining           1.871904348014 Eh    ::
         :: total charge               1.000000001501 e     ::
         :::::::::::::::::::::::::::::::::::::::::::::::::::::

      ----------------------------------------------------------- 
     |                   =====================                   |
     |                        A N C O P T                        |
     |                   =====================                   |
     |               Approximate Normal Coordinate               |
     |                Rational Function Optimizer                |
      ----------------------------------------------------------- 

          ...................................................
          :                      SETUP                      :
          :.................................................:
          :   optimization level            normal          :
          :   max. optcycles                   200          :
          :   ANC micro-cycles                  20          :
          :   degrees of freedom                87          :
          :.................................................:
          :   RF solver                   davidson          :
          :   write xtbopt.log                true          :
          :   linear?                        false          :
          :   energy convergence         0.5000000E-05 Eh   :
          :   grad. convergence          0.1000000E-02 Eh/α :
          :   maximium RF displ.         1.0000000          :
          :   Hlow (freq-cutoff)         0.1000000E-01      :
          :   Hmax (freq-cutoff)         5.0000000          :
          :   S6 in model hess.         20.0000000          :
          ...................................................

generating ANC from model Hessian ...
Using Lindh-Hessian (1995)
 Shifting diagonal of input Hessian by   0.10229116233008075     
 Lowest  eigenvalues of input Hessian
    0.010000    0.051320    0.102109    0.000000    0.000000    0.000000
    0.000000    0.000000    0.000000    0.102722    0.102866    0.102922
    0.103024    0.103250    0.103565    0.103732    0.104044    0.105416
 Highest eigenvalues
    1.584518    1.821812    3.468395    4.069527    5.521587    6.647099


........................................................................
.............................. CYCLE    1 ..............................
........................................................................
   1    -38.0938732 -0.380939E+02  0.996E-05    0.62       0.0  T
   2    -38.0938732  0.398188E-10  0.109E-04    0.62     165.2  T
   3    -38.0938732 -0.134598E-09  0.501E-05    0.62     358.7  T
     SCC iter.                  ...        0 min,  0.217 sec
     gradient                   ...        0 min,  0.128 sec
 * total energy  :   -35.6542016 Eh     change       -0.2777938E-09 Eh
   gradient norm :     3.7330524 Eh/α   predicted     0.0000000E+00 (-100.00%)
   displ. norm   :     0.6119514 α      lambda       -0.2232533E+01
   maximum displ.:     0.4270253 α      in ANC's #84, #87, #86, ...

........................................................................
.............................. CYCLE    2 ..............................
........................................................................
   1    -38.0257242 -0.380257E+02  0.170E+00    0.35       0.0  T
   2    -38.0077767  0.179475E-01  0.188E+00    1.04       1.0  T
   3    -38.0620430 -0.542663E-01  0.571E-01    0.64       1.0  T
   4    -38.0628984 -0.855393E-03  0.385E-01    0.50       1.0  T
   5    -38.0637801 -0.881704E-03  0.250E-01    0.54       1.0  T
   6    -38.0645374 -0.757344E-03  0.160E-01    0.51       1.0  T
   7    -38.0648708 -0.333396E-03  0.497E-02    0.54       1.0  T
   8    -38.0648639  0.694976E-05  0.388E-02    0.54       1.0  T
   9    -38.0648764 -0.125007E-04  0.181E-02    0.54       1.0  T
  10    -38.0648776 -0.121717E-05  0.116E-02    0.54       1.5  T
  11    -38.0648781 -0.519689E-06  0.784E-03    0.54       2.3  T
  12    -38.0648786 -0.509740E-06  0.459E-03    0.54       3.9  T
  13    -38.0648788 -0.196957E-06  0.215E-03    0.54       8.3  T
  14    -38.0648789 -0.476034E-07  0.551E-04    0.54      32.6  T
  15    -38.0648789 -0.443411E-08  0.276E-04    0.54      65.1  T
     SCC iter.                  ...        0 min,  1.027 sec
     gradient                   ...        0 min,  0.125 sec
 * total energy  :   -37.1496821 Eh     change       -0.1495480E+01 Eh
   gradient norm :     1.2885221 Eh/α   predicted    -0.1534292E+01 (   2.60%)
   displ. norm   :     0.4887962 α      lambda       -0.5204049E+00
   maximum displ.:     0.2779081 α      in ANC's #84, #65, #2, ...

........................................................................
.............................. CYCLE    3 ..............................
........................................................................
   1    -38.0579898 -0.380580E+02  0.104E+00    0.84       0.0  T
   2    -38.0389839  0.190059E-01  0.123E+00    0.93       1.0  T
   3    -38.0725087 -0.335248E-01  0.386E-01    0.84       1.0  T
   4    -38.0722891  0.219582E-03  0.209E-01    0.88       1.0  T
   5    -38.0727976 -0.508487E-03  0.862E-02    0.85       1.0  T
   6    -38.0728647 -0.670509E-04  0.374E-02    0.86       1.0  T
   7    -38.0728709 -0.627475E-05  0.258E-02    0.85       1.0  T
   8    -38.0728745 -0.352143E-05  0.115E-02    0.85       1.6  T
   9    -38.0728750 -0.559501E-06  0.621E-03    0.85       2.9  T
  10    -38.0728756 -0.567671E-06  0.311E-03    0.85       5.8  T
  11    -38.0728756 -0.266305E-07  0.189E-03    0.85       9.5  T
  12    -38.0728756 -0.286874E-07  0.100E-03    0.85      17.9  T
  13    -38.0728756 -0.362380E-08  0.425E-04    0.85      42.3  T
  14    -38.0728756 -0.105331E-08  0.198E-04    0.85      90.7  T
     SCC iter.                  ...        0 min,  1.066 sec
     gradient                   ...        0 min,  0.121 sec
 * total energy  :   -37.4684439 Eh     change       -0.3187618E+00 Eh
   gradient norm :     0.2530164 Eh/α   predicted    -0.3223716E+00 (   1.13%)
   displ. norm   :     0.5021846 α      lambda       -0.8421467E-01
   maximum displ.:     0.2444967 α      in ANC's #23, #2, #54, ...

........................................................................
.............................. CYCLE    4 ..............................
........................................................................
   1    -38.1315201 -0.381315E+02  0.671E-01    1.08       0.0  T
   2    -38.1262249  0.529519E-02  0.688E-01    1.14       1.0  T
   3    -38.1347527 -0.852785E-02  0.374E-01    1.09       1.0  T
   4    -38.1352932 -0.540486E-03  0.115E-01    1.12       1.0  T
   5    -38.1354302 -0.137029E-03  0.573E-02    1.09       1.0  T
   6    -38.1354517 -0.214591E-04  0.341E-02    1.10       1.0  T
   7    -38.1354601 -0.844475E-05  0.155E-02    1.10       1.2  T
   8    -38.1354603 -0.154957E-06  0.851E-03    1.10       2.1  T
   9    -38.1354608 -0.472900E-06  0.280E-03    1.10       6.4  T
  10    -38.1354608 -0.449118E-07  0.166E-03    1.10      10.8  T
  11    -38.1354608 -0.595812E-08  0.878E-04    1.10      20.5  T
  12    -38.1354608 -0.902737E-08  0.340E-04    1.10      52.8  T
     SCC iter.                  ...        0 min,  1.094 sec
     gradient                   ...        0 min,  0.122 sec
 * total energy  :   -37.5269575 Eh     change       -0.5851365E-01 Eh
   gradient norm :     0.0969833 Eh/α   predicted    -0.5272635E-01 (  -9.89%)
   displ. norm   :     0.5846453 α      lambda       -0.4318826E-01
   maximum displ.:     0.2747863 α      in ANC's #23, #1, #12, ...

........................................................................
.............................. CYCLE    5 ..............................
........................................................................
   1    -38.1895624 -0.381896E+02  0.577E-01    1.17       0.0  T
   2    -38.1837911  0.577129E-02  0.687E-01    1.26       1.0  T
   3    -38.1938696 -0.100785E-01  0.304E-01    1.19       1.0  T
   4    -38.1939467 -0.771004E-04  0.165E-01    1.20       1.0  T
   5    -38.1940432 -0.964924E-04  0.804E-02    1.19       1.0  T
   6    -38.1940801 -0.368601E-04  0.468E-02    1.19       1.0  T
   7    -38.1940962 -0.161120E-04  0.205E-02    1.19       1.0  T
   8    -38.1940985 -0.227804E-05  0.934E-03    1.19       1.9  T
   9    -38.1940987 -0.229184E-06  0.474E-03    1.19       3.8  T
  10    -38.1940987  0.566879E-07  0.342E-03    1.19       5.3  T
  11    -38.1940987 -0.673100E-07  0.154E-03    1.19      11.6  T
  12    -38.1940987 -0.234104E-07  0.293E-04    1.19      61.3  T
  13    -38.1940987 -0.264777E-09  0.122E-04    1.19     146.7  T
     SCC iter.                  ...        0 min,  1.094 sec
     gradient                   ...        0 min,  0.063 sec
 * total energy  :   -37.5548347 Eh     change       -0.2787718E-01 Eh
   gradient norm :     0.1280945 Eh/α   predicted    -0.2897523E-01 (   3.94%)
   displ. norm   :     0.8182454 α      lambda       -0.4433972E-01
   maximum displ.:     0.4650658 α      in ANC's #1, #23, #12, ...

........................................................................
.............................. CYCLE    6 ..............................
........................................................................
   1    -38.2414970 -0.382415E+02  0.117E+00    1.33       0.0  T
   2    -38.2390886  0.240837E-02  0.107E+00    1.33       1.0  T
   3    -38.2421195 -0.303084E-02  0.797E-01    1.26       1.0  T
   4    -38.2444997 -0.238024E-02  0.246E-01    1.33       1.0  T
   5    -38.2456757 -0.117597E-02  0.182E-01    1.26       1.0  T
   6    -38.2458763 -0.200611E-03  0.775E-02    1.29       1.0  T
   7    -38.2458882 -0.119174E-04  0.279E-02    1.29       1.0  T
   8    -38.2458887 -0.491884E-06  0.144E-02    1.29       1.2  T
   9    -38.2458908 -0.212936E-05  0.646E-03    1.29       2.8  T
  10    -38.2458910 -0.165329E-06  0.337E-03    1.29       5.3  T
  11    -38.2458910 -0.326713E-07  0.157E-03    1.29      11.4  T
  12    -38.2458910 -0.112245E-07  0.555E-04    1.29      32.3  T
  13    -38.2458910 -0.441737E-09  0.350E-04    1.29      51.2  T
     SCC iter.                  ...        0 min,  1.225 sec
     gradient                   ...        0 min,  0.212 sec
 * total energy  :   -37.5642109 Eh     change       -0.9376220E-02 Eh
   gradient norm :     0.2106744 Eh/α   predicted    -0.3701314E-01 ( 294.76%)
   displ. norm   :     0.4282033 α      lambda       -0.3889825E-01
   maximum displ.:     0.3562006 α      in ANC's #1, #12, #2, ...

........................................................................
.............................. CYCLE    7 ..............................
........................................................................
   1    -38.2478254 -0.382478E+02  0.533E-01    1.33       0.0  T
   2    -38.2483090 -0.483573E-03  0.483E-01    1.33       1.0  T
   3    -38.2484114 -0.102433E-03  0.311E-01    1.33       1.0  T
   4    -38.2482902  0.121144E-03  0.111E-01    1.33       1.0  T
   5    -38.2484050 -0.114793E-03  0.892E-02    1.34       1.0  T
   6    -38.2484952 -0.901725E-04  0.525E-02    1.33       1.0  T
   7    -38.2485077 -0.124888E-04  0.183E-02    1.33       1.0  T
   8    -38.2485085 -0.761764E-06  0.863E-03    1.33       2.1  T
   9    -38.2485089 -0.418334E-06  0.561E-03    1.33       3.2  T
  10    -38.2485090 -0.761882E-07  0.232E-03    1.33       7.7  T
  11    -38.2485090 -0.178500E-07  0.693E-04    1.33      25.9  T
  12    -38.2485090 -0.320302E-08  0.297E-04    1.33      60.4  T
     SCC iter.                  ...        0 min,  0.896 sec
     gradient                   ...        0 min,  0.099 sec
 * total energy  :   -37.5843190 Eh     change       -0.2010808E-01 Eh
   gradient norm :     0.0812411 Eh/α   predicted    -0.2301542E-01 (  14.46%)
   displ. norm   :     0.3617072 α      lambda       -0.1184614E-01
   maximum displ.:     0.2385198 α      in ANC's #12, #15, #25, ...

........................................................................
.............................. CYCLE    8 ..............................
........................................................................
   1    -38.2377697 -0.382378E+02  0.311E-01    1.25       0.0  T
   2    -38.2367826  0.987037E-03  0.288E-01    1.30       1.0  T
   3    -38.2382974 -0.151472E-02  0.162E-01    1.26       1.0  T
   4    -38.2385544 -0.257017E-03  0.618E-02    1.27       1.0  T
   5    -38.2386337 -0.793245E-04  0.225E-02    1.27       1.0  T
   6    -38.2386360 -0.233812E-05  0.141E-02    1.27       1.3  T
   7    -38.2386373 -0.122984E-05  0.442E-03    1.27       4.1  T
   8    -38.2386373 -0.670886E-08  0.224E-03    1.27       8.0  T
   9    -38.2386373 -0.401161E-07  0.910E-04    1.27      19.7  T
  10    -38.2386373 -0.136438E-08  0.628E-04    1.27      28.6  T
     SCC iter.                  ...        0 min,  0.876 sec
     gradient                   ...        0 min,  0.244 sec
 * total energy  :   -37.5903886 Eh     change       -0.6069640E-02 Eh
   gradient norm :     0.1078424 Eh/α   predicted    -0.6698071E-02 (  10.35%)
   displ. norm   :     0.5150362 α      lambda       -0.1328648E-01
   maximum displ.:     0.3105156 α      in ANC's #12, #2, #15, ...

........................................................................
.............................. CYCLE    9 ..............................
........................................................................
   1    -38.2318961 -0.382319E+02  0.418E-01    1.33       0.0  T
   2    -38.2316456  0.250469E-03  0.361E-01    1.33       1.0  T
   3    -38.2318602 -0.214518E-03  0.246E-01    1.31       1.0  T
   4    -38.2320988 -0.238626E-03  0.114E-01    1.34       1.0  T
   5    -38.2324588 -0.359989E-03  0.408E-02    1.32       1.0  T
   6    -38.2324648 -0.602579E-05  0.141E-02    1.33       1.3  T
   7    -38.2324670 -0.218249E-05  0.742E-03    1.33       2.4  T
   8    -38.2324672 -0.209807E-06  0.344E-03    1.33       5.2  T
   9    -38.2324672 -0.297663E-07  0.200E-03    1.33       9.0  T
  10    -38.2324673 -0.271796E-07  0.945E-04    1.33      19.0  T
  11    -38.2324673 -0.104556E-09  0.326E-04    1.33      55.2  T
     SCC iter.                  ...        0 min,  1.019 sec
     gradient                   ...        0 min,  0.165 sec
 * total energy  :   -37.5986096 Eh     change       -0.8220973E-02 Eh
   gradient norm :     0.0730093 Eh/α   predicted    -0.8405472E-02 (   2.24%)
   displ. norm   :     0.3344076 α      lambda       -0.6681789E-02
   maximum displ.:     0.2152945 α      in ANC's #12, #15, #7, ...

........................................................................
.............................. CYCLE   10 ..............................
........................................................................
   1    -38.2374380 -0.382374E+02  0.180E-01    1.35       0.0  T
   2    -38.2374251  0.128902E-04  0.117E-01    1.34       1.0  T
   3    -38.2371364  0.288698E-03  0.124E-01    1.36       1.0  T
   4    -38.2374819 -0.345498E-03  0.285E-02    1.35       1.0  T
   5    -38.2374865 -0.454888E-05  0.199E-02    1.35       1.0  T
   6    -38.2374885 -0.203810E-05  0.905E-03    1.35       2.0  T
   7    -38.2374887 -0.204784E-06  0.331E-03    1.35       5.4  T
   8    -38.2374888 -0.542783E-07  0.238E-03    1.35       7.6  T
   9    -38.2374888 -0.321944E-07  0.136E-03    1.35      13.2  T
  10    -38.2374888 -0.424829E-08  0.833E-04    1.35      21.6  T
  11    -38.2374888 -0.221464E-08  0.202E-04    1.35      89.0  T
     SCC iter.                  ...        0 min,  0.892 sec
     gradient                   ...        0 min,  0.199 sec
 * total energy  :   -37.6037584 Eh     change       -0.5148788E-02 Eh
   gradient norm :     0.0357705 Eh/α   predicted    -0.3714503E-02 ( -27.86%)
   displ. norm   :     0.5189847 α      lambda       -0.8381964E-02
   maximum displ.:     0.3293450 α      in ANC's #12, #13, #2, ...

........................................................................
.............................. CYCLE   11 ..............................
........................................................................
   1    -38.2472098 -0.382472E+02  0.242E-01    1.39       0.0  T
   2    -38.2472249 -0.151377E-04  0.170E-01    1.36       1.0  T
   3    -38.2469830  0.241983E-03  0.129E-01    1.39       1.0  T
   4    -38.2471833 -0.200306E-03  0.542E-02    1.37       1.0  T
   5    -38.2472636 -0.803241E-04  0.312E-02    1.37       1.0  T
   6    -38.2472707 -0.711154E-05  0.125E-02    1.38       1.4  T
   7    -38.2472713 -0.578206E-06  0.403E-03    1.37       4.5  T
   8    -38.2472713 -0.365113E-07  0.283E-03    1.37       6.4  T
   9    -38.2472714 -0.720950E-07  0.162E-03    1.37      11.1  T
  10    -38.2472714 -0.379303E-08  0.873E-04    1.37      20.6  T
  11    -38.2472714 -0.190698E-08  0.289E-04    1.37      62.2  T
     SCC iter.                  ...        0 min,  0.835 sec
     gradient                   ...        0 min,  0.158 sec
 * total energy  :   -37.6100293 Eh     change       -0.6270878E-02 Eh
   gradient norm :     0.0419810 Eh/α   predicted    -0.5319806E-02 ( -15.17%)
   displ. norm   :     0.4838385 α      lambda       -0.6113763E-02
   maximum displ.:     0.2551597 α      in ANC's #12, #21, #24, ...

........................................................................
.............................. CYCLE   12 ..............................
........................................................................
   1    -38.2543800 -0.382544E+02  0.213E-01    1.40       0.0  T
   2    -38.2541709  0.209078E-03  0.174E-01    1.37       1.0  T
   3    -38.2543744 -0.203486E-03  0.120E-01    1.40       1.0  T
   4    -38.2545563 -0.181939E-03  0.288E-02    1.39       1.0  T
   5    -38.2545700 -0.136816E-04  0.153E-02    1.39       1.2  T
   6    -38.2545715 -0.153039E-05  0.866E-03    1.39       2.1  T
   7    -38.2545720 -0.499698E-06  0.224E-03    1.39       8.0  T
   8    -38.2545720 -0.104286E-07  0.165E-03    1.39      10.9  T
   9    -38.2545720 -0.115495E-07  0.859E-04    1.39      20.9  T
  10    -38.2545720 -0.772481E-09  0.345E-04    1.39      52.0  T
     SCC iter.                  ...        0 min,  0.472 sec
     gradient                   ...        0 min,  0.042 sec
 * total energy  :   -37.6144659 Eh     change       -0.4436631E-02 Eh
   gradient norm :     0.0318202 Eh/α   predicted    -0.3772504E-02 ( -14.97%)
   displ. norm   :     0.4831586 α      lambda       -0.4093567E-02
   maximum displ.:     0.2621501 α      in ANC's #12, #24, #7, ...

........................................................................
.............................. CYCLE   13 ..............................
........................................................................
   1    -38.2530287 -0.382530E+02  0.187E-01    1.41       0.0  T
   2    -38.2530419 -0.131928E-04  0.140E-01    1.39       1.0  T
   3    -38.2529641  0.778196E-04  0.784E-02    1.42       1.0  T
   4    -38.2529938 -0.297831E-04  0.470E-02    1.39       1.0  T
   5    -38.2530528 -0.589853E-04  0.209E-02    1.40       1.0  T
   6    -38.2530571 -0.430048E-05  0.104E-02    1.40       1.7  T
   7    -38.2530573 -0.183043E-06  0.313E-03    1.40       5.7  T
   8    -38.2530573 -0.455166E-07  0.183E-03    1.40       9.8  T
   9    -38.2530574 -0.156332E-07  0.101E-03    1.40      17.9  T
  10    -38.2530574 -0.273018E-08  0.516E-04    1.40      34.8  T
  11    -38.2530574 -0.428017E-09  0.150E-04    1.40     119.4  T
     SCC iter.                  ...        0 min,  0.321 sec
     gradient                   ...        0 min,  0.070 sec
 * total energy  :   -37.6173229 Eh     change       -0.2856955E-02 Eh
   gradient norm :     0.0566642 Eh/α   predicted    -0.2524596E-02 ( -11.63%)
   displ. norm   :     0.3757309 α      lambda       -0.3497957E-02
   maximum displ.:     0.1324135 α      in ANC's #24, #12, #21, ...

........................................................................
.............................. CYCLE   14 ..............................
........................................................................
   1    -38.2606298 -0.382606E+02  0.219E-01    1.43       0.0  T
   2    -38.2604961  0.133723E-03  0.192E-01    1.40       1.0  T
   3    -38.2606596 -0.163499E-03  0.116E-01    1.43       1.0  T
   4    -38.2607470 -0.873661E-04  0.401E-02    1.42       1.0  T
   5    -38.2607885 -0.415667E-04  0.145E-02    1.42       1.2  T
   6    -38.2607890 -0.435929E-06  0.806E-03    1.42       2.2  T
   7    -38.2607892 -0.229703E-06  0.245E-03    1.42       7.3  T
   8    -38.2607892 -0.386995E-07  0.149E-03    1.42      12.0  T
   9    -38.2607892 -0.678743E-08  0.969E-04    1.42      18.5  T
  10    -38.2607892 -0.118173E-08  0.572E-04    1.42      31.4  T
     SCC iter.                  ...        0 min,  0.577 sec
     gradient                   ...        0 min,  0.033 sec
 * total energy  :   -37.6194424 Eh     change       -0.2119585E-02 Eh
   gradient norm :     0.0295014 Eh/α   predicted    -0.1995896E-02 (  -5.84%)
   displ. norm   :     0.3545429 α      lambda       -0.1999462E-02
   maximum displ.:     0.1927168 α      in ANC's #12, #2, #21, ...

........................................................................
.............................. CYCLE   15 ..............................
........................................................................
   1    -38.2571869 -0.382572E+02  0.191E-01    1.42       0.0  T
   2    -38.2572027 -0.157471E-04  0.133E-01    1.42       1.0  T
   3    -38.2571559  0.467587E-04  0.587E-02    1.42       1.0  T
   4    -38.2572020 -0.461203E-04  0.254E-02    1.42       1.0  T
   5    -38.2572092 -0.715140E-05  0.192E-02    1.42       1.0  T
   6    -38.2572131 -0.393685E-05  0.575E-03    1.42       3.1  T
   7    -38.2572133 -0.204508E-06  0.270E-03    1.42       6.7  T
   8    -38.2572133 -0.131888E-07  0.147E-03    1.42      12.2  T
   9    -38.2572133 -0.843621E-08  0.773E-04    1.42      23.2  T
  10    -38.2572133 -0.334654E-08  0.321E-04    1.42      55.9  T
     SCC iter.                  ...        0 min,  0.710 sec
     gradient                   ...        0 min,  0.151 sec
 * total energy  :   -37.6206313 Eh     change       -0.1188856E-02 Eh
   gradient norm :     0.0337293 Eh/α   predicted    -0.1125405E-02 (  -5.34%)
   displ. norm   :     0.1799343 α      lambda       -0.1456804E-02
   maximum displ.:     0.0808000 α      in ANC's #16, #10, #12, ...

........................................................................
.............................. CYCLE   16 ..............................
........................................................................
   1    -38.2628304 -0.382628E+02  0.118E-01    1.42       0.0  T
   2    -38.2628338 -0.342205E-05  0.863E-02    1.42       1.0  T
   3    -38.2627727  0.610732E-04  0.530E-02    1.43       1.0  T
   4    -38.2628243 -0.516045E-04  0.302E-02    1.42       1.0  T
   5    -38.2628408 -0.164383E-04  0.125E-02    1.42       1.4  T
   6    -38.2628411 -0.317963E-06  0.526E-03    1.42       3.4  T
   7    -38.2628415 -0.412261E-06  0.224E-03    1.42       8.0  T
   8    -38.2628415 -0.120209E-07  0.971E-04    1.42      18.5  T
   9    -38.2628415 -0.370597E-08  0.593E-04    1.42      30.3  T
     SCC iter.                  ...        0 min,  0.273 sec
     gradient                   ...        0 min,  0.105 sec
 * total energy  :   -37.6217148 Eh     change       -0.1083513E-02 Eh
   gradient norm :     0.0282856 Eh/α   predicted    -0.7519982E-03 ( -30.60%)
   displ. norm   :     0.2412996 α      lambda       -0.1689362E-02
   maximum displ.:     0.1249276 α      in ANC's #16, #10, #12, ...

........................................................................
.............................. CYCLE   17 ..............................
........................................................................
   1    -38.2667337 -0.382667E+02  0.154E-01    1.41       0.0  T
   2    -38.2667247  0.895074E-05  0.117E-01    1.41       1.0  T
   3    -38.2666086  0.116111E-03  0.868E-02    1.43       1.0  T
   4    -38.2667437 -0.135069E-03  0.372E-02    1.41       1.0  T
   5    -38.2667671 -0.234552E-04  0.162E-02    1.42       1.1  T
   6    -38.2667668  0.358222E-06  0.754E-03    1.42       2.4  T
   7    -38.2667681 -0.130462E-05  0.259E-03    1.42       6.9  T
   8    -38.2667681 -0.172437E-07  0.126E-03    1.42      14.2  T
   9    -38.2667681 -0.660759E-08  0.601E-04    1.42      29.9  T
  10    -38.2667681 -0.484121E-09  0.378E-04    1.42      47.5  T
     SCC iter.                  ...        0 min,  0.285 sec
     gradient                   ...        0 min,  0.110 sec
 * total energy  :   -37.6229269 Eh     change       -0.1212068E-02 Eh
   gradient norm :     0.0167339 Eh/α   predicted    -0.8938789E-03 ( -26.25%)
   displ. norm   :     0.2770118 α      lambda       -0.1388899E-02
   maximum displ.:     0.1359399 α      in ANC's #16, #12, #10, ...

........................................................................
.............................. CYCLE   18 ..............................
........................................................................
   1    -38.2654171 -0.382654E+02  0.160E-01    1.41       0.0  T
   2    -38.2654118  0.529536E-05  0.112E-01    1.41       1.0  T
   3    -38.2652358  0.176023E-03  0.955E-02    1.42       1.0  T
   4    -38.2654282 -0.192427E-03  0.302E-02    1.41       1.0  T
   5    -38.2654450 -0.167429E-04  0.125E-02    1.41       1.4  T
   6    -38.2654446  0.381880E-06  0.603E-03    1.41       3.0  T
   7    -38.2654454 -0.794299E-06  0.209E-03    1.41       8.6  T
   8    -38.2654454 -0.151936E-07  0.985E-04    1.41      18.2  T
   9    -38.2654454 -0.148463E-08  0.518E-04    1.41      34.7  T
     SCC iter.                  ...        0 min,  0.540 sec
     gradient                   ...        0 min,  0.139 sec
 * total energy  :   -37.6238725 Eh     change       -0.9455962E-03 Eh
   gradient norm :     0.0236489 Eh/α   predicted    -0.7477409E-03 ( -20.92%)
   displ. norm   :     0.2109234 α      lambda       -0.1096146E-02
   maximum displ.:     0.0976046 α      in ANC's #16, #10, #7, ...

........................................................................
.............................. CYCLE   19 ..............................
........................................................................
   1    -38.2636094 -0.382636E+02  0.126E-01    1.41       0.0  T
   2    -38.2635878  0.215755E-04  0.964E-02    1.41       1.0  T
   3    -38.2635400  0.478919E-04  0.780E-02    1.42       1.0  T
   4    -38.2636375 -0.975530E-04  0.204E-02    1.41       1.0  T
   5    -38.2636458 -0.824432E-05  0.978E-03    1.41       1.8  T
   6    -38.2636460 -0.289952E-06  0.475E-03    1.41       3.8  T
   7    -38.2636462 -0.169671E-06  0.176E-03    1.41      10.2  T
   8    -38.2636462 -0.104637E-07  0.107E-03    1.41      16.8  T
   9    -38.2636462 -0.169337E-09  0.563E-04    1.41      31.9  T
  10    -38.2636462 -0.246051E-08  0.310E-04    1.41      57.9  T
     SCC iter.                  ...        0 min,  0.597 sec
     gradient                   ...        0 min,  0.061 sec
 * total energy  :   -37.6246244 Eh     change       -0.7519387E-03 Eh
   gradient norm :     0.0175333 Eh/α   predicted    -0.5724579E-03 ( -23.87%)
   displ. norm   :     0.2776363 α      lambda       -0.1097127E-02
   maximum displ.:     0.1320837 α      in ANC's #12, #10, #16, ...

........................................................................
.............................. CYCLE   20 ..............................
........................................................................
   1    -38.2585071 -0.382585E+02  0.140E-01    1.42       0.0  T
   2    -38.2585143 -0.721746E-05  0.889E-02    1.41       1.0  T
   3    -38.2584591  0.552502E-04  0.554E-02    1.42       1.0  T
   4    -38.2585122 -0.531244E-04  0.204E-02    1.41       1.0  T
   5    -38.2585203 -0.813987E-05  0.105E-02    1.42       1.7  T
   6    -38.2585216 -0.127802E-05  0.424E-03    1.42       4.2  T
   7    -38.2585217 -0.117708E-06  0.126E-03    1.42      14.2  T
   8    -38.2585217 -0.723915E-08  0.868E-04    1.42      20.7  T
   9    -38.2585217 -0.608637E-09  0.554E-04    1.42      32.4  T
     SCC iter.                  ...        0 min,  0.682 sec
     gradient                   ...        0 min,  0.070 sec
 * total energy  :   -37.6253948 Eh     change       -0.7703475E-03 Eh
   gradient norm :     0.0238115 Eh/α   predicted    -0.5908601E-03 ( -23.30%)
   displ. norm   :     0.2255555 α      lambda       -0.1225780E-02
   maximum displ.:     0.0892823 α      in ANC's #59, #10, #3, ...
 * RMSD in coord.:     0.9306791 α      energy gain  -0.1971193E+01 Eh

generating ANC from model Hessian ...
Using Lindh-Hessian (1995)
 Shifting diagonal of input Hessian by    9.8085678808833860E-003
 Lowest  eigenvalues of input Hessian
    0.000000    0.000000    0.000000    0.000000    0.000000    0.000000
    0.010000    0.010177    0.010365    0.011343    0.011596    0.011767
    0.012250    0.013791    0.014204    0.016335    0.017472    0.017576
 Highest eigenvalues
    1.726888    1.735588    3.070509    4.032239    4.838173    6.772534


........................................................................
.............................. CYCLE   21 ..............................
........................................................................
   1    -38.2591234 -0.382591E+02  0.129E-01    1.43       0.0  T
   2    -38.2591249 -0.152042E-05  0.791E-02    1.43       1.0  T
   3    -38.2590240  0.100974E-03  0.676E-02    1.42       1.0  T
   4    -38.2591299 -0.105915E-03  0.244E-02    1.43       1.0  T
   5    -38.2591378 -0.788015E-05  0.122E-02    1.43       1.5  T
   6    -38.2591374  0.343820E-06  0.677E-03    1.43       2.7  T
   7    -38.2591382 -0.745073E-06  0.177E-03    1.43      10.2  T
   8    -38.2591382 -0.248401E-07  0.120E-03    1.43      15.0  T
   9    -38.2591382 -0.574804E-08  0.461E-04    1.43      39.0  T
  10    -38.2591382 -0.504663E-09  0.235E-04    1.43      76.3  T
     SCC iter.                  ...        0 min,  0.706 sec
     gradient                   ...        0 min,  0.119 sec
 * total energy  :   -37.6261776 Eh     change       -0.7828437E-03 Eh
   gradient norm :     0.0167359 Eh/α   predicted     0.0000000E+00 (-100.00%)
   displ. norm   :     0.2892893 α      lambda       -0.1680460E-02
   maximum displ.:     0.1802301 α      in ANC's #8, #6, #3, ...

........................................................................
.............................. CYCLE   22 ..............................
........................................................................
   1    -38.2638561 -0.382639E+02  0.205E-01    1.44       0.0  T
   2    -38.2636752  0.180830E-03  0.177E-01    1.45       1.0  T
   3    -38.2639017 -0.226433E-03  0.120E-01    1.43       1.0  T
   4    -38.2640154 -0.113691E-03  0.288E-02    1.45       1.0  T
   5    -38.2640377 -0.223015E-04  0.120E-02    1.44       1.5  T
   6    -38.2640379 -0.237348E-06  0.612E-03    1.44       2.9  T
   7    -38.2640381 -0.214671E-06  0.304E-03    1.44       5.9  T
   8    -38.2640381 -0.131983E-07  0.158E-03    1.44      11.4  T
   9    -38.2640381 -0.235804E-07  0.514E-04    1.44      34.9  T
  10    -38.2640381 -0.272385E-08  0.280E-04    1.44      64.0  T
     SCC iter.                  ...        0 min,  0.742 sec
     gradient                   ...        0 min,  0.157 sec
 * total energy  :   -37.6272108 Eh     change       -0.1033216E-02 Eh
   gradient norm :     0.0084430 Eh/α   predicted    -0.9120542E-03 ( -11.73%)
   displ. norm   :     0.3580957 α      lambda       -0.1113873E-02
   maximum displ.:     0.2231065 α      in ANC's #6, #4, #3, ...

........................................................................
.............................. CYCLE   23 ..............................
........................................................................
   1    -38.2664192 -0.382664E+02  0.187E-01    1.45       0.0  T
   2    -38.2663156  0.103510E-03  0.130E-01    1.47       1.0  T
   3    -38.2662390  0.766580E-04  0.129E-01    1.44       1.0  T
   4    -38.2665103 -0.271275E-03  0.218E-02    1.46       1.0  T
   5    -38.2665156 -0.536354E-05  0.142E-02    1.45       1.3  T
   6    -38.2665160 -0.409469E-06  0.585E-03    1.46       3.1  T
   7    -38.2665164 -0.412486E-06  0.184E-03    1.46       9.7  T
   8    -38.2665165 -0.292350E-07  0.121E-03    1.46      14.8  T
   9    -38.2665165 -0.370667E-08  0.371E-04    1.46      48.4  T
  10    -38.2665165 -0.152518E-09  0.181E-04    1.46      99.4  T
     SCC iter.                  ...        0 min,  0.691 sec
     gradient                   ...        0 min,  0.134 sec
 * total energy  :   -37.6280303 Eh     change       -0.8194686E-03 Eh
   gradient norm :     0.0108691 Eh/α   predicted    -0.6283545E-03 ( -23.32%)
   displ. norm   :     0.4323769 α      lambda       -0.9907887E-03
   maximum displ.:     0.2687764 α      in ANC's #6, #4, #9, ...

........................................................................
.............................. CYCLE   24 ..............................
........................................................................
   1    -38.2645952 -0.382646E+02  0.200E-01    1.47       0.0  T
   2    -38.2645865  0.864743E-05  0.119E-01    1.48       1.0  T
   3    -38.2642962  0.290350E-03  0.124E-01    1.46       1.0  T
   4    -38.2646157 -0.319553E-03  0.249E-02    1.47       1.0  T
   5    -38.2646228 -0.701091E-05  0.132E-02    1.47       1.4  T
   6    -38.2646228 -0.451570E-07  0.720E-03    1.47       2.5  T
   7    -38.2646232 -0.383706E-06  0.223E-03    1.47       8.1  T
   8    -38.2646232 -0.238918E-07  0.148E-03    1.47      12.1  T
   9    -38.2646232 -0.743371E-08  0.665E-04    1.47      27.0  T
  10    -38.2646232 -0.310299E-08  0.286E-04    1.47      62.9  T
     SCC iter.                  ...        0 min,  0.609 sec
     gradient                   ...        0 min,  0.197 sec
 * total energy  :   -37.6287737 Eh     change       -0.7433661E-03 Eh
   gradient norm :     0.0224766 Eh/α   predicted    -0.5880115E-03 ( -20.90%)
   displ. norm   :     0.4188617 α      lambda       -0.1067821E-02
   maximum displ.:     0.2582070 α      in ANC's #6, #9, #4, ...

........................................................................
.............................. CYCLE   25 ..............................
........................................................................
   1    -38.2632309 -0.382632E+02  0.166E-01    1.48       0.0  T
   2    -38.2632332 -0.237692E-05  0.100E-01    1.48       1.0  T
   3    -38.2630943  0.138983E-03  0.755E-02    1.49       1.0  T
   4    -38.2632404 -0.146176E-03  0.249E-02    1.48       1.0  T
   5    -38.2632460 -0.553850E-05  0.112E-02    1.48       1.6  T
   6    -38.2632457  0.306864E-06  0.674E-03    1.48       2.7  T
   7    -38.2632461 -0.422288E-06  0.254E-03    1.48       7.1  T
   8    -38.2632461 -0.687623E-08  0.162E-03    1.48      11.1  T
   9    -38.2632461 -0.154591E-07  0.607E-04    1.48      29.6  T
  10    -38.2632461 -0.212248E-08  0.278E-04    1.48      64.7  T
     SCC iter.                  ...        0 min,  0.695 sec
     gradient                   ...        0 min,  0.195 sec
 * total energy  :   -37.6295557 Eh     change       -0.7820232E-03 Eh
   gradient norm :     0.0204654 Eh/α   predicted    -0.6275842E-03 ( -19.75%)
   displ. norm   :     0.3081862 α      lambda       -0.1158977E-02
   maximum displ.:     0.1973504 α      in ANC's #6, #4, #9, ...

........................................................................
.............................. CYCLE   26 ..............................
........................................................................
   1    -38.2661322 -0.382661E+02  0.143E-01    1.49       0.0  T
   2    -38.2660780  0.542148E-04  0.105E-01    1.47       1.0  T
   3    -38.2660324  0.455203E-04  0.895E-02    1.49       1.0  T
   4    -38.2661822 -0.149774E-03  0.179E-02    1.48       1.0  T
   5    -38.2661841 -0.190456E-05  0.105E-02    1.48       1.7  T
   6    -38.2661843 -0.202922E-06  0.424E-03    1.48       4.2  T
   7    -38.2661844 -0.878230E-07  0.237E-03    1.48       7.6  T
   8    -38.2661844 -0.481537E-08  0.177E-03    1.48      10.2  T
   9    -38.2661844 -0.220352E-07  0.700E-04    1.48      25.7  T
  10    -38.2661844 -0.748827E-09  0.308E-04    1.48      58.3  T
     SCC iter.                  ...        0 min,  0.528 sec
     gradient                   ...        0 min,  0.194 sec
 * total energy  :   -37.6303330 Eh     change       -0.7773567E-03 Eh
   gradient norm :     0.0089713 Eh/α   predicted    -0.6345301E-03 ( -18.37%)
   displ. norm   :     0.5508265 α      lambda       -0.1049062E-02
   maximum displ.:     0.3912275 α      in ANC's #6, #4, #9, ...

........................................................................
.............................. CYCLE   27 ..............................
........................................................................
   1    -38.2600036 -0.382600E+02  0.227E-01    1.48       0.0  T
   2    -38.2599417  0.618788E-04  0.127E-01    1.50       1.0  T
   3    -38.2594958  0.445889E-03  0.174E-01    1.47       1.0  T
   4    -38.2600692 -0.573362E-03  0.281E-02    1.49       1.0  T
   5    -38.2600699 -0.711899E-06  0.192E-02    1.49       1.0  T
   6    -38.2600708 -0.903265E-06  0.908E-03    1.49       2.0  T
   7    -38.2600716 -0.794885E-06  0.267E-03    1.49       6.7  T
   8    -38.2600716 -0.232598E-07  0.163E-03    1.49      11.0  T
   9    -38.2600716 -0.197975E-07  0.650E-04    1.49      27.6  T
  10    -38.2600716 -0.265537E-09  0.304E-04    1.49      59.1  T
     SCC iter.                  ...        0 min,  0.484 sec
     gradient                   ...        0 min,  0.028 sec
 * total energy  :   -37.6307032 Eh     change       -0.3701229E-03 Eh
   gradient norm :     0.0262350 Eh/α   predicted    -0.6836804E-03 (  84.72%)
   displ. norm   :     0.1300867 α      lambda       -0.1150855E-02
   maximum displ.:     0.0636873 α      in ANC's #5, #9, #57, ...

........................................................................
.............................. CYCLE   28 ..............................
........................................................................
   1    -38.2684415 -0.382684E+02  0.102E-01    1.49       0.0  T
   2    -38.2684327  0.878725E-05  0.560E-02    1.48       1.0  T
   3    -38.2684053  0.274307E-04  0.669E-02    1.49       1.0  T
   4    -38.2684695 -0.642476E-04  0.167E-02    1.49       1.1  T
   5    -38.2684715 -0.202980E-05  0.112E-02    1.49       1.6  T
   6    -38.2684726 -0.102749E-05  0.682E-03    1.49       2.6  T
   7    -38.2684729 -0.320860E-06  0.231E-03    1.49       7.8  T
   8    -38.2684729  0.722311E-08  0.139E-03    1.49      12.9  T
   9    -38.2684729 -0.143971E-07  0.677E-04    1.49      26.5  T
  10    -38.2684729 -0.148003E-08  0.259E-04    1.49      69.2  T
     SCC iter.                  ...        0 min,  0.336 sec
     gradient                   ...        0 min,  0.027 sec
 * total energy  :   -37.6312828 Eh     change       -0.5796635E-03 Eh
   gradient norm :     0.0190471 Eh/α   predicted    -0.5851684E-03 (   0.95%)
   displ. norm   :     0.2748252 α      lambda       -0.7831382E-03
   maximum displ.:     0.1984243 α      in ANC's #6, #4, #14, ...

........................................................................
.............................. CYCLE   29 ..............................
........................................................................
   1    -38.2701327 -0.382701E+02  0.119E-01    1.48       0.0  T
   2    -38.2701203  0.123377E-04  0.723E-02    1.49       1.0  T
   3    -38.2700051  0.115207E-03  0.820E-02    1.47       1.0  T
   4    -38.2701462 -0.141075E-03  0.103E-02    1.48       1.7  T
   5    -38.2701472 -0.103430E-05  0.774E-03    1.48       2.3  T
   6    -38.2701474 -0.206019E-06  0.388E-03    1.48       4.6  T
   7    -38.2701476 -0.150169E-06  0.933E-04    1.48      19.2  T
   8    -38.2701476 -0.592730E-08  0.648E-04    1.48      27.7  T
     SCC iter.                  ...        0 min,  0.209 sec
     gradient                   ...        0 min,  0.052 sec
 * total energy  :   -37.6315721 Eh     change       -0.2892538E-03 Eh
   gradient norm :     0.0267202 Eh/α   predicted    -0.4211450E-03 (  45.60%)
   displ. norm   :     0.3403621 α      lambda       -0.6095172E-03
   maximum displ.:     0.2254360 α      in ANC's #6, #4, #9, ...

........................................................................
.............................. CYCLE   30 ..............................
........................................................................
   1    -38.2668946 -0.382669E+02  0.143E-01    1.48       0.0  T
   2    -38.2668652  0.293967E-04  0.928E-02    1.50       1.0  T
   3    -38.2667146  0.150590E-03  0.100E-01    1.48       1.0  T
   4    -38.2669200 -0.205350E-03  0.155E-02    1.49       1.2  T
   5    -38.2669216 -0.165620E-05  0.891E-03    1.49       2.0  T
   6    -38.2669215  0.136056E-06  0.430E-03    1.49       4.2  T
   7    -38.2669217 -0.228313E-06  0.874E-04    1.49      20.6  T
   8    -38.2669217 -0.731269E-08  0.550E-04    1.49      32.7  T
     SCC iter.                  ...        0 min,  0.279 sec
     gradient                   ...        0 min,  0.040 sec
 * total energy  :   -37.6318278 Eh     change       -0.2557467E-03 Eh
   gradient norm :     0.0157341 Eh/α   predicted    -0.3400652E-03 (  32.97%)
   displ. norm   :     0.1219618 α      lambda       -0.4377367E-03
   maximum displ.:     0.0603730 α      in ANC's #14, #9, #3, ...

........................................................................
.............................. CYCLE   31 ..............................
........................................................................
   1    -38.2732858 -0.382733E+02  0.109E-01    1.49       0.0  T
   2    -38.2732882 -0.237090E-05  0.583E-02    1.48       1.0  T
   3    -38.2732346  0.535289E-04  0.621E-02    1.49       1.0  T
   4    -38.2732930 -0.583589E-04  0.185E-02    1.49       1.0  T
   5    -38.2732942 -0.120043E-05  0.121E-02    1.49       1.5  T
   6    -38.2732942 -0.204017E-07  0.615E-03    1.49       2.9  T
   7    -38.2732945 -0.298119E-06  0.138E-03    1.49      13.0  T
   8    -38.2732945 -0.946220E-08  0.718E-04    1.49      25.0  T
   9    -38.2732945 -0.285691E-08  0.368E-04    1.49      48.8  T
     SCC iter.                  ...        0 min,  0.433 sec
     gradient                   ...        0 min,  0.097 sec
 * total energy  :   -37.6318692 Eh     change       -0.4141172E-04 Eh
   gradient norm :     0.0131944 Eh/α   predicted    -0.2221248E-03 ( 436.38%)
   displ. norm   :     0.1045442 α      lambda       -0.3732580E-03
   maximum displ.:     0.0551304 α      in ANC's #9, #14, #10, ...

........................................................................
.............................. CYCLE   32 ..............................
........................................................................
   1    -38.2715583 -0.382716E+02  0.661E-02    1.49       0.0  T
   2    -38.2715587 -0.360878E-06  0.404E-02    1.49       1.0  T
   3    -38.2715326  0.260557E-04  0.378E-02    1.49       1.0  T
   4    -38.2715607 -0.280876E-04  0.903E-03    1.49       2.0  T
   5    -38.2715623 -0.155188E-05  0.460E-03    1.49       3.9  T
   6    -38.2715623 -0.213986E-07  0.182E-03    1.49       9.9  T
   7    -38.2715623 -0.552153E-07  0.776E-04    1.49      23.1  T
   8    -38.2715623 -0.382062E-08  0.402E-04    1.49      44.7  T
     SCC iter.                  ...        0 min,  0.386 sec
     gradient                   ...        0 min,  0.065 sec
 * total energy  :   -37.6320567 Eh     change       -0.1874731E-03 Eh
   gradient norm :     0.0038785 Eh/α   predicted    -0.1886699E-03 (   0.64%)
   displ. norm   :     0.2115374 α      lambda       -0.1661898E-03
   maximum displ.:     0.1492490 α      in ANC's #6, #4, #1, ...

........................................................................
.............................. CYCLE   33 ..............................
........................................................................
   1    -38.2684285 -0.382684E+02  0.818E-02    1.48       0.0  T
   2    -38.2684199  0.857490E-05  0.456E-02    1.49       1.0  T
   3    -38.2683729  0.470128E-04  0.600E-02    1.48       1.0  T
   4    -38.2684388 -0.659306E-04  0.997E-03    1.49       1.8  T
   5    -38.2684388 -0.699558E-08  0.756E-03    1.49       2.4  T
   6    -38.2684390 -0.174012E-06  0.428E-03    1.49       4.2  T
   7    -38.2684392 -0.173325E-06  0.100E-03    1.49      17.9  T
   8    -38.2684392 -0.555861E-08  0.511E-04    1.49      35.2  T
   9    -38.2684392 -0.181931E-08  0.222E-04    1.49      81.0  T
     SCC iter.                  ...        0 min,  0.460 sec
     gradient                   ...        0 min,  0.039 sec
 * total energy  :   -37.6320928 Eh     change       -0.3607507E-04 Eh
   gradient norm :     0.0080919 Eh/α   predicted    -0.8681341E-04 ( 140.65%)
   displ. norm   :     0.0571818 α      lambda       -0.1384423E-03
   maximum displ.:     0.0454443 α      in ANC's #1, #8, #9, ...

........................................................................
.............................. CYCLE   34 ..............................
........................................................................
   1    -38.2704409 -0.382704E+02  0.409E-02    1.49       0.0  T
   2    -38.2704404  0.512453E-06  0.255E-02    1.49       1.0  T
   3    -38.2704250  0.154242E-04  0.311E-02    1.49       1.0  T
   4    -38.2704425 -0.175424E-04  0.581E-03    1.49       3.1  T
   5    -38.2704424  0.124308E-06  0.519E-03    1.49       3.5  T
   6    -38.2704426 -0.181255E-06  0.133E-03    1.49      13.5  T
   7    -38.2704426 -0.185169E-07  0.639E-04    1.49      28.1  T
   8    -38.2704426 -0.149375E-08  0.300E-04    1.49      59.8  T
     SCC iter.                  ...        0 min,  0.338 sec
     gradient                   ...        0 min,  0.108 sec
 * total energy  :   -37.6321634 Eh     change       -0.7062228E-04 Eh
   gradient norm :     0.0070020 Eh/α   predicted    -0.6945070E-04 (  -1.66%)
   displ. norm   :     0.0795356 α      lambda       -0.8329580E-04
   maximum displ.:     0.0668219 α      in ANC's #1, #6, #8, ...

........................................................................
.............................. CYCLE   35 ..............................
........................................................................
   1    -38.2715567 -0.382716E+02  0.330E-02    1.49       0.0  T
   2    -38.2715543  0.241987E-05  0.187E-02    1.49       1.0  T
   3    -38.2715485  0.575987E-05  0.257E-02    1.49       1.0  T
   4    -38.2715591 -0.105329E-04  0.452E-03    1.49       4.0  T
   5    -38.2715591 -0.437350E-07  0.301E-03    1.49       6.0  T
   6    -38.2715591 -0.209511E-07  0.158E-03    1.49      11.4  T
   7    -38.2715592 -0.231191E-07  0.277E-04    1.49      64.7  T
   8    -38.2715592 -0.282022E-09  0.179E-04    1.49     100.2  T
     SCC iter.                  ...        0 min,  0.383 sec
     gradient                   ...        0 min,  0.010 sec
 * total energy  :   -37.6322103 Eh     change       -0.4688040E-04 Eh
   gradient norm :     0.0025312 Eh/α   predicted    -0.4191922E-04 ( -10.58%)
   displ. norm   :     0.1273359 α      lambda       -0.5918938E-04
   maximum displ.:     0.0918011 α      in ANC's #1, #6, #4, ...

........................................................................
.............................. CYCLE   36 ..............................
........................................................................
   1    -38.2713928 -0.382714E+02  0.330E-02    1.49       0.0  T
   2    -38.2713925  0.231610E-06  0.203E-02    1.49       1.0  T
   3    -38.2713847  0.785867E-05  0.190E-02    1.49       1.0  T
   4    -38.2713931 -0.841529E-05  0.299E-03    1.49       6.0  T
   5    -38.2713932 -0.154761E-06  0.134E-03    1.49      13.4  T
   6    -38.2713932  0.158956E-08  0.484E-04    1.49      37.1  T
   7    -38.2713932 -0.327466E-08  0.167E-04    1.49     107.8  T
     SCC iter.                  ...        0 min,  0.416 sec
     gradient                   ...        0 min,  0.008 sec
 * total energy  :   -37.6322596 Eh     change       -0.4931267E-04 Eh
   gradient norm :     0.0027799 Eh/α   predicted    -0.3007542E-04 ( -39.01%)
   displ. norm   :     0.1571824 α      lambda       -0.6961005E-04
   maximum displ.:     0.1279663 α      in ANC's #1, #6, #4, ...

........................................................................
.............................. CYCLE   37 ..............................
........................................................................
   1    -38.2709747 -0.382710E+02  0.431E-02    1.49       0.0  T
   2    -38.2709749 -0.149826E-06  0.266E-02    1.49       1.0  T
   3    -38.2709713  0.351802E-05  0.140E-02    1.49       1.3  T
   4    -38.2709746 -0.331339E-05  0.497E-03    1.49       3.6  T
   5    -38.2709751 -0.454454E-06  0.217E-03    1.49       8.3  T
   6    -38.2709751 -0.387833E-08  0.879E-04    1.49      20.4  T
   7    -38.2709751 -0.795318E-08  0.196E-04    1.49      91.5  T
     SCC iter.                  ...        0 min,  0.328 sec
     gradient                   ...        0 min,  0.085 sec
 * total energy  :   -37.6323139 Eh     change       -0.5426263E-04 Eh
   gradient norm :     0.0048260 Eh/α   predicted    -0.3566725E-04 ( -34.27%)
   displ. norm   :     0.1623736 α      lambda       -0.7854454E-04
   maximum displ.:     0.1455029 α      in ANC's #1, #8, #7, ...

........................................................................
.............................. CYCLE   38 ..............................
........................................................................
   1    -38.2714644 -0.382715E+02  0.381E-02    1.49       0.0  T
   2    -38.2714647 -0.294854E-06  0.239E-02    1.49       1.0  T
   3    -38.2714632  0.148246E-05  0.921E-03    1.49       1.9  T
   4    -38.2714648 -0.161864E-05  0.281E-03    1.49       6.4  T
   5    -38.2714648 -0.922398E-08  0.209E-03    1.49       8.6  T
   6    -38.2714649 -0.669518E-07  0.498E-04    1.49      36.1  T
   7    -38.2714649 -0.371562E-08  0.245E-04    1.49      73.3  T
     SCC iter.                  ...        0 min,  0.292 sec
     gradient                   ...        0 min,  0.110 sec
 * total energy  :   -37.6323749 Eh     change       -0.6107288E-04 Eh
   gradient norm :     0.0060456 Eh/α   predicted    -0.4031197E-04 ( -33.99%)
   displ. norm   :     0.1808254 α      lambda       -0.9554632E-04
   maximum displ.:     0.1637882 α      in ANC's #1, #9, #8, ...

........................................................................
.............................. CYCLE   39 ..............................
........................................................................
   1    -38.2718101 -0.382718E+02  0.476E-02    1.49       0.0  T
   2    -38.2718105 -0.352707E-06  0.322E-02    1.49       1.0  T
   3    -38.2718077  0.284023E-05  0.108E-02    1.49       1.7  T
   4    -38.2718102 -0.258295E-05  0.507E-03    1.49       3.5  T
   5    -38.2718106 -0.396880E-06  0.372E-03    1.49       4.8  T
   6    -38.2718108 -0.130093E-06  0.859E-04    1.49      20.9  T
   7    -38.2718108 -0.342673E-08  0.361E-04    1.49      49.8  T
     SCC iter.                  ...        0 min,  0.177 sec
     gradient                   ...        0 min,  0.017 sec
 * total energy  :   -37.6324621 Eh     change       -0.8714109E-04 Eh
   gradient norm :     0.0050227 Eh/α   predicted    -0.4933768E-04 ( -43.38%)
   displ. norm   :     0.3069493 α      lambda       -0.1657347E-03
   maximum displ.:     0.2736485 α      in ANC's #1, #9, #8, ...

........................................................................
.............................. CYCLE   40 ..............................
........................................................................
   1    -38.2714427 -0.382714E+02  0.795E-02    1.49       0.0  T
   2    -38.2714433 -0.547633E-06  0.520E-02    1.49       1.0  T
   3    -38.2714355  0.780689E-05  0.192E-02    1.49       1.0  T
   4    -38.2714423 -0.681952E-05  0.939E-03    1.49       1.9  T
   5    -38.2714436 -0.135814E-05  0.577E-03    1.49       3.1  T
   6    -38.2714438 -0.151045E-06  0.149E-03    1.49      12.1  T
   7    -38.2714438 -0.177452E-07  0.481E-04    1.49      37.3  T
   8    -38.2714438 -0.621391E-09  0.336E-04    1.49      53.5  T
     SCC iter.                  ...        0 min,  0.093 sec
     gradient                   ...        0 min,  0.014 sec
 * total energy  :   -37.6326130 Eh     change       -0.1508888E-03 Eh
   gradient norm :     0.0036786 Eh/α   predicted    -0.9067693E-04 ( -39.90%)
   displ. norm   :     0.4549540 α      lambda       -0.2325598E-03
   maximum displ.:     0.3921446 α      in ANC's #1, #9, #8, ...

........................................................................
.............................. CYCLE   41 ..............................
........................................................................
   1    -38.2697420 -0.382697E+02  0.126E-01    1.49       0.0  T
   2    -38.2697437 -0.171070E-05  0.822E-02    1.49       1.0  T
   3    -38.2697371  0.662724E-05  0.185E-02    1.49       1.0  T
   4    -38.2697423 -0.516833E-05  0.139E-02    1.49       1.3  T
   5    -38.2697438 -0.157439E-05  0.823E-03    1.49       2.2  T
   6    -38.2697446 -0.744545E-06  0.242E-03    1.49       7.4  T
   7    -38.2697446 -0.516129E-07  0.912E-04    1.49      19.7  T
   8    -38.2697446 -0.355270E-08  0.600E-04    1.49      29.9  T
     SCC iter.                  ...        0 min,  0.066 sec
     gradient                   ...        0 min,  0.004 sec
 * total energy  :   -37.6328105 Eh     change       -0.1975329E-03 Eh
   gradient norm :     0.0088760 Eh/α   predicted    -0.1403507E-03 ( -28.95%)
   displ. norm   :     0.4765544 α      lambda       -0.2256811E-03
   maximum displ.:     0.4085297 α      in ANC's #1, #9, #8, ...

........................................................................
.............................. CYCLE   42 ..............................
........................................................................
   1    -38.2669740 -0.382670E+02  0.132E-01    1.49       0.0  T
   2    -38.2669757 -0.164207E-05  0.854E-02    1.49       1.0  T
   3    -38.2669387  0.369581E-04  0.378E-02    1.48       1.0  T
   4    -38.2669750 -0.363042E-04  0.164E-02    1.49       1.1  T
   5    -38.2669777 -0.265430E-05  0.833E-03    1.49       2.2  T
   6    -38.2669779 -0.233951E-06  0.285E-03    1.49       6.3  T
   7    -38.2669780 -0.951699E-07  0.895E-04    1.49      20.1  T
   8    -38.2669780 -0.424964E-08  0.602E-04    1.49      29.8  T
     SCC iter.                  ...        0 min,  0.121 sec
     gradient                   ...        0 min,  0.011 sec
 * total energy  :   -37.6329748 Eh     change       -0.1642910E-03 Eh
   gradient norm :     0.0146425 Eh/α   predicted    -0.1384735E-03 ( -15.71%)
   displ. norm   :     0.3519002 α      lambda       -0.2023463E-03
   maximum displ.:     0.2981998 α      in ANC's #1, #9, #3, ...
 * RMSD in coord.:     0.6438338 α      energy gain  -0.7580026E-02 Eh

generating ANC from model Hessian ...
Using Lindh-Hessian (1995)
 Shifting diagonal of input Hessian by    9.8209641040002370E-003
 Lowest  eigenvalues of input Hessian
    0.000000    0.000000    0.000000    0.000000    0.000000    0.000000
    0.010000    0.010175    0.010210    0.010543    0.011419    0.011596
    0.011790    0.012582    0.013887    0.016556    0.017852    0.017885
 Highest eigenvalues
    1.729584    1.731343    3.073218    4.049247    4.805479    6.746405


........................................................................
.............................. CYCLE   43 ..............................
........................................................................
   1    -38.2668928 -0.382669E+02  0.101E-01    1.48       0.0  T
   2    -38.2668939 -0.113793E-05  0.632E-02    1.49       1.0  T
   3    -38.2668537  0.402195E-04  0.402E-02    1.48       1.0  T
   4    -38.2668942 -0.404744E-04  0.143E-02    1.49       1.3  T
   5    -38.2668970 -0.278791E-05  0.543E-03    1.49       3.3  T
   6    -38.2668969  0.269459E-07  0.197E-03    1.49       9.1  T
   7    -38.2668970 -0.482450E-07  0.561E-04    1.49      32.0  T
   8    -38.2668970 -0.379055E-08  0.353E-04    1.49      50.9  T
     SCC iter.                  ...        0 min,  0.231 sec
     gradient                   ...        0 min,  0.005 sec
 * total energy  :   -37.6331324 Eh     change       -0.1576185E-03 Eh
   gradient norm :     0.0130410 Eh/α   predicted     0.0000000E+00 (-100.00%)
   displ. norm   :     0.0616124 α      lambda       -0.1868567E-03
   maximum displ.:     0.0414263 α      in ANC's #1, #10, #3, ...

........................................................................
.............................. CYCLE   44 ..............................
........................................................................
   1    -38.2709895 -0.382710E+02  0.327E-02    1.49       0.0  T
   2    -38.2709875  0.208164E-05  0.225E-02    1.49       1.0  T
   3    -38.2709850  0.248621E-05  0.213E-02    1.48       1.0  T
   4    -38.2709928 -0.783929E-05  0.621E-03    1.49       2.9  T
   5    -38.2709931 -0.301932E-06  0.317E-03    1.49       5.7  T
   6    -38.2709930  0.610862E-07  0.196E-03    1.49       9.2  T
   7    -38.2709931 -0.680207E-07  0.855E-04    1.49      21.0  T
   8    -38.2709931 -0.374325E-08  0.500E-04    1.49      35.9  T
     SCC iter.                  ...        0 min,  0.216 sec
     gradient                   ...        0 min,  0.014 sec
 * total energy  :   -37.6332390 Eh     change       -0.1066151E-03 Eh
   gradient norm :     0.0025810 Eh/α   predicted    -0.9379553E-04 ( -12.02%)
   displ. norm   :     0.0695524 α      lambda       -0.5427517E-04
   maximum displ.:     0.0507248 α      in ANC's #1, #3, #4, ...

........................................................................
.............................. CYCLE   45 ..............................
........................................................................
   1    -38.2728371 -0.382728E+02  0.314E-02    1.49       0.0  T
   2    -38.2728369  0.140060E-06  0.189E-02    1.49       1.0  T
   3    -38.2728302  0.674819E-05  0.188E-02    1.49       1.0  T
   4    -38.2728375 -0.725715E-05  0.380E-03    1.49       4.7  T
   5    -38.2728376 -0.137917E-06  0.177E-03    1.49      10.2  T
   6    -38.2728376  0.368807E-08  0.970E-04    1.49      18.5  T
   7    -38.2728376 -0.988550E-08  0.267E-04    1.49      67.2  T
     SCC iter.                  ...        0 min,  0.163 sec
     gradient                   ...        0 min,  0.018 sec
 * total energy  :   -37.6332738 Eh     change       -0.3475698E-04 Eh
   gradient norm :     0.0031362 Eh/α   predicted    -0.2727002E-04 ( -21.54%)
   displ. norm   :     0.0797437 α      lambda       -0.3946598E-04
   maximum displ.:     0.0627483 α      in ANC's #1, #3, #4, ...

........................................................................
.............................. CYCLE   46 ..............................
........................................................................
   1    -38.2732848 -0.382733E+02  0.200E-02    1.49       0.0  T
   2    -38.2732835  0.137032E-05  0.135E-02    1.49       1.3  T
   3    -38.2732832  0.246118E-06  0.132E-02    1.49       1.4  T
   4    -38.2732861 -0.287869E-05  0.294E-03    1.49       6.1  T
   5    -38.2732862 -0.860707E-07  0.110E-03    1.49      16.4  T
   6    -38.2732862  0.131894E-08  0.397E-04    1.49      45.3  T
   7    -38.2732862 -0.159788E-08  0.139E-04    1.49     129.2  T
     SCC iter.                  ...        0 min,  0.185 sec
     gradient                   ...        0 min,  0.007 sec
 * total energy  :   -37.6333078 Eh     change       -0.3397329E-04 Eh
   gradient norm :     0.0027314 Eh/α   predicted    -0.1985900E-04 ( -41.55%)
   displ. norm   :     0.1040994 α      lambda       -0.4817193E-04
   maximum displ.:     0.0831884 α      in ANC's #1, #3, #4, ...

........................................................................
.............................. CYCLE   47 ..............................
........................................................................
   1    -38.2726173 -0.382726E+02  0.232E-02    1.49       0.0  T
   2    -38.2726155  0.180272E-05  0.156E-02    1.48       1.1  T
   3    -38.2726151  0.442717E-06  0.155E-02    1.49       1.2  T
   4    -38.2726190 -0.398401E-05  0.387E-03    1.48       4.6  T
   5    -38.2726192 -0.117240E-06  0.140E-03    1.49      12.8  T
   6    -38.2726192  0.125221E-08  0.397E-04    1.49      45.2  T
   7    -38.2726192 -0.243451E-08  0.120E-04    1.49     149.8  T
     SCC iter.                  ...        0 min,  0.184 sec
     gradient                   ...        0 min,  0.010 sec
 * total energy  :   -37.6333509 Eh     change       -0.4310556E-04 Eh
   gradient norm :     0.0019936 Eh/α   predicted    -0.2434802E-04 ( -43.52%)
   displ. norm   :     0.1665381 α      lambda       -0.4807563E-04
   maximum displ.:     0.1406525 α      in ANC's #1, #3, #2, ...

........................................................................
.............................. CYCLE   48 ..............................
........................................................................
   1    -38.2712403 -0.382712E+02  0.335E-02    1.48       0.0  T
   2    -38.2712398  0.590000E-06  0.195E-02    1.48       1.0  T
   3    -38.2712295  0.102270E-04  0.250E-02    1.49       1.0  T
   4    -38.2712414 -0.118269E-04  0.525E-03    1.48       3.4  T
   5    -38.2712416 -0.199864E-06  0.238E-03    1.48       7.5  T
   6    -38.2712416 -0.757076E-09  0.672E-04    1.48      26.7  T
   7    -38.2712416 -0.692094E-08  0.200E-04    1.48      89.6  T
     SCC iter.                  ...        0 min,  0.189 sec
     gradient                   ...        0 min,  0.020 sec
 * total energy  :   -37.6334144 Eh     change       -0.6353703E-04 Eh
   gradient norm :     0.0030118 Eh/α   predicted    -0.2433449E-04 ( -61.70%)
   displ. norm   :     0.0844683 α      lambda       -0.3670404E-04
   maximum displ.:     0.0725771 α      in ANC's #1, #3, #2, ...

........................................................................
.............................. CYCLE   49 ..............................
........................................................................
   1    -38.2711111 -0.382711E+02  0.180E-02    1.48       0.0  T
   2    -38.2711111  0.368433E-07  0.123E-02    1.48       1.5  T
   3    -38.2711084  0.266486E-05  0.954E-03    1.48       1.9  T
   4    -38.2711112 -0.275633E-05  0.166E-03    1.48      10.8  T
   5    -38.2711112 -0.328032E-07  0.844E-04    1.48      21.3  T
   6    -38.2711112 -0.575398E-10  0.228E-04    1.48      78.9  T
     SCC iter.                  ...        0 min,  0.140 sec
     gradient                   ...        0 min,  0.080 sec
 * total energy  :   -37.6334498 Eh     change       -0.3538659E-04 Eh
   gradient norm :     0.0025425 Eh/α   predicted    -0.1848479E-04 ( -47.76%)
   displ. norm   :     0.0830878 α      lambda       -0.4076135E-04
   maximum displ.:     0.0731555 α      in ANC's #1, #2, #3, ...

........................................................................
.............................. CYCLE   50 ..............................
........................................................................
   1    -38.2713420 -0.382713E+02  0.227E-02    1.48       0.0  T
   2    -38.2713414  0.578367E-06  0.181E-02    1.48       1.0  T
   3    -38.2713377  0.368396E-05  0.138E-02    1.48       1.3  T
   4    -38.2713425 -0.475809E-05  0.211E-03    1.48       8.5  T
   5    -38.2713425 -0.578275E-07  0.109E-03    1.48      16.5  T
   6    -38.2713425 -0.354703E-10  0.409E-04    1.48      44.0  T
   7    -38.2713425 -0.191708E-08  0.187E-04    1.48      95.9  T
     SCC iter.                  ...        0 min,  0.055 sec
     gradient                   ...        0 min,  0.007 sec
 * total energy  :   -37.6334887 Eh     change       -0.3887478E-04 Eh
   gradient norm :     0.0017626 Eh/α   predicted    -0.2052212E-04 ( -47.21%)
   displ. norm   :     0.1484271 α      lambda       -0.4564800E-04
   maximum displ.:     0.1256381 α      in ANC's #1, #2, #3, ...

........................................................................
.............................. CYCLE   51 ..............................
........................................................................
   1    -38.2718319 -0.382718E+02  0.367E-02    1.48       0.0  T
   2    -38.2718303  0.164497E-05  0.278E-02    1.49       1.0  T
   3    -38.2718207  0.954261E-05  0.230E-02    1.48       1.0  T
   4    -38.2718334 -0.126751E-04  0.440E-03    1.49       4.1  T
   5    -38.2718336 -0.252921E-06  0.168E-03    1.49      10.7  T
   6    -38.2718336 -0.143734E-08  0.453E-04    1.49      39.7  T
   7    -38.2718337 -0.217982E-08  0.267E-04    1.49      67.4  T
     SCC iter.                  ...        0 min,  0.077 sec
     gradient                   ...        0 min,  0.004 sec
 * total energy  :   -37.6335519 Eh     change       -0.6326225E-04 Eh
   gradient norm :     0.0009792 Eh/α   predicted    -0.2304804E-04 ( -63.57%)
   displ. norm   :     0.1624409 α      lambda       -0.4477899E-04
   maximum displ.:     0.1365974 α      in ANC's #1, #2, #3, ...

........................................................................
.............................. CYCLE   52 ..............................
........................................................................
   1    -38.2721833 -0.382722E+02  0.352E-02    1.48       0.0  T
   2    -38.2721830  0.320246E-06  0.251E-02    1.49       1.0  T
   3    -38.2721712  0.117185E-04  0.214E-02    1.48       1.0  T
   4    -38.2721837 -0.124831E-04  0.541E-03    1.49       3.3  T
   5    -38.2721841 -0.410974E-06  0.208E-03    1.49       8.6  T
   6    -38.2721841 -0.533012E-08  0.485E-04    1.49      37.0  T
   7    -38.2721841 -0.111002E-08  0.293E-04    1.49      61.3  T
     SCC iter.                  ...        0 min,  0.194 sec
     gradient                   ...        0 min,  0.029 sec
 * total energy  :   -37.6336156 Eh     change       -0.6371155E-04 Eh
   gradient norm :     0.0013626 Eh/α   predicted    -0.2265284E-04 ( -64.44%)
   displ. norm   :     0.1991037 α      lambda       -0.5128642E-04
   maximum displ.:     0.1611598 α      in ANC's #1, #2, #3, ...

........................................................................
.............................. CYCLE   53 ..............................
........................................................................
   1    -38.2721933 -0.382722E+02  0.351E-02    1.48       0.0  T
   2    -38.2721934 -0.706360E-07  0.232E-02    1.49       1.0  T
   3    -38.2721865  0.696068E-05  0.163E-02    1.48       1.1  T
   4    -38.2721935 -0.702379E-05  0.531E-03    1.49       3.4  T
   5    -38.2721939 -0.416573E-06  0.212E-03    1.49       8.5  T
   6    -38.2721939 -0.235176E-08  0.557E-04    1.49      32.3  T
   7    -38.2721939 -0.335335E-08  0.229E-04    1.49      78.5  T
     SCC iter.                  ...        0 min,  0.154 sec
     gradient                   ...        0 min,  0.007 sec
 * total energy  :   -37.6336893 Eh     change       -0.7365992E-04 Eh
   gradient norm :     0.0015673 Eh/α   predicted    -0.2609533E-04 ( -64.57%)
   displ. norm   :     0.2521350 α      lambda       -0.6387423E-04
   maximum displ.:     0.2025378 α      in ANC's #1, #2, #3, ...

........................................................................
.............................. CYCLE   54 ..............................
........................................................................
   1    -38.2720539 -0.382721E+02  0.421E-02    1.48       0.0  T
   2    -38.2720542 -0.259454E-06  0.279E-02    1.48       1.0  T
   3    -38.2720530  0.116676E-05  0.900E-03    1.48       2.0  T
   4    -38.2720541 -0.115399E-05  0.468E-03    1.48       3.8  T
   5    -38.2720542 -0.540658E-07  0.330E-03    1.48       5.4  T
   6    -38.2720543 -0.141639E-06  0.683E-04    1.48      26.3  T
   7    -38.2720543 -0.579994E-08  0.304E-04    1.48      59.0  T
     SCC iter.                  ...        0 min,  0.144 sec
     gradient                   ...        0 min,  0.012 sec
 * total energy  :   -37.6337808 Eh     change       -0.9146035E-04 Eh
   gradient norm :     0.0017606 Eh/α   predicted    -0.3284034E-04 ( -64.09%)
   displ. norm   :     0.4637517 α      lambda       -0.1127247E-03
   maximum displ.:     0.3683139 α      in ANC's #1, #2, #3, ...

........................................................................
.............................. CYCLE   55 ..............................
........................................................................
   1    -38.2703753 -0.382704E+02  0.773E-02    1.48       0.0  T
   2    -38.2703761 -0.774398E-06  0.504E-02    1.48       1.0  T
   3    -38.2703738  0.227980E-05  0.147E-02    1.48       1.2  T
   4    -38.2703763 -0.250486E-05  0.691E-03    1.48       2.6  T
   5    -38.2703758  0.527546E-06  0.607E-03    1.48       3.0  T
   6    -38.2703765 -0.741386E-06  0.141E-03    1.48      12.8  T
   7    -38.2703766 -0.263166E-07  0.508E-04    1.48      35.4  T
   8    -38.2703766 -0.940830E-09  0.309E-04    1.48      58.1  T
     SCC iter.                  ...        0 min,  0.246 sec
     gradient                   ...        0 min,  0.005 sec
 * total energy  :   -37.6339278 Eh     change       -0.1470816E-03 Eh
   gradient norm :     0.0038884 Eh/α   predicted    -0.6175062E-04 ( -58.02%)
   displ. norm   :     0.5676566 α      lambda       -0.1791090E-03
   maximum displ.:     0.4571402 α      in ANC's #1, #2, #3, ...

........................................................................
.............................. CYCLE   56 ..............................
........................................................................
   1    -38.2671482 -0.382671E+02  0.964E-02    1.48       0.0  T
   2    -38.2671492 -0.984645E-06  0.630E-02    1.48       1.0  T
   3    -38.2671268  0.223784E-04  0.304E-02    1.48       1.0  T
   4    -38.2671484 -0.215904E-04  0.134E-02    1.48       1.3  T
   5    -38.2671506 -0.220994E-05  0.592E-03    1.48       3.0  T
   6    -38.2671506 -0.953633E-08  0.174E-03    1.48      10.3  T
   7    -38.2671506 -0.255298E-07  0.604E-04    1.48      29.7  T
   8    -38.2671506 -0.182968E-08  0.397E-04    1.48      45.2  T
     SCC iter.                  ...        0 min,  0.234 sec
     gradient                   ...        0 min,  0.008 sec
 * total energy  :   -37.6340371 Eh     change       -0.1092514E-03 Eh
   gradient norm :     0.0107991 Eh/α   predicted    -0.1184159E-03 (   8.39%)
   displ. norm   :     0.1622209 α      lambda       -0.1019449E-03
   maximum displ.:     0.1354370 α      in ANC's #1, #3, #2, ...

........................................................................
.............................. CYCLE   57 ..............................
........................................................................
   1    -38.2686951 -0.382687E+02  0.361E-02    1.48       0.0  T
   2    -38.2686954 -0.221499E-06  0.220E-02    1.48       1.0  T
   3    -38.2686922  0.314391E-05  0.147E-02    1.48       1.2  T
   4    -38.2686953 -0.306575E-05  0.456E-03    1.48       3.9  T
   5    -38.2686956 -0.370262E-06  0.220E-03    1.48       8.2  T
   6    -38.2686956  0.142250E-07  0.102E-03    1.48      17.7  T
   7    -38.2686957 -0.274137E-07  0.236E-04    1.48      76.2  T
   8    -38.2686957 -0.693873E-09  0.102E-04    1.48     176.6  T
     SCC iter.                  ...        0 min,  0.190 sec
     gradient                   ...        0 min,  0.006 sec
 * total energy  :   -37.6341196 Eh     change       -0.8248141E-04 Eh
   gradient norm :     0.0076512 Eh/α   predicted    -0.5232245E-04 ( -36.56%)
   displ. norm   :     0.3736742 α      lambda       -0.1448669E-03
   maximum displ.:     0.3016370 α      in ANC's #1, #2, #3, ...

........................................................................
.............................. CYCLE   58 ..............................
........................................................................
   1    -38.2703861 -0.382704E+02  0.739E-02    1.48       0.0  T
   2    -38.2703872 -0.104230E-05  0.464E-02    1.48       1.0  T
   3    -38.2703756  0.115018E-04  0.231E-02    1.48       1.0  T
   4    -38.2703862 -0.106015E-04  0.107E-02    1.48       1.7  T
   5    -38.2703883 -0.201088E-05  0.390E-03    1.48       4.6  T
   6    -38.2703882  0.254384E-07  0.113E-03    1.48      15.9  T
   7    -38.2703883 -0.329968E-07  0.426E-04    1.48      42.2  T
   8    -38.2703883 -0.815191E-09  0.207E-04    1.48      86.6  T
     SCC iter.                  ...        0 min,  0.256 sec
     gradient                   ...        0 min,  0.057 sec
 * total energy  :   -37.6342283 Eh     change       -0.1087058E-03 Eh
   gradient norm :     0.0063949 Eh/α   predicted    -0.8254972E-04 ( -24.06%)
   displ. norm   :     0.3122190 α      lambda       -0.9263110E-04
   maximum displ.:     0.2428238 α      in ANC's #1, #2, #3, ...

........................................................................
.............................. CYCLE   59 ..............................
........................................................................
   1    -38.2715716 -0.382716E+02  0.621E-02    1.48       0.0  T
   2    -38.2715724 -0.802685E-06  0.381E-02    1.48       1.0  T
   3    -38.2715653  0.712971E-05  0.185E-02    1.48       1.0  T
   4    -38.2715719 -0.662809E-05  0.875E-03    1.49       2.1  T
   5    -38.2715732 -0.125874E-05  0.308E-03    1.48       5.8  T
   6    -38.2715732  0.137667E-07  0.124E-03    1.48      14.5  T
   7    -38.2715732 -0.174818E-07  0.401E-04    1.48      44.8  T
   8    -38.2715732 -0.166469E-08  0.217E-04    1.48      82.6  T
     SCC iter.                  ...        0 min,  0.256 sec
     gradient                   ...        0 min,  0.023 sec
 * total energy  :   -37.6343007 Eh     change       -0.7242047E-04 Eh
   gradient norm :     0.0036948 Eh/α   predicted    -0.5083085E-04 ( -29.81%)
   displ. norm   :     0.2918101 α      lambda       -0.6714380E-04
   maximum displ.:     0.2213318 α      in ANC's #1, #2, #3, ...

........................................................................
.............................. CYCLE   60 ..............................
........................................................................
   1    -38.2719838 -0.382720E+02  0.577E-02    1.48       0.0  T
   2    -38.2719832  0.611697E-06  0.392E-02    1.49       1.0  T
   3    -38.2719539  0.293264E-04  0.334E-02    1.48       1.0  T
   4    -38.2719850 -0.311755E-04  0.837E-03    1.49       2.1  T
   5    -38.2719860 -0.986492E-06  0.349E-03    1.48       5.2  T
   6    -38.2719860 -0.796830E-08  0.136E-03    1.49      13.2  T
   7    -38.2719860 -0.179290E-07  0.499E-04    1.48      36.0  T
   8    -38.2719860 -0.291600E-08  0.259E-04    1.48      69.4  T
     SCC iter.                  ...        0 min,  0.292 sec
     gradient                   ...        0 min,  0.005 sec
 * total energy  :   -37.6343532 Eh     change       -0.5245567E-04 Eh
   gradient norm :     0.0041673 Eh/α   predicted    -0.3643136E-04 ( -30.55%)
   displ. norm   :     0.3403866 α      lambda       -0.6964055E-04
   maximum displ.:     0.2454775 α      in ANC's #1, #2, #3, ...

........................................................................
.............................. CYCLE   61 ..............................
........................................................................
   1    -38.2726413 -0.382726E+02  0.626E-02    1.49       0.0  T
   2    -38.2726420 -0.723839E-06  0.387E-02    1.49       1.0  T
   3    -38.2726316  0.103818E-04  0.204E-02    1.48       1.0  T
   4    -38.2726414 -0.979016E-05  0.928E-03    1.49       1.9  T
   5    -38.2726429 -0.150471E-05  0.327E-03    1.49       5.5  T
   6    -38.2726429 -0.932874E-08  0.144E-03    1.49      12.5  T
   7    -38.2726429 -0.169185E-07  0.436E-04    1.49      41.2  T
   8    -38.2726429 -0.264314E-08  0.250E-04    1.49      71.9  T
     SCC iter.                  ...        0 min,  0.276 sec
     gradient                   ...        0 min,  0.088 sec
 * total energy  :   -37.6343995 Eh     change       -0.4639677E-04 Eh
   gradient norm :     0.0026689 Eh/α   predicted    -0.3885846E-04 ( -16.25%)
   displ. norm   :     0.2337089 α      lambda       -0.3484989E-04
   maximum displ.:     0.1671287 α      in ANC's #1, #2, #3, ...

........................................................................
.............................. CYCLE   62 ..............................
........................................................................
   1    -38.2715180 -0.382715E+02  0.406E-02    1.49       0.0  T
   2    -38.2715173  0.709357E-06  0.286E-02    1.49       1.0  T
   3    -38.2715040  0.132871E-04  0.245E-02    1.48       1.0  T
   4    -38.2715191 -0.150641E-04  0.676E-03    1.49       2.7  T
   5    -38.2715197 -0.633025E-06  0.303E-03    1.49       5.9  T
   6    -38.2715197 -0.128455E-08  0.135E-03    1.49      13.3  T
   7    -38.2715197 -0.179534E-07  0.389E-04    1.49      46.1  T
   8    -38.2715197 -0.204226E-08  0.200E-04    1.49      89.6  T
     SCC iter.                  ...        0 min,  0.216 sec
     gradient                   ...        0 min,  0.015 sec
 * total energy  :   -37.6344219 Eh     change       -0.2236603E-04 Eh
   gradient norm :     0.0038804 Eh/α   predicted    -0.1838160E-04 ( -17.81%)
   displ. norm   :     0.2866314 α      lambda       -0.8107455E-04
   maximum displ.:     0.1745840 α      in ANC's #2, #1, #55, ...

........................................................................
.............................. CYCLE   63 ..............................
........................................................................
   1    -38.2752004 -0.382752E+02  0.624E-02    1.49       0.0  T
   2    -38.2751976  0.284425E-05  0.430E-02    1.49       1.0  T
   3    -38.2751793  0.182457E-04  0.376E-02    1.48       1.0  T
   4    -38.2752056 -0.262490E-04  0.117E-02    1.49       1.5  T
   5    -38.2752081 -0.247911E-05  0.402E-03    1.49       4.5  T
   6    -38.2752081  0.606715E-08  0.172E-03    1.49      10.4  T
   7    -38.2752081 -0.225642E-07  0.790E-04    1.49      22.7  T
   8    -38.2752081 -0.362334E-08  0.358E-04    1.49      50.2  T
     SCC iter.                  ...        0 min,  0.190 sec
     gradient                   ...        0 min,  0.010 sec
 * total energy  :   -37.6344437 Eh     change       -0.2182452E-04 Eh
   gradient norm :     0.0042830 Eh/α   predicted    -0.4386889E-04 ( 101.01%)
   displ. norm   :     0.2067599 α      lambda       -0.6543265E-04
   maximum displ.:     0.1410025 α      in ANC's #2, #1, #3, ...

........................................................................
.............................. CYCLE   64 ..............................
........................................................................
   1    -38.2722280 -0.382722E+02  0.362E-02    1.49       0.0  T
   2    -38.2722287 -0.699447E-06  0.212E-02    1.49       1.0  T
   3    -38.2722244  0.431194E-05  0.177E-02    1.49       1.0  T
   4    -38.2722287 -0.432046E-05  0.687E-03    1.49       2.6  T
   5    -38.2722297 -0.105145E-05  0.292E-03    1.49       6.2  T
   6    -38.2722297 -0.213161E-07  0.150E-03    1.49      12.0  T
   7    -38.2722297 -0.520899E-09  0.712E-04    1.49      25.2  T
   8    -38.2722298 -0.320051E-08  0.396E-04    1.49      45.4  T
     SCC iter.                  ...        0 min,  0.177 sec
     gradient                   ...        0 min,  0.006 sec
 * total energy  :   -37.6344722 Eh     change       -0.2845080E-04 Eh
   gradient norm :     0.0048856 Eh/α   predicted    -0.3411765E-04 (  19.92%)
   displ. norm   :     0.1245192 α      lambda       -0.2772898E-04
   maximum displ.:     0.0927275 α      in ANC's #1, #3, #2, ...

........................................................................
.............................. CYCLE   65 ..............................
........................................................................
   1    -38.2731792 -0.382732E+02  0.285E-02    1.49       0.0  T
   2    -38.2731794 -0.256340E-06  0.176E-02    1.49       1.0  T
   3    -38.2731788  0.636753E-06  0.621E-03    1.49       2.9  T
   4    -38.2731795 -0.716931E-06  0.250E-03    1.49       7.2  T
   5    -38.2731796 -0.375423E-07  0.140E-03    1.49      12.8  T
   6    -38.2731796  0.157126E-08  0.878E-04    1.49      20.5  T
   7    -38.2731796 -0.129688E-07  0.200E-04    1.49      89.8  T
     SCC iter.                  ...        0 min,  0.173 sec
     gradient                   ...        0 min,  0.009 sec
 * total energy  :   -37.6344922 Eh     change       -0.1999741E-04 Eh
   gradient norm :     0.0049527 Eh/α   predicted    -0.1408086E-04 ( -29.59%)
   displ. norm   :     0.1212751 α      lambda       -0.4972480E-04
   maximum displ.:     0.0826660 α      in ANC's #2, #7, #9, ...

........................................................................
.............................. CYCLE   66 ..............................
........................................................................
   1    -38.2734420 -0.382734E+02  0.465E-02    1.49       0.0  T
   2    -38.2734399  0.216955E-05  0.312E-02    1.49       1.0  T
   3    -38.2734201  0.197343E-04  0.344E-02    1.48       1.0  T
   4    -38.2734444 -0.242959E-04  0.445E-03    1.49       4.0  T
   5    -38.2734447 -0.316711E-06  0.235E-03    1.49       7.6  T
   6    -38.2734447 -0.121641E-07  0.130E-03    1.49      13.8  T
   7    -38.2734448 -0.936104E-08  0.663E-04    1.49      27.1  T
   8    -38.2734448 -0.651376E-09  0.450E-04    1.49      39.9  T
     SCC iter.                  ...        0 min,  0.160 sec
     gradient                   ...        0 min,  0.007 sec
 * total energy  :   -37.6345251 Eh     change       -0.3287649E-04 Eh
   gradient norm :     0.0032500 Eh/α   predicted    -0.2522834E-04 ( -23.26%)
   displ. norm   :     0.1805947 α      lambda       -0.3886058E-04
   maximum displ.:     0.1621110 α      in ANC's #2, #8, #55, ...
 * RMSD in coord.:     0.7939087 α      energy gain  -0.1550270E-02 Eh

generating ANC from model Hessian ...
Using Lindh-Hessian (1995)
 Shifting diagonal of input Hessian by    1.0078978640736917E-002
 Lowest  eigenvalues of input Hessian
    0.010000    0.000000    0.000000    0.000000    0.000000    0.000000
    0.000000    0.010324    0.010336    0.010555    0.011604    0.011850
    0.011917    0.012854    0.013827    0.016633    0.018128    0.018244
 Highest eigenvalues
    1.736181    1.739522    3.076967    4.047902    4.811980    6.746529


........................................................................
.............................. CYCLE   67 ..............................
........................................................................
   1    -38.2733087 -0.382733E+02  0.403E-02    1.49       0.0  T
   2    -38.2733087 -0.599708E-07  0.249E-02    1.49       1.0  T
   3    -38.2732989  0.983706E-05  0.213E-02    1.48       1.0  T
   4    -38.2733091 -0.102372E-04  0.446E-03    1.49       4.0  T
   5    -38.2733095 -0.367651E-06  0.175E-03    1.49      10.3  T
   6    -38.2733095 -0.200803E-08  0.583E-04    1.49      30.8  T
   7    -38.2733095 -0.422585E-08  0.236E-04    1.49      76.1  T
     SCC iter.                  ...        0 min,  0.192 sec
     gradient                   ...        0 min,  0.008 sec
 * total energy  :   -37.6345565 Eh     change       -0.3143343E-04 Eh
   gradient norm :     0.0042309 Eh/α   predicted     0.0000000E+00 (-100.00%)
   displ. norm   :     0.0459196 α      lambda        0.3039008E-04
   maximum displ.:     0.0286136 α      in ANC's #4, #1, #6, ...

........................................................................
.............................. CYCLE   68 ..............................
........................................................................
   1    -38.2733926 -0.382734E+02  0.273E-02    1.49       0.0  T
   2    -38.2733851  0.755896E-05  0.311E-02    1.48       1.0  T
   3    -38.2733988 -0.137611E-04  0.151E-02    1.49       1.2  T
   4    -38.2733986  0.211990E-06  0.476E-03    1.49       3.8  T
   5    -38.2733990 -0.346254E-06  0.230E-03    1.49       7.8  T
   6    -38.2733990 -0.272379E-08  0.134E-03    1.49      13.4  T
   7    -38.2733990 -0.835389E-08  0.658E-04    1.49      27.3  T
   8    -38.2733990 -0.206666E-08  0.240E-04    1.49      74.8  T
     SCC iter.                  ...        0 min,  0.189 sec
     gradient                   ...        0 min,  0.019 sec
 * total energy  :   -37.6345810 Eh     change       -0.2447440E-04 Eh
   gradient norm :     0.0013589 Eh/α   predicted    -0.1725881E-04 ( -29.48%)
   displ. norm   :     0.1012876 α      lambda       -0.3028060E-04
   maximum displ.:     0.0754106 α      in ANC's #4, #6, #1, ...

........................................................................
.............................. CYCLE   69 ..............................
........................................................................
   1    -38.2732623 -0.382733E+02  0.364E-02    1.49       0.0  T
   2    -38.2732567  0.564170E-05  0.287E-02    1.48       1.0  T
   3    -38.2732624 -0.565704E-05  0.217E-02    1.49       1.0  T
   4    -38.2732684 -0.605070E-05  0.698E-03    1.48       2.6  T
   5    -38.2732690 -0.605668E-06  0.240E-03    1.49       7.5  T
   6    -38.2732690  0.887606E-08  0.165E-03    1.49      10.9  T
   7    -38.2732690 -0.172170E-07  0.697E-04    1.48      25.8  T
   8    -38.2732690 -0.286367E-08  0.478E-04    1.49      37.6  T
     SCC iter.                  ...        0 min,  0.201 sec
     gradient                   ...        0 min,  0.011 sec
 * total energy  :   -37.6346038 Eh     change       -0.2281664E-04 Eh
   gradient norm :     0.0032341 Eh/α   predicted    -0.1520951E-04 ( -33.34%)
   displ. norm   :     0.0393440 α      lambda       -0.1528695E-04
   maximum displ.:     0.0300057 α      in ANC's #4, #2, #1, ...

........................................................................
.............................. CYCLE   70 ..............................
........................................................................
   1    -38.2732335 -0.382732E+02  0.146E-02    1.49       0.0  T
   2    -38.2732332  0.305279E-06  0.876E-03    1.49       2.0  T
   3    -38.2732317  0.152557E-05  0.112E-02    1.48       1.6  T
   4    -38.2732339 -0.216508E-05  0.237E-03    1.49       7.6  T
   5    -38.2732339 -0.413574E-07  0.117E-03    1.49      15.3  T
   6    -38.2732339 -0.196000E-08  0.314E-04    1.49      57.3  T
   7    -38.2732339 -0.224254E-08  0.826E-05    1.49     217.4  T
     SCC iter.                  ...        0 min,  0.169 sec
     gradient                   ...        0 min,  0.012 sec
 * total energy  :   -37.6346162 Eh     change       -0.1242238E-04 Eh
   gradient norm :     0.0018968 Eh/α   predicted    -0.7655582E-05 ( -38.37%)
   displ. norm   :     0.1072445 α      lambda       -0.2440882E-04
   maximum displ.:     0.0735804 α      in ANC's #4, #2, #3, ...

........................................................................
.............................. CYCLE   71 ..............................
........................................................................
   1    -38.2732669 -0.382733E+02  0.264E-02    1.49       0.0  T
   2    -38.2732627  0.422696E-05  0.193E-02    1.49       1.0  T
   3    -38.2732663 -0.362627E-05  0.176E-02    1.49       1.0  T
   4    -38.2732704 -0.404695E-05  0.369E-03    1.49       4.9  T
   5    -38.2732705 -0.111333E-06  0.161E-03    1.49      11.1  T
   6    -38.2732705 -0.132663E-08  0.772E-04    1.49      23.3  T
   7    -38.2732705 -0.742771E-08  0.330E-04    1.49      54.5  T
     SCC iter.                  ...        0 min,  0.185 sec
     gradient                   ...        0 min,  0.018 sec
 * total energy  :   -37.6346429 Eh     change       -0.2664058E-04 Eh
   gradient norm :     0.0023053 Eh/α   predicted    -0.1226714E-04 ( -53.95%)
   displ. norm   :     0.0894447 α      lambda       -0.2353547E-04
   maximum displ.:     0.0613804 α      in ANC's #4, #2, #3, ...

........................................................................
.............................. CYCLE   72 ..............................
........................................................................
   1    -38.2732648 -0.382733E+02  0.171E-02    1.49       0.0  T
   2    -38.2732648 -0.314293E-07  0.109E-02    1.49       1.6  T
   3    -38.2732639  0.892074E-06  0.609E-03    1.49       2.9  T
   4    -38.2732648 -0.877275E-06  0.211E-03    1.49       8.5  T
   5    -38.2732648 -0.746126E-07  0.105E-03    1.49      17.1  T
   6    -38.2732648 -0.123748E-09  0.390E-04    1.49      46.1  T
   7    -38.2732649 -0.161877E-08  0.203E-04    1.49      88.7  T
     SCC iter.                  ...        0 min,  0.185 sec
     gradient                   ...        0 min,  0.012 sec
 * total energy  :   -37.6346637 Eh     change       -0.2085500E-04 Eh
   gradient norm :     0.0025383 Eh/α   predicted    -0.1186472E-04 ( -43.11%)
   displ. norm   :     0.1574459 α      lambda       -0.3967722E-04
   maximum displ.:     0.1040405 α      in ANC's #4, #2, #3, ...

........................................................................
.............................. CYCLE   73 ..............................
........................................................................
   1    -38.2730874 -0.382731E+02  0.259E-02    1.49       0.0  T
   2    -38.2730873  0.519365E-07  0.184E-02    1.49       1.0  T
   3    -38.2730818  0.553387E-05  0.141E-02    1.49       1.3  T
   4    -38.2730875 -0.569608E-05  0.342E-03    1.49       5.3  T
   5    -38.2730878 -0.264557E-06  0.144E-03    1.49      12.4  T
   6    -38.2730878 -0.387607E-08  0.321E-04    1.49      55.9  T
   7    -38.2730878 -0.105865E-08  0.197E-04    1.49      91.0  T
     SCC iter.                  ...        0 min,  0.152 sec
     gradient                   ...        0 min,  0.011 sec
 * total energy  :   -37.6347000 Eh     change       -0.3627858E-04 Eh
   gradient norm :     0.0025888 Eh/α   predicted    -0.2033181E-04 ( -43.96%)
   displ. norm   :     0.2552848 α      lambda       -0.5912044E-04
   maximum displ.:     0.1688818 α      in ANC's #4, #2, #3, ...

........................................................................
.............................. CYCLE   74 ..............................
........................................................................
   1    -38.2725057 -0.382725E+02  0.419E-02    1.49       0.0  T
   2    -38.2725051  0.573793E-06  0.306E-02    1.48       1.0  T
   3    -38.2724872  0.178727E-04  0.258E-02    1.49       1.0  T
   4    -38.2725064 -0.191335E-04  0.457E-03    1.48       3.9  T
   5    -38.2725067 -0.379795E-06  0.262E-03    1.49       6.9  T
   6    -38.2725068 -0.146653E-07  0.506E-04    1.49      35.5  T
   7    -38.2725068 -0.249579E-08  0.268E-04    1.49      67.0  T
     SCC iter.                  ...        0 min,  0.093 sec
     gradient                   ...        0 min,  0.007 sec
 * total energy  :   -37.6347504 Eh     change       -0.5044982E-04 Eh
   gradient norm :     0.0020611 Eh/α   predicted    -0.3148761E-04 ( -37.59%)
   displ. norm   :     0.3343561 α      lambda       -0.6288459E-04
   maximum displ.:     0.2219421 α      in ANC's #4, #2, #3, ...

........................................................................
.............................. CYCLE   75 ..............................
........................................................................
   1    -38.2714714 -0.382715E+02  0.555E-02    1.48       0.0  T
   2    -38.2714700  0.135290E-05  0.408E-02    1.48       1.0  T
   3    -38.2714360  0.340258E-04  0.357E-02    1.49       1.0  T
   4    -38.2714728 -0.368341E-04  0.547E-03    1.48       3.3  T
   5    -38.2714732 -0.358812E-06  0.370E-03    1.48       4.8  T
   6    -38.2714732 -0.360264E-07  0.657E-04    1.48      27.4  T
   7    -38.2714732 -0.325219E-08  0.329E-04    1.48      54.6  T
     SCC iter.                  ...        0 min,  0.163 sec
     gradient                   ...        0 min,  0.007 sec
 * total energy  :   -37.6347945 Eh     change       -0.4407484E-04 Eh
   gradient norm :     0.0030381 Eh/α   predicted    -0.3495808E-04 ( -20.68%)
   displ. norm   :     0.2214014 α      lambda       -0.3686421E-04
   maximum displ.:     0.1502530 α      in ANC's #4, #2, #3, ...

........................................................................
.............................. CYCLE   76 ..............................
........................................................................
   1    -38.2718225 -0.382718E+02  0.364E-02    1.48       0.0  T
   2    -38.2718221  0.432343E-06  0.262E-02    1.48       1.0  T
   3    -38.2718068  0.153147E-04  0.234E-02    1.49       1.0  T
   4    -38.2718230 -0.162775E-04  0.379E-03    1.48       4.7  T
   5    -38.2718232 -0.105103E-06  0.255E-03    1.48       7.1  T
   6    -38.2718232 -0.250655E-07  0.487E-04    1.48      36.9  T
   7    -38.2718232 -0.117409E-08  0.268E-04    1.48      67.0  T
     SCC iter.                  ...        0 min,  0.225 sec
     gradient                   ...        0 min,  0.010 sec
 * total energy  :   -37.6348212 Eh     change       -0.2668199E-04 Eh
   gradient norm :     0.0028316 Eh/α   predicted    -0.1934015E-04 ( -27.52%)
   displ. norm   :     0.1413255 α      lambda       -0.3185784E-04
   maximum displ.:     0.0984924 α      in ANC's #4, #2, #3, ...

........................................................................
.............................. CYCLE   77 ..............................
........................................................................
   1    -38.2736637 -0.382737E+02  0.247E-02    1.48       0.0  T
   2    -38.2736638 -0.857212E-07  0.164E-02    1.48       1.1  T
   3    -38.2736603  0.348995E-05  0.111E-02    1.48       1.6  T
   4    -38.2736638 -0.350993E-05  0.446E-03    1.48       4.0  T
   5    -38.2736640 -0.215821E-06  0.216E-03    1.48       8.3  T
   6    -38.2736640 -0.424578E-08  0.912E-04    1.48      19.7  T
   7    -38.2736640 -0.662619E-08  0.249E-04    1.48      72.3  T
     SCC iter.                  ...        0 min,  0.226 sec
     gradient                   ...        0 min,  0.021 sec
 * total energy  :   -37.6348402 Eh     change       -0.1899597E-04 Eh
   gradient norm :     0.0015729 Eh/α   predicted    -0.1624798E-04 ( -14.47%)
   displ. norm   :     0.2919800 α      lambda       -0.1220214E-04
   maximum displ.:     0.1982898 α      in ANC's #4, #2, #3, ...

........................................................................
.............................. CYCLE   78 ..............................
........................................................................
   1    -38.2722775 -0.382723E+02  0.474E-02    1.48       0.0  T
   2    -38.2722779 -0.344439E-06  0.312E-02    1.48       1.0  T
   3    -38.2722761  0.173329E-05  0.974E-03    1.48       1.8  T
   4    -38.2722779 -0.178803E-05  0.534E-03    1.48       3.4  T
   5    -38.2722778  0.141332E-06  0.441E-03    1.48       4.1  T
   6    -38.2722781 -0.344095E-06  0.791E-04    1.48      22.7  T
   7    -38.2722781 -0.879826E-08  0.378E-04    1.48      47.5  T
     SCC iter.                  ...        0 min,  0.167 sec
     gradient                   ...        0 min,  0.008 sec
 * total energy  :   -37.6348420 Eh     change       -0.1826472E-05 Eh
   gradient norm :     0.0021098 Eh/α   predicted    -0.6332637E-05 ( 246.71%)
   displ. norm   :     0.0744697 α      lambda       -0.1002575E-04
   maximum displ.:     0.0497390 α      in ANC's #4, #2, #3, ...

........................................................................
.............................. CYCLE   79 ..............................
........................................................................
   1    -38.2734628 -0.382735E+02  0.143E-02    1.48       0.0  T
   2    -38.2734627  0.468378E-07  0.103E-02    1.48       1.7  T
   3    -38.2734605  0.218966E-05  0.895E-03    1.48       2.0  T
   4    -38.2734628 -0.231391E-05  0.158E-03    1.48      11.4  T
   5    -38.2734629 -0.304947E-07  0.106E-03    1.48      16.9  T
   6    -38.2734629 -0.103804E-08  0.290E-04    1.48      61.9  T
   7    -38.2734629 -0.142765E-08  0.118E-04    1.48     151.9  T
     SCC iter.                  ...        0 min,  0.082 sec
     gradient                   ...        0 min,  0.009 sec
 * total energy  :   -37.6348478 Eh     change       -0.5774026E-05 Eh
   gradient norm :     0.0005937 Eh/α   predicted    -0.5044447E-05 ( -12.64%)
   displ. norm   :     0.0248876 α      lambda       -0.7535571E-06
   maximum displ.:     0.0173403 α      in ANC's #4, #2, #3, ...

........................................................................
.............................. CYCLE   80 ..............................
........................................................................
   1    -38.2737526 -0.382738E+02  0.700E-03    1.48       0.0  T
   2    -38.2737526  0.113258E-07  0.476E-03    1.48       3.8  T
   3    -38.2737521  0.503609E-06  0.438E-03    1.48       4.1  T
   4    -38.2737527 -0.534212E-06  0.743E-04    1.48      24.2  T
   5    -38.2737527 -0.490527E-08  0.483E-04    1.48      37.2  T
     SCC iter.                  ...        0 min,  0.047 sec
     gradient                   ...        0 min,  0.012 sec
 * total energy  :   -37.6348484 Eh     change       -0.5748936E-06 Eh
   gradient norm :     0.0002016 Eh/α   predicted    -0.3774090E-06 ( -34.35%)
   displ. norm   :     0.0047119 α      lambda       -0.1286544E-06
   maximum displ.:     0.0034313 α      in ANC's #2, #7, #11, ...

   *** GEOMETRY OPTIMIZATION CONVERGED AFTER 80 ITERATIONS ***

------------------------------------------------------------------------
 total energy gain   :        -1.9806468 Eh    -1242.8746 kcal/mol
 total RMSD          :         1.6274636 a0        0.8612 Å
 total power (kW/mol):       -65.0023430 (step) -133.2587 (real)
------------------------------------------------------------------------

 ANCopt (total)                0 d,  0 h,  0 min, 39.023 sec
 optimizer setup                ...        0 min,  0.001 sec (  0.001%)
 model hessian                  ...        0 min,  0.161 sec (  0.412%)
 ANC generation                 ...        0 min,  0.089 sec (  0.227%)
 coordinate transformation      ...        0 min,  0.002 sec (  0.005%)
 single point calculation       ...        0 min, 38.152 sec ( 97.769%)
 optimization log               ...        0 min,  0.010 sec (  0.027%)
 hessian update                 ...        0 min,  0.407 sec (  1.044%)
 rational function              ...        0 min,  0.184 sec (  0.472%)

================
 final structure:
================
31
 xtb: 6.5.1 (b24c23e)
Zr          -1.27813795506952       -0.03563197577367        0.45522444261881
C           -1.17309590442462        1.29878746549787       -1.76309109121698
C           -0.58401110404492       -2.28267909953762        1.13203919679210
C            0.43445308540233       -1.78189862435832        0.28024706027227
C           -0.11541097830717       -1.62723043095264       -1.01469731917819
C           -1.47257238967184       -2.02900634553147       -0.96624164154932
C           -1.76237592763274       -2.43471372293085        0.36246269677483
H           -0.44386317867192       -2.65112337728872        2.14249516425917
H            1.48591787141769       -1.69521325424231        0.53278168898530
H            0.44706144368170       -1.41139723009058       -1.91614694749730
H           -2.12557861386074       -2.15237301474330       -1.82217856268465
H           -2.66024909985630       -2.94774413815343        0.68887254778149
C            0.04302698220793        0.39785301712890        2.47024044916501
C           -1.30345058249566        0.71491603518228        2.77673736742140
C           -1.66421545584523        1.85282860303391        2.00778186185847
C           -0.55969628701347        2.20981751925843        1.20376942604145
C            0.49493425189501        1.30092459367019        1.47639427329214
H            0.66462369884122       -0.30729060658076        3.00975351847159
H           -1.88263671869677        0.29099272120068        3.59131932722565
H           -2.56255981842498        2.44460143765448        2.13424642999711
H           -0.47857432676163        3.11392269038851        0.61263028818089
H            1.51968894075936        1.40008815440317        1.13199205283669
H           -0.11014319248188        1.23275476865449       -1.45116581845111
H           -1.32465730017492        0.72342286932519       -2.67372190719792
H           -1.42603145055347        2.33756395697588       -1.94324004368863
C           -3.56729805334026        0.09133683268735        0.30721119444623
C           -3.16052330806829        0.88866965402526       -0.77941951713473
H           -3.29016394661357        1.96389846479166       -0.65711709603356
H           -3.45493273204702        0.54003983470462       -1.76643069800939
H           -3.92401116695453        0.58053630886788        1.21412313603897
H           -4.03028045317305       -0.86895378727770        0.08136384019178

 Bond Distances (Angstroems)
 ---------------------------
Zr1-C2=2.5909        Zr1-C3=2.4473        Zr1-C4=2.4521        Zr1-C5=2.4588        Zr1-C6=2.4560        Zr1-C7=2.4492        
Zr1-C13=2.4482       Zr1-C14=2.4400       Zr1-C15=2.4750       Zr1-C16=2.4736       Zr1-C17=2.4440       Zr1-C26=2.2975       
Zr1-C27=2.4335       C2-Zr1=2.5909        C2-H23=1.1097        C2-H24=1.0878        C2-H25=1.0842        C3-Zr1=2.4473        
C3-C4=1.4190         C3-C7=1.4156         C3-H8=1.0846         C4-Zr1=2.4521        C4-C3=1.4190         C4-C5=1.4153         
C4-H9=1.0848         C5-Zr1=2.4588        C5-C4=1.4153         C5-C6=1.4162         C5-H10=1.0842        C6-Zr1=2.4560        
C6-C5=1.4162         C6-C7=1.4192         C6-H11=1.0836        C7-Zr1=2.4492        C7-C3=1.4156         C7-C6=1.4192         
C7-H12=1.0844        H8-C3=1.0846         H9-C4=1.0848         H10-C5=1.0842        H11-C6=1.0836        H12-C7=1.0844        
C13-Zr1=2.4482       C13-C14=1.4169       C13-C17=1.4169       C13-H18=1.0838       C14-Zr1=2.4400       C14-C13=1.4169       
C14-C15=1.4200       C14-H19=1.0857       C15-Zr1=2.4750       C15-C14=1.4200       C15-C16=1.4120       C15-H20=1.0831       
C16-Zr1=2.4736       C16-C15=1.4120       C16-C17=1.4187       C16-H21=1.0833       C17-Zr1=2.4440       C17-C13=1.4169       
C17-C16=1.4187       C17-H22=1.0856       H18-C13=1.0838       H19-C14=1.0857       H20-C15=1.0831       H21-C16=1.0833       
H22-C17=1.0856       H23-C2=1.1097        H24-C2=1.0878        H25-C2=1.0842        C26-Zr1=2.2975       C26-C27=1.4078       
C26-H30=1.0904       C26-H31=1.0897       C27-Zr1=2.4335       C27-C26=1.4078       C27-H28=1.0899       C27-H29=1.0874       
H28-C27=1.0899       H29-C27=1.0874       H30-C26=1.0904       H31-C26=1.0897       
 C  H  Rav=1.0872 sigma=0.0061  Rmin=1.0831  Rmax=1.1097    17
 C  C  Rav=1.4161 sigma=0.0034  Rmin=1.4078  Rmax=1.4200    11
 Zr C  Rav=2.4512 sigma=0.0587  Rmin=2.2975  Rmax=2.5909    13

 selected bond angles (degree)
 --------------------
C3-Zr1-C2=134.28               C4-Zr1-C2=106.10               C4-Zr1-C3= 33.67               C5-Zr1-C2= 78.60               
C5-Zr1-C3= 55.73               C5-Zr1-C4= 33.50               C6-Zr1-C2= 85.74               C6-Zr1-C3= 55.76               
C6-Zr1-C4= 55.67               C6-Zr1-C5= 33.49               C7-Zr1-C2=118.69               C7-Zr1-C3= 33.61               
C7-Zr1-C4= 55.79               C7-Zr1-C5= 55.72               C7-Zr1-C6= 33.63               C13-Zr1-C2=126.27              
C13-Zr1-C3= 77.40              C13-Zr1-C4= 78.93              C13-Zr1-C5=110.58              C13-Zr1-C6=131.51              
C13-Zr1-C7=108.14              C14-Zr1-C2=131.04              C14-Zr1-C3= 91.27              C14-Zr1-C4=107.11              
C14-Zr1-C5=140.61              C14-Zr1-C6=143.08              C14-Zr1-C7=109.59              C14-Zr1-C13= 33.70             
C15-Zr1-C2= 98.65              C15-Zr1-C3=124.84              C15-Zr1-C4=134.19              C15-Zr1-C5=160.50              
C15-Zr1-C6=165.93              C15-Zr1-C7=137.76              C15-Zr1-C13= 55.44             C15-Zr1-C14= 33.58             
C16-Zr1-C2= 77.28              C16-Zr1-C3=131.87              C16-Zr1-C4=117.72              C16-Zr1-C5=129.14              
C16-Zr1-C6=159.22              C16-Zr1-C7=163.35              C16-Zr1-C13= 55.49             C16-Zr1-C14= 55.66             
C16-Zr1-C15= 33.16             C17-Zr1-C2= 92.67              C17-Zr1-C3=100.42              C17-Zr1-C4= 84.99              
C17-Zr1-C5=105.11              C17-Zr1-C6=138.00              C17-Zr1-C7=134.02              C17-Zr1-C13= 33.67             
C17-Zr1-C14= 56.07             C17-Zr1-C15= 55.51             C17-Zr1-C16= 33.53             C26-Zr1-C2= 87.52              
C26-Zr1-C3=110.56              C26-Zr1-C4=136.94              C26-Zr1-C5=117.93              C26-Zr1-C6= 85.91              
C26-Zr1-C7= 81.65              C26-Zr1-C13=125.52             C26-Zr1-C14= 91.95             C26-Zr1-C15= 80.96             
C26-Zr1-C16=104.99             C26-Zr1-C17=136.02             C27-Zr1-C2= 53.23              C27-Zr1-C3=135.11              
C27-Zr1-C4=140.76              C27-Zr1-C5=107.96              C27-Zr1-C6= 87.33              C27-Zr1-C7=101.53              
C27-Zr1-C13=140.15             C27-Zr1-C14=110.97             C27-Zr1-C15= 84.71             C27-Zr1-C16= 91.91             
C27-Zr1-C17=124.43             C27-Zr1-C26= 34.47             H23-C2-Zr1= 76.56              H24-C2-Zr1=116.02              
H24-C2-H23=109.71              H25-C2-Zr1=128.78              H25-C2-H23=109.10              H25-C2-H24=109.58              
C4-C3-Zr1= 73.35               C7-C3-Zr1= 73.27               C7-C3-C4=108.00                H8-C3-Zr1=127.32               
H8-C3-C4=125.90                H8-C3-C7=125.28                C3-C4-Zr1= 72.98               C5-C4-Zr1= 73.51               
C5-C4-C3=108.00                H9-C4-Zr1=127.11               H9-C4-C3=125.74                H9-C4-C5=125.51                
C4-C5-Zr1= 72.99               C6-C5-Zr1= 73.14               C6-C5-C4=108.06                H10-C5-Zr1=127.84              
H10-C5-C4=125.51               H10-C5-C6=125.60               C5-C6-Zr1= 73.36               C7-C6-Zr1= 72.92               
C7-C6-C5=107.99                H11-C6-Zr1=126.67              H11-C6-C5=125.64               H11-C6-C7=125.73               
C3-C7-Zr1= 73.12               C6-C7-Zr1= 73.44               C6-C7-C3=107.96                H12-C7-Zr1=128.00              
H12-C7-C3=125.20               H12-C7-C6=125.88               

 selected dihedral angles (degree)
 ---------------------------------
H23-C2-Zr1-C3=290.31          H23-C2-Zr1-C4=312.13          H23-C2-Zr1-C5=292.79          H23-C2-Zr1-C6=259.73          
H23-C2-Zr1-C7=252.73          H23-C2-Zr1-C13= 40.06         H23-C2-Zr1-C14= 83.22         H23-C2-Zr1-C15= 93.19         
H23-C2-Zr1-C16= 67.67         H23-C2-Zr1-C17= 37.68         H23-C2-Zr1-C26=173.65         H23-C2-Zr1-C27=169.88         
H24-C2-Zr1-C3= 35.93          H24-C2-Zr1-C4= 57.74          H24-C2-Zr1-C5= 38.41          H24-C2-Zr1-C6=  5.35          
H24-C2-Zr1-C7=358.34          H24-C2-Zr1-C13=145.68         H24-C2-Zr1-C14=188.84         H24-C2-Zr1-C15=198.81         
H24-C2-Zr1-C16=173.29         H24-C2-Zr1-C17=143.29         H24-C2-Zr1-C26=279.27         H24-C2-Zr1-C27=275.50         
H25-C2-Zr1-C3=186.46          H25-C2-Zr1-C4=208.27          H25-C2-Zr1-C5=188.94          H25-C2-Zr1-C6=155.87          
H25-C2-Zr1-C7=148.87          H25-C2-Zr1-C13=296.20         H25-C2-Zr1-C14=339.37         H25-C2-Zr1-C15=349.33         
H25-C2-Zr1-C16=323.82         H25-C2-Zr1-C17=293.82         H25-C2-Zr1-C26= 69.79         H25-C2-Zr1-C27= 66.03         
C4-C3-Zr1-C2= 40.08           C4-C3-Zr1-C5= 37.14           C4-C3-Zr1-C6= 77.95           C4-C3-Zr1-C7=115.26           
C4-C3-Zr1-C13=271.12          C4-C3-Zr1-C14=240.17          C4-C3-Zr1-C15=240.86          C4-C3-Zr1-C16=282.63          
C4-C3-Zr1-C17=295.87          C4-C3-Zr1-C26=147.62          C4-C3-Zr1-C27=118.20          C7-C3-Zr1-C2=284.83           
C7-C3-Zr1-C4=244.74           C7-C3-Zr1-C5=281.88           C7-C3-Zr1-C6=322.69           C7-C3-Zr1-C13=155.86          
C7-C3-Zr1-C14=124.92          C7-C3-Zr1-C15=125.60          C7-C3-Zr1-C16=167.37          C7-C3-Zr1-C17=180.61          
C7-C3-Zr1-C26= 32.36          C7-C3-Zr1-C27=  2.95          H8-C3-Zr1-C2=162.88           H8-C3-Zr1-C4=122.79           
H8-C3-Zr1-C5=159.93           H8-C3-Zr1-C6=200.74           H8-C3-Zr1-C7=238.05           H8-C3-Zr1-C13= 33.91          
H8-C3-Zr1-C14=  2.97          H8-C3-Zr1-C15=  3.65          H8-C3-Zr1-C16= 45.42          H8-C3-Zr1-C17= 58.66          
H8-C3-Zr1-C26=270.41          H8-C3-Zr1-C27=241.00          C3-C4-Zr1-C2=208.67           C3-C4-Zr1-C5=244.68           
C3-C4-Zr1-C6=281.76           C3-C4-Zr1-C7=322.75           C3-C4-Zr1-C13= 83.85          C3-C4-Zr1-C14= 65.16          
C3-C4-Zr1-C15= 88.73          C3-C4-Zr1-C16=124.83          C3-C4-Zr1-C17=117.33          C3-C4-Zr1-C26=312.74          
C3-C4-Zr1-C27=259.51          C5-C4-Zr1-C2=323.99           C5-C4-Zr1-C3=115.32           C5-C4-Zr1-C6= 37.08           
C5-C4-Zr1-C7= 78.06           C5-C4-Zr1-C13=199.17          C5-C4-Zr1-C14=180.48          C5-C4-Zr1-C15=204.05          
C5-C4-Zr1-C16=240.14          C5-C4-Zr1-C17=232.64          C5-C4-Zr1-C26= 68.05          C5-C4-Zr1-C27= 14.82          
H9-C4-Zr1-C2= 86.37           H9-C4-Zr1-C3=237.70           H9-C4-Zr1-C5=122.38           H9-C4-Zr1-C6=159.46           
H9-C4-Zr1-C7=200.45           H9-C4-Zr1-C13=321.55          H9-C4-Zr1-C14=302.86          H9-C4-Zr1-C15=326.43          
H9-C4-Zr1-C16=  2.52          H9-C4-Zr1-C17=355.03          H9-C4-Zr1-C26=190.44          H9-C4-Zr1-C27=137.20          
Zr1-C4-C3-C7= 65.60           Zr1-C4-C3-H8=235.62           C5-C4-C3-Zr1=294.31           C5-C4-C3-C7=359.91            
C5-C4-C3-H8=169.93            H9-C4-C3-Zr1=123.86           H9-C4-C3-C7=189.46            H9-C4-C3-H8=359.48            
C4-C5-Zr1-C2=144.81           C4-C5-Zr1-C3=322.66           C4-C5-Zr1-C6=244.44           C4-C5-Zr1-C7=281.71           
C4-C5-Zr1-C13= 20.13          C4-C5-Zr1-C14=  0.72          C4-C5-Zr1-C15= 61.11          C4-C5-Zr1-C16= 81.79          
C4-C5-Zr1-C17= 55.11          C4-C5-Zr1-C26=225.79          C4-C5-Zr1-C27=189.79          C6-C5-Zr1-C2=260.37           
C6-C5-Zr1-C3= 78.22           C6-C5-Zr1-C4=115.56           C6-C5-Zr1-C7= 37.26           C6-C5-Zr1-C13=135.69          
C6-C5-Zr1-C14=116.28          C6-C5-Zr1-C15=176.66          C6-C5-Zr1-C16=197.35          C6-C5-Zr1-C17=170.66          
C6-C5-Zr1-C26=341.35          C6-C5-Zr1-C27=305.35          H10-C5-Zr1-C2= 22.70          H10-C5-Zr1-C3=200.55          
H10-C5-Zr1-C4=237.89          H10-C5-Zr1-C6=122.33          H10-C5-Zr1-C7=159.59          H10-C5-Zr1-C13=258.02         
H10-C5-Zr1-C14=238.60         H10-C5-Zr1-C15=298.99         H10-C5-Zr1-C16=319.68         H10-C5-Zr1-C17=292.99         
H10-C5-Zr1-C26=103.68         H10-C5-Zr1-C27= 67.68         Zr1-C5-C4-C3= 65.34           Zr1-C5-C4-H9=235.82           
C6-C5-C4-Zr1=294.75           C6-C5-C4-C3=  0.09            C6-C5-C4-H9=170.57            H10-C5-C4-Zr1=124.74          
H10-C5-C4-C3=190.08           H10-C5-C4-H9=  0.56           C5-C6-Zr1-C2= 75.73           C5-C6-Zr1-C3=281.87           
C5-C6-Zr1-C4=322.92           C5-C6-Zr1-C7=244.60           C5-C6-Zr1-C13=299.15          C5-C6-Zr1-C14=251.34          
C5-C6-Zr1-C15=184.58          C5-C6-Zr1-C16= 40.68          C5-C6-Zr1-C17=346.46          C5-C6-Zr1-C26=163.54          
C5-C6-Zr1-C27=129.04          C7-C6-Zr1-C2=191.13           C7-C6-Zr1-C3= 37.28           C7-C6-Zr1-C4= 78.32           
C7-C6-Zr1-C5=115.40           C7-C6-Zr1-C13= 54.55          C7-C6-Zr1-C14=  6.74          C7-C6-Zr1-C15=299.99          
C7-C6-Zr1-C16=156.09          C7-C6-Zr1-C17=101.87          C7-C6-Zr1-C26=278.95          C7-C6-Zr1-C27=244.44          
H11-C6-Zr1-C2=313.33          H11-C6-Zr1-C3=159.48          H11-C6-Zr1-C4=200.52          H11-C6-Zr1-C5=237.60          
H11-C6-Zr1-C7=122.20          H11-C6-Zr1-C13=176.75         H11-C6-Zr1-C14=128.94         H11-C6-Zr1-C15= 62.18         
H11-C6-Zr1-C16=278.28         H11-C6-Zr1-C17=224.06         H11-C6-Zr1-C26= 41.15         H11-C6-Zr1-C27=  6.64         
Zr1-C6-C5-C4= 65.15           Zr1-C6-C5-H10=235.15          C7-C6-C5-Zr1=294.79           C7-C6-C5-C4=359.94            
C7-C6-C5-H10=169.94           H11-C6-C5-Zr1=123.56          H11-C6-C5-C4=188.71           H11-C6-C5-H10=358.71          
C3-C7-Zr1-C2=127.91           C3-C7-Zr1-C4= 37.32           C3-C7-Zr1-C5= 78.13           C3-C7-Zr1-C6=115.23           
C3-C7-Zr1-C13=335.17          C3-C7-Zr1-C14=299.53          C3-C7-Zr1-C15=276.98          C3-C7-Zr1-C16=325.37          
C3-C7-Zr1-C17=  0.83          C3-C7-Zr1-C26=210.43          C3-C7-Zr1-C27=182.12          C6-C7-Zr1-C2= 12.68           
C6-C7-Zr1-C3=244.77           C6-C7-Zr1-C4=282.09           C6-C7-Zr1-C5=322.90           C6-C7-Zr1-C13=219.93          
C6-C7-Zr1-C14=184.29          C6-C7-Zr1-C15=161.74          C6-C7-Zr1-C16=210.14          C6-C7-Zr1-C17=245.60          
C6-C7-Zr1-C26= 95.20          C6-C7-Zr1-C27= 66.89          H12-C7-Zr1-C2=249.74          H12-C7-Zr1-C3=121.83          
H12-C7-Zr1-C4=159.15          H12-C7-Zr1-C5=199.96          H12-C7-Zr1-C6=237.06          H12-C7-Zr1-C13= 96.99         
H12-C7-Zr1-C14= 61.35         H12-C7-Zr1-C15= 38.80         H12-C7-Zr1-C16= 87.20         H12-C7-Zr1-C17=122.66         
H12-C7-Zr1-C26=332.26         H12-C7-Zr1-C27=303.95         Zr1-C7-C3-C4=294.34           Zr1-C7-C3-H8=124.25           
C6-C7-C3-Zr1= 65.71           C6-C7-C3-C4=  0.05            C6-C7-C3-H8=189.96            H12-C7-C3-Zr1=235.01          
H12-C7-C3-C4=169.36           H12-C7-C3-H8=359.26           Zr1-C7-C6-C5= 65.50           Zr1-C7-C6-H11=236.72          
C3-C7-C6-Zr1=294.51           C3-C7-C6-C5=  0.00            C3-C7-C6-H11=171.23           H12-C7-C6-Zr1=125.29          
H12-C7-C6-C5=190.79           H12-C7-C6-H11=  2.02          

 CMA Distance (Angstroems)
 ---------------------------
R(CMA):  2.7014
           -------------------------------------------------
          |                Final Singlepoint                |
           -------------------------------------------------

          ...................................................
          :                      SETUP                      :
          :.................................................:
          :  # basis functions                  79          :
          :  # atomic orbitals                  78          :
          :  # shells                           46          :
          :  # electrons                        72          :
          :  max. iterations                   250          :
          :  Hamiltonian                  GFN2-xTB          :
          :  restarted?                      false          :
          :  GBSA solvation                  false          :
          :  PC potential                    false          :
          :  electronic temp.          300.0000000     K    :
          :  accuracy                    1.0000000          :
          :  -> integral cutoff          0.2500000E+02      :
          :  -> integral neglect         0.1000000E-07      :
          :  -> SCF convergence          0.1000000E-05 Eh   :
          :  -> wf. convergence          0.1000000E-03 e    :
          :  Broyden damping             0.4000000          :
          ...................................................

 iter      E             dE          RMSdq      gap      omega  full diag
   1    -38.2737527 -0.382738E+02  0.153E-04    1.48       0.0  T
   2    -38.2737527 -0.116643E-09  0.948E-05    1.48     189.5  T
   3    -38.2737527 -0.747775E-10  0.711E-05    1.48     252.6  T

   *** convergence criteria satisfied after 3 iterations ***

         #    Occupation            Energy/Eh            Energy/eV
      -------------------------------------------------------------
         1        2.0000           -0.8743570             -23.7925
       ...           ...                  ...                  ...
        30        2.0000           -0.5851714             -15.9233
        31        2.0000           -0.5812341             -15.8162
        32        2.0000           -0.5228770             -14.2282
        33        2.0000           -0.5218223             -14.1995
        34        2.0000           -0.5113035             -13.9133
        35        2.0000           -0.5062189             -13.7749
        36        2.0000           -0.4879887             -13.2788 (HOMO)
        37                         -0.4335035             -11.7962 (LUMO)
        38                         -0.4091552             -11.1337
        39                         -0.4074437             -11.0871
        40                         -0.4035953             -10.9824
        41                         -0.3978677             -10.8265
       ...                                ...                  ...
        78                          2.4934080              67.8491
      -------------------------------------------------------------
                  HL-Gap            0.0544852 Eh            1.4826 eV
             Fermi-level           -0.4607461 Eh          -12.5375 eV

 SCC (total)                   0 d,  0 h,  0 min,  0.037 sec
 SCC setup                      ...        0 min,  0.003 sec (  7.268%)
 Dispersion                     ...        0 min,  0.000 sec (  1.335%)
 classical contributions        ...        0 min,  0.000 sec (  1.040%)
 integral evaluation            ...        0 min,  0.003 sec (  8.156%)
 iterations                     ...        0 min,  0.020 sec ( 54.608%)
 molecular gradient             ...        0 min,  0.010 sec ( 27.109%)
 printout                       ...        0 min,  0.000 sec (  0.426%)

         :::::::::::::::::::::::::::::::::::::::::::::::::::::
         ::                     SUMMARY                     ::
         :::::::::::::::::::::::::::::::::::::::::::::::::::::
         :: total energy             -37.634848362747 Eh    ::
         :: gradient norm              0.000200355910 Eh/a0 ::
         :: HOMO-LUMO gap              1.482617402521 eV    ::
         ::.................................................::
         :: SCC energy               -38.273752665941 Eh    ::
         :: -> isotropic ES            0.087407886943 Eh    ::
         :: -> anisotropic ES         -0.013678729087 Eh    ::
         :: -> anisotropic XC          0.021319461299 Eh    ::
         :: -> dispersion             -0.028082364807 Eh    ::
         :: repulsion energy           0.635711129937 Eh    ::
         :: add. restraining           0.002503536941 Eh    ::
         :: total charge               1.000000000000 e     ::
         :::::::::::::::::::::::::::::::::::::::::::::::::::::

           -------------------------------------------------
          |                Property Printout                |
           -------------------------------------------------

    * Orbital Energies and Occupations

         #    Occupation            Energy/Eh            Energy/eV
      -------------------------------------------------------------
         1        2.0000           -0.8743570             -23.7925
       ...           ...                  ...                  ...
        24        2.0000           -0.5948052             -16.1855
        25        2.0000           -0.5936239             -16.1533
        26        2.0000           -0.5914017             -16.0929
        27        2.0000           -0.5912469             -16.0886
        28        2.0000           -0.5906263             -16.0718
        29        2.0000           -0.5889322             -16.0257
        30        2.0000           -0.5851714             -15.9233
        31        2.0000           -0.5812341             -15.8162
        32        2.0000           -0.5228770             -14.2282
        33        2.0000           -0.5218223             -14.1995
        34        2.0000           -0.5113035             -13.9133
        35        2.0000           -0.5062189             -13.7749
        36        2.0000           -0.4879887             -13.2788 (HOMO)
        37                         -0.4335035             -11.7962 (LUMO)
        38                         -0.4091552             -11.1337
        39                         -0.4074437             -11.0871
        40                         -0.4035953             -10.9824
        41                         -0.3978677             -10.8265
        42                         -0.3727617             -10.1434
        43                         -0.3076960              -8.3728
        44                         -0.3065550              -8.3418
        45                         -0.3054545              -8.3118
        46                         -0.3044160              -8.2836
        47                         -0.0467383              -1.2718
       ...                                ...                  ...
        78                          2.4934080              67.8491
      -------------------------------------------------------------
                  HL-Gap            0.0544852 Eh            1.4826 eV
             Fermi-level           -0.4607461 Eh          -12.5375 eV

     #   Z          covCN         q      C6AA      α(0)
     1  40 Zr       9.880     0.960   138.584    17.689
     2   6 C        3.536    -0.246    26.867     7.605
     3   6 C        3.762    -0.087    22.211     6.718
     4   6 C        3.760    -0.088    22.232     6.722
     5   6 C        3.757    -0.088    22.228     6.722
     6   6 C        3.759    -0.091    22.282     6.729
     7   6 C        3.760    -0.089    22.243     6.723
     8   1 H        0.925     0.084     1.937     2.177
     9   1 H        0.925     0.082     1.956     2.187
    10   1 H        0.925     0.081     1.967     2.193
    11   1 H        0.925     0.082     1.955     2.186
    12   1 H        0.925     0.080     1.978     2.199
    13   6 C        3.764    -0.083    22.132     6.706
    14   6 C        3.762    -0.092    22.305     6.732
    15   6 C        3.753    -0.089    22.255     6.727
    16   6 C        3.751    -0.088    22.248     6.727
    17   6 C        3.763    -0.093    22.310     6.733
    18   1 H        0.925     0.086     1.920     2.167
    19   1 H        0.925     0.080     1.978     2.199
    20   1 H        0.925     0.078     1.995     2.209
    21   1 H        0.925     0.083     1.952     2.185
    22   1 H        0.925     0.079     1.994     2.208
    23   1 H        0.997     0.076     2.019     2.220
    24   1 H        0.925     0.070     2.086     2.259
    25   1 H        0.925     0.073     2.057     2.243
    26   6 C        3.625    -0.205    25.056     7.212
    27   6 C        3.680    -0.092    22.492     6.793
    28   1 H        0.925     0.117     1.639     2.002
    29   1 H        0.925     0.121     1.608     1.983
    30   1 H        0.930     0.101     1.778     2.085
    31   1 H        0.926     0.100     1.785     2.089

 Mol. C6AA /au·bohr⁶  :       9464.503707
 Mol. C8AA /au·bohr⁸  :     321332.304263
 Mol. α(0) /au        :        143.330256


Wiberg/Mayer (AO) data.
largest (>0.10) Wiberg bond orders for each atom

 ---------------------------------------------------------------------------
     #   Z sym  total        # sym  WBO       # sym  WBO       # sym  WBO
 ---------------------------------------------------------------------------
     1  40 Zr   4.325 --     2 C    0.507    26 C    0.476    27 C    0.257
                            14 C    0.253    17 C    0.247     3 C    0.245
                             7 C    0.244     4 C    0.241     6 C    0.239
                             5 C    0.237    13 C    0.236    16 C    0.231
                            15 C    0.230
     2   6 C    3.933 --    25 H    0.968    24 H    0.958    23 H    0.859
                             1 Zr   0.507    27 C    0.363    26 C    0.190
     3   6 C    3.980 --     7 C    1.303     4 C    1.297     8 H    0.922
                             1 Zr   0.245
     4   6 C    3.980 --     5 C    1.307     3 C    1.297     9 H    0.923
                             1 Zr   0.241
     5   6 C    3.980 --     4 C    1.307     6 C    1.305    10 H    0.924
                             1 Zr   0.237
     6   6 C    3.979 --     5 C    1.305     7 C    1.294    11 H    0.926
                             1 Zr   0.239
     7   6 C    3.980 --     3 C    1.303     6 C    1.294    12 H    0.923
                             1 Zr   0.244
     8   1 H    0.990 --     3 C    0.922
     9   1 H    0.991 --     4 C    0.923
    10   1 H    0.991 --     5 C    0.924
    11   1 H    0.990 --     6 C    0.926
    12   1 H    0.991 --     7 C    0.923
    13   6 C    3.981 --    17 C    1.305    14 C    1.304    18 H    0.924
                             1 Zr   0.236
    14   6 C    3.979 --    13 C    1.304    15 C    1.289    19 H    0.920
                             1 Zr   0.253
    15   6 C    3.979 --    16 C    1.320    14 C    1.289    20 H    0.929
                             1 Zr   0.230
    16   6 C    3.980 --    15 C    1.320    17 C    1.293    21 H    0.927
                             1 Zr   0.231
    17   6 C    3.979 --    13 C    1.305    16 C    1.293    22 H    0.921
                             1 Zr   0.247
    18   1 H    0.990 --    13 C    0.924
    19   1 H    0.991 --    14 C    0.920
    20   1 H    0.991 --    15 C    0.929
    21   1 H    0.991 --    16 C    0.927
    22   1 H    0.992 --    17 C    0.921
    23   1 H    0.994 --     2 C    0.859
    24   1 H    0.993 --     2 C    0.958
    25   1 H    0.993 --     2 C    0.968
    26   6 C    3.930 --    27 C    1.371    31 H    0.907    30 H    0.894
                             1 Zr   0.476     2 C    0.190
    27   6 C    3.984 --    26 C    1.371    29 H    0.933    28 H    0.927
                             2 C    0.363     1 Zr   0.257
    28   1 H    0.985 --    27 C    0.927
    29   1 H    0.984 --    27 C    0.933
    30   1 H    0.989 --    26 C    0.894
    31   1 H    0.989 --    26 C    0.907
 ---------------------------------------------------------------------------

Topologies differ in total number of bonds
Writing topology from bond orders to xtbtopo.mol

molecular dipole:
                 x           y           z       tot (Debye)
 q only:       -3.063       0.210       0.467
   full:       -2.810       0.171       0.531       7.282
molecular quadrupole (traceless):
                xx          xy          yy          xz          yz          zz
 q only:       12.192      -2.176      -7.796      -0.833      -3.510      -4.397
  q+dip:       11.783      -1.139      -9.621      -2.353      -7.003      -2.161
   full:       11.614      -0.737      -8.824      -3.090      -5.504      -2.790

           -------------------------------------------------
          |                Geometry Summary                 |
           -------------------------------------------------

      molecular mass/u    :      264.4982010
   center of mass at/Å    :       -1.1841952      -0.0659964       0.5083648
  moments of inertia/u·Å² :        0.5799686E+03   0.7331843E+03   0.8970405E+03
rotational constants/cm⁻¹ :        0.2906646E-01   0.2299235E-01   0.1879250E-01

 * 40 selected distances

     #   Z          #   Z                                           value/Å
     1  40 Zr       3   6 C                                       2.4472663
     1  40 Zr       4   6 C                                       2.4521487
     3   6 C        4   6 C                                       1.4190140
     1  40 Zr       5   6 C                                       2.4588190
     4   6 C        5   6 C                                       1.4153283
     1  40 Zr       6   6 C                                       2.4559953
     5   6 C        6   6 C                                       1.4162130
     1  40 Zr       7   6 C                                       2.4492214
     3   6 C        7   6 C                                       1.4155941
     6   6 C        7   6 C                                       1.4191688
     3   6 C        8   1 H                                       1.0846263
     4   6 C        9   1 H                                       1.0848348
     5   6 C       10   1 H                                       1.0842374
     6   6 C       11   1 H                                       1.0836349
     7   6 C       12   1 H                                       1.0843985
     1  40 Zr      13   6 C                                       2.4481987
     1  40 Zr      14   6 C                                       2.4399562
    13   6 C       14   6 C                                       1.4168527
     1  40 Zr      15   6 C                                       2.4750303 (max)
    14   6 C       15   6 C                                       1.4199610
     1  40 Zr      16   6 C                                       2.4735648
    15   6 C       16   6 C                                       1.4120340
     1  40 Zr      17   6 C                                       2.4439635
    13   6 C       17   6 C                                       1.4168589
    16   6 C       17   6 C                                       1.4186813
    13   6 C       18   1 H                                       1.0838287
    14   6 C       19   1 H                                       1.0856848
    15   6 C       20   1 H                                       1.0831487 (min)
    16   6 C       21   1 H                                       1.0832510
    17   6 C       22   1 H                                       1.0856190
     2   6 C       23   1 H                                       1.1097416
     2   6 C       24   1 H                                       1.0877794
     2   6 C       25   1 H                                       1.0841987
     1  40 Zr      26   6 C                                       2.2974516
     1  40 Zr      27   6 C                                       2.4335273
    26   6 C       27   6 C                                       1.4078253
    27   6 C       28   1 H                                       1.0898999
    27   6 C       29   1 H                                       1.0873872
    26   6 C       30   1 H                                       1.0904356
    26   6 C       31   1 H                                       1.0897330

 * 3 distinct bonds (by element types)

   Z      Z             #   av. dist./Å        max./Å        min./Å
   1 H    6 C          17     1.0872023     1.1097416     1.0831487
   6 C    6 C          11     1.4161392     1.4199610     1.4078253
   6 C   40 Zr         12     2.4395952     2.4750303     2.2974516


optimized geometry written to: xtbopt.xyz


           -------------------------------------------------
          | TOTAL ENERGY              -37.634848362747 Eh   |
          | GRADIENT NORM               0.000200355910 Eh/α |
          | HOMO-LUMO GAP               1.482617402521 eV   |
           -------------------------------------------------

------------------------------------------------------------------------
 * finished run on 2026/08/16 at 16:01:06.619     
------------------------------------------------------------------------
 total:
 * wall-time:     0 d,  0 h,  0 min, 40.603 sec
 *  cpu-time:     0 d,  0 h,  2 min, 15.900 sec
 * ratio c/w:     3.347 speedup
 SCF:
 * wall-time:     0 d,  0 h,  0 min,  1.411 sec
 *  cpu-time:     0 d,  0 h,  0 min,  3.619 sec
 * ratio c/w:     2.565 speedup
 ANC optimizer:
 * wall-time:     0 d,  0 h,  0 min, 39.084 sec
 *  cpu-time:     0 d,  0 h,  2 min, 12.029 sec
 * ratio c/w:     3.378 speedup

