31
 energy: -37.634848362747 gnorm: 0.000200355910 xtb: 6.5.1 (b24c23e)
Zr          -1.27813795506952       -0.03563197577367        0.45522444261881
C           -1.17309590442462        1.29878746549787       -1.76309109121698
C           -0.58401110404492       -2.28267909953762        1.13203919679210
C            0.43445308540233       -1.78189862435832        0.28024706027227
C           -0.11541097830717       -1.62723043095264       -1.01469731917819
C           -1.47257238967184       -2.02900634553147       -0.96624164154932
C           -1.76237592763274       -2.43471372293085        0.36246269677483
H           -0.44386317867192       -2.65112337728872        2.14249516425917
H            1.48591787141769       -1.69521325424231        0.53278168898530
H            0.44706144368170       -1.41139723009058       -1.91614694749730
H           -2.12557861386074       -2.15237301474330       -1.82217856268465
H           -2.66024909985630       -2.94774413815343        0.68887254778149
C            0.04302698220793        0.39785301712890        2.47024044916501
C           -1.30345058249566        0.71491603518228        2.77673736742140
C           -1.66421545584523        1.85282860303391        2.00778186185847
C           -0.55969628701347        2.20981751925843        1.20376942604145
C            0.49493425189501        1.30092459367019        1.47639427329214
H            0.66462369884122       -0.30729060658076        3.00975351847159
H           -1.88263671869677        0.29099272120068        3.59131932722565
H           -2.56255981842498        2.44460143765448        2.13424642999711
H           -0.47857432676163        3.11392269038851        0.61263028818089
H            1.51968894075936        1.40008815440317        1.13199205283669
H           -0.11014319248188        1.23275476865449       -1.45116581845111
H           -1.32465730017492        0.72342286932519       -2.67372190719792
H           -1.42603145055347        2.33756395697588       -1.94324004368863
C           -3.56729805334026        0.09133683268735        0.30721119444623
C           -3.16052330806829        0.88866965402526       -0.77941951713473
H           -3.29016394661357        1.96389846479166       -0.65711709603356
H           -3.45493273204702        0.54003983470462       -1.76643069800939
H           -3.92401116695453        0.58053630886788        1.21412313603897
H           -4.03028045317305       -0.86895378727770        0.08136384019178
