59
Properties=species:S:1:pos:R:3 pbc="F F F"
C       -2.54206100      -0.33283500      -0.74455900
C       -1.88022400       0.31617800       0.48178700
C       -0.37968900       0.01165100       0.54627700
N        0.32279700       0.65861200      -0.57096100
C        1.69068600       0.14509600      -0.74380500
C        2.63444700       0.58983300       0.39055100
C        4.10114900       0.25849200       0.09027300
N        4.32544300      -1.18495100       0.11061100
C       -4.02351700       0.05641700      -0.89069300
N       -4.86091600      -0.51718400       0.16268900
H       -2.44792800      -1.43910800      -0.68391600
H       -2.01245800      -0.00076500      -1.66377400
H       -2.34964900      -0.07760600       1.40817300
H       -2.03194700       1.41763600       0.45827300
H       -0.23507300      -1.09177400       0.52112100
H        0.01277500       0.39323900       1.51454300
H        0.35759400       1.69175400      -0.40262000
H        2.08062100       0.53149200      -1.71024700
H        1.67405900      -0.96391100      -0.82177900
H        2.34384800       0.09998200       1.34442000
H        2.54899400       1.68966600       0.52779300
H        4.73188500       0.73373000       0.87370800
H        4.40426200       0.68389400      -0.89279700
C        3.85231990      -1.74501475      -1.16350953
H        5.35850200      -1.34606500       0.13076200
H       -4.13041700       1.16324700      -0.89163900
H       -4.39152400      -0.31248800      -1.87211900
C       -4.54745811       0.13572150       1.44189131
H       -4.65246600      -1.53783300       0.25618900
C        2.79487337       0.04528645      -4.29750792
C        3.03343129      -1.25005055      -3.50657997
C        4.08718799      -2.09711116      -4.24547206
C        1.70184858      -2.01705344      -3.39489838
O        3.50986316      -0.87226854      -2.20603734
O        3.76491353      -2.99459338      -1.29103457
H        2.04607738       0.68149631      -3.77817138
H        2.42233433      -0.17500350      -5.32152138
H        3.73951714       0.62466080      -4.38202282
H        5.06455328      -1.56879213      -4.25638168
H        4.22892364      -3.08278734      -3.75735311
H        3.77286936      -2.28302271      -5.29529037
H        0.97125983      -1.43141024      -2.79677705
H        1.84223473      -3.00268478      -2.90629771
H        1.27005983      -2.19901977      -4.40282844
C       -4.85821935       3.76017024       2.39693908
C       -4.49174348       2.30800973       2.73943012
C       -5.37181295       1.83641337       3.91286566
C       -3.00033408       2.24826049       3.12153842
O       -4.74549359       1.51801955       1.56783116
O       -4.10851872      -0.55939876       2.39556279
H       -4.24482488       4.12132414       1.54342636
H       -4.68477519       4.43135459       3.26604509
H       -5.92842421       3.82893776       2.10521686
H       -6.43918993       1.81116832       3.60537255
H       -5.08273943       0.82124433       4.25312285
H       -5.26870799       2.52447009       4.77971345
H       -2.36968133       2.51790621       2.24743584
H       -2.70991863       1.23332382       3.46134786
H       -2.78044234       2.95660086       3.94941389
