29

C     -2.542061   -0.332835   -0.744559
C     -1.880224    0.316178    0.481787
C     -0.379689    0.011651    0.546277
N      0.322797    0.658612   -0.570961
C      1.690686    0.145096   -0.743805
C      2.634447    0.589833    0.390551
C      4.101149    0.258492    0.090273
N      4.325443   -1.184951    0.110611
C     -4.023517    0.056417   -0.890693
N     -4.860916   -0.517184    0.162689
H     -2.447928   -1.439108   -0.683916
H     -2.012458   -0.000765   -1.663774
H     -2.349649   -0.077606    1.408173
H     -2.031947    1.417636    0.458273
H     -0.235073   -1.091774    0.521121
H      0.012775    0.393239    1.514543
H      0.357594    1.691754   -0.402620
H      2.080621    0.531492   -1.710247
H      1.674059   -0.963911   -0.821779
H      2.343848    0.099982    1.344420
H      2.548994    1.689666    0.527793
H      4.731885    0.733730    0.873708
H      4.404262    0.683894   -0.892797
H      3.988899   -1.583338   -0.795702
H      5.358502   -1.346065    0.130762
H     -4.130417    1.163247   -0.891639
H     -4.391524   -0.312488   -1.872119
H     -4.638092   -0.053061    1.072020
H     -4.652466   -1.537833    0.256189
