31
 energy: -37.701401365770 gnorm: 0.000184270106 xtb: 6.5.1 (b24c23e)
Zr          -1.21557977070831       -0.24354205234830        0.70335698913726
C           -2.70972029034751        0.98340960716389       -1.41252602110926
C            0.16015455515679       -2.26417686355362        0.94305018951036
C            0.82338005635239       -1.46041994876908       -0.01509511537663
C           -0.01981719850305       -1.33109736235706       -1.14521614047867
C           -1.19992637265909       -2.07701437845195       -0.89503735070082
C           -1.09589707082954       -2.64348257797803        0.40514405511710
H            0.59542519345288       -2.65071846450989        1.85867827253195
H            1.85399549115676       -1.12919657403096        0.04124501381549
H            0.26857523271256       -0.90563594190689       -2.10183035854329
H           -1.96586991684361       -2.31779355924097       -1.62277440287106
H           -1.77136678828189       -3.38035776926094        0.82777883812257
C           -0.74658195581003        0.44349214437744        2.98900751869760
C           -1.64922842358545        1.39767139406476        2.44337502082991
C           -0.97739862975609        2.08964049570786        1.40297134997696
C            0.33919318354231        1.56993121929728        1.30939334694596
C            0.48665806472452        0.57626863572189        2.30661026932552
H           -0.91430873405863       -0.13960692890013        3.88975421323674
H           -2.60917025916355        1.66843213841670        2.86650479233980
H           -1.34260670837397        2.97821508331225        0.89880723134179
H            1.14264205132764        1.99058040328214        0.71238805032031
H            1.41680000618654        0.09605923098663        2.58679499223648
H           -1.65174519482130        1.08415918319810       -1.04847745136200
H           -2.79211679629026        0.11168733275338       -2.07125538469582
H           -2.93639082731348        1.86733913040138       -2.01259219446893
C           -3.40230572731258       -0.36377848230755        0.63177451138045
C           -3.71242586034232        0.86587045885700       -0.24903056421218
H           -3.68336642894393        1.78616315958005        0.35181270271228
H           -4.71948919274508        0.80113058241322       -0.68142319457440
H           -3.95772775104993       -0.27570071095289        1.58102160507449
H           -3.79886429686669       -1.25799363494351        0.11887353572896
