31
 energy: -37.660915560743 gnorm: 0.000831996348 xtb: 6.5.1 (b24c23e)
Zr          -1.19994915905158       -0.05095834247230        0.39339723814613
C           -1.25091565198307        1.09592119615225       -1.49052830225002
C            0.23823375041064       -2.01171457535816        0.97121013600851
C            0.56349952938925       -1.59911630050323       -0.34120761577424
C           -0.56501463948333       -1.84790864821991       -1.16704935662833
C           -1.59237405858987       -2.38186860696936       -0.35208250636523
C           -1.10178248845093       -2.46285026390184        0.97684754436529
H            0.93621354959728       -2.09686846560932        1.79494122103629
H            1.54959684303815       -1.31050773134970       -0.69070408876674
H           -0.57659848235131       -1.80030585587244       -2.24890213629849
H           -2.49668686586765       -2.85306975998775       -0.71714009924791
H           -1.59241987736063       -2.97012403787935        1.80126661289532
C           -0.57338279692581        0.28349103022974        2.78920770764038
C           -1.77123557127242        0.99614995833265        2.55668517720770
C           -1.48657111662098        2.04042188300859        1.63816768860387
C           -0.11199449987219        1.95627224694105        1.29371317224577
C            0.44965968836319        0.87095644100451        2.00659477425634
H           -0.43260055083431       -0.47384870454204        3.55162601003069
H           -2.68160982403518        0.88539361635729        3.13632072452725
H           -2.13834053663410        2.86791883125682        1.38587338327073
H            0.44127365872954        2.69194978120594        0.72092841753261
H            1.50674875987945        0.63496043568626        2.05897315103241
H           -0.23025151226480        1.16382680383506       -1.90870752441298
H           -1.87503494316456        0.63397004720997       -2.27235353368101
H           -1.60442430113631        2.13238190327351       -1.37947152533649
C           -3.89139542965947       -0.41221290896649        0.12770106351332
C           -4.04140839131131        0.90650310339133        0.26062329952692
H           -4.28177151246883        1.36173296794056        1.21413406426398
H           -4.06805959468102        1.55906003006419       -0.60531464996881
H           -4.04221407593165       -1.08424109624548        0.97464511343208
H           -3.86427025945766       -0.85578002801081       -0.86631084080622
