      -----------------------------------------------------------      
     |                   =====================                   |     
     |                           x T B                           |     
     |                   =====================                   |     
     |                         S. Grimme                         |     
     |          Mulliken Center for Theoretical Chemistry        |     
     |                    University of Bonn                     |     
      -----------------------------------------------------------      

   * xtb version 6.5.1 (b24c23e) compiled by 'conda@728c89f4b128' on 2022-07-12

   xtb is free software: you can redistribute it and/or modify it under
   the terms of the GNU Lesser General Public License as published by
   the Free Software Foundation, either version 3 of the License, or
   (at your option) any later version.
   
   xtb is distributed in the hope that it will be useful,
   but WITHOUT ANY WARRANTY; without even the implied warranty of
   MERCHANTABILITY or FITNESS FOR A PARTICULAR PURPOSE.  See the
   GNU Lesser General Public License for more details.
   
   Cite this work as:
   * C. Bannwarth, E. Caldeweyher, S. Ehlert, A. Hansen, P. Pracht,
     J. Seibert, S. Spicher, S. Grimme, WIREs Comput. Mol. Sci., 2020, 11,
     e01493. DOI: 10.1002/wcms.1493
   
   for GFN2-xTB:
   * C. Bannwarth, S. Ehlert and S. Grimme., J. Chem. Theory Comput., 2019,
     15, 1652-1671. DOI: 10.1021/acs.jctc.8b01176
   for GFN1-xTB:
   * S. Grimme, C. Bannwarth, P. Shushkov, J. Chem. Theory Comput., 2017,
     13, 1989-2009. DOI: 10.1021/acs.jctc.7b00118
   for GFN0-xTB:
   * P. Pracht, E. Caldeweyher, S. Ehlert, S. Grimme, ChemRxiv, 2019, preprint.
     DOI: 10.26434/chemrxiv.8326202.v1
   for GFN-FF:
   * S. Spicher and S. Grimme, Angew. Chem. Int. Ed., 2020, 59, 15665-15673.
     DOI: 10.1002/anie.202004239
   
   for ALPB and GBSA implicit solvation:
   * S. Ehlert, M. Stahn, S. Spicher, S. Grimme, J. Chem. Theory Comput.,
     2021, 17, 4250-4261. DOI: 10.1021/acs.jctc.1c00471
   
   for DFT-D4:
   * E. Caldeweyher, C. Bannwarth and S. Grimme, J. Chem. Phys., 2017,
     147, 034112. DOI: 10.1063/1.4993215
   * E. Caldeweyher, S. Ehlert, A. Hansen, H. Neugebauer, S. Spicher,
     C. Bannwarth and S. Grimme, J. Chem. Phys., 2019, 150, 154122.
     DOI: 10.1063/1.5090222
   * E. Caldeweyher, J.-M. Mewes, S. Ehlert and S. Grimme, Phys. Chem. Chem. Phys.
     2020, 22, 8499-8512. DOI: 10.1039/D0CP00502A
   
   for sTDA-xTB:
   * S. Grimme and C. Bannwarth, J. Chem. Phys., 2016, 145, 054103.
     DOI: 10.1063/1.4959605
   
   in the mass-spec context:
   * V. Asgeirsson, C. Bauer and S. Grimme, Chem. Sci., 2017, 8, 4879.
     DOI: 10.1039/c7sc00601b
   * J. Koopman and S. Grimme, ACS Omega 2019, 4, 12, 15120-15133.
     DOI: 10.1021/acsomega.9b02011
   
   for metadynamics refer to:
   * S. Grimme, J. Chem. Theory Comput., 2019, 155, 2847-2862
     DOI: 10.1021/acs.jctc.9b00143
   
   for SPH calculations refer to:
   * S. Spicher and S. Grimme, J. Chem. Theory Comput., 2021, 17, 1701-1714
     DOI: 10.1021/acs.jctc.0c01306
   
   with help from (in alphabetical order)
   P. Atkinson, C. Bannwarth, F. Bohle, G. Brandenburg, E. Caldeweyher
   M. Checinski, S. Dohm, S. Ehlert, S. Ehrlich, I. Gerasimov, C. Hölzer
   A. Katbashev, J. Koopman, C. Lavigne, S. Lehtola, F. März, M. Müller,
   F. Musil, H. Neugebauer, J. Pisarek, C. Plett, P. Pracht, F. Pultar,
   J. Seibert, P. Shushkov, S. Spicher, M. Stahn, M. Steiner, T. Strunk,
   J. Stückrath, T. Rose, and J. Unsleber
   
 * started run on 2026/08/03 at 12:16:31.651     

           -------------------------------------------------
          |                Calculation Setup                |
           -------------------------------------------------

          program call               : /h/332/chchoi/miniconda3/envs/el-agente/bin/xtb reactant_raw.xyz --opt --gfn 2 -P 4 --chrg 1 --uhf 0 --input detailed_input.inp
          coordinate file            : reactant_raw.xyz
          omp threads                :                     4

   ID    Z sym.   atoms
    1   40 Zr     1
    2    6 C      2-7, 13-17, 26, 27
    3    1 H      8-12, 18-25, 28-31
constraining bond 2 27 to    3.3000000 Å, actual value:    3.9015773 Å

molecular fragmentation (1/2 indicates fragments):
1111111111111111111111111222222
# atoms in fragment 1/2:    25     6
 fragment masses (1/2) :      236.44       28.05
CMA distance (Bohr)    :   5.713
constraining FC (au)   :  0.5000

           -------------------------------------------------
          |                 G F N 2 - x T B                 |
           -------------------------------------------------

        Reference                      10.1021/acs.jctc.8b01176
      * Hamiltonian:
        H0-scaling (s, p, d)           1.850000    2.230000    2.230000
        zeta-weighting                 0.500000
      * Dispersion:
        s8                             2.700000
        a1                             0.520000
        a2                             5.000000
        s9                             5.000000
      * Repulsion:
        kExp                           1.500000    1.000000
        rExp                           1.000000
      * Coulomb:
        alpha                          2.000000
        third order                    shell-resolved
        anisotropic                    true
        a3                             3.000000
        a5                             4.000000
        cn-shift                       1.200000
        cn-exp                         4.000000
        max-rad                        5.000000


          ...................................................
          :                      SETUP                      :
          :.................................................:
          :  # basis functions                  79          :
          :  # atomic orbitals                  78          :
          :  # shells                           46          :
          :  # electrons                        72          :
          :  max. iterations                   250          :
          :  Hamiltonian                  GFN2-xTB          :
          :  restarted?                      false          :
          :  GBSA solvation                  false          :
          :  PC potential                    false          :
          :  electronic temp.          300.0000000     K    :
          :  accuracy                    1.0000000          :
          :  -> integral cutoff          0.2500000E+02      :
          :  -> integral neglect         0.1000000E-07      :
          :  -> SCF convergence          0.1000000E-05 Eh   :
          :  -> wf. convergence          0.1000000E-03 e    :
          :  Broyden damping             0.4000000          :
          ...................................................

 iter      E             dE          RMSdq      gap      omega  full diag
   1    -37.9358315 -0.379358E+02  0.428E+00    0.51       0.0  T
   2    -38.0423316 -0.106500E+00  0.369E+00    1.54       1.0  T
   3    -38.0982795 -0.559479E-01  0.295E+00    0.88       1.0  T
   4    -38.0959865  0.229300E-02  0.138E+00    0.94       1.0  T
   5    -38.0918736  0.411285E-02  0.808E-01    0.68       1.0  T
   6    -38.0992658 -0.739216E-02  0.397E-01    0.91       1.0  T
   7    -38.1004409 -0.117516E-02  0.248E-01    0.84       1.0  T
   8    -38.1004833 -0.423793E-04  0.144E-01    0.83       1.0  T
   9    -38.1004655  0.178148E-04  0.680E-02    0.87       1.0  T
  10    -38.1005093 -0.437925E-04  0.358E-02    0.86       1.0  T
  11    -38.1005263 -0.169736E-04  0.151E-02    0.85       1.2  T
  12    -38.1005272 -0.933394E-06  0.398E-03    0.85       4.5  T
  13    -38.1005273 -0.681398E-07  0.181E-03    0.85       9.9  T
  14    -38.1005273 -0.262446E-07  0.122E-03    0.85      14.8  T
  15    -38.1005273 -0.145466E-07  0.493E-04    0.85      36.4  T
  16    -38.1005273 -0.624851E-10  0.227E-04    0.85      79.0  T

   *** convergence criteria satisfied after 16 iterations ***

         #    Occupation            Energy/Eh            Energy/eV
      -------------------------------------------------------------
         1        2.0000           -0.8628382             -23.4790
       ...           ...                  ...                  ...
        30        2.0000           -0.5740484             -15.6207
        31        2.0000           -0.5511875             -14.9986
        32        2.0000           -0.5101738             -13.8825
        33        2.0000           -0.5045726             -13.7301
        34        2.0000           -0.4941790             -13.4473
        35        2.0000           -0.4918471             -13.3838
        36        2.0000           -0.4836941             -13.1620 (HOMO)
        37        0.0000           -0.4525088             -12.3134 (LUMO)
        38                         -0.4374614             -11.9039
        39                         -0.4348634             -11.8332
        40                         -0.4310524             -11.7295
        41                         -0.4230109             -11.5107
       ...                                ...                  ...
        78                          1.3654739              37.1564
      -------------------------------------------------------------
                  HL-Gap            0.0311853 Eh            0.8486 eV
             Fermi-level           -0.4681013 Eh          -12.7377 eV

 SCC (total)                   0 d,  0 h,  0 min,  0.650 sec
 SCC setup                      ...        0 min,  0.014 sec (  2.189%)
 Dispersion                     ...        0 min,  0.021 sec (  3.187%)
 classical contributions        ...        0 min,  0.012 sec (  1.892%)
 integral evaluation            ...        0 min,  0.037 sec (  5.718%)
 iterations                     ...        0 min,  0.558 sec ( 85.784%)
 molecular gradient             ...        0 min,  0.008 sec (  1.178%)
 printout                       ...        0 min,  0.000 sec (  0.047%)

         :::::::::::::::::::::::::::::::::::::::::::::::::::::
         ::                     SUMMARY                     ::
         :::::::::::::::::::::::::::::::::::::::::::::::::::::
         :: total energy             -36.892179456625 Eh    ::
         :: gradient norm              1.650052356888 Eh/a0 ::
         :: HOMO-LUMO gap              0.848595247981 eV    ::
         ::.................................................::
         :: SCC energy               -38.100527322913 Eh    ::
         :: -> isotropic ES            0.097833142149 Eh    ::
         :: -> anisotropic ES         -0.000863661912 Eh    ::
         :: -> anisotropic XC          0.021668513651 Eh    ::
         :: -> dispersion             -0.027679947800 Eh    ::
         :: repulsion energy           0.561366578861 Eh    ::
         :: add. restraining           0.646175557881 Eh    ::
         :: total charge               1.000000000030 e     ::
         :::::::::::::::::::::::::::::::::::::::::::::::::::::

      ----------------------------------------------------------- 
     |                   =====================                   |
     |                        A N C O P T                        |
     |                   =====================                   |
     |               Approximate Normal Coordinate               |
     |                Rational Function Optimizer                |
      ----------------------------------------------------------- 

          ...................................................
          :                      SETUP                      :
          :.................................................:
          :   optimization level            normal          :
          :   max. optcycles                   200          :
          :   ANC micro-cycles                  20          :
          :   degrees of freedom                87          :
          :.................................................:
          :   RF solver                   davidson          :
          :   write xtbopt.log                true          :
          :   linear?                        false          :
          :   energy convergence         0.5000000E-05 Eh   :
          :   grad. convergence          0.1000000E-02 Eh/α :
          :   maximium RF displ.         1.0000000          :
          :   Hlow (freq-cutoff)         0.1000000E-01      :
          :   Hmax (freq-cutoff)         5.0000000          :
          :   S6 in model hess.         20.0000000          :
          ...................................................

generating ANC from model Hessian ...
Using Lindh-Hessian (1995)
 Shifting diagonal of input Hessian by    1.3642019380475896E-002
 Lowest  eigenvalues of input Hessian
    0.010000    0.000000    0.000000    0.000000    0.000000    0.000000
    0.000000    0.013931    0.014014    0.014215    0.014231    0.014353
    0.014652    0.014769    0.014923    0.015287    0.015484    0.017058
 Highest eigenvalues
    1.495466    1.495602    1.495678    1.495862    1.967993    2.556351


........................................................................
.............................. CYCLE    1 ..............................
........................................................................
   1    -38.1005273 -0.381005E+02  0.131E-04    0.85       0.0  T
   2    -38.1005273  0.684963E-11  0.133E-04    0.85     134.9  T
   3    -38.1005273 -0.170367E-09  0.612E-05    0.85     293.7  T
     SCC iter.                  ...        0 min,  0.107 sec
     gradient                   ...        0 min,  0.021 sec
 * total energy  :   -36.8921795 Eh     change       -0.3488410E-09 Eh
   gradient norm :     1.6500524 Eh/α   predicted     0.0000000E+00 (-100.00%)
   displ. norm   :     0.5580384 α      lambda       -0.8775987E+00
   maximum displ.:     0.4532039 α      in ANC's #87, #72, #62, ...

........................................................................
.............................. CYCLE    2 ..............................
........................................................................
   1    -38.1144305 -0.381144E+02  0.830E-01    0.67       0.0  T
   2    -38.1153596 -0.929031E-03  0.455E-01    0.74       1.0  T
   3    -38.1149344  0.425137E-03  0.420E-01    0.73       1.0  T
   4    -38.1160725 -0.113811E-02  0.160E-01    0.71       1.0  T
   5    -38.1161876 -0.115025E-03  0.957E-02    0.72       1.0  T
   6    -38.1161925 -0.489321E-05  0.473E-02    0.73       1.0  T
   7    -38.1162077 -0.152683E-04  0.204E-02    0.72       1.0  T
   8    -38.1162058  0.193601E-05  0.174E-02    0.73       1.0  T
   9    -38.1162085 -0.266877E-05  0.535E-03    0.72       3.4  T
  10    -38.1162087 -0.197016E-06  0.244E-03    0.72       7.4  T
  11    -38.1162087 -0.424922E-07  0.107E-03    0.72      16.9  T
  12    -38.1162087 -0.125922E-07  0.530E-04    0.72      33.9  T
  13    -38.1162087 -0.189600E-08  0.189E-04    0.72      95.2  T
     SCC iter.                  ...        0 min,  0.388 sec
     gradient                   ...        0 min,  0.023 sec
 * total energy  :   -37.4817453 Eh     change       -0.5895659E+00 Eh
   gradient norm :     0.5322141 Eh/α   predicted    -0.5754469E+00 (  -2.39%)
   displ. norm   :     0.5379806 α      lambda       -0.1835050E+00
   maximum displ.:     0.2661363 α      in ANC's #23, #28, #56, ...

........................................................................
.............................. CYCLE    3 ..............................
........................................................................
   1    -38.1834850 -0.381835E+02  0.767E-01    0.94       0.0  T
   2    -38.1838931 -0.408147E-03  0.502E-01    0.96       1.0  T
   3    -38.1834110  0.482087E-03  0.290E-01    1.01       1.0  T
   4    -38.1840660 -0.654962E-03  0.106E-01    0.95       1.0  T
   5    -38.1841428 -0.767725E-04  0.856E-02    0.98       1.0  T
   6    -38.1841590 -0.162006E-04  0.379E-02    0.97       1.0  T
   7    -38.1841749 -0.159632E-04  0.163E-02    0.96       1.1  T
   8    -38.1841753 -0.393140E-06  0.931E-03    0.96       1.9  T
   9    -38.1841761 -0.770837E-06  0.369E-03    0.96       4.9  T
  10    -38.1841761 -0.532082E-07  0.234E-03    0.96       7.7  T
  11    -38.1841762 -0.344652E-07  0.530E-04    0.96      33.9  T
  12    -38.1841762 -0.515861E-08  0.209E-04    0.96      85.8  T
     SCC iter.                  ...        0 min,  0.430 sec
     gradient                   ...        0 min,  0.101 sec
 * total energy  :   -37.5957731 Eh     change       -0.1140277E+00 Eh
   gradient norm :     0.0886693 Eh/α   predicted    -0.1184252E+00 (   3.86%)
   displ. norm   :     0.7046390 α      lambda       -0.5149510E-01
   maximum displ.:     0.4667295 α      in ANC's #23, #28, #25, ...

........................................................................
.............................. CYCLE    4 ..............................
........................................................................
   1    -38.2539936 -0.382540E+02  0.807E-01    1.62       0.0  T
   2    -38.2546098 -0.616175E-03  0.573E-01    1.57       1.0  T
   3    -38.2544138  0.195989E-03  0.340E-01    1.63       1.0  T
   4    -38.2547555 -0.341706E-03  0.157E-01    1.61       1.0  T
   5    -38.2550331 -0.277571E-03  0.989E-02    1.60       1.0  T
   6    -38.2550456 -0.125512E-04  0.432E-02    1.62       1.0  T
   7    -38.2550647 -0.190921E-04  0.172E-02    1.61       1.0  T
   8    -38.2550652 -0.519913E-06  0.871E-03    1.61       2.1  T
   9    -38.2550657 -0.491577E-06  0.335E-03    1.61       5.4  T
  10    -38.2550658 -0.384680E-07  0.172E-03    1.61      10.5  T
  11    -38.2550658 -0.422015E-08  0.553E-04    1.61      32.5  T
  12    -38.2550658 -0.154636E-08  0.217E-04    1.61      82.6  T
     SCC iter.                  ...        0 min,  0.374 sec
     gradient                   ...        0 min,  0.015 sec
 * total energy  :   -37.6278561 Eh     change       -0.3208300E-01 Eh
   gradient norm :     0.0579309 Eh/α   predicted    -0.3853129E-01 (  20.10%)
   displ. norm   :     0.6552014 α      lambda       -0.2334826E-01
   maximum displ.:     0.2682422 α      in ANC's #15, #26, #28, ...

........................................................................
.............................. CYCLE    5 ..............................
........................................................................
   1    -38.2962038 -0.382962E+02  0.525E-01    1.69       0.0  T
   2    -38.2967232 -0.519418E-03  0.436E-01    1.61       1.0  T
   3    -38.2967900 -0.667912E-04  0.263E-01    1.60       1.0  T
   4    -38.2967321  0.579498E-04  0.105E-01    1.60       1.0  T
   5    -38.2969229 -0.190819E-03  0.743E-02    1.59       1.0  T
   6    -38.2969281 -0.525132E-05  0.223E-02    1.61       1.0  T
   7    -38.2969302 -0.204796E-05  0.125E-02    1.61       1.4  T
   8    -38.2969305 -0.268918E-06  0.577E-03    1.60       3.1  T
   9    -38.2969308 -0.368237E-06  0.191E-03    1.61       9.4  T
  10    -38.2969308 -0.470610E-08  0.137E-03    1.61      13.1  T
  11    -38.2969308 -0.337886E-08  0.370E-04    1.61      48.6  T
  12    -38.2969308 -0.801535E-09  0.191E-04    1.61      93.9  T
     SCC iter.                  ...        0 min,  0.354 sec
     gradient                   ...        0 min,  0.017 sec
 * total energy  :   -37.6355619 Eh     change       -0.7705787E-02 Eh
   gradient norm :     0.0633600 Eh/α   predicted    -0.1668571E-01 ( 116.53%)
   displ. norm   :     0.5849248 α      lambda       -0.1759288E-01
   maximum displ.:     0.3617359 α      in ANC's #1, #15, #16, ...

........................................................................
.............................. CYCLE    6 ..............................
........................................................................
   1    -38.3007061 -0.383007E+02  0.495E-01    1.71       0.0  T
   2    -38.3016373 -0.931198E-03  0.511E-01    1.64       1.0  T
   3    -38.3017248 -0.875772E-04  0.451E-01    1.64       1.0  T
   4    -38.3017148  0.100025E-04  0.171E-01    1.64       1.0  T
   5    -38.3019095 -0.194696E-03  0.107E-01    1.65       1.0  T
   6    -38.3019280 -0.184501E-04  0.371E-02    1.66       1.0  T
   7    -38.3019327 -0.476374E-05  0.194E-02    1.66       1.0  T
   8    -38.3019341 -0.140195E-05  0.886E-03    1.66       2.0  T
   9    -38.3019344 -0.262172E-06  0.556E-03    1.66       3.2  T
  10    -38.3019345 -0.754270E-07  0.230E-03    1.66       7.8  T
  11    -38.3019345 -0.127960E-07  0.653E-04    1.66      27.5  T
  12    -38.3019345 -0.750227E-09  0.204E-04    1.66      88.1  T
     SCC iter.                  ...        0 min,  0.372 sec
     gradient                   ...        0 min,  0.019 sec
 * total energy  :   -37.6370603 Eh     change       -0.1498477E-02 Eh
   gradient norm :     0.0614788 Eh/α   predicted    -0.1180602E-01 ( 687.87%)
   displ. norm   :     0.5620202 α      lambda       -0.2346155E-01
   maximum displ.:     0.3330635 α      in ANC's #1, #25, #15, ...

........................................................................
.............................. CYCLE    7 ..............................
........................................................................
   1    -38.2789645 -0.382790E+02  0.695E-01    1.53       0.0  T
   2    -38.2799314 -0.966861E-03  0.650E-01    1.51       1.0  T
   3    -38.2802798 -0.348488E-03  0.509E-01    1.48       1.0  T
   4    -38.2794172  0.862693E-03  0.294E-01    1.55       1.0  T
   5    -38.2804834 -0.106621E-02  0.106E-01    1.49       1.0  T
   6    -38.2804965 -0.131317E-04  0.450E-02    1.50       1.0  T
   7    -38.2805043 -0.780129E-05  0.233E-02    1.50       1.0  T
   8    -38.2805054 -0.109306E-05  0.877E-03    1.50       2.0  T
   9    -38.2805063 -0.904919E-06  0.404E-03    1.50       4.4  T
  10    -38.2805064 -0.103740E-06  0.184E-03    1.50       9.8  T
  11    -38.2805064 -0.488939E-08  0.584E-04    1.50      30.8  T
  12    -38.2805064 -0.234085E-08  0.316E-04    1.50      56.8  T
     SCC iter.                  ...        0 min,  0.452 sec
     gradient                   ...        0 min,  0.028 sec
 * total energy  :   -37.6394407 Eh     change       -0.2380388E-02 Eh
   gradient norm :     0.0668007 Eh/α   predicted    -0.1543622E-01 ( 548.47%)
   displ. norm   :     0.2986921 α      lambda       -0.1417724E-01
   maximum displ.:     0.1960934 α      in ANC's #25, #28, #27, ...

........................................................................
.............................. CYCLE    8 ..............................
........................................................................
   1    -38.2911715 -0.382912E+02  0.412E-01    1.78       0.0  T
   2    -38.2913829 -0.211376E-03  0.335E-01    1.79       1.0  T
   3    -38.2912990  0.838696E-04  0.218E-01    1.82       1.0  T
   4    -38.2913622 -0.631653E-04  0.108E-01    1.79       1.0  T
   5    -38.2915110 -0.148815E-03  0.499E-02    1.80       1.0  T
   6    -38.2915154 -0.437598E-05  0.245E-02    1.80       1.0  T
   7    -38.2915175 -0.218051E-05  0.109E-02    1.80       1.7  T
   8    -38.2915179 -0.395536E-06  0.272E-03    1.80       6.6  T
   9    -38.2915180 -0.286304E-07  0.131E-03    1.80      13.7  T
  10    -38.2915180 -0.632231E-08  0.603E-04    1.80      29.8  T
  11    -38.2915180 -0.168725E-08  0.215E-04    1.80      83.5  T
     SCC iter.                  ...        0 min,  0.310 sec
     gradient                   ...        0 min,  0.016 sec
 * total energy  :   -37.6465640 Eh     change       -0.7123284E-02 Eh
   gradient norm :     0.0162940 Eh/α   predicted    -0.7721037E-02 (   8.39%)
   displ. norm   :     0.2958160 α      lambda       -0.2185563E-02
   maximum displ.:     0.1464473 α      in ANC's #3, #15, #26, ...

........................................................................
.............................. CYCLE    9 ..............................
........................................................................
   1    -38.2990504 -0.382991E+02  0.148E-01    1.85       0.0  T
   2    -38.2990835 -0.330993E-04  0.940E-02    1.84       1.0  T
   3    -38.2990816  0.191502E-05  0.653E-02    1.86       1.0  T
   4    -38.2990964 -0.148153E-04  0.243E-02    1.85       1.0  T
   5    -38.2990951  0.137832E-05  0.181E-02    1.85       1.0  T
   6    -38.2990980 -0.292034E-05  0.885E-03    1.85       2.0  T
   7    -38.2990982 -0.203017E-06  0.280E-03    1.85       6.4  T
   8    -38.2990982 -0.223520E-07  0.151E-03    1.85      11.9  T
   9    -38.2990982 -0.150060E-07  0.870E-04    1.85      20.6  T
  10    -38.2990982 -0.131026E-08  0.468E-04    1.85      38.3  T
     SCC iter.                  ...        0 min,  0.281 sec
     gradient                   ...        0 min,  0.014 sec
 * total energy  :   -37.6478172 Eh     change       -0.1253215E-02 Eh
   gradient norm :     0.0169583 Eh/α   predicted    -0.1188408E-02 (  -5.17%)
   displ. norm   :     0.3282851 α      lambda       -0.1582048E-02
   maximum displ.:     0.1652674 α      in ANC's #3, #15, #4, ...

........................................................................
.............................. CYCLE   10 ..............................
........................................................................
   1    -38.3006213 -0.383006E+02  0.171E-01    1.88       0.0  T
   2    -38.3006404 -0.191079E-04  0.103E-01    1.87       1.0  T
   3    -38.3006191  0.212743E-04  0.596E-02    1.88       1.0  T
   4    -38.3006466 -0.274760E-04  0.222E-02    1.88       1.0  T
   5    -38.3006518 -0.519019E-05  0.122E-02    1.88       1.5  T
   6    -38.3006516  0.181410E-06  0.593E-03    1.88       3.0  T
   7    -38.3006521 -0.455896E-06  0.212E-03    1.88       8.5  T
   8    -38.3006521 -0.411657E-08  0.161E-03    1.88      11.2  T
   9    -38.3006521 -0.864322E-08  0.595E-04    1.88      30.2  T
  10    -38.3006521 -0.223778E-09  0.268E-04    1.88      66.9  T
     SCC iter.                  ...        0 min,  0.268 sec
     gradient                   ...        0 min,  0.008 sec
 * total energy  :   -37.6489120 Eh     change       -0.1094768E-02 Eh
   gradient norm :     0.0119846 Eh/α   predicted    -0.8762766E-03 ( -19.96%)
   displ. norm   :     0.3854750 α      lambda       -0.1283774E-02
   maximum displ.:     0.1720555 α      in ANC's #3, #4, #12, ...

........................................................................
.............................. CYCLE   11 ..............................
........................................................................
   1    -38.3004631 -0.383005E+02  0.216E-01    1.92       0.0  T
   2    -38.3004931 -0.300693E-04  0.127E-01    1.91       1.0  T
   3    -38.3004433  0.498647E-04  0.817E-02    1.91       1.0  T
   4    -38.3005101 -0.668636E-04  0.244E-02    1.92       1.0  T
   5    -38.3005146 -0.447485E-05  0.123E-02    1.92       1.5  T
   6    -38.3005146  0.150338E-07  0.631E-03    1.92       2.8  T
   7    -38.3005150 -0.389146E-06  0.249E-03    1.92       7.2  T
   8    -38.3005150 -0.578012E-09  0.184E-03    1.92       9.8  T
   9    -38.3005150 -0.146687E-07  0.103E-03    1.92      17.4  T
  10    -38.3005150 -0.172512E-08  0.369E-04    1.92      48.6  T
  11    -38.3005150 -0.127116E-09  0.131E-04    1.92     137.0  T
     SCC iter.                  ...        0 min,  0.264 sec
     gradient                   ...        0 min,  0.007 sec
 * total energy  :   -37.6495908 Eh     change       -0.6788391E-03 Eh
   gradient norm :     0.0107594 Eh/α   predicted    -0.7372657E-03 (   8.61%)
   displ. norm   :     0.2214158 α      lambda       -0.4702926E-03
   maximum displ.:     0.1027296 α      in ANC's #8, #5, #3, ...

........................................................................
.............................. CYCLE   12 ..............................
........................................................................
   1    -38.3022001 -0.383022E+02  0.118E-01    1.91       0.0  T
   2    -38.3022048 -0.464113E-05  0.746E-02    1.91       1.0  T
   3    -38.3021755  0.292436E-04  0.461E-02    1.91       1.0  T
   4    -38.3022111 -0.355506E-04  0.869E-03    1.91       2.1  T
   5    -38.3022113 -0.231679E-06  0.589E-03    1.91       3.0  T
   6    -38.3022113 -0.532006E-07  0.293E-03    1.91       6.1  T
   7    -38.3022114 -0.995541E-07  0.122E-03    1.91      14.7  T
   8    -38.3022114 -0.140822E-08  0.703E-04    1.91      25.5  T
   9    -38.3022114 -0.234097E-08  0.310E-04    1.91      57.9  T
     SCC iter.                  ...        0 min,  0.230 sec
     gradient                   ...        0 min,  0.069 sec
 * total energy  :   -37.6499067 Eh     change       -0.3158699E-03 Eh
   gradient norm :     0.0076886 Eh/α   predicted    -0.2466763E-03 ( -21.91%)
   displ. norm   :     0.3282469 α      lambda       -0.5405542E-03
   maximum displ.:     0.1958965 α      in ANC's #8, #5, #3, ...

........................................................................
.............................. CYCLE   13 ..............................
........................................................................
   1    -38.3001708 -0.383002E+02  0.174E-01    1.92       0.0  T
   2    -38.3001792 -0.840766E-05  0.109E-01    1.93       1.0  T
   3    -38.3001273  0.519181E-04  0.686E-02    1.92       1.0  T
   4    -38.3001893 -0.620981E-04  0.143E-02    1.93       1.3  T
   5    -38.3001905 -0.115472E-05  0.853E-03    1.93       2.1  T
   6    -38.3001905  0.845358E-08  0.370E-03    1.93       4.9  T
   7    -38.3001907 -0.199394E-06  0.144E-03    1.93      12.5  T
   8    -38.3001907 -0.357092E-08  0.100E-03    1.93      17.9  T
   9    -38.3001907 -0.284467E-08  0.479E-04    1.93      37.5  T
  10    -38.3001907 -0.785789E-09  0.193E-04    1.93      92.9  T
     SCC iter.                  ...        0 min,  0.247 sec
     gradient                   ...        0 min,  0.050 sec
 * total energy  :   -37.6502600 Eh     change       -0.3532730E-03 Eh
   gradient norm :     0.0099179 Eh/α   predicted    -0.2994040E-03 ( -15.25%)
   displ. norm   :     0.3053011 α      lambda       -0.4798694E-03
   maximum displ.:     0.1990385 α      in ANC's #8, #5, #9, ...

........................................................................
.............................. CYCLE   14 ..............................
........................................................................
   1    -38.3024504 -0.383025E+02  0.203E-01    1.94       0.0  T
   2    -38.3024578 -0.741391E-05  0.130E-01    1.94       1.0  T
   3    -38.3023715  0.863169E-04  0.803E-02    1.95       1.0  T
   4    -38.3024715 -0.999558E-04  0.131E-02    1.95       1.4  T
   5    -38.3024721 -0.602882E-06  0.796E-03    1.95       2.3  T
   6    -38.3024720  0.111831E-06  0.446E-03    1.95       4.0  T
   7    -38.3024722 -0.201010E-06  0.143E-03    1.95      12.6  T
   8    -38.3024722  0.264268E-08  0.983E-04    1.95      18.3  T
   9    -38.3024722 -0.692140E-08  0.426E-04    1.95      42.1  T
     SCC iter.                  ...        0 min,  0.259 sec
     gradient                   ...        0 min,  0.077 sec
 * total energy  :   -37.6505829 Eh     change       -0.3229119E-03 Eh
   gradient norm :     0.0134496 Eh/α   predicted    -0.2623000E-03 ( -18.77%)
   displ. norm   :     0.2664204 α      lambda       -0.5058727E-03
   maximum displ.:     0.1680851 α      in ANC's #8, #5, #9, ...

........................................................................
.............................. CYCLE   15 ..............................
........................................................................
   1    -38.3020942 -0.383021E+02  0.138E-01    1.96       0.0  T
   2    -38.3020983 -0.408578E-05  0.838E-02    1.95       1.0  T
   3    -38.3020569  0.413916E-04  0.621E-02    1.95       1.0  T
   4    -38.3021086 -0.516836E-04  0.109E-02    1.95       1.6  T
   5    -38.3021088 -0.298117E-06  0.693E-03    1.95       2.6  T
   6    -38.3021088  0.532160E-07  0.207E-03    1.95       8.7  T
   7    -38.3021089 -0.607034E-07  0.918E-04    1.95      19.6  T
   8    -38.3021089 -0.734095E-08  0.478E-04    1.95      37.6  T
     SCC iter.                  ...        0 min,  0.026 sec
     gradient                   ...        0 min,  0.004 sec
 * total energy  :   -37.6510090 Eh     change       -0.4261223E-03 Eh
   gradient norm :     0.0136665 Eh/α   predicted    -0.2708917E-03 ( -36.43%)
   displ. norm   :     0.4932683 α      lambda       -0.1225126E-02
   maximum displ.:     0.2909552 α      in ANC's #8, #9, #5, ...

........................................................................
.............................. CYCLE   16 ..............................
........................................................................
   1    -38.3010303 -0.383010E+02  0.199E-01    1.96       0.0  T
   2    -38.3010424 -0.121143E-04  0.116E-01    1.96       1.0  T
   3    -38.3009663  0.761419E-04  0.948E-02    1.96       1.0  T
   4    -38.3010799 -0.113614E-03  0.162E-02    1.96       1.1  T
   5    -38.3010806 -0.744655E-06  0.107E-02    1.96       1.7  T
   6    -38.3010805  0.122079E-06  0.322E-03    1.96       5.6  T
   7    -38.3010807 -0.176598E-06  0.139E-03    1.96      12.9  T
   8    -38.3010807 -0.244643E-07  0.790E-04    1.96      22.7  T
   9    -38.3010807 -0.731198E-09  0.326E-04    1.96      55.1  T
     SCC iter.                  ...        0 min,  0.027 sec
     gradient                   ...        0 min,  0.004 sec
 * total energy  :   -37.6519852 Eh     change       -0.9762397E-03 Eh
   gradient norm :     0.0144017 Eh/α   predicted    -0.7616105E-03 ( -21.99%)
   displ. norm   :     0.5620892 α      lambda       -0.1538906E-02
   maximum displ.:     0.3002376 α      in ANC's #8, #9, #16, ...

........................................................................
.............................. CYCLE   17 ..............................
........................................................................
   1    -38.2987973 -0.382988E+02  0.200E-01    1.95       0.0  T
   2    -38.2988065 -0.912431E-05  0.116E-01    1.94       1.0  T
   3    -38.2987199  0.865263E-04  0.925E-02    1.94       1.0  T
   4    -38.2988412 -0.121293E-03  0.959E-03    1.94       1.9  T
   5    -38.2988416 -0.323295E-06  0.641E-03    1.94       2.8  T
   6    -38.2988416 -0.583480E-07  0.331E-03    1.94       5.4  T
   7    -38.2988417 -0.694943E-07  0.105E-03    1.94      17.2  T
   8    -38.2988417 -0.179251E-07  0.590E-04    1.94      30.4  T
   9    -38.2988417 -0.781696E-09  0.256E-04    1.94      70.2  T
     SCC iter.                  ...        0 min,  0.026 sec
     gradient                   ...        0 min,  0.007 sec
 * total energy  :   -37.6531778 Eh     change       -0.1192523E-02 Eh
   gradient norm :     0.0169306 Eh/α   predicted    -0.1012555E-02 ( -15.09%)
   displ. norm   :     0.5611713 α      lambda       -0.1752527E-02
   maximum displ.:     0.2533941 α      in ANC's #8, #9, #16, ...

........................................................................
.............................. CYCLE   18 ..............................
........................................................................
   1    -38.2997673 -0.382998E+02  0.185E-01    1.91       0.0  T
   2    -38.2997776 -0.102939E-04  0.107E-01    1.91       1.0  T
   3    -38.2997120  0.655829E-04  0.874E-02    1.90       1.0  T
   4    -38.2998187 -0.106744E-03  0.749E-03    1.91       2.4  T
   5    -38.2998190 -0.249781E-06  0.656E-03    1.91       2.7  T
   6    -38.2998191 -0.115016E-06  0.373E-03    1.91       4.8  T
   7    -38.2998191  0.394172E-08  0.136E-03    1.91      13.2  T
   8    -38.2998191 -0.137875E-07  0.735E-04    1.91      24.4  T
   9    -38.2998191 -0.473263E-08  0.396E-04    1.91      45.3  T
     SCC iter.                  ...        0 min,  0.027 sec
     gradient                   ...        0 min,  0.006 sec
 * total energy  :   -37.6544999 Eh     change       -0.1322120E-02 Eh
   gradient norm :     0.0155474 Eh/α   predicted    -0.1152211E-02 ( -12.85%)
   displ. norm   :     0.7513640 α      lambda       -0.1929390E-02
   maximum displ.:     0.4517872 α      in ANC's #8, #9, #3, ...

........................................................................
.............................. CYCLE   19 ..............................
........................................................................
   1    -38.2862468 -0.382862E+02  0.385E-01    1.85       0.0  T
   2    -38.2863899 -0.143138E-03  0.170E-01    1.93       1.0  T
   3    -38.2863699  0.200088E-04  0.158E-01    1.88       1.0  T
   4    -38.2864508 -0.808297E-04  0.593E-02    1.89       1.0  T
   5    -38.2864679 -0.171098E-04  0.417E-02    1.89       1.0  T
   6    -38.2864680 -0.130405E-06  0.195E-02    1.90       1.0  T
   7    -38.2864691 -0.107988E-05  0.457E-03    1.90       3.9  T
   8    -38.2864691 -0.672370E-07  0.227E-03    1.90       7.9  T
   9    -38.2864691 -0.868548E-08  0.159E-03    1.90      11.3  T
  10    -38.2864692 -0.708699E-08  0.493E-04    1.90      36.4  T
  11    -38.2864692 -0.726608E-09  0.221E-04    1.90      81.2  T
     SCC iter.                  ...        0 min,  0.035 sec
     gradient                   ...        0 min,  0.006 sec
 * total energy  :   -37.6534176 Eh     change        0.1082328E-02 Eh
   gradient norm :     0.0422001 Eh/α   predicted    -0.1509311E-02 (-239.45%)
   displ. norm   :     0.3415914 α      lambda       -0.6906346E-02
   maximum displ.:     0.1291880 α      in ANC's #8, #14, #5, ...

........................................................................
.............................. CYCLE   20 ..............................
........................................................................
   1    -38.3198907 -0.383199E+02  0.365E-01    1.95       0.0  T
   2    -38.3200427 -0.152039E-03  0.156E-01    1.89       1.0  T
   3    -38.3200501 -0.730889E-05  0.135E-01    1.94       1.0  T
   4    -38.3200811 -0.310469E-04  0.465E-02    1.92       1.0  T
   5    -38.3200901 -0.902924E-05  0.336E-02    1.93       1.0  T
   6    -38.3200904 -0.312038E-06  0.137E-02    1.92       1.3  T
   7    -38.3200915 -0.101048E-05  0.376E-03    1.92       4.8  T
   8    -38.3200915 -0.361569E-07  0.189E-03    1.92       9.5  T
   9    -38.3200915 -0.193479E-07  0.128E-03    1.92      14.1  T
  10    -38.3200915 -0.247554E-08  0.469E-04    1.92      38.3  T
  11    -38.3200915  0.318458E-09  0.273E-04    1.92      65.8  T
     SCC iter.                  ...        0 min,  0.034 sec
     gradient                   ...        0 min,  0.007 sec
 * total energy  :   -37.6551776 Eh     change       -0.1760041E-02 Eh
   gradient norm :     0.0386837 Eh/α   predicted    -0.3856109E-02 ( 119.09%)
   displ. norm   :     0.2794249 α      lambda       -0.3342760E-02
   maximum displ.:     0.1413969 α      in ANC's #5, #16, #22, ...
 * RMSD in coord.:     0.8588531 α      energy gain  -0.7629981E+00 Eh

generating ANC from model Hessian ...
Using Lindh-Hessian (1995)
 Shifting diagonal of input Hessian by    9.8328907995459038E-003
 Lowest  eigenvalues of input Hessian
    0.000000    0.000000    0.000000    0.000000    0.000000    0.000000
    0.010000    0.010188    0.010292    0.010430    0.010764    0.011342
    0.011370    0.011623    0.011826    0.012240    0.012649    0.017064
 Highest eigenvalues
    1.718614    1.729951    1.730500    1.736792    1.833638    2.648603


........................................................................
.............................. CYCLE   21 ..............................
........................................................................
   1    -38.3047721 -0.383048E+02  0.290E-01    1.88       0.0  T
   2    -38.3048077 -0.356350E-04  0.178E-01    1.87       1.0  T
   3    -38.3046552  0.152535E-03  0.127E-01    1.88       1.0  T
   4    -38.3048480 -0.192832E-03  0.283E-02    1.88       1.0  T
   5    -38.3048548 -0.673418E-05  0.147E-02    1.87       1.2  T
   6    -38.3048549 -0.194697E-06  0.536E-03    1.87       3.4  T
   7    -38.3048551 -0.140100E-06  0.192E-03    1.87       9.4  T
   8    -38.3048551 -0.386889E-07  0.125E-03    1.87      14.3  T
   9    -38.3048551 -0.547852E-08  0.655E-04    1.87      27.4  T
  10    -38.3048551 -0.561755E-10  0.223E-04    1.87      80.6  T
     SCC iter.                  ...        0 min,  0.325 sec
     gradient                   ...        0 min,  0.079 sec
 * total energy  :   -37.6560586 Eh     change       -0.8809782E-03 Eh
   gradient norm :     0.0236410 Eh/α   predicted     0.0000000E+00 (-100.00%)
   displ. norm   :     0.1808017 α      lambda       -0.1215830E-02
   maximum displ.:     0.0985583 α      in ANC's #6, #8, #2, ...

........................................................................
.............................. CYCLE   22 ..............................
........................................................................
   1    -38.3088023 -0.383088E+02  0.951E-02    1.88       0.0  T
   2    -38.3088127 -0.103693E-04  0.582E-02    1.89       1.0  T
   3    -38.3088126  0.505042E-07  0.364E-02    1.89       1.0  T
   4    -38.3088160 -0.331254E-05  0.120E-02    1.89       1.5  T
   5    -38.3088163 -0.359343E-06  0.827E-03    1.89       2.2  T
   6    -38.3088164 -0.557546E-07  0.272E-03    1.89       6.6  T
   7    -38.3088165 -0.124878E-06  0.958E-04    1.89      18.8  T
   8    -38.3088165 -0.232169E-08  0.745E-04    1.89      24.1  T
     SCC iter.                  ...        0 min,  0.225 sec
     gradient                   ...        0 min,  0.079 sec
 * total energy  :   -37.6568574 Eh     change       -0.7988301E-03 Eh
   gradient norm :     0.0064718 Eh/α   predicted    -0.6278996E-03 ( -21.40%)
   displ. norm   :     0.2605337 α      lambda       -0.5923916E-03
   maximum displ.:     0.1608951 α      in ANC's #6, #2, #8, ...

........................................................................
.............................. CYCLE   23 ..............................
........................................................................
   1    -38.3098113 -0.383098E+02  0.834E-02    1.91       0.0  T
   2    -38.3098152 -0.386046E-05  0.500E-02    1.92       1.0  T
   3    -38.3098118  0.334887E-05  0.242E-02    1.91       1.0  T
   4    -38.3098164 -0.460700E-05  0.778E-03    1.92       2.3  T
   5    -38.3098170 -0.558184E-06  0.439E-03    1.91       4.1  T
   6    -38.3098170  0.195161E-08  0.176E-03    1.92      10.2  T
   7    -38.3098170 -0.260439E-07  0.850E-04    1.92      21.1  T
   8    -38.3098170 -0.243709E-08  0.543E-04    1.92      33.1  T
     SCC iter.                  ...        0 min,  0.187 sec
     gradient                   ...        0 min,  0.005 sec
 * total energy  :   -37.6572233 Eh     change       -0.3659358E-03 Eh
   gradient norm :     0.0079142 Eh/α   predicted    -0.3163011E-03 ( -13.56%)
   displ. norm   :     0.2318623 α      lambda       -0.3405657E-03
   maximum displ.:     0.1361532 α      in ANC's #2, #6, #1, ...

........................................................................
.............................. CYCLE   24 ..............................
........................................................................
   1    -38.3090362 -0.383090E+02  0.683E-02    1.91       0.0  T
   2    -38.3090370 -0.818354E-06  0.434E-02    1.92       1.0  T
   3    -38.3090250  0.119543E-04  0.270E-02    1.91       1.0  T
   4    -38.3090391 -0.140537E-04  0.432E-03    1.91       4.2  T
   5    -38.3090391  0.177962E-07  0.266E-03    1.91       6.7  T
   6    -38.3090391 -0.727386E-07  0.780E-04    1.91      23.0  T
   7    -38.3090391 -0.265034E-08  0.570E-04    1.91      31.5  T
     SCC iter.                  ...        0 min,  0.188 sec
     gradient                   ...        0 min,  0.005 sec
 * total energy  :   -37.6575034 Eh     change       -0.2801002E-03 Eh
   gradient norm :     0.0110329 Eh/α   predicted    -0.1794376E-03 ( -35.94%)
   displ. norm   :     0.3834022 α      lambda       -0.6010706E-03
   maximum displ.:     0.2410492 α      in ANC's #2, #1, #6, ...

........................................................................
.............................. CYCLE   25 ..............................
........................................................................
   1    -38.3069736 -0.383070E+02  0.129E-01    1.91       0.0  T
   2    -38.3069767 -0.316829E-05  0.788E-02    1.91       1.0  T
   3    -38.3069501  0.266517E-04  0.448E-02    1.91       1.0  T
   4    -38.3069803 -0.301842E-04  0.134E-02    1.91       1.3  T
   5    -38.3069807 -0.459891E-06  0.752E-03    1.91       2.4  T
   6    -38.3069806  0.879316E-07  0.243E-03    1.91       7.4  T
   7    -38.3069807 -0.979119E-07  0.821E-04    1.91      21.9  T
   8    -38.3069807 -0.110753E-08  0.493E-04    1.91      36.4  T
     SCC iter.                  ...        0 min,  0.193 sec
     gradient                   ...        0 min,  0.007 sec
 * total energy  :   -37.6580101 Eh     change       -0.5066452E-03 Eh
   gradient norm :     0.0085746 Eh/α   predicted    -0.3447253E-03 ( -31.96%)
   displ. norm   :     0.4857698 α      lambda       -0.6675838E-03
   maximum displ.:     0.3208978 α      in ANC's #2, #1, #6, ...

........................................................................
.............................. CYCLE   26 ..............................
........................................................................
   1    -38.3049952 -0.383050E+02  0.126E-01    1.90       0.0  T
   2    -38.3049990 -0.383785E-05  0.750E-02    1.90       1.0  T
   3    -38.3049723  0.266752E-04  0.433E-02    1.90       1.0  T
   4    -38.3050031 -0.307690E-04  0.124E-02    1.90       1.5  T
   5    -38.3050036 -0.469515E-06  0.625E-03    1.90       2.9  T
   6    -38.3050035  0.900622E-07  0.248E-03    1.90       7.2  T
   7    -38.3050036 -0.972944E-07  0.749E-04    1.90      24.0  T
   8    -38.3050036 -0.167122E-08  0.515E-04    1.90      34.9  T
     SCC iter.                  ...        0 min,  0.214 sec
     gradient                   ...        0 min,  0.008 sec
 * total energy  :   -37.6585513 Eh     change       -0.5412029E-03 Eh
   gradient norm :     0.0065629 Eh/α   predicted    -0.4125697E-03 ( -23.77%)
   displ. norm   :     0.4851337 α      lambda       -0.5739741E-03
   maximum displ.:     0.3273373 α      in ANC's #2, #1, #6, ...

........................................................................
.............................. CYCLE   27 ..............................
........................................................................
   1    -38.3044211 -0.383044E+02  0.104E-01    1.89       0.0  T
   2    -38.3044232 -0.206423E-05  0.656E-02    1.89       1.0  T
   3    -38.3044086  0.145730E-04  0.261E-02    1.88       1.0  T
   4    -38.3044249 -0.162438E-04  0.810E-03    1.89       2.2  T
   5    -38.3044252 -0.302296E-06  0.453E-03    1.89       4.0  T
   6    -38.3044252 -0.150902E-07  0.175E-03    1.89      10.3  T
   7    -38.3044252 -0.325786E-07  0.695E-04    1.89      25.9  T
   8    -38.3044252 -0.844054E-10  0.507E-04    1.89      35.4  T
     SCC iter.                  ...        0 min,  0.187 sec
     gradient                   ...        0 min,  0.007 sec
 * total energy  :   -37.6590160 Eh     change       -0.4647444E-03 Eh
   gradient norm :     0.0082089 Eh/α   predicted    -0.3545342E-03 ( -23.71%)
   displ. norm   :     0.4847078 α      lambda       -0.6223267E-03
   maximum displ.:     0.3444569 α      in ANC's #2, #1, #4, ...

........................................................................
.............................. CYCLE   28 ..............................
........................................................................
   1    -38.3082060 -0.383082E+02  0.980E-02    1.88       0.0  T
   2    -38.3082088 -0.279306E-05  0.562E-02    1.88       1.0  T
   3    -38.3082049  0.394493E-05  0.259E-02    1.88       1.0  T
   4    -38.3082100 -0.510625E-05  0.836E-03    1.88       2.1  T
   5    -38.3082100 -0.308711E-07  0.548E-03    1.88       3.3  T
   6    -38.3082100  0.166361E-08  0.182E-03    1.88       9.9  T
   7    -38.3082100 -0.631524E-07  0.649E-04    1.88      27.7  T
   8    -38.3082100 -0.942002E-09  0.479E-04    1.88      37.5  T
     SCC iter.                  ...        0 min,  0.203 sec
     gradient                   ...        0 min,  0.009 sec
 * total energy  :   -37.6594927 Eh     change       -0.4766770E-03 Eh
   gradient norm :     0.0093711 Eh/α   predicted    -0.3842766E-03 ( -19.38%)
   displ. norm   :     0.5567887 α      lambda       -0.6130029E-03
   maximum displ.:     0.3839047 α      in ANC's #2, #1, #8, ...

........................................................................
.............................. CYCLE   29 ..............................
........................................................................
   1    -38.3062181 -0.383062E+02  0.111E-01    1.87       0.0  T
   2    -38.3062280 -0.985309E-05  0.649E-02    1.89       1.0  T
   3    -38.3062255  0.245436E-05  0.354E-02    1.87       1.0  T
   4    -38.3062308 -0.529660E-05  0.118E-02    1.88       1.5  T
   5    -38.3062322 -0.143075E-05  0.647E-03    1.88       2.8  T
   6    -38.3062321  0.115347E-06  0.331E-03    1.88       5.4  T
   7    -38.3062323 -0.126458E-06  0.978E-04    1.88      18.4  T
   8    -38.3062323 -0.666142E-08  0.748E-04    1.88      24.0  T
     SCC iter.                  ...        0 min,  0.229 sec
     gradient                   ...        0 min,  0.077 sec
 * total energy  :   -37.6598151 Eh     change       -0.3223991E-03 Eh
   gradient norm :     0.0083928 Eh/α   predicted    -0.4015241E-03 (  24.54%)
   displ. norm   :     0.3129029 α      lambda       -0.6426159E-03
   maximum displ.:     0.2229263 α      in ANC's #2, #1, #57, ...

........................................................................
.............................. CYCLE   30 ..............................
........................................................................
   1    -38.3173476 -0.383173E+02  0.112E-01    1.90       0.0  T
   2    -38.3173541 -0.651809E-05  0.591E-02    1.89       1.0  T
   3    -38.3173429  0.112282E-04  0.469E-02    1.90       1.0  T
   4    -38.3173607 -0.178822E-04  0.150E-02    1.89       1.2  T
   5    -38.3173610 -0.243190E-06  0.122E-02    1.89       1.5  T
   6    -38.3173610 -0.528510E-07  0.497E-03    1.89       3.6  T
   7    -38.3173611 -0.104002E-06  0.125E-03    1.89      14.4  T
   8    -38.3173611 -0.345768E-08  0.534E-04    1.89      33.6  T
   9    -38.3173611 -0.234040E-08  0.218E-04    1.89      82.5  T
     SCC iter.                  ...        0 min,  0.250 sec
     gradient                   ...        0 min,  0.007 sec
 * total energy  :   -37.6601129 Eh     change       -0.2977997E-03 Eh
   gradient norm :     0.0072346 Eh/α   predicted    -0.3527681E-03 (  18.46%)
   displ. norm   :     0.4521454 α      lambda       -0.3235152E-03
   maximum displ.:     0.3386778 α      in ANC's #2, #1, #4, ...

........................................................................
.............................. CYCLE   31 ..............................
........................................................................
   1    -38.3093177 -0.383093E+02  0.846E-02    1.89       0.0  T
   2    -38.3093208 -0.307397E-05  0.492E-02    1.89       1.0  T
   3    -38.3093169  0.386677E-05  0.222E-02    1.89       1.0  T
   4    -38.3093221 -0.519278E-05  0.925E-03    1.89       1.9  T
   5    -38.3093222 -0.433896E-07  0.769E-03    1.89       2.3  T
   6    -38.3093221  0.799598E-07  0.259E-03    1.89       6.9  T
   7    -38.3093222 -0.125540E-06  0.110E-03    1.89      16.4  T
   8    -38.3093222 -0.133470E-08  0.567E-04    1.89      31.7  T
   9    -38.3093222 -0.267674E-08  0.220E-04    1.89      81.7  T
     SCC iter.                  ...        0 min,  0.245 sec
     gradient                   ...        0 min,  0.004 sec
 * total energy  :   -37.6601999 Eh     change       -0.8703499E-04 Eh
   gradient norm :     0.0104556 Eh/α   predicted    -0.1948284E-03 ( 123.85%)
   displ. norm   :     0.0770993 α      lambda       -0.2142586E-03
   maximum displ.:     0.0384799 α      in ANC's #1, #2, #4, ...

........................................................................
.............................. CYCLE   32 ..............................
........................................................................
   1    -38.3126714 -0.383127E+02  0.452E-02    1.89       0.0  T
   2    -38.3126727 -0.123018E-05  0.228E-02    1.89       1.0  T
   3    -38.3126719  0.775776E-06  0.162E-02    1.89       1.1  T
   4    -38.3126730 -0.113305E-05  0.732E-03    1.89       2.5  T
   5    -38.3126731 -0.984777E-07  0.505E-03    1.89       3.6  T
   6    -38.3126731  0.849762E-08  0.128E-03    1.89      14.0  T
   7    -38.3126731 -0.247088E-07  0.556E-04    1.89      32.3  T
   8    -38.3126731 -0.430759E-09  0.389E-04    1.89      46.2  T
     SCC iter.                  ...        0 min,  0.223 sec
     gradient                   ...        0 min,  0.009 sec
 * total energy  :   -37.6603358 Eh     change       -0.1359022E-03 Eh
   gradient norm :     0.0036886 Eh/α   predicted    -0.1077655E-03 ( -20.70%)
   displ. norm   :     0.1340215 α      lambda       -0.1160642E-03
   maximum displ.:     0.0947947 α      in ANC's #2, #1, #6, ...

........................................................................
.............................. CYCLE   33 ..............................
........................................................................
   1    -38.3139879 -0.383140E+02  0.276E-02    1.89       0.0  T
   2    -38.3139884 -0.436591E-06  0.144E-02    1.89       1.2  T
   3    -38.3139874  0.992662E-06  0.123E-02    1.89       1.5  T
   4    -38.3139892 -0.188754E-05  0.251E-03    1.89       7.1  T
   5    -38.3139893 -0.222286E-07  0.148E-03    1.89      12.1  T
   6    -38.3139893  0.325806E-08  0.612E-04    1.89      29.3  T
   7    -38.3139893 -0.530839E-08  0.228E-04    1.89      78.8  T
     SCC iter.                  ...        0 min,  0.197 sec
     gradient                   ...        0 min,  0.006 sec
 * total energy  :   -37.6604272 Eh     change       -0.9140108E-04 Eh
   gradient norm :     0.0026359 Eh/α   predicted    -0.5907598E-04 ( -35.37%)
   displ. norm   :     0.2761464 α      lambda       -0.1855795E-03
   maximum displ.:     0.1923726 α      in ANC's #2, #1, #6, ...

........................................................................
.............................. CYCLE   34 ..............................
........................................................................
   1    -38.3147670 -0.383148E+02  0.567E-02    1.90       0.0  T
   2    -38.3147682 -0.126556E-05  0.330E-02    1.90       1.0  T
   3    -38.3147624  0.585265E-05  0.245E-02    1.90       1.0  T
   4    -38.3147706 -0.824373E-05  0.366E-03    1.90       4.9  T
   5    -38.3147707 -0.102140E-06  0.250E-03    1.90       7.2  T
   6    -38.3147707 -0.194925E-07  0.804E-04    1.90      22.3  T
   7    -38.3147708 -0.614964E-08  0.449E-04    1.90      40.0  T
     SCC iter.                  ...        0 min,  0.187 sec
     gradient                   ...        0 min,  0.060 sec
 * total energy  :   -37.6605656 Eh     change       -0.1383091E-03 Eh
   gradient norm :     0.0038091 Eh/α   predicted    -0.9986988E-04 ( -27.79%)
   displ. norm   :     0.3119705 α      lambda       -0.1747484E-03
   maximum displ.:     0.2055416 α      in ANC's #2, #1, #6, ...

........................................................................
.............................. CYCLE   35 ..............................
........................................................................
   1    -38.3138245 -0.383138E+02  0.725E-02    1.89       0.0  T
   2    -38.3138261 -0.161577E-05  0.434E-02    1.90       1.0  T
   3    -38.3138164  0.976746E-05  0.281E-02    1.89       1.0  T
   4    -38.3138286 -0.122330E-04  0.451E-03    1.89       4.0  T
   5    -38.3138288 -0.165939E-06  0.252E-03    1.90       7.1  T
   6    -38.3138288  0.122078E-08  0.963E-04    1.90      18.6  T
   7    -38.3138288 -0.125529E-07  0.523E-04    1.90      34.4  T
     SCC iter.                  ...        0 min,  0.199 sec
     gradient                   ...        0 min,  0.017 sec
 * total energy  :   -37.6606925 Eh     change       -0.1269194E-03 Eh
   gradient norm :     0.0039419 Eh/α   predicted    -0.9588120E-04 ( -24.46%)
   displ. norm   :     0.2639155 α      lambda       -0.1463182E-03
   maximum displ.:     0.1370803 α      in ANC's #8, #2, #4, ...

........................................................................
.............................. CYCLE   36 ..............................
........................................................................
   1    -38.3133558 -0.383134E+02  0.925E-02    1.89       0.0  T
   2    -38.3133571 -0.134229E-05  0.579E-02    1.89       1.0  T
   3    -38.3133483  0.881956E-05  0.258E-02    1.89       1.0  T
   4    -38.3133584 -0.101383E-04  0.726E-03    1.89       2.5  T
   5    -38.3133584 -0.248728E-07  0.471E-03    1.89       3.8  T
   6    -38.3133585 -0.557436E-07  0.151E-03    1.89      11.9  T
   7    -38.3133585 -0.250430E-07  0.790E-04    1.89      22.7  T
   8    -38.3133585  0.113936E-09  0.603E-04    1.89      29.8  T
     SCC iter.                  ...        0 min,  0.218 sec
     gradient                   ...        0 min,  0.034 sec
 * total energy  :   -37.6607890 Eh     change       -0.9650092E-04 Eh
   gradient norm :     0.0046755 Eh/α   predicted    -0.7825599E-04 ( -18.91%)
   displ. norm   :     0.1376649 α      lambda       -0.9529076E-04
   maximum displ.:     0.0933891 α      in ANC's #8, #4, #2, ...

........................................................................
.............................. CYCLE   37 ..............................
........................................................................
   1    -38.3129608 -0.383130E+02  0.500E-02    1.89       0.0  T
   2    -38.3129612 -0.332467E-06  0.314E-02    1.89       1.0  T
   3    -38.3129598  0.141612E-05  0.102E-02    1.89       1.8  T
   4    -38.3129614 -0.161678E-05  0.370E-03    1.89       4.9  T
   5    -38.3129614  0.177722E-08  0.234E-03    1.89       7.7  T
   6    -38.3129614 -0.339647E-07  0.937E-04    1.89      19.2  T
   7    -38.3129614 -0.399390E-08  0.433E-04    1.89      41.5  T
     SCC iter.                  ...        0 min,  0.177 sec
     gradient                   ...        0 min,  0.008 sec
 * total energy  :   -37.6608552 Eh     change       -0.6619288E-04 Eh
   gradient norm :     0.0023876 Eh/α   predicted    -0.4856270E-04 ( -26.63%)
   displ. norm   :     0.1603863 α      lambda       -0.6817276E-04
   maximum displ.:     0.0882402 α      in ANC's #2, #8, #1, ...

........................................................................
.............................. CYCLE   38 ..............................
........................................................................
   1    -38.3142943 -0.383143E+02  0.409E-02    1.88       0.0  T
   2    -38.3142952 -0.846358E-06  0.232E-02    1.88       1.0  T
   3    -38.3142926  0.256770E-05  0.184E-02    1.88       1.0  T
   4    -38.3142965 -0.391518E-05  0.340E-03    1.88       5.3  T
   5    -38.3142966 -0.891147E-07  0.177E-03    1.88      10.2  T
   6    -38.3142966 -0.126558E-08  0.823E-04    1.88      21.8  T
   7    -38.3142966 -0.714956E-08  0.291E-04    1.88      61.8  T
     SCC iter.                  ...        0 min,  0.176 sec
     gradient                   ...        0 min,  0.007 sec
 * total energy  :   -37.6608918 Eh     change       -0.3661412E-04 Eh
   gradient norm :     0.0020231 Eh/α   predicted    -0.3496443E-04 (  -4.51%)
   displ. norm   :     0.0453922 α      lambda       -0.1988147E-04
   maximum displ.:     0.0224658 α      in ANC's #3, #8, #7, ...

........................................................................
.............................. CYCLE   39 ..............................
........................................................................
   1    -38.3132140 -0.383132E+02  0.216E-02    1.88       0.0  T
   2    -38.3132142 -0.194840E-06  0.127E-02    1.88       1.4  T
   3    -38.3132132  0.975710E-06  0.101E-02    1.88       1.8  T
   4    -38.3132146 -0.134325E-05  0.211E-03    1.88       8.5  T
   5    -38.3132146 -0.157265E-07  0.135E-03    1.88      13.3  T
   6    -38.3132146  0.148999E-08  0.446E-04    1.88      40.2  T
   7    -38.3132146 -0.328596E-08  0.200E-04    1.88      89.9  T
     SCC iter.                  ...        0 min,  0.178 sec
     gradient                   ...        0 min,  0.007 sec
 * total energy  :   -37.6609029 Eh     change       -0.1108091E-04 Eh
   gradient norm :     0.0013245 Eh/α   predicted    -0.9964969E-05 ( -10.07%)
   displ. norm   :     0.0765338 α      lambda       -0.1016044E-04
   maximum displ.:     0.0372139 α      in ANC's #6, #8, #4, ...

........................................................................
.............................. CYCLE   40 ..............................
........................................................................
   1    -38.3124083 -0.383124E+02  0.274E-02    1.88       0.0  T
   2    -38.3124086 -0.303603E-06  0.142E-02    1.88       1.3  T
   3    -38.3124078  0.759799E-06  0.112E-02    1.88       1.6  T
   4    -38.3124089 -0.106345E-05  0.301E-03    1.88       6.0  T
   5    -38.3124089 -0.337177E-07  0.171E-03    1.88      10.5  T
   6    -38.3124089  0.525138E-08  0.658E-04    1.88      27.3  T
   7    -38.3124089 -0.771644E-08  0.231E-04    1.88      77.7  T
     SCC iter.                  ...        0 min,  0.170 sec
     gradient                   ...        0 min,  0.005 sec
 * total energy  :   -37.6609085 Eh     change       -0.5629810E-05 Eh
   gradient norm :     0.0013018 Eh/α   predicted    -0.5097710E-05 (  -9.45%)
   displ. norm   :     0.0682493 α      lambda       -0.8562992E-05
   maximum displ.:     0.0370998 α      in ANC's #8, #2, #10, ...

........................................................................
.............................. CYCLE   41 ..............................
........................................................................
   1    -38.3130910 -0.383131E+02  0.326E-02    1.88       0.0  T
   2    -38.3130913 -0.316841E-06  0.199E-02    1.88       1.0  T
   3    -38.3130905  0.788596E-06  0.105E-02    1.88       1.7  T
   4    -38.3130916 -0.102520E-05  0.392E-03    1.88       4.6  T
   5    -38.3130915  0.113225E-07  0.298E-03    1.88       6.0  T
   6    -38.3130916 -0.238070E-07  0.710E-04    1.88      25.3  T
   7    -38.3130916 -0.667759E-08  0.331E-04    1.88      54.3  T
     SCC iter.                  ...        0 min,  0.172 sec
     gradient                   ...        0 min,  0.008 sec
 * total energy  :   -37.6609122 Eh     change       -0.3668552E-05 Eh
   gradient norm :     0.0011544 Eh/α   predicted    -0.4291803E-05 (  16.99%)
   displ. norm   :     0.0308246 α      lambda       -0.3491635E-05
   maximum displ.:     0.0191258 α      in ANC's #2, #1, #4, ...

........................................................................
.............................. CYCLE   42 ..............................
........................................................................
   1    -38.3130963 -0.383131E+02  0.112E-02    1.88       0.0  T
   2    -38.3130963 -0.674073E-07  0.639E-03    1.88       2.8  T
   3    -38.3130962  0.127294E-06  0.405E-03    1.88       4.4  T
   4    -38.3130964 -0.175641E-06  0.107E-03    1.88      16.8  T
   5    -38.3130964 -0.300604E-08  0.727E-04    1.88      24.7  T
   6    -38.3130964  0.132066E-08  0.344E-04    1.88      52.2  T
     SCC iter.                  ...        0 min,  0.148 sec
     gradient                   ...        0 min,  0.007 sec
 * total energy  :   -37.6609156 Eh     change       -0.3397351E-05 Eh
   gradient norm :     0.0008324 Eh/α   predicted    -0.1751110E-05 ( -48.46%)
   displ. norm   :     0.0299763 α      lambda       -0.1907203E-05
   maximum displ.:     0.0164912 α      in ANC's #3, #2, #1, ...

   *** GEOMETRY OPTIMIZATION CONVERGED AFTER 42 ITERATIONS ***

------------------------------------------------------------------------
 total energy gain   :        -0.7687361 Eh     -482.3892 kcal/mol
 total RMSD          :         1.2994255 a0        0.6876 Å
 total power (kW/mol):       -48.0551514 (step) -190.7504 (real)
------------------------------------------------------------------------

 ANCopt (total)                0 d,  0 h,  0 min, 10.581 sec
 optimizer setup                ...        0 min,  0.000 sec (  0.004%)
 model hessian                  ...        0 min,  0.038 sec (  0.360%)
 ANC generation                 ...        0 min,  0.003 sec (  0.027%)
 coordinate transformation      ...        0 min,  0.001 sec (  0.005%)
 single point calculation       ...        0 min, 10.418 sec ( 98.463%)
 optimization log               ...        0 min,  0.004 sec (  0.037%)
 hessian update                 ...        0 min,  0.064 sec (  0.601%)
 rational function              ...        0 min,  0.051 sec (  0.478%)

================
 final structure:
================
31
 xtb: 6.5.1 (b24c23e)
Zr          -1.19994915905158       -0.05095834247230        0.39339723814613
C           -1.25091565198307        1.09592119615225       -1.49052830225002
C            0.23823375041064       -2.01171457535816        0.97121013600851
C            0.56349952938925       -1.59911630050323       -0.34120761577424
C           -0.56501463948333       -1.84790864821991       -1.16704935662833
C           -1.59237405858987       -2.38186860696936       -0.35208250636523
C           -1.10178248845093       -2.46285026390184        0.97684754436529
H            0.93621354959728       -2.09686846560932        1.79494122103629
H            1.54959684303815       -1.31050773134970       -0.69070408876674
H           -0.57659848235131       -1.80030585587244       -2.24890213629849
H           -2.49668686586765       -2.85306975998775       -0.71714009924791
H           -1.59241987736063       -2.97012403787935        1.80126661289532
C           -0.57338279692581        0.28349103022974        2.78920770764038
C           -1.77123557127242        0.99614995833265        2.55668517720770
C           -1.48657111662098        2.04042188300859        1.63816768860387
C           -0.11199449987219        1.95627224694105        1.29371317224577
C            0.44965968836319        0.87095644100451        2.00659477425634
H           -0.43260055083431       -0.47384870454204        3.55162601003069
H           -2.68160982403518        0.88539361635729        3.13632072452725
H           -2.13834053663410        2.86791883125682        1.38587338327073
H            0.44127365872954        2.69194978120594        0.72092841753261
H            1.50674875987945        0.63496043568626        2.05897315103241
H           -0.23025151226480        1.16382680383506       -1.90870752441298
H           -1.87503494316456        0.63397004720997       -2.27235353368101
H           -1.60442430113631        2.13238190327351       -1.37947152533649
C           -3.89139542965947       -0.41221290896649        0.12770106351332
C           -4.04140839131131        0.90650310339133        0.26062329952692
H           -4.28177151246883        1.36173296794056        1.21413406426398
H           -4.06805959468102        1.55906003006419       -0.60531464996881
H           -4.04221407593165       -1.08424109624548        0.97464511343208
H           -3.86427025945766       -0.85578002801081       -0.86631084080622

 Bond Distances (Angstroems)
 ---------------------------
Zr1-C2=2.2062        Zr1-C3=2.4994        Zr1-C4=2.4589        Zr1-C5=2.4632        Zr1-C6=2.4785        Zr1-C7=2.4834        
Zr1-C13=2.4989       Zr1-C14=2.4703       Zr1-C15=2.4506       Zr1-C16=2.4542       Zr1-C17=2.4847       Zr1-C26=2.7285       
Zr1-C27=3.0014       C2-Zr1=2.2062        C2-H23=1.1051        C2-H24=1.1019        C2-H25=1.1007        C3-Zr1=2.4994        
C3-C4=1.4137         C3-C7=1.4139         C3-H8=1.0830         C4-Zr1=2.4589        C4-C3=1.4137         C4-C5=1.4204         
C4-H9=1.0853         C5-Zr1=2.4632        C5-C4=1.4204         C5-C6=1.4159         C5-H10=1.0830        C6-Zr1=2.4785        
C6-C5=1.4159         C6-C7=1.4189         C6-H11=1.0831        C7-Zr1=2.4834        C7-C3=1.4139         C7-C6=1.4189         
C7-H12=1.0852        H8-C3=1.0830         H9-C4=1.0853         H10-C5=1.0830        H11-C6=1.0831        H12-C7=1.0852        
C13-Zr1=2.4989       C13-C14=1.4131       C13-C17=1.4157       C13-H18=1.0838       C14-Zr1=2.4703       C14-C13=1.4131       
C14-C15=1.4196       C14-H19=1.0849       C15-Zr1=2.4506       C15-C14=1.4196       C15-C16=1.4196       C15-H20=1.0831       
C16-Zr1=2.4542       C16-C15=1.4196       C16-C17=1.4148       C16-H21=1.0842       C17-Zr1=2.4847       C17-C13=1.4157       
C17-C16=1.4148       C17-H22=1.0844       H18-C13=1.0838       H19-C14=1.0849       H20-C15=1.0831       H21-C16=1.0842       
H22-C17=1.0844       H23-C2=1.1051        H24-C2=1.1019        H25-C2=1.1007        C26-Zr1=2.7285       C26-C27=1.3339       
C26-H30=1.0916       C26-H31=1.0888       C27-Zr1=3.0014       C27-C26=1.3339       C27-H28=1.0836       C27-H29=1.0846       
H28-C27=1.0836       H29-C27=1.0846       H30-C26=1.0916       H31-C26=1.0888       
 C  H  Rav=1.0880 sigma=0.0071  Rmin=1.0830  Rmax=1.1051    17
 C  C  Rav=1.4090 sigma=0.0239  Rmin=1.3339  Rmax=1.4204    11
 Zr C  Rav=2.5137 sigma=0.1747  Rmin=2.2062  Rmax=3.0014    13

 selected bond angles (degree)
 --------------------
C3-Zr1-C2=128.21               C4-Zr1-C2= 95.09               C4-Zr1-C3= 33.12               C5-Zr1-C2= 81.04               
C5-Zr1-C3= 54.96               C5-Zr1-C4= 33.54               C6-Zr1-C2=103.20               C6-Zr1-C3= 54.75               
C6-Zr1-C4= 55.36               C6-Zr1-C5= 33.30               C7-Zr1-C2=134.94               C7-Zr1-C3= 32.97               
C7-Zr1-C4= 55.27               C7-Zr1-C5= 55.26               C7-Zr1-C6= 33.23               C13-Zr1-C2=139.02              
C13-Zr1-C3= 74.87              C13-Zr1-C4=101.00              C13-Zr1-C5=129.82              C13-Zr1-C6=117.00              
C13-Zr1-C7= 83.96              C14-Zr1-C2=121.47              C14-Zr1-C3=105.26              C14-Zr1-C4=133.98              
C14-Zr1-C5=157.46              C14-Zr1-C6=128.71              C14-Zr1-C7=102.42              C14-Zr1-C13= 33.04             
C15-Zr1-C2= 89.28              C15-Zr1-C3=128.27              C15-Zr1-C4=140.62              C15-Zr1-C5=167.04              
C15-Zr1-C6=159.53              C15-Zr1-C7=135.57              C15-Zr1-C13= 55.12             C15-Zr1-C14= 33.53             
C16-Zr1-C2= 84.16              C16-Zr1-C3=107.56              C16-Zr1-C4=107.86              C16-Zr1-C5=135.63              
C16-Zr1-C6=161.75              C16-Zr1-C7=133.68              C16-Zr1-C13= 55.09             C16-Zr1-C14= 55.57             
C16-Zr1-C15= 33.65             C17-Zr1-C2=112.14              C17-Zr1-C3= 76.05              C17-Zr1-C4= 87.22              
C17-Zr1-C5=120.72              C17-Zr1-C6=130.49              C17-Zr1-C7=100.46              C17-Zr1-C13= 33.01             
C17-Zr1-C14= 55.09             C17-Zr1-C15= 55.33             C17-Zr1-C16= 33.28             C26-Zr1-C2= 87.87              
C26-Zr1-C3=119.09              C26-Zr1-C4=126.51              C26-Zr1-C5= 95.51              C26-Zr1-C6= 71.94              
C26-Zr1-C7= 86.17              C26-Zr1-C13=111.00             C26-Zr1-C14= 85.03             C26-Zr1-C15= 92.70             
C26-Zr1-C16=125.54             C26-Zr1-C17=140.11             C27-Zr1-C2= 76.97              C27-Zr1-C3=143.63              
C27-Zr1-C4=150.07              C27-Zr1-C5=116.66              C27-Zr1-C6= 97.86              C27-Zr1-C7=110.96              
C27-Zr1-C13=103.72             C27-Zr1-C14= 71.61             C27-Zr1-C15= 68.87             C27-Zr1-C16=100.08             
C27-Zr1-C17=122.61             C27-Zr1-C26= 26.37             H23-C2-Zr1=109.50              H24-C2-Zr1=113.64              
H24-C2-H23=106.28              H25-C2-Zr1=114.25              H25-C2-H23=106.08              H25-C2-H24=106.53              
C4-C3-Zr1= 71.87               C7-C3-Zr1= 72.90               C7-C3-C4=108.35                H8-C3-Zr1=127.47               
H8-C3-C4=125.50                H8-C3-C7=125.64                C3-C4-Zr1= 75.01               C5-C4-Zr1= 73.39               
C5-C4-C3=107.81                H9-C4-Zr1=125.48               H9-C4-C3=125.85                H9-C4-C5=125.54                
C4-C5-Zr1= 73.06               C6-C5-Zr1= 73.95               C6-C5-C4=107.93                H10-C5-Zr1=126.73              
H10-C5-C4=125.57               H10-C5-C6=125.72               C5-C6-Zr1= 72.76               C7-C6-Zr1= 73.57               
C7-C6-C5=108.04                H11-C6-Zr1=130.00              H11-C6-C5=125.16               H11-C6-C7=125.42               
C3-C7-Zr1= 74.14               C6-C7-Zr1= 73.19               C6-C7-C3=107.80                H12-C7-Zr1=127.92              
H12-C7-C3=125.50               H12-C7-C6=125.58               

 selected dihedral angles (degree)
 ---------------------------------
H23-C2-Zr1-C3=324.39          H23-C2-Zr1-C4=324.71          H23-C2-Zr1-C5=294.15          H23-C2-Zr1-C6=269.13          
H23-C2-Zr1-C7=280.68          H23-C2-Zr1-C13= 77.96         H23-C2-Zr1-C14=115.39         H23-C2-Zr1-C15=105.51         
H23-C2-Zr1-C16= 72.18         H23-C2-Zr1-C17= 53.77         H23-C2-Zr1-C26=198.23         H23-C2-Zr1-C27=173.97         
H24-C2-Zr1-C3= 83.06          H24-C2-Zr1-C4= 83.37          H24-C2-Zr1-C5= 52.82          H24-C2-Zr1-C6= 27.79          
H24-C2-Zr1-C7= 39.35          H24-C2-Zr1-C13=196.63         H24-C2-Zr1-C14=234.05         H24-C2-Zr1-C15=224.17         
H24-C2-Zr1-C16=190.85         H24-C2-Zr1-C17=172.43         H24-C2-Zr1-C26=316.90         H24-C2-Zr1-C27=292.63         
H25-C2-Zr1-C3=205.59          H25-C2-Zr1-C4=205.91          H25-C2-Zr1-C5=175.35          H25-C2-Zr1-C6=150.33          
H25-C2-Zr1-C7=161.88          H25-C2-Zr1-C13=319.16         H25-C2-Zr1-C14=356.59         H25-C2-Zr1-C15=346.71         
H25-C2-Zr1-C16=313.38         H25-C2-Zr1-C17=294.97         H25-C2-Zr1-C26= 79.43         H25-C2-Zr1-C27= 55.17         
C4-C3-Zr1-C2=  0.57           C4-C3-Zr1-C5= 37.99           C4-C3-Zr1-C6= 79.01           C4-C3-Zr1-C7=116.58           
C4-C3-Zr1-C13=219.08          C4-C3-Zr1-C14=205.96          C4-C3-Zr1-C15=233.66          C4-C3-Zr1-C16=264.06          
C4-C3-Zr1-C17=253.19          C4-C3-Zr1-C26=113.15          C4-C3-Zr1-C27=126.38          C7-C3-Zr1-C2=243.99           
C7-C3-Zr1-C4=243.42           C7-C3-Zr1-C5=281.41           C7-C3-Zr1-C6=322.43           C7-C3-Zr1-C13=102.50          
C7-C3-Zr1-C14= 89.38          C7-C3-Zr1-C15=117.08          C7-C3-Zr1-C16=147.48          C7-C3-Zr1-C17=136.61          
C7-C3-Zr1-C26=356.57          C7-C3-Zr1-C27=  9.80          H8-C3-Zr1-C2=121.84           H8-C3-Zr1-C4=121.26           
H8-C3-Zr1-C5=159.25           H8-C3-Zr1-C6=200.28           H8-C3-Zr1-C7=237.84           H8-C3-Zr1-C13=340.35          
H8-C3-Zr1-C14=327.22          H8-C3-Zr1-C15=354.92          H8-C3-Zr1-C16= 25.32          H8-C3-Zr1-C17= 14.46          
H8-C3-Zr1-C26=234.42          H8-C3-Zr1-C27=247.65          C3-C4-Zr1-C2=180.45           C3-C4-Zr1-C5=245.78           
C3-C4-Zr1-C6=282.99           C3-C4-Zr1-C7=323.69           C3-C4-Zr1-C13= 38.32          C3-C4-Zr1-C14= 35.93          
C3-C4-Zr1-C15= 85.37          C3-C4-Zr1-C16= 94.96          C3-C4-Zr1-C17= 68.46          C3-C4-Zr1-C26=271.57          
C3-C4-Zr1-C27=253.06          C5-C4-Zr1-C2=294.67           C5-C4-Zr1-C3=114.22           C5-C4-Zr1-C6= 37.21           
C5-C4-Zr1-C7= 77.91           C5-C4-Zr1-C13=152.54          C5-C4-Zr1-C14=150.15          C5-C4-Zr1-C15=199.59          
C5-C4-Zr1-C16=209.18          C5-C4-Zr1-C17=182.68          C5-C4-Zr1-C26= 25.80          C5-C4-Zr1-C27=  7.28          
H9-C4-Zr1-C2= 56.83           H9-C4-Zr1-C3=236.38           H9-C4-Zr1-C5=122.16           H9-C4-Zr1-C6=159.37           
H9-C4-Zr1-C7=200.07           H9-C4-Zr1-C13=274.70          H9-C4-Zr1-C14=272.31          H9-C4-Zr1-C15=321.75          
H9-C4-Zr1-C16=331.34          H9-C4-Zr1-C17=304.84          H9-C4-Zr1-C26=147.95          H9-C4-Zr1-C27=129.44          
Zr1-C4-C3-C7= 64.23           Zr1-C4-C3-H8=236.45           C5-C4-C3-Zr1=293.38           C5-C4-C3-C7=357.61            
C5-C4-C3-H8=169.82            H9-C4-C3-Zr1=123.22           H9-C4-C3-C7=187.45            H9-C4-C3-H8=359.66            
C4-C5-Zr1-C2=113.61           C4-C5-Zr1-C3=322.51           C4-C5-Zr1-C6=245.00           C4-C5-Zr1-C7=282.04           
C4-C5-Zr1-C13=323.89          C4-C5-Zr1-C14=290.86          C4-C5-Zr1-C15= 71.52          C4-C5-Zr1-C16= 41.57          
C4-C5-Zr1-C17=  3.11          C4-C5-Zr1-C26=200.57          C4-C5-Zr1-C27=184.06          C6-C5-Zr1-C2=228.60           
C6-C5-Zr1-C3= 77.51           C6-C5-Zr1-C4=115.00           C6-C5-Zr1-C7= 37.03           C6-C5-Zr1-C13= 78.88          
C6-C5-Zr1-C14= 45.86          C6-C5-Zr1-C15=186.52          C6-C5-Zr1-C16=156.56          C6-C5-Zr1-C17=118.11          
C6-C5-Zr1-C26=315.57          C6-C5-Zr1-C27=299.05          H10-C5-Zr1-C2=351.51          H10-C5-Zr1-C3=200.41          
H10-C5-Zr1-C4=237.90          H10-C5-Zr1-C6=122.91          H10-C5-Zr1-C7=159.94          H10-C5-Zr1-C13=201.79         
H10-C5-Zr1-C14=168.76         H10-C5-Zr1-C15=309.43         H10-C5-Zr1-C16=279.47         H10-C5-Zr1-C17=241.01         
H10-C5-Zr1-C26= 78.47         H10-C5-Zr1-C27= 61.96         Zr1-C5-C4-C3= 67.71           Zr1-C5-C4-H9=237.91           
C6-C5-C4-Zr1=293.73           C6-C5-C4-C3=  1.44            C6-C5-C4-H9=171.64            H10-C5-C4-Zr1=123.42          
H10-C5-C4-C3=191.13           H10-C5-C4-H9=  1.33           C5-C6-Zr1-C2= 49.56           C5-C6-Zr1-C3=281.81           
C5-C6-Zr1-C4=322.50           C5-C6-Zr1-C7=244.56           C5-C6-Zr1-C13=237.76          C5-C6-Zr1-C14=200.64          
C5-C6-Zr1-C15=175.82          C5-C6-Zr1-C16=297.35          C5-C6-Zr1-C17=274.38          C5-C6-Zr1-C26=132.87          
C5-C6-Zr1-C27=127.94          C7-C6-Zr1-C2=165.00           C7-C6-Zr1-C3= 37.26           C7-C6-Zr1-C4= 77.94           
C7-C6-Zr1-C5=115.44           C7-C6-Zr1-C13=353.20          C7-C6-Zr1-C14=316.09          C7-C6-Zr1-C15=291.27          
C7-C6-Zr1-C16= 52.80          C7-C6-Zr1-C17= 29.82          C7-C6-Zr1-C26=248.31          C7-C6-Zr1-C27=243.39          
H11-C6-Zr1-C2=287.78          H11-C6-Zr1-C3=160.03          H11-C6-Zr1-C4=200.72          H11-C6-Zr1-C5=238.22          
H11-C6-Zr1-C7=122.77          H11-C6-Zr1-C13=115.97         H11-C6-Zr1-C14= 78.86         H11-C6-Zr1-C15= 54.04         
H11-C6-Zr1-C16=175.57         H11-C6-Zr1-C17=152.60         H11-C6-Zr1-C26= 11.08         H11-C6-Zr1-C27=  6.16         
Zr1-C6-C5-C4= 65.68           Zr1-C6-C5-H10=235.97          C7-C6-C5-Zr1=294.36           C7-C6-C5-C4=  0.05            
C7-C6-C5-H10=170.34           H11-C6-C5-Zr1=127.20          H11-C6-C5-C4=192.88           H11-C6-C5-H10=  3.17          
C3-C7-Zr1-C2= 93.85           C3-C7-Zr1-C4= 36.48           C3-C7-Zr1-C5= 77.59           C3-C7-Zr1-C6=114.70           
C3-C7-Zr1-C13=288.61          C3-C7-Zr1-C14=261.05          C3-C7-Zr1-C15=266.95          C3-C7-Zr1-C16=314.87          
C3-C7-Zr1-C17=317.32          C3-C7-Zr1-C26=177.00          C3-C7-Zr1-C27=186.21          C6-C7-Zr1-C2=339.15           
C6-C7-Zr1-C3=245.30           C6-C7-Zr1-C4=281.78           C6-C7-Zr1-C5=322.89           C6-C7-Zr1-C13=173.91          
C6-C7-Zr1-C14=146.35          C6-C7-Zr1-C15=152.25          C6-C7-Zr1-C16=200.17          C6-C7-Zr1-C17=202.62          
C6-C7-Zr1-C26= 62.30          C6-C7-Zr1-C27= 71.51          H12-C7-Zr1-C2=216.79          H12-C7-Zr1-C3=122.94          
H12-C7-Zr1-C4=159.42          H12-C7-Zr1-C5=200.54          H12-C7-Zr1-C6=237.64          H12-C7-Zr1-C13= 51.55         
H12-C7-Zr1-C14= 23.99         H12-C7-Zr1-C15= 29.90         H12-C7-Zr1-C16= 77.82         H12-C7-Zr1-C17= 80.26         
H12-C7-Zr1-C26=299.94         H12-C7-Zr1-C27=309.15         Zr1-C7-C3-C4=296.43           Zr1-C7-C3-H8=124.23           
C6-C7-C3-Zr1= 65.99           C6-C7-C3-C4=  2.42            C6-C7-C3-H8=190.22            H12-C7-C3-Zr1=234.40          
H12-C7-C3-C4=170.83           H12-C7-C3-H8=358.64           Zr1-C7-C6-C5= 65.10           Zr1-C7-C6-H11=232.22          
C3-C7-C6-Zr1=293.38           C3-C7-C6-C5=358.48            C3-C7-C6-H11=165.61           H12-C7-C6-Zr1=124.98          
H12-C7-C6-C5=190.08           H12-C7-C6-H11=357.20          

 CMA Distance (Angstroems)
 ---------------------------
R(CMA):  3.1709
           -------------------------------------------------
          |                Final Singlepoint                |
           -------------------------------------------------

          ...................................................
          :                      SETUP                      :
          :.................................................:
          :  # basis functions                  79          :
          :  # atomic orbitals                  78          :
          :  # shells                           46          :
          :  # electrons                        72          :
          :  max. iterations                   250          :
          :  Hamiltonian                  GFN2-xTB          :
          :  restarted?                      false          :
          :  GBSA solvation                  false          :
          :  PC potential                    false          :
          :  electronic temp.          300.0000000     K    :
          :  accuracy                    1.0000000          :
          :  -> integral cutoff          0.2500000E+02      :
          :  -> integral neglect         0.1000000E-07      :
          :  -> SCF convergence          0.1000000E-05 Eh   :
          :  -> wf. convergence          0.1000000E-03 e    :
          :  Broyden damping             0.4000000          :
          ...................................................

 iter      E             dE          RMSdq      gap      omega  full diag
   1    -38.3130964 -0.383131E+02  0.788E-05    1.88       0.0  T
   2    -38.3130964 -0.155396E-10  0.560E-05    1.88     320.5  T
   3    -38.3130964 -0.256506E-11  0.426E-05    1.88     421.7  T

   *** convergence criteria satisfied after 3 iterations ***

         #    Occupation            Energy/Eh            Energy/eV
      -------------------------------------------------------------
         1        2.0000           -0.8632734             -23.4909
       ...           ...                  ...                  ...
        30        2.0000           -0.5767567             -15.6943
        31        2.0000           -0.5750061             -15.6467
        32        2.0000           -0.5221206             -14.2076
        33        2.0000           -0.5172380             -14.0748
        34        2.0000           -0.5076118             -13.8128
        35        2.0000           -0.5015292             -13.6473
        36        2.0000           -0.4954571             -13.4821 (HOMO)
        37                         -0.4264376             -11.6040 (LUMO)
        38                         -0.4174277             -11.3588
        39                         -0.4099218             -11.1545
        40                         -0.4041319             -10.9970
        41                         -0.3937799             -10.7153
       ...                                ...                  ...
        78                          2.4349212              66.2576
      -------------------------------------------------------------
                  HL-Gap            0.0690195 Eh            1.8781 eV
             Fermi-level           -0.4609474 Eh          -12.5430 eV

 SCC (total)                   0 d,  0 h,  0 min,  0.149 sec
 SCC setup                      ...        0 min,  0.001 sec (  0.467%)
 Dispersion                     ...        0 min,  0.000 sec (  0.133%)
 classical contributions        ...        0 min,  0.005 sec (  3.339%)
 integral evaluation            ...        0 min,  0.001 sec (  0.863%)
 iterations                     ...        0 min,  0.072 sec ( 48.216%)
 molecular gradient             ...        0 min,  0.070 sec ( 46.859%)
 printout                       ...        0 min,  0.000 sec (  0.110%)

         :::::::::::::::::::::::::::::::::::::::::::::::::::::
         ::                     SUMMARY                     ::
         :::::::::::::::::::::::::::::::::::::::::::::::::::::
         :: total energy             -37.660915560743 Eh    ::
         :: gradient norm              0.000831996348 Eh/a0 ::
         :: HOMO-LUMO gap              1.878115360255 eV    ::
         ::.................................................::
         :: SCC energy               -38.313096371129 Eh    ::
         :: -> isotropic ES            0.091032677403 Eh    ::
         :: -> anisotropic ES         -0.013219655631 Eh    ::
         :: -> anisotropic XC          0.022575082343 Eh    ::
         :: -> dispersion             -0.027989605642 Eh    ::
         :: repulsion energy           0.651451577094 Eh    ::
         :: add. restraining           0.000000022272 Eh    ::
         :: total charge               1.000000000000 e     ::
         :::::::::::::::::::::::::::::::::::::::::::::::::::::

           -------------------------------------------------
          |                Property Printout                |
           -------------------------------------------------

    * Orbital Energies and Occupations

         #    Occupation            Energy/Eh            Energy/eV
      -------------------------------------------------------------
         1        2.0000           -0.8632734             -23.4909
       ...           ...                  ...                  ...
        24        2.0000           -0.5917335             -16.1019
        25        2.0000           -0.5907593             -16.0754
        26        2.0000           -0.5878220             -15.9955
        27        2.0000           -0.5873675             -15.9831
        28        2.0000           -0.5860191             -15.9464
        29        2.0000           -0.5852928             -15.9266
        30        2.0000           -0.5767567             -15.6943
        31        2.0000           -0.5750061             -15.6467
        32        2.0000           -0.5221206             -14.2076
        33        2.0000           -0.5172380             -14.0748
        34        2.0000           -0.5076118             -13.8128
        35        2.0000           -0.5015292             -13.6473
        36        2.0000           -0.4954571             -13.4821 (HOMO)
        37                         -0.4264376             -11.6040 (LUMO)
        38                         -0.4174277             -11.3588
        39                         -0.4099218             -11.1545
        40                         -0.4041319             -10.9970
        41                         -0.3937799             -10.7153
        42                         -0.3781952             -10.2912
        43                         -0.3052625              -8.3066
        44                         -0.3045603              -8.2875
        45                         -0.3009952              -8.1905
        46                         -0.3003677              -8.1734
        47                         -0.0567437              -1.5441
       ...                                ...                  ...
        78                          2.4349212              66.2576
      -------------------------------------------------------------
                  HL-Gap            0.0690195 Eh            1.8781 eV
             Fermi-level           -0.4609474 Eh          -12.5430 eV

     #   Z          covCN         q      C6AA      α(0)
     1  40 Zr       9.083     0.946   138.952    17.713
     2   6 C        3.574    -0.338    28.671     7.784
     3   6 C        3.743    -0.080    22.112     6.708
     4   6 C        3.757    -0.087    22.205     6.719
     5   6 C        3.757    -0.082    22.110     6.704
     6   6 C        3.751    -0.097    22.416     6.752
     7   6 C        3.746    -0.093    22.342     6.742
     8   1 H        0.925     0.082     1.955     2.186
     9   1 H        0.925     0.083     1.953     2.185
    10   1 H        0.925     0.089     1.891     2.150
    11   1 H        0.925     0.072     2.060     2.245
    12   1 H        0.925     0.073     2.051     2.240
    13   6 C        3.742    -0.084    22.176     6.718
    14   6 C        3.752    -0.097    22.415     6.752
    15   6 C        3.763    -0.095    22.349     6.739
    16   6 C        3.759    -0.081    22.100     6.702
    17   6 C        3.747    -0.085    22.186     6.718
    18   1 H        0.925     0.080     1.983     2.202
    19   1 H        0.925     0.069     2.094     2.263
    20   1 H        0.925     0.081     1.968     2.193
    21   1 H        0.925     0.090     1.883     2.146
    22   1 H        0.925     0.081     1.970     2.195
    23   1 H        0.931     0.059     2.210     2.324
    24   1 H        0.927     0.056     2.247     2.344
    25   1 H        0.927     0.058     2.219     2.329
    26   6 C        3.381    -0.094    26.623     8.035
    27   6 C        3.067    -0.070    29.664     8.931
    28   1 H        0.925     0.112     1.678     2.026
    29   1 H        0.925     0.123     1.588     1.971
    30   1 H        0.924     0.108     1.717     2.049
    31   1 H        0.925     0.121     1.606     1.982

 Mol. C6AA /au·bohr⁶  :       9695.794294
 Mol. C8AA /au·bohr⁸  :     328359.769235
 Mol. α(0) /au        :        146.748221


Wiberg/Mayer (AO) data.
largest (>0.10) Wiberg bond orders for each atom

 ---------------------------------------------------------------------------
     #   Z sym  total        # sym  WBO       # sym  WBO       # sym  WBO
 ---------------------------------------------------------------------------
     1  40 Zr   4.258 --     2 C    0.872    16 C    0.259     4 C    0.258
                             5 C    0.253    15 C    0.251     6 C    0.239
                            17 C    0.233    14 C    0.233     7 C    0.230
                            13 C    0.216     3 C    0.214    26 C    0.191
                            27 C    0.131
     2   6 C    3.805 --    25 H    0.924    24 H    0.922    23 H    0.911
                             1 Zr   0.872
     3   6 C    3.981 --     7 C    1.316     4 C    1.314     8 H    0.928
                             1 Zr   0.214
     4   6 C    3.980 --     3 C    1.314     5 C    1.281     9 H    0.920
                             1 Zr   0.258
     5   6 C    3.982 --     6 C    1.300     4 C    1.281    10 H    0.925
                             1 Zr   0.253
     6   6 C    3.978 --     5 C    1.300     7 C    1.290    11 H    0.929
                             1 Zr   0.239
     7   6 C    3.978 --     3 C    1.316     6 C    1.290    12 H    0.924
                             1 Zr   0.230
     8   1 H    0.991 --     3 C    0.928
     9   1 H    0.991 --     4 C    0.920
    10   1 H    0.990 --     5 C    0.925
    11   1 H    0.992 --     6 C    0.929
    12   1 H    0.993 --     7 C    0.924
    13   6 C    3.981 --    14 C    1.316    17 C    1.309    18 H    0.928
                             1 Zr   0.216
    14   6 C    3.977 --    13 C    1.316    15 C    1.291    19 H    0.925
                             1 Zr   0.233
    15   6 C    3.978 --    14 C    1.291    16 C    1.287    20 H    0.926
                             1 Zr   0.251
    16   6 C    3.983 --    17 C    1.304    15 C    1.287    21 H    0.921
                             1 Zr   0.259
    17   6 C    3.981 --    13 C    1.309    16 C    1.304    22 H    0.925
                             1 Zr   0.233
    18   1 H    0.991 --    13 C    0.928
    19   1 H    0.993 --    14 C    0.925
    20   1 H    0.990 --    15 C    0.926
    21   1 H    0.989 --    16 C    0.921
    22   1 H    0.991 --    17 C    0.925
    23   1 H    0.996 --     2 C    0.911
    24   1 H    0.996 --     2 C    0.922
    25   1 H    0.996 --     2 C    0.924
    26   6 C    3.991 --    27 C    1.890    30 H    0.914    31 H    0.913
                             1 Zr   0.191
    27   6 C    3.974 --    26 C    1.890    28 H    0.941    29 H    0.935
                             1 Zr   0.131
    28   1 H    0.986 --    27 C    0.941
    29   1 H    0.984 --    27 C    0.935
    30   1 H    0.988 --    26 C    0.914
    31   1 H    0.984 --    26 C    0.913
 ---------------------------------------------------------------------------

Topologies differ in total number of bonds
Writing topology from bond orders to xtbtopo.mol

molecular dipole:
                 x           y           z       tot (Debye)
 q only:       -3.716      -0.077       0.907
   full:       -3.687      -0.176       0.988       9.713
molecular quadrupole (traceless):
                xx          xy          yy          xz          yz          zz
 q only:       21.484      -1.020     -11.013      -3.828      -0.974     -10.471
  q+dip:       20.488       0.191     -13.008      -5.076      -5.725      -7.480
   full:       21.933       0.811     -12.952      -5.461      -3.771      -8.981

           -------------------------------------------------
          |                Geometry Summary                 |
           -------------------------------------------------

      molecular mass/u    :      264.4982010
   center of mass at/Å    :       -1.1980988      -0.1322403       0.5792943
  moments of inertia/u·Å² :        0.6157180E+03   0.7524309E+03   0.9397928E+03
rotational constants/cm⁻¹ :        0.2737882E-01   0.2240423E-01   0.1793761E-01

 * 39 selected distances

     #   Z          #   Z                                           value/Å
     1  40 Zr       2   6 C                                       2.2061520
     1  40 Zr       3   6 C                                       2.4993607 (max)
     1  40 Zr       4   6 C                                       2.4589001
     3   6 C        4   6 C                                       1.4136746
     1  40 Zr       5   6 C                                       2.4631620
     4   6 C        5   6 C                                       1.4203721
     1  40 Zr       6   6 C                                       2.4784836
     5   6 C        6   6 C                                       1.4158926
     1  40 Zr       7   6 C                                       2.4833998
     3   6 C        7   6 C                                       1.4139304
     6   6 C        7   6 C                                       1.4189058
     3   6 C        8   1 H                                       1.0830328
     4   6 C        9   1 H                                       1.0852791
     5   6 C       10   1 H                                       1.0829616 (min)
     6   6 C       11   1 H                                       1.0830879
     7   6 C       12   1 H                                       1.0852275
     1  40 Zr      13   6 C                                       2.4988699
     1  40 Zr      14   6 C                                       2.4703481
    13   6 C       14   6 C                                       1.4130821
     1  40 Zr      15   6 C                                       2.4506077
    14   6 C       15   6 C                                       1.4195818
     1  40 Zr      16   6 C                                       2.4542188
    15   6 C       16   6 C                                       1.4195743
     1  40 Zr      17   6 C                                       2.4846617
    13   6 C       17   6 C                                       1.4157030
    16   6 C       17   6 C                                       1.4147673
    13   6 C       18   1 H                                       1.0838196
    14   6 C       19   1 H                                       1.0849082
    15   6 C       20   1 H                                       1.0831469
    16   6 C       21   1 H                                       1.0841631
    17   6 C       22   1 H                                       1.0843778
     2   6 C       23   1 H                                       1.1050975
     2   6 C       24   1 H                                       1.1018959
     2   6 C       25   1 H                                       1.1007057
    26   6 C       27   6 C                                       1.3338607
    27   6 C       28   1 H                                       1.0836012
    27   6 C       29   1 H                                       1.0846149
    26   6 C       30   1 H                                       1.0916422
    26   6 C       31   1 H                                       1.0888285

 * 3 distinct bonds (by element types)

   Z      Z             #   av. dist./Å        max./Å        min./Å
   1 H    6 C          17     1.0880230     1.1050975     1.0829616
   6 C    6 C          11     1.4090313     1.4203721     1.3338607
   6 C   40 Zr         11     2.4498331     2.4993607     2.2061520


optimized geometry written to: xtbopt.xyz


           -------------------------------------------------
          | TOTAL ENERGY              -37.660915560743 Eh   |
          | GRADIENT NORM               0.000831996348 Eh/α |
          | HOMO-LUMO GAP               1.878115360255 eV   |
           -------------------------------------------------

------------------------------------------------------------------------
 * finished run on 2026/08/03 at 12:16:43.177     
------------------------------------------------------------------------
 total:
 * wall-time:     0 d,  0 h,  0 min, 11.525 sec
 *  cpu-time:     0 d,  0 h,  1 min, 29.365 sec
 * ratio c/w:     7.754 speedup
 SCF:
 * wall-time:     0 d,  0 h,  0 min,  0.651 sec
 *  cpu-time:     0 d,  0 h,  0 min,  5.066 sec
 * ratio c/w:     7.786 speedup
 ANC optimizer:
 * wall-time:     0 d,  0 h,  0 min, 10.737 sec
 *  cpu-time:     0 d,  0 h,  1 min, 23.276 sec
 * ratio c/w:     7.756 speedup

