      -----------------------------------------------------------      
     |                   =====================                   |     
     |                           x T B                           |     
     |                   =====================                   |     
     |                         S. Grimme                         |     
     |          Mulliken Center for Theoretical Chemistry        |     
     |                    University of Bonn                     |     
      -----------------------------------------------------------      

   * xtb version 6.5.1 (b24c23e) compiled by 'conda@728c89f4b128' on 2022-07-12

   xtb is free software: you can redistribute it and/or modify it under
   the terms of the GNU Lesser General Public License as published by
   the Free Software Foundation, either version 3 of the License, or
   (at your option) any later version.
   
   xtb is distributed in the hope that it will be useful,
   but WITHOUT ANY WARRANTY; without even the implied warranty of
   MERCHANTABILITY or FITNESS FOR A PARTICULAR PURPOSE.  See the
   GNU Lesser General Public License for more details.
   
   Cite this work as:
   * C. Bannwarth, E. Caldeweyher, S. Ehlert, A. Hansen, P. Pracht,
     J. Seibert, S. Spicher, S. Grimme, WIREs Comput. Mol. Sci., 2020, 11,
     e01493. DOI: 10.1002/wcms.1493
   
   for GFN2-xTB:
   * C. Bannwarth, S. Ehlert and S. Grimme., J. Chem. Theory Comput., 2019,
     15, 1652-1671. DOI: 10.1021/acs.jctc.8b01176
   for GFN1-xTB:
   * S. Grimme, C. Bannwarth, P. Shushkov, J. Chem. Theory Comput., 2017,
     13, 1989-2009. DOI: 10.1021/acs.jctc.7b00118
   for GFN0-xTB:
   * P. Pracht, E. Caldeweyher, S. Ehlert, S. Grimme, ChemRxiv, 2019, preprint.
     DOI: 10.26434/chemrxiv.8326202.v1
   for GFN-FF:
   * S. Spicher and S. Grimme, Angew. Chem. Int. Ed., 2020, 59, 15665-15673.
     DOI: 10.1002/anie.202004239
   
   for ALPB and GBSA implicit solvation:
   * S. Ehlert, M. Stahn, S. Spicher, S. Grimme, J. Chem. Theory Comput.,
     2021, 17, 4250-4261. DOI: 10.1021/acs.jctc.1c00471
   
   for DFT-D4:
   * E. Caldeweyher, C. Bannwarth and S. Grimme, J. Chem. Phys., 2017,
     147, 034112. DOI: 10.1063/1.4993215
   * E. Caldeweyher, S. Ehlert, A. Hansen, H. Neugebauer, S. Spicher,
     C. Bannwarth and S. Grimme, J. Chem. Phys., 2019, 150, 154122.
     DOI: 10.1063/1.5090222
   * E. Caldeweyher, J.-M. Mewes, S. Ehlert and S. Grimme, Phys. Chem. Chem. Phys.
     2020, 22, 8499-8512. DOI: 10.1039/D0CP00502A
   
   for sTDA-xTB:
   * S. Grimme and C. Bannwarth, J. Chem. Phys., 2016, 145, 054103.
     DOI: 10.1063/1.4959605
   
   in the mass-spec context:
   * V. Asgeirsson, C. Bauer and S. Grimme, Chem. Sci., 2017, 8, 4879.
     DOI: 10.1039/c7sc00601b
   * J. Koopman and S. Grimme, ACS Omega 2019, 4, 12, 15120-15133.
     DOI: 10.1021/acsomega.9b02011
   
   for metadynamics refer to:
   * S. Grimme, J. Chem. Theory Comput., 2019, 155, 2847-2862
     DOI: 10.1021/acs.jctc.9b00143
   
   for SPH calculations refer to:
   * S. Spicher and S. Grimme, J. Chem. Theory Comput., 2021, 17, 1701-1714
     DOI: 10.1021/acs.jctc.0c01306
   
   with help from (in alphabetical order)
   P. Atkinson, C. Bannwarth, F. Bohle, G. Brandenburg, E. Caldeweyher
   M. Checinski, S. Dohm, S. Ehlert, S. Ehrlich, I. Gerasimov, C. Hölzer
   A. Katbashev, J. Koopman, C. Lavigne, S. Lehtola, F. März, M. Müller,
   F. Musil, H. Neugebauer, J. Pisarek, C. Plett, P. Pracht, F. Pultar,
   J. Seibert, P. Shushkov, S. Spicher, M. Stahn, M. Steiner, T. Strunk,
   J. Stückrath, T. Rose, and J. Unsleber
   
 * started run on 2026/08/03 at 12:17:02.909     

           -------------------------------------------------
          |                Calculation Setup                |
           -------------------------------------------------

          program call               : /h/332/chchoi/miniconda3/envs/el-agente/bin/xtb reactant_opt.xyz --opt --gfn 2 -P 4 --chrg 1 --uhf 0 --input detailed_input.inp
          coordinate file            : reactant_opt.xyz
          omp threads                :                     4

   ID    Z sym.   atoms
    1   40 Zr     1
    2    6 C      2-7, 13-17, 26, 27
    3    1 H      8-12, 18-25, 28-31
constraining bond 2 27 to    2.1500000 Å, actual value:    3.2998883 Å

molecular fragmentation (1/2 indicates fragments):
1111111111111111111111111222222
# atoms in fragment 1/2:    25     6
 fragment masses (1/2) :      236.44       28.05
CMA distance (Bohr)    :   5.992
constraining FC (au)   :  1.0000

           -------------------------------------------------
          |                 G F N 2 - x T B                 |
           -------------------------------------------------

        Reference                      10.1021/acs.jctc.8b01176
      * Hamiltonian:
        H0-scaling (s, p, d)           1.850000    2.230000    2.230000
        zeta-weighting                 0.500000
      * Dispersion:
        s8                             2.700000
        a1                             0.520000
        a2                             5.000000
        s9                             5.000000
      * Repulsion:
        kExp                           1.500000    1.000000
        rExp                           1.000000
      * Coulomb:
        alpha                          2.000000
        third order                    shell-resolved
        anisotropic                    true
        a3                             3.000000
        a5                             4.000000
        cn-shift                       1.200000
        cn-exp                         4.000000
        max-rad                        5.000000


          ...................................................
          :                      SETUP                      :
          :.................................................:
          :  # basis functions                  79          :
          :  # atomic orbitals                  78          :
          :  # shells                           46          :
          :  # electrons                        72          :
          :  max. iterations                   250          :
          :  Hamiltonian                  GFN2-xTB          :
          :  restarted?                      false          :
          :  GBSA solvation                  false          :
          :  PC potential                    false          :
          :  electronic temp.          300.0000000     K    :
          :  accuracy                    1.0000000          :
          :  -> integral cutoff          0.2500000E+02      :
          :  -> integral neglect         0.1000000E-07      :
          :  -> SCF convergence          0.1000000E-05 Eh   :
          :  -> wf. convergence          0.1000000E-03 e    :
          :  Broyden damping             0.4000000          :
          ...................................................

 iter      E             dE          RMSdq      gap      omega  full diag
   1    -38.1880213 -0.381880E+02  0.428E+00    1.16       0.0  T
   2    -38.2927844 -0.104763E+00  0.328E+00    2.22       1.0  T
   3    -38.3114213 -0.186369E-01  0.226E+00    1.79       1.0  T
   4    -38.3085836  0.283774E-02  0.545E-01    1.91       1.0  T
   5    -38.3103852 -0.180166E-02  0.433E-01    1.81       1.0  T
   6    -38.3130633 -0.267809E-02  0.185E-01    1.84       1.0  T
   7    -38.3130809 -0.175961E-04  0.121E-01    1.86       1.0  T
   8    -38.3130910 -0.100838E-04  0.269E-02    1.87       1.0  T
   9    -38.3130957 -0.469629E-05  0.149E-02    1.88       1.2  T
  10    -38.3130960 -0.302191E-06  0.922E-03    1.88       1.9  T
  11    -38.3130963 -0.327884E-06  0.317E-03    1.88       5.7  T
  12    -38.3130964 -0.519751E-07  0.122E-03    1.88      14.7  T
  13    -38.3130964 -0.683124E-08  0.544E-04    1.88      33.0  T
  14    -38.3130964 -0.288559E-08  0.222E-04    1.88      81.1  T

   *** convergence criteria satisfied after 14 iterations ***

         #    Occupation            Energy/Eh            Energy/eV
      -------------------------------------------------------------
         1        2.0000           -0.8632731             -23.4909
       ...           ...                  ...                  ...
        30        2.0000           -0.5767577             -15.6944
        31        2.0000           -0.5750071             -15.6467
        32        2.0000           -0.5221205             -14.2076
        33        2.0000           -0.5172377             -14.0748
        34        2.0000           -0.5076116             -13.8128
        35        2.0000           -0.5015289             -13.6473
        36        2.0000           -0.4954580             -13.4821 (HOMO)
        37                         -0.4264371             -11.6039 (LUMO)
        38                         -0.4174272             -11.3588
        39                         -0.4099215             -11.1545
        40                         -0.4041316             -10.9970
        41                         -0.3937793             -10.7153
       ...                                ...                  ...
        78                          2.4349221              66.2576
      -------------------------------------------------------------
                  HL-Gap            0.0690209 Eh            1.8782 eV
             Fermi-level           -0.4609475 Eh          -12.5430 eV

 SCC (total)                   0 d,  0 h,  0 min,  0.745 sec
 SCC setup                      ...        0 min,  0.012 sec (  1.639%)
 Dispersion                     ...        0 min,  0.026 sec (  3.459%)
 classical contributions        ...        0 min,  0.013 sec (  1.677%)
 integral evaluation            ...        0 min,  0.035 sec (  4.648%)
 iterations                     ...        0 min,  0.549 sec ( 73.669%)
 molecular gradient             ...        0 min,  0.111 sec ( 14.867%)
 printout                       ...        0 min,  0.000 sec (  0.035%)

         :::::::::::::::::::::::::::::::::::::::::::::::::::::
         ::                     SUMMARY                     ::
         :::::::::::::::::::::::::::::::::::::::::::::::::::::
         :: total energy             -32.939100496611 Eh    ::
         :: gradient norm              6.145707370564 Eh/a0 ::
         :: HOMO-LUMO gap              1.878154227023 eV    ::
         ::.................................................::
         :: SCC energy               -38.313096371001 Eh    ::
         :: -> isotropic ES            0.091033231877 Eh    ::
         :: -> anisotropic ES         -0.013219507467 Eh    ::
         :: -> anisotropic XC          0.022575129408 Eh    ::
         :: -> dispersion             -0.027989604695 Eh    ::
         :: repulsion energy           0.651451577094 Eh    ::
         :: add. restraining           4.721815086276 Eh    ::
         :: total charge               1.000000000000 e     ::
         :::::::::::::::::::::::::::::::::::::::::::::::::::::

      ----------------------------------------------------------- 
     |                   =====================                   |
     |                        A N C O P T                        |
     |                   =====================                   |
     |               Approximate Normal Coordinate               |
     |                Rational Function Optimizer                |
      ----------------------------------------------------------- 

          ...................................................
          :                      SETUP                      :
          :.................................................:
          :   optimization level            normal          :
          :   max. optcycles                   200          :
          :   ANC micro-cycles                  20          :
          :   degrees of freedom                87          :
          :.................................................:
          :   RF solver                   davidson          :
          :   write xtbopt.log                true          :
          :   linear?                        false          :
          :   energy convergence         0.5000000E-05 Eh   :
          :   grad. convergence          0.1000000E-02 Eh/α :
          :   maximium RF displ.         1.0000000          :
          :   Hlow (freq-cutoff)         0.1000000E-01      :
          :   Hmax (freq-cutoff)         5.0000000          :
          :   S6 in model hess.         20.0000000          :
          ...................................................

generating ANC from model Hessian ...
Using Lindh-Hessian (1995)
 Shifting diagonal of input Hessian by    9.8536394778210266E-003
 Lowest  eigenvalues of input Hessian
    0.000000    0.000000    0.000000    0.000000    0.000000    0.000000
    0.010000    0.010360    0.010383    0.010816    0.011351    0.011515
    0.011722    0.012335    0.012720    0.017282    0.017374    0.017575
 Highest eigenvalues
    1.734626    1.740796    1.741349    2.083443    2.561764    4.556876


........................................................................
.............................. CYCLE    1 ..............................
........................................................................
   1    -38.3130964 -0.383131E+02  0.120E-04    1.88       0.0  T
   2    -38.3130964 -0.659170E-10  0.959E-05    1.88     187.3  T
   3    -38.3130964 -0.571205E-10  0.616E-05    1.88     291.8  T
     SCC iter.                  ...        0 min,  0.119 sec
     gradient                   ...        0 min,  0.099 sec
 * total energy  :   -32.9391005 Eh     change       -0.1316778E-09 Eh
   gradient norm :     6.1457076 Eh/α   predicted     0.0000000E+00 (-100.00%)
   displ. norm   :     0.7060727 α      lambda       -0.4317914E+01
   maximum displ.:     0.6846393 α      in ANC's #87, #66, #85, ...

........................................................................
.............................. CYCLE    2 ..............................
........................................................................
   1    -38.2575039 -0.382575E+02  0.960E-01    2.02       0.0  T
   2    -38.2577683 -0.264457E-03  0.643E-01    1.98       1.0  T
   3    -38.2565240  0.124439E-02  0.350E-01    2.02       1.0  T
   4    -38.2577500 -0.122601E-02  0.161E-01    2.00       1.0  T
   5    -38.2579781 -0.228102E-03  0.811E-02    1.98       1.0  T
   6    -38.2579991 -0.210088E-04  0.259E-02    1.99       1.0  T
   7    -38.2580074 -0.828230E-05  0.148E-02    1.99       1.2  T
   8    -38.2580076 -0.280916E-06  0.776E-03    1.99       2.3  T
   9    -38.2580077 -0.102615E-06  0.288E-03    1.99       6.2  T
  10    -38.2580078 -0.471432E-07  0.159E-03    1.99      11.3  T
  11    -38.2580078 -0.112440E-07  0.549E-04    1.99      32.7  T
  12    -38.2580078 -0.181305E-08  0.259E-04    1.99      69.3  T
     SCC iter.                  ...        0 min,  0.389 sec
     gradient                   ...        0 min,  0.099 sec
 * total energy  :   -36.2178069 Eh     change       -0.3278706E+01 Eh
   gradient norm :     3.1992900 Eh/α   predicted    -0.3235281E+01 (  -1.32%)
   displ. norm   :     0.5490464 α      lambda       -0.1738661E+01
   maximum displ.:     0.5222945 α      in ANC's #87, #66, #85, ...

........................................................................
.............................. CYCLE    3 ..............................
........................................................................
   1    -38.1648715 -0.381649E+02  0.879E-01    1.72       0.0  T
   2    -38.1656852 -0.813740E-03  0.753E-01    1.80       1.0  T
   3    -38.1675815 -0.189630E-02  0.457E-01    1.80       1.0  T
   4    -38.1660445  0.153701E-02  0.310E-01    1.81       1.0  T
   5    -38.1680111 -0.196660E-02  0.104E-01    1.80       1.0  T
   6    -38.1680245 -0.133808E-04  0.456E-02    1.81       1.0  T
   7    -38.1680304 -0.591246E-05  0.177E-02    1.80       1.0  T
   8    -38.1680314 -0.101500E-05  0.800E-03    1.80       2.2  T
   9    -38.1680317 -0.261618E-06  0.339E-03    1.80       5.3  T
  10    -38.1680317  0.234299E-08  0.162E-03    1.80      11.1  T
  11    -38.1680317 -0.169854E-07  0.105E-03    1.80      17.1  T
  12    -38.1680317 -0.281030E-08  0.378E-04    1.80      47.5  T
  13    -38.1680317 -0.205887E-09  0.183E-04    1.80      98.1  T
     SCC iter.                  ...        0 min,  0.344 sec
     gradient                   ...        0 min,  0.010 sec
 * total energy  :   -37.3616913 Eh     change       -0.1143884E+01 Eh
   gradient norm :     1.0082585 Eh/α   predicted    -0.1131392E+01 (  -1.09%)
   displ. norm   :     0.3969140 α      lambda       -0.2729049E+00
   maximum displ.:     0.2170685 α      in ANC's #87, #24, #20, ...

........................................................................
.............................. CYCLE    4 ..............................
........................................................................
   1    -38.1456757 -0.381457E+02  0.527E-01    1.86       0.0  T
   2    -38.1444398  0.123596E-02  0.558E-01    1.98       1.0  T
   3    -38.1496766 -0.523684E-02  0.241E-01    1.95       1.0  T
   4    -38.1494487  0.227903E-03  0.130E-01    1.95       1.0  T
   5    -38.1497290 -0.280308E-03  0.210E-02    1.95       1.0  T
   6    -38.1497299 -0.844652E-06  0.181E-02    1.95       1.0  T
   7    -38.1497311 -0.126889E-05  0.884E-03    1.95       2.0  T
   8    -38.1497316 -0.468333E-06  0.365E-03    1.95       4.9  T
   9    -38.1497317 -0.881684E-07  0.167E-03    1.95      10.7  T
  10    -38.1497317 -0.703225E-08  0.711E-04    1.95      25.3  T
  11    -38.1497317 -0.156577E-08  0.404E-04    1.95      44.4  T
     SCC iter.                  ...        0 min,  0.314 sec
     gradient                   ...        0 min,  0.011 sec
 * total energy  :   -37.5203381 Eh     change       -0.1586468E+00 Eh
   gradient norm :     0.1275324 Eh/α   predicted    -0.1579528E+00 (  -0.44%)
   displ. norm   :     0.6896170 α      lambda       -0.5742864E-01
   maximum displ.:     0.3661738 α      in ANC's #20, #24, #28, ...

........................................................................
.............................. CYCLE    5 ..............................
........................................................................
   1    -38.2002272 -0.382002E+02  0.584E-01    2.07       0.0  T
   2    -38.2001630  0.642389E-04  0.380E-01    2.09       1.0  T
   3    -38.1995990  0.563974E-03  0.286E-01    2.08       1.0  T
   4    -38.2009337 -0.133470E-02  0.401E-02    2.08       1.0  T
   5    -38.2009448 -0.110856E-04  0.244E-02    2.08       1.0  T
   6    -38.2009448 -0.640536E-07  0.124E-02    2.08       1.4  T
   7    -38.2009456 -0.817546E-06  0.500E-03    2.08       3.6  T
   8    -38.2009458 -0.125338E-06  0.290E-03    2.08       6.2  T
   9    -38.2009458  0.116504E-08  0.208E-03    2.08       8.7  T
  10    -38.2009458 -0.153252E-07  0.695E-04    2.08      25.8  T
  11    -38.2009458 -0.157220E-08  0.269E-04    2.08      66.7  T
     SCC iter.                  ...        0 min,  0.272 sec
     gradient                   ...        0 min,  0.010 sec
 * total energy  :   -37.5637281 Eh     change       -0.4339000E-01 Eh
   gradient norm :     0.1119004 Eh/α   predicted    -0.4236989E-01 (  -2.35%)
   displ. norm   :     0.6135645 α      lambda       -0.4326357E-01
   maximum displ.:     0.2790764 α      in ANC's #24, #28, #20, ...

........................................................................
.............................. CYCLE    6 ..............................
........................................................................
   1    -38.2206813 -0.382207E+02  0.622E-01    2.00       0.0  T
   2    -38.2209750 -0.293708E-03  0.435E-01    2.00       1.0  T
   3    -38.2211226 -0.147553E-03  0.265E-01    2.02       1.0  T
   4    -38.2219484 -0.825858E-03  0.805E-02    2.01       1.0  T
   5    -38.2220527 -0.104217E-03  0.305E-02    2.02       1.0  T
   6    -38.2220524  0.230363E-06  0.155E-02    2.01       1.2  T
   7    -38.2220539 -0.151156E-05  0.789E-03    2.01       2.3  T
   8    -38.2220540 -0.625466E-07  0.399E-03    2.01       4.5  T
   9    -38.2220541 -0.101399E-06  0.231E-03    2.01       7.8  T
  10    -38.2220541 -0.971567E-08  0.136E-03    2.01      13.2  T
  11    -38.2220541 -0.545282E-08  0.633E-04    2.01      28.4  T
  12    -38.2220541 -0.698080E-09  0.167E-04    2.01     107.6  T
     SCC iter.                  ...        0 min,  0.302 sec
     gradient                   ...        0 min,  0.017 sec
 * total energy  :   -37.5941250 Eh     change       -0.3039689E-01 Eh
   gradient norm :     0.1092689 Eh/α   predicted    -0.2977519E-01 (  -2.05%)
   displ. norm   :     0.6348695 α      lambda       -0.2914526E-01
   maximum displ.:     0.3734689 α      in ANC's #20, #66, #24, ...

........................................................................
.............................. CYCLE    7 ..............................
........................................................................
   1    -38.2487954 -0.382488E+02  0.643E-01    1.94       0.0  T
   2    -38.2491780 -0.382592E-03  0.349E-01    1.87       1.0  T
   3    -38.2490385  0.139511E-03  0.182E-01    1.95       1.0  T
   4    -38.2492385 -0.200070E-03  0.552E-02    1.90       1.0  T
   5    -38.2492873 -0.487162E-04  0.236E-02    1.91       1.0  T
   6    -38.2492865  0.776031E-06  0.174E-02    1.91       1.0  T
   7    -38.2492886 -0.214395E-05  0.687E-03    1.91       2.6  T
   8    -38.2492885  0.803867E-07  0.336E-03    1.91       5.3  T
   9    -38.2492887 -0.141336E-06  0.123E-03    1.91      14.6  T
  10    -38.2492887 -0.312018E-08  0.692E-04    1.91      26.0  T
  11    -38.2492887 -0.219156E-08  0.429E-04    1.91      41.9  T
     SCC iter.                  ...        0 min,  0.268 sec
     gradient                   ...        0 min,  0.010 sec
 * total energy  :   -37.6093350 Eh     change       -0.1520994E-01 Eh
   gradient norm :     0.0975586 Eh/α   predicted    -0.2044639E-01 (  34.43%)
   displ. norm   :     0.4801380 α      lambda       -0.1459316E-01
   maximum displ.:     0.2049555 α      in ANC's #3, #8, #13, ...

........................................................................
.............................. CYCLE    8 ..............................
........................................................................
   1    -38.2540317 -0.382540E+02  0.474E-01    1.92       0.0  T
   2    -38.2542848 -0.253057E-03  0.248E-01    1.84       1.0  T
   3    -38.2542961 -0.113035E-04  0.146E-01    1.91       1.0  T
   4    -38.2543782 -0.821402E-04  0.334E-02    1.87       1.0  T
   5    -38.2543921 -0.138999E-04  0.195E-02    1.88       1.0  T
   6    -38.2543938 -0.170002E-05  0.844E-03    1.88       2.1  T
   7    -38.2543941 -0.302103E-06  0.546E-03    1.88       3.3  T
   8    -38.2543942 -0.972246E-07  0.274E-03    1.88       6.5  T
   9    -38.2543943 -0.643104E-07  0.843E-04    1.88      21.3  T
  10    -38.2543943 -0.248298E-08  0.381E-04    1.88      47.2  T
     SCC iter.                  ...        0 min,  0.196 sec
     gradient                   ...        0 min,  0.042 sec
 * total energy  :   -37.6203951 Eh     change       -0.1106011E-01 Eh
   gradient norm :     0.0795166 Eh/α   predicted    -0.8978708E-02 ( -18.82%)
   displ. norm   :     0.4528611 α      lambda       -0.1220813E-01
   maximum displ.:     0.2544990 α      in ANC's #3, #66, #6, ...

........................................................................
.............................. CYCLE    9 ..............................
........................................................................
   1    -38.2653821 -0.382654E+02  0.424E-01    1.88       0.0  T
   2    -38.2655428 -0.160724E-03  0.205E-01    1.83       1.0  T
   3    -38.2653606  0.182194E-03  0.160E-01    1.87       1.0  T
   4    -38.2656769 -0.316334E-03  0.528E-02    1.86       1.0  T
   5    -38.2656894 -0.124625E-04  0.273E-02    1.85       1.0  T
   6    -38.2656879  0.144999E-05  0.161E-02    1.85       1.1  T
   7    -38.2656900 -0.207669E-05  0.587E-03    1.85       3.1  T
   8    -38.2656901 -0.691653E-07  0.311E-03    1.85       5.8  T
   9    -38.2656901 -0.351810E-07  0.135E-03    1.85      13.3  T
  10    -38.2656901 -0.383327E-08  0.564E-04    1.85      31.9  T
  11    -38.2656901 -0.116275E-08  0.237E-04    1.85      75.8  T
     SCC iter.                  ...        0 min,  0.249 sec
     gradient                   ...        0 min,  0.040 sec
 * total energy  :   -37.6260952 Eh     change       -0.5700068E-02 Eh
   gradient norm :     0.0795041 Eh/α   predicted    -0.7355918E-02 (  29.05%)
   displ. norm   :     0.3587651 α      lambda       -0.6633308E-02
   maximum displ.:     0.2106974 α      in ANC's #3, #13, #11, ...

........................................................................
.............................. CYCLE   10 ..............................
........................................................................
   1    -38.2587561 -0.382588E+02  0.363E-01    1.82       0.0  T
   2    -38.2589152 -0.159088E-03  0.299E-01    1.86       1.0  T
   3    -38.2593386 -0.423416E-03  0.162E-01    1.84       1.0  T
   4    -38.2593190  0.196312E-04  0.627E-02    1.83       1.0  T
   5    -38.2593994 -0.804533E-04  0.154E-02    1.84       1.2  T
   6    -38.2593992  0.191244E-06  0.752E-03    1.84       2.4  T
   7    -38.2593997 -0.458152E-06  0.390E-03    1.84       4.6  T
   8    -38.2593998 -0.575264E-07  0.252E-03    1.84       7.1  T
   9    -38.2593998 -0.213783E-07  0.106E-03    1.84      17.0  T
  10    -38.2593998 -0.387219E-08  0.437E-04    1.84      41.1  T
  11    -38.2593998 -0.498673E-09  0.213E-04    1.84      84.5  T
     SCC iter.                  ...        0 min,  0.313 sec
     gradient                   ...        0 min,  0.032 sec
 * total energy  :   -37.6302613 Eh     change       -0.4166143E-02 Eh
   gradient norm :     0.0286804 Eh/α   predicted    -0.3743562E-02 ( -10.14%)
   displ. norm   :     0.4194088 α      lambda       -0.4041990E-02
   maximum displ.:     0.2606474 α      in ANC's #3, #9, #13, ...

........................................................................
.............................. CYCLE   11 ..............................
........................................................................
   1    -38.2620353 -0.382620E+02  0.411E-01    1.80       0.0  T
   2    -38.2621316 -0.963470E-04  0.365E-01    1.82       1.0  T
   3    -38.2633335 -0.120186E-02  0.181E-01    1.82       1.0  T
   4    -38.2633066  0.268935E-04  0.525E-02    1.81       1.0  T
   5    -38.2633718 -0.652516E-04  0.149E-02    1.81       1.2  T
   6    -38.2633717  0.848813E-07  0.687E-03    1.81       2.6  T
   7    -38.2633721 -0.399472E-06  0.342E-03    1.81       5.3  T
   8    -38.2633722 -0.644465E-07  0.186E-03    1.81       9.7  T
   9    -38.2633722 -0.468394E-08  0.103E-03    1.81      17.5  T
  10    -38.2633722 -0.748578E-08  0.298E-04    1.81      60.4  T
  11    -38.2633722 -0.390770E-09  0.186E-04    1.81      96.6  T
     SCC iter.                  ...        0 min,  0.300 sec
     gradient                   ...        0 min,  0.066 sec
 * total energy  :   -37.6329619 Eh     change       -0.2700637E-02 Eh
   gradient norm :     0.0217736 Eh/α   predicted    -0.2376500E-02 ( -12.00%)
   displ. norm   :     0.5565985 α      lambda       -0.3594635E-02
   maximum displ.:     0.4479381 α      in ANC's #3, #5, #11, ...

........................................................................
.............................. CYCLE   12 ..............................
........................................................................
   1    -38.2584019 -0.382584E+02  0.466E-01    1.80       0.0  T
   2    -38.2583775  0.244593E-04  0.472E-01    1.80       1.0  T
   3    -38.2600879 -0.171044E-02  0.260E-01    1.80       1.0  T
   4    -38.2599727  0.115184E-03  0.669E-02    1.79       1.0  T
   5    -38.2600968 -0.124090E-03  0.199E-02    1.80       1.0  T
   6    -38.2600967  0.142838E-06  0.128E-02    1.79       1.4  T
   7    -38.2600974 -0.688398E-06  0.693E-03    1.80       2.6  T
   8    -38.2600976 -0.230698E-06  0.252E-03    1.80       7.1  T
   9    -38.2600976 -0.117373E-07  0.139E-03    1.80      13.0  T
  10    -38.2600976 -0.845571E-08  0.496E-04    1.80      36.2  T
  11    -38.2600976 -0.187734E-08  0.276E-04    1.80      65.2  T
     SCC iter.                  ...        0 min,  0.274 sec
     gradient                   ...        0 min,  0.068 sec
 * total energy  :   -37.6354440 Eh     change       -0.2482055E-02 Eh
   gradient norm :     0.0343637 Eh/α   predicted    -0.2354137E-02 (  -5.15%)
   displ. norm   :     0.5179098 α      lambda       -0.4058104E-02
   maximum displ.:     0.3457900 α      in ANC's #3, #5, #59, ...

........................................................................
.............................. CYCLE   13 ..............................
........................................................................
   1    -38.2677181 -0.382677E+02  0.398E-01    1.86       0.0  T
   2    -38.2677704 -0.522176E-04  0.370E-01    1.85       1.0  T
   3    -38.2691090 -0.133863E-02  0.188E-01    1.85       1.0  T
   4    -38.2690818  0.271797E-04  0.448E-02    1.86       1.0  T
   5    -38.2691279 -0.461210E-04  0.205E-02    1.85       1.0  T
   6    -38.2691279  0.637410E-07  0.963E-03    1.85       1.9  T
   7    -38.2691286 -0.759596E-06  0.553E-03    1.85       3.2  T
   8    -38.2691288 -0.150968E-06  0.189E-03    1.85       9.5  T
   9    -38.2691288 -0.455518E-08  0.807E-04    1.85      22.3  T
  10    -38.2691288 -0.243383E-08  0.444E-04    1.85      40.4  T
     SCC iter.                  ...        0 min,  0.275 sec
     gradient                   ...        0 min,  0.076 sec
 * total energy  :   -37.6382128 Eh     change       -0.2768848E-02 Eh
   gradient norm :     0.0252486 Eh/α   predicted    -0.2573312E-02 (  -7.06%)
   displ. norm   :     0.5331127 α      lambda       -0.4147265E-02
   maximum displ.:     0.3514384 α      in ANC's #3, #59, #4, ...

........................................................................
.............................. CYCLE   14 ..............................
........................................................................
   1    -38.2790898 -0.382791E+02  0.480E-01    1.84       0.0  T
   2    -38.2792073 -0.117405E-03  0.445E-01    1.80       1.0  T
   3    -38.2796262 -0.418992E-03  0.263E-01    1.81       1.0  T
   4    -38.2795711  0.551284E-04  0.847E-02    1.82       1.0  T
   5    -38.2796954 -0.124287E-03  0.346E-02    1.81       1.0  T
   6    -38.2796979 -0.249818E-05  0.155E-02    1.81       1.2  T
   7    -38.2796995 -0.154866E-05  0.482E-03    1.81       3.7  T
   8    -38.2796995 -0.422921E-07  0.234E-03    1.81       7.7  T
   9    -38.2796995 -0.517785E-07  0.108E-03    1.81      16.6  T
  10    -38.2796995 -0.994220E-09  0.539E-04    1.81      33.3  T
  11    -38.2796995 -0.155286E-08  0.176E-04    1.81     102.3  T
     SCC iter.                  ...        0 min,  0.311 sec
     gradient                   ...        0 min,  0.080 sec
 * total energy  :   -37.6401374 Eh     change       -0.1924566E-02 Eh
   gradient norm :     0.0275841 Eh/α   predicted    -0.2662983E-02 (  38.37%)
   displ. norm   :     0.5112951 α      lambda       -0.3132734E-02
   maximum displ.:     0.3764639 α      in ANC's #3, #13, #59, ...

........................................................................
.............................. CYCLE   15 ..............................
........................................................................
   1    -38.2661594 -0.382662E+02  0.437E-01    1.92       0.0  T
   2    -38.2662089 -0.494209E-04  0.434E-01    1.93       1.0  T
   3    -38.2679530 -0.174417E-02  0.225E-01    1.93       1.0  T
   4    -38.2679126  0.404139E-04  0.460E-02    1.93       1.0  T
   5    -38.2679559 -0.432864E-04  0.257E-02    1.93       1.0  T
   6    -38.2679615 -0.558631E-05  0.136E-02    1.93       1.3  T
   7    -38.2679620 -0.517304E-06  0.571E-03    1.93       3.1  T
   8    -38.2679621 -0.966417E-07  0.331E-03    1.93       5.4  T
   9    -38.2679622 -0.519984E-07  0.145E-03    1.93      12.4  T
  10    -38.2679622 -0.348594E-08  0.600E-04    1.93      29.9  T
  11    -38.2679622 -0.323659E-09  0.301E-04    1.93      59.6  T
     SCC iter.                  ...        0 min,  0.285 sec
     gradient                   ...        0 min,  0.009 sec
 * total energy  :   -37.6413574 Eh     change       -0.1220006E-02 Eh
   gradient norm :     0.0231692 Eh/α   predicted    -0.1975854E-02 (  61.95%)
   displ. norm   :     0.2442650 α      lambda       -0.2839205E-02
   maximum displ.:     0.1413573 α      in ANC's #8, #4, #59, ...

........................................................................
.............................. CYCLE   16 ..............................
........................................................................
   1    -38.2803576 -0.382804E+02  0.213E-01    1.96       0.0  T
   2    -38.2803714 -0.138164E-04  0.145E-01    1.95       1.0  T
   3    -38.2802618  0.109596E-03  0.104E-01    1.96       1.0  T
   4    -38.2804086 -0.146805E-03  0.335E-02    1.96       1.0  T
   5    -38.2804108 -0.211070E-05  0.181E-02    1.96       1.0  T
   6    -38.2804108 -0.538749E-07  0.561E-03    1.96       3.2  T
   7    -38.2804117 -0.845082E-06  0.312E-03    1.95       5.8  T
   8    -38.2804117 -0.779906E-08  0.109E-03    1.95      16.5  T
   9    -38.2804117 -0.891562E-08  0.572E-04    1.95      31.4  T
  10    -38.2804117 -0.284537E-09  0.334E-04    1.95      53.7  T
     SCC iter.                  ...        0 min,  0.296 sec
     gradient                   ...        0 min,  0.019 sec
 * total energy  :   -37.6417648 Eh     change       -0.4073908E-03 Eh
   gradient norm :     0.0274103 Eh/α   predicted    -0.1504306E-02 ( 269.25%)
   displ. norm   :     0.2922415 α      lambda       -0.2766900E-02
   maximum displ.:     0.1546847 α      in ANC's #3, #1, #4, ...

........................................................................
.............................. CYCLE   17 ..............................
........................................................................
   1    -38.2732239 -0.382732E+02  0.286E-01    1.93       0.0  T
   2    -38.2732628 -0.388733E-04  0.240E-01    1.91       1.0  T
   3    -38.2731370  0.125800E-03  0.894E-02    1.93       1.0  T
   4    -38.2732564 -0.119437E-03  0.533E-02    1.92       1.0  T
   5    -38.2732981 -0.416451E-04  0.231E-02    1.91       1.0  T
   6    -38.2732999 -0.184187E-05  0.881E-03    1.92       2.0  T
   7    -38.2733000 -0.123963E-06  0.412E-03    1.92       4.4  T
   8    -38.2733001 -0.410584E-07  0.154E-03    1.92      11.7  T
   9    -38.2733001 -0.286643E-07  0.914E-04    1.92      19.6  T
  10    -38.2733001 -0.218922E-08  0.406E-04    1.92      44.3  T
     SCC iter.                  ...        0 min,  0.299 sec
     gradient                   ...        0 min,  0.077 sec
 * total energy  :   -37.6427005 Eh     change       -0.9357445E-03 Eh
   gradient norm :     0.0229433 Eh/α   predicted    -0.1501611E-02 (  60.47%)
   displ. norm   :     0.2696913 α      lambda       -0.2237903E-02
   maximum displ.:     0.1462790 α      in ANC's #9, #3, #13, ...

........................................................................
.............................. CYCLE   18 ..............................
........................................................................
   1    -38.2716621 -0.382717E+02  0.189E-01    1.92       0.0  T
   2    -38.2716753 -0.132097E-04  0.132E-01    1.91       1.0  T
   3    -38.2717754 -0.100013E-03  0.925E-02    1.92       1.0  T
   4    -38.2718202 -0.448205E-04  0.243E-02    1.91       1.0  T
   5    -38.2718286 -0.837356E-05  0.131E-02    1.91       1.4  T
   6    -38.2718290 -0.446230E-06  0.351E-03    1.91       5.1  T
   7    -38.2718291 -0.663636E-07  0.188E-03    1.91       9.5  T
   8    -38.2718291 -0.151927E-07  0.771E-04    1.91      23.3  T
   9    -38.2718291 -0.142250E-08  0.538E-04    1.91      33.4  T
     SCC iter.                  ...        0 min,  0.256 sec
     gradient                   ...        0 min,  0.010 sec
 * total energy  :   -37.6428556 Eh     change       -0.1550982E-03 Eh
   gradient norm :     0.0288031 Eh/α   predicted    -0.1200340E-02 ( 673.92%)
   displ. norm   :     0.1838377 α      lambda       -0.1859287E-02
   maximum displ.:     0.1162918 α      in ANC's #3, #8, #59, ...

........................................................................
.............................. CYCLE   19 ..............................
........................................................................
   1    -38.2739878 -0.382740E+02  0.152E-01    1.96       0.0  T
   2    -38.2739941 -0.627993E-05  0.113E-01    1.96       1.0  T
   3    -38.2739598  0.342578E-04  0.710E-02    1.97       1.0  T
   4    -38.2740334 -0.735103E-04  0.186E-02    1.97       1.0  T
   5    -38.2740329  0.492757E-06  0.116E-02    1.96       1.5  T
   6    -38.2740346 -0.169578E-05  0.419E-03    1.96       4.3  T
   7    -38.2740346 -0.595193E-07  0.212E-03    1.96       8.5  T
   8    -38.2740346 -0.886273E-08  0.115E-03    1.96      15.6  T
   9    -38.2740346 -0.800917E-08  0.608E-04    1.96      29.5  T
  10    -38.2740346 -0.532914E-09  0.291E-04    1.96      61.7  T
     SCC iter.                  ...        0 min,  0.286 sec
     gradient                   ...        0 min,  0.007 sec
 * total energy  :   -37.6437451 Eh     change       -0.8894476E-03 Eh
   gradient norm :     0.0167422 Eh/α   predicted    -0.9610644E-03 (   8.05%)
   displ. norm   :     0.2192334 α      lambda       -0.9968492E-03
   maximum displ.:     0.1207730 α      in ANC's #6, #1, #8, ...

........................................................................
.............................. CYCLE   20 ..............................
........................................................................
   1    -38.2730735 -0.382731E+02  0.124E-01    1.95       0.0  T
   2    -38.2730772 -0.367193E-05  0.751E-02    1.94       1.0  T
   3    -38.2730585  0.186171E-04  0.323E-02    1.94       1.0  T
   4    -38.2730794 -0.208624E-04  0.106E-02    1.94       1.7  T
   5    -38.2730801 -0.706227E-06  0.584E-03    1.94       3.1  T
   6    -38.2730802 -0.103377E-06  0.318E-03    1.94       5.7  T
   7    -38.2730803 -0.602148E-07  0.130E-03    1.94      13.8  T
   8    -38.2730803 -0.525753E-08  0.842E-04    1.94      21.3  T
   9    -38.2730803 -0.274589E-08  0.639E-04    1.94      28.1  T
     SCC iter.                  ...        0 min,  0.228 sec
     gradient                   ...        0 min,  0.006 sec
 * total energy  :   -37.6439899 Eh     change       -0.2448425E-03 Eh
   gradient norm :     0.0146454 Eh/α   predicted    -0.5223838E-03 ( 113.36%)
   displ. norm   :     0.1794811 α      lambda       -0.7885492E-03
   maximum displ.:     0.1075678 α      in ANC's #3, #9, #1, ...
 * RMSD in coord.:     0.8907829 α      energy gain  -0.4704889E+01 Eh

generating ANC from model Hessian ...
Using Lindh-Hessian (1995)
 Shifting diagonal of input Hessian by    1.0426262786000699E-002
 Lowest  eigenvalues of input Hessian
    0.010000    0.000000    0.000000    0.000000    0.000000    0.000000
    0.000000    0.010445    0.010889    0.011525    0.011890    0.012219
    0.012665    0.015119    0.016780    0.017930    0.018089    0.018323
 Highest eigenvalues
    1.679918    1.733505    1.736897    1.738231    1.743137    4.364052


........................................................................
.............................. CYCLE   21 ..............................
........................................................................
   1    -38.2748554 -0.382749E+02  0.719E-02    1.97       0.0  T
   2    -38.2748620 -0.662538E-05  0.386E-02    1.96       1.0  T
   3    -38.2748613  0.698136E-06  0.331E-02    1.97       1.0  T
   4    -38.2748698 -0.851668E-05  0.999E-03    1.96       1.8  T
   5    -38.2748712 -0.138033E-05  0.458E-03    1.96       3.9  T
   6    -38.2748712  0.374602E-07  0.280E-03    1.96       6.4  T
   7    -38.2748712 -0.675573E-07  0.907E-04    1.96      19.8  T
   8    -38.2748712 -0.359932E-08  0.465E-04    1.96      38.6  T
     SCC iter.                  ...        0 min,  0.222 sec
     gradient                   ...        0 min,  0.007 sec
 * total energy  :   -37.6444920 Eh     change       -0.5020817E-03 Eh
   gradient norm :     0.0089412 Eh/α   predicted     0.0000000E+00 (-100.00%)
   displ. norm   :     0.1881423 α      lambda       -0.6858755E-03
   maximum displ.:     0.1290424 α      in ANC's #4, #8, #17, ...

........................................................................
.............................. CYCLE   22 ..............................
........................................................................
   1    -38.2759464 -0.382759E+02  0.119E-01    1.96       0.0  T
   2    -38.2759476 -0.122296E-05  0.934E-02    1.96       1.0  T
   3    -38.2759218  0.258031E-04  0.557E-02    1.96       1.0  T
   4    -38.2759662 -0.443521E-04  0.111E-02    1.96       1.6  T
   5    -38.2759672 -0.978863E-06  0.594E-03    1.96       3.0  T
   6    -38.2759672 -0.850062E-07  0.221E-03    1.96       8.1  T
   7    -38.2759673 -0.189549E-07  0.111E-03    1.96      16.2  T
   8    -38.2759673 -0.458995E-08  0.528E-04    1.96      34.0  T
   9    -38.2759673 -0.128762E-08  0.314E-04    1.96      57.2  T
     SCC iter.                  ...        0 min,  0.260 sec
     gradient                   ...        0 min,  0.013 sec
 * total energy  :   -37.6449688 Eh     change       -0.4767801E-03 Eh
   gradient norm :     0.0051748 Eh/α   predicted    -0.3550774E-03 ( -25.53%)
   displ. norm   :     0.3138291 α      lambda       -0.7178025E-03
   maximum displ.:     0.2150677 α      in ANC's #4, #14, #5, ...

........................................................................
.............................. CYCLE   23 ..............................
........................................................................
   1    -38.2765181 -0.382765E+02  0.228E-01    1.96       0.0  T
   2    -38.2765178  0.314304E-06  0.165E-01    1.97       1.0  T
   3    -38.2764166  0.101184E-03  0.110E-01    1.97       1.0  T
   4    -38.2765977 -0.181080E-03  0.191E-02    1.97       1.0  T
   5    -38.2765995 -0.180567E-05  0.105E-02    1.97       1.7  T
   6    -38.2765995  0.992502E-08  0.188E-03    1.97       9.6  T
   7    -38.2765995 -0.417600E-07  0.991E-04    1.97      18.1  T
   8    -38.2765995 -0.459295E-08  0.570E-04    1.97      31.5  T
     SCC iter.                  ...        0 min,  0.214 sec
     gradient                   ...        0 min,  0.005 sec
 * total energy  :   -37.6454151 Eh     change       -0.4462724E-03 Eh
   gradient norm :     0.0064614 Eh/α   predicted    -0.3942646E-03 ( -11.65%)
   displ. norm   :     0.2615326 α      lambda       -0.4121701E-03
   maximum displ.:     0.1867343 α      in ANC's #4, #2, #8, ...

........................................................................
.............................. CYCLE   24 ..............................
........................................................................
   1    -38.2766419 -0.382766E+02  0.116E-01    1.98       0.0  T
   2    -38.2766402  0.173021E-05  0.955E-02    1.98       1.0  T
   3    -38.2766853 -0.450566E-04  0.512E-02    1.98       1.0  T
   4    -38.2766989 -0.136864E-04  0.842E-03    1.98       2.1  T
   5    -38.2766999 -0.922591E-06  0.391E-03    1.98       4.6  T
   6    -38.2766998  0.183971E-07  0.170E-03    1.98      10.6  T
   7    -38.2766999 -0.282729E-07  0.664E-04    1.98      27.0  T
   8    -38.2766999 -0.449198E-09  0.515E-04    1.98      34.9  T
     SCC iter.                  ...        0 min,  0.051 sec
     gradient                   ...        0 min,  0.004 sec
 * total energy  :   -37.6457323 Eh     change       -0.3172219E-03 Eh
   gradient norm :     0.0065255 Eh/α   predicted    -0.2201892E-03 ( -30.59%)
   displ. norm   :     0.3207997 α      lambda       -0.4302979E-03
   maximum displ.:     0.2226997 α      in ANC's #4, #2, #3, ...

........................................................................
.............................. CYCLE   25 ..............................
........................................................................
   1    -38.2769149 -0.382769E+02  0.115E-01    1.99       0.0  T
   2    -38.2769152 -0.240500E-06  0.847E-02    1.99       1.0  T
   3    -38.2769354 -0.202816E-04  0.505E-02    1.99       1.0  T
   4    -38.2769603 -0.249156E-04  0.881E-03    1.99       2.0  T
   5    -38.2769613 -0.961790E-06  0.412E-03    1.99       4.4  T
   6    -38.2769613  0.123639E-07  0.181E-03    1.99       9.9  T
   7    -38.2769613 -0.303504E-07  0.892E-04    1.99      20.1  T
   8    -38.2769613 -0.107467E-08  0.633E-04    1.99      28.4  T
     SCC iter.                  ...        0 min,  0.016 sec
     gradient                   ...        0 min,  0.004 sec
 * total energy  :   -37.6460655 Eh     change       -0.3332346E-03 Eh
   gradient norm :     0.0061561 Eh/α   predicted    -0.2372936E-03 ( -28.79%)
   displ. norm   :     0.3750699 α      lambda       -0.3689525E-03
   maximum displ.:     0.2551861 α      in ANC's #4, #2, #3, ...

........................................................................
.............................. CYCLE   26 ..............................
........................................................................
   1    -38.2770800 -0.382771E+02  0.114E-01    1.99       0.0  T
   2    -38.2770824 -0.236355E-05  0.703E-02    1.99       1.0  T
   3    -38.2770605  0.219377E-04  0.558E-02    1.99       1.0  T
   4    -38.2771041 -0.435978E-04  0.950E-03    1.99       1.9  T
   5    -38.2771048 -0.753515E-06  0.462E-03    1.99       3.9  T
   6    -38.2771048 -0.137862E-08  0.195E-03    1.99       9.2  T
   7    -38.2771049 -0.305536E-07  0.983E-04    1.99      18.3  T
   8    -38.2771049 -0.722586E-09  0.705E-04    1.99      25.5  T
     SCC iter.                  ...        0 min,  0.015 sec
     gradient                   ...        0 min,  0.004 sec
 * total energy  :   -37.6463462 Eh     change       -0.2806756E-03 Eh
   gradient norm :     0.0066188 Eh/α   predicted    -0.2104290E-03 ( -25.03%)
   displ. norm   :     0.3859840 α      lambda       -0.3104135E-03
   maximum displ.:     0.2463461 α      in ANC's #4, #2, #3, ...

........................................................................
.............................. CYCLE   27 ..............................
........................................................................
   1    -38.2779398 -0.382779E+02  0.106E-01    1.99       0.0  T
   2    -38.2779429 -0.311043E-05  0.616E-02    1.99       1.0  T
   3    -38.2779326  0.103171E-04  0.329E-02    1.99       1.0  T
   4    -38.2779445 -0.119204E-04  0.728E-03    1.99       2.5  T
   5    -38.2779448 -0.313020E-06  0.507E-03    1.99       3.5  T
   6    -38.2779450 -0.171173E-06  0.220E-03    1.99       8.2  T
   7    -38.2779450 -0.288799E-07  0.648E-04    1.99      27.7  T
   8    -38.2779450  0.213817E-09  0.471E-04    1.99      38.1  T
     SCC iter.                  ...        0 min,  0.016 sec
     gradient                   ...        0 min,  0.004 sec
 * total energy  :   -37.6465874 Eh     change       -0.2411692E-03 Eh
   gradient norm :     0.0061878 Eh/α   predicted    -0.1783326E-03 ( -26.05%)
   displ. norm   :     0.4085855 α      lambda       -0.2749239E-03
   maximum displ.:     0.2430366 α      in ANC's #4, #2, #3, ...

........................................................................
.............................. CYCLE   28 ..............................
........................................................................
   1    -38.2779520 -0.382780E+02  0.117E-01    2.00       0.0  T
   2    -38.2779537 -0.161992E-05  0.771E-02    1.99       1.0  T
   3    -38.2779108  0.428721E-04  0.451E-02    1.99       1.0  T
   4    -38.2779586 -0.478450E-04  0.991E-03    2.00       1.8  T
   5    -38.2779592 -0.617123E-06  0.486E-03    2.00       3.7  T
   6    -38.2779593 -0.618465E-07  0.184E-03    2.00       9.8  T
   7    -38.2779593 -0.180040E-07  0.628E-04    2.00      28.6  T
   8    -38.2779593  0.101935E-08  0.491E-04    2.00      36.6  T
     SCC iter.                  ...        0 min,  0.014 sec
     gradient                   ...        0 min,  0.004 sec
 * total energy  :   -37.6468050 Eh     change       -0.2176618E-03 Eh
   gradient norm :     0.0049679 Eh/α   predicted    -0.1604111E-03 ( -26.30%)
   displ. norm   :     0.4031256 α      lambda       -0.2967576E-03
   maximum displ.:     0.2331889 α      in ANC's #2, #3, #4, ...

........................................................................
.............................. CYCLE   29 ..............................
........................................................................
   1    -38.2811652 -0.382812E+02  0.119E-01    2.00       0.0  T
   2    -38.2811653 -0.375820E-07  0.990E-02    2.00       1.0  T
   3    -38.2811931 -0.277936E-04  0.548E-02    2.00       1.0  T
   4    -38.2812089 -0.158408E-04  0.110E-02    2.00       1.6  T
   5    -38.2812103 -0.140456E-05  0.595E-03    2.00       3.0  T
   6    -38.2812103  0.438229E-07  0.257E-03    2.00       7.0  T
   7    -38.2812104 -0.100721E-06  0.664E-04    2.00      27.0  T
   8    -38.2812104 -0.125973E-08  0.410E-04    2.00      43.8  T
     SCC iter.                  ...        0 min,  0.013 sec
     gradient                   ...        0 min,  0.004 sec
 * total energy  :   -37.6469898 Eh     change       -0.1847891E-03 Eh
   gradient norm :     0.0046351 Eh/α   predicted    -0.1724938E-03 (  -6.65%)
   displ. norm   :     0.5875594 α      lambda       -0.2999034E-03
   maximum displ.:     0.3206866 α      in ANC's #4, #2, #3, ...

........................................................................
.............................. CYCLE   30 ..............................
........................................................................
   1    -38.2735395 -0.382735E+02  0.185E-01    2.01       0.0  T
   2    -38.2735450 -0.550341E-05  0.136E-01    2.01       1.0  T
   3    -38.2734355  0.109475E-03  0.783E-02    2.01       1.0  T
   4    -38.2735707 -0.135240E-03  0.235E-02    2.01       1.0  T
   5    -38.2735747 -0.397053E-05  0.120E-02    2.01       1.5  T
   6    -38.2735749 -0.146025E-06  0.387E-03    2.01       4.6  T
   7    -38.2735750 -0.932560E-07  0.140E-03    2.01      12.8  T
   8    -38.2735750 -0.590390E-10  0.803E-04    2.01      22.4  T
   9    -38.2735750 -0.524008E-08  0.387E-04    2.01      46.4  T
     SCC iter.                  ...        0 min,  0.015 sec
     gradient                   ...        0 min,  0.004 sec
 * total energy  :   -37.6469920 Eh     change       -0.2214814E-05 Eh
   gradient norm :     0.0154909 Eh/α   predicted    -0.2017331E-03 (9008.35%)
   displ. norm   :     0.1586532 α      lambda       -0.3678863E-03
   maximum displ.:     0.1097008 α      in ANC's #4, #2, #3, ...

........................................................................
.............................. CYCLE   31 ..............................
........................................................................
   1    -38.2798127 -0.382798E+02  0.589E-02    2.02       0.0  T
   2    -38.2798140 -0.133762E-05  0.331E-02    2.01       1.0  T
   3    -38.2798108  0.327793E-05  0.252E-02    2.02       1.0  T
   4    -38.2798147 -0.393141E-05  0.110E-02    2.02       1.6  T
   5    -38.2798143  0.440730E-06  0.862E-03    2.02       2.1  T
   6    -38.2798149 -0.682455E-06  0.121E-03    2.02      14.8  T
   7    -38.2798150 -0.173201E-07  0.605E-04    2.02      29.7  T
   8    -38.2798150 -0.279500E-08  0.295E-04    2.02      60.8  T
     SCC iter.                  ...        0 min,  0.015 sec
     gradient                   ...        0 min,  0.004 sec
 * total energy  :   -37.6471565 Eh     change       -0.1644187E-03 Eh
   gradient norm :     0.0058249 Eh/α   predicted    -0.1885738E-03 (  14.69%)
   displ. norm   :     0.1175059 α      lambda       -0.8015567E-04
   maximum displ.:     0.0731075 α      in ANC's #2, #3, #6, ...

........................................................................
.............................. CYCLE   32 ..............................
........................................................................
   1    -38.2807553 -0.382808E+02  0.320E-02    2.02       0.0  T
   2    -38.2807560 -0.698290E-06  0.223E-02    2.01       1.0  T
   3    -38.2807546  0.138167E-05  0.118E-02    2.01       1.5  T
   4    -38.2807564 -0.182807E-05  0.422E-03    2.01       4.3  T
   5    -38.2807566 -0.112807E-06  0.268E-03    2.01       6.7  T
   6    -38.2807565  0.388138E-07  0.154E-03    2.01      11.6  T
   7    -38.2807566 -0.427893E-07  0.339E-04    2.01      52.9  T
   8    -38.2807566 -0.707196E-09  0.253E-04    2.01      70.9  T
     SCC iter.                  ...        0 min,  0.015 sec
     gradient                   ...        0 min,  0.004 sec
 * total energy  :   -37.6472035 Eh     change       -0.4707135E-04 Eh
   gradient norm :     0.0041884 Eh/α   predicted    -0.4063333E-04 ( -13.68%)
   displ. norm   :     0.3018907 α      lambda       -0.8019344E-04
   maximum displ.:     0.1786816 α      in ANC's #3, #2, #4, ...

........................................................................
.............................. CYCLE   33 ..............................
........................................................................
   1    -38.2789477 -0.382789E+02  0.822E-02    2.02       0.0  T
   2    -38.2789501 -0.239887E-05  0.620E-02    2.02       1.0  T
   3    -38.2789340  0.160898E-04  0.307E-02    2.02       1.0  T
   4    -38.2789538 -0.197793E-04  0.997E-03    2.02       1.8  T
   5    -38.2789552 -0.139044E-05  0.515E-03    2.02       3.5  T
   6    -38.2789552 -0.625394E-07  0.154E-03    2.02      11.6  T
   7    -38.2789553 -0.270161E-07  0.711E-04    2.02      25.3  T
   8    -38.2789553  0.159957E-09  0.451E-04    2.02      39.8  T
     SCC iter.                  ...        0 min,  0.014 sec
     gradient                   ...        0 min,  0.004 sec
 * total energy  :   -37.6472546 Eh     change       -0.5109141E-04 Eh
   gradient norm :     0.0025164 Eh/α   predicted    -0.4375637E-04 ( -14.36%)
   displ. norm   :     0.1464597 α      lambda       -0.3183974E-04
   maximum displ.:     0.0842151 α      in ANC's #3, #2, #4, ...

........................................................................
.............................. CYCLE   34 ..............................
........................................................................
   1    -38.2794267 -0.382794E+02  0.400E-02    2.02       0.0  T
   2    -38.2794274 -0.654036E-06  0.262E-02    2.02       1.0  T
   3    -38.2794245  0.283945E-05  0.120E-02    2.02       1.5  T
   4    -38.2794279 -0.333409E-05  0.309E-03    2.02       5.8  T
   5    -38.2794279 -0.191158E-07  0.161E-03    2.02      11.1  T
   6    -38.2794279 -0.244589E-08  0.810E-04    2.02      22.2  T
   7    -38.2794279 -0.847732E-08  0.291E-04    2.02      61.7  T
     SCC iter.                  ...        0 min,  0.019 sec
     gradient                   ...        0 min,  0.004 sec
 * total energy  :   -37.6472724 Eh     change       -0.1782543E-04 Eh
   gradient norm :     0.0018327 Eh/α   predicted    -0.1626202E-04 (  -8.77%)
   displ. norm   :     0.0759805 α      lambda       -0.1068845E-04
   maximum displ.:     0.0470097 α      in ANC's #3, #2, #6, ...

........................................................................
.............................. CYCLE   35 ..............................
........................................................................
   1    -38.2806636 -0.382807E+02  0.212E-02    2.02       0.0  T
   2    -38.2806638 -0.267505E-06  0.167E-02    2.01       1.1  T
   3    -38.2806656 -0.174275E-05  0.952E-03    2.02       1.9  T
   4    -38.2806659 -0.338561E-06  0.261E-03    2.02       6.9  T
   5    -38.2806661 -0.122589E-06  0.127E-03    2.02      14.2  T
   6    -38.2806661 -0.211239E-08  0.725E-04    2.02      24.8  T
   7    -38.2806661 -0.273506E-08  0.297E-04    2.02      60.4  T
     SCC iter.                  ...        0 min,  0.012 sec
     gradient                   ...        0 min,  0.004 sec
 * total energy  :   -37.6472768 Eh     change       -0.4384421E-05 Eh
   gradient norm :     0.0030931 Eh/α   predicted    -0.5362405E-05 (  22.31%)
   displ. norm   :     0.0313697 α      lambda       -0.5991330E-05
   maximum displ.:     0.0182816 α      in ANC's #2, #3, #4, ...

........................................................................
.............................. CYCLE   36 ..............................
........................................................................
   1    -38.2803772 -0.382804E+02  0.103E-02    2.01       0.0  T
   2    -38.2803773 -0.135673E-06  0.695E-03    2.01       2.6  T
   3    -38.2803774 -0.888639E-07  0.452E-03    2.01       4.0  T
   4    -38.2803776 -0.154253E-06  0.140E-03    2.01      12.9  T
   5    -38.2803776 -0.341446E-07  0.489E-04    2.01      36.7  T
   6    -38.2803776 -0.154529E-09  0.219E-04    2.01      82.0  T
     SCC iter.                  ...        0 min,  0.013 sec
     gradient                   ...        0 min,  0.004 sec
 * total energy  :   -37.6472803 Eh     change       -0.3479281E-05 Eh
   gradient norm :     0.0013583 Eh/α   predicted    -0.3001602E-05 ( -13.73%)
   displ. norm   :     0.0222010 α      lambda       -0.2842641E-05
   maximum displ.:     0.0139932 α      in ANC's #6, #12, #4, ...

........................................................................
.............................. CYCLE   37 ..............................
........................................................................
   1    -38.2804916 -0.382805E+02  0.138E-02    2.01       0.0  T
   2    -38.2804918 -0.178171E-06  0.111E-02    2.01       1.6  T
   3    -38.2804924 -0.610535E-06  0.599E-03    2.01       3.0  T
   4    -38.2804925 -0.879860E-07  0.187E-03    2.01       9.6  T
   5    -38.2804926 -0.698218E-07  0.736E-04    2.01      24.4  T
   6    -38.2804926  0.114346E-08  0.391E-04    2.01      46.0  T
     SCC iter.                  ...        0 min,  0.010 sec
     gradient                   ...        0 min,  0.004 sec
 * total energy  :   -37.6472817 Eh     change       -0.1347182E-05 Eh
   gradient norm :     0.0010637 Eh/α   predicted    -0.1423283E-05 (   5.65%)
   displ. norm   :     0.0081050 α      lambda       -0.9320809E-06
   maximum displ.:     0.0047968 α      in ANC's #1, #3, #6, ...

........................................................................
.............................. CYCLE   38 ..............................
........................................................................
   1    -38.2804740 -0.382805E+02  0.365E-03    2.01       0.0  T
   2    -38.2804740 -0.284870E-08  0.300E-03    2.01       6.0  T
   3    -38.2804740  0.724503E-08  0.174E-03    2.01      10.3  T
   4    -38.2804741 -0.290629E-07  0.516E-04    2.01      34.8  T
   5    -38.2804741 -0.130120E-08  0.297E-04    2.01      60.5  T
     SCC iter.                  ...        0 min,  0.008 sec
     gradient                   ...        0 min,  0.004 sec
 * total energy  :   -37.6472825 Eh     change       -0.8297586E-06 Eh
   gradient norm :     0.0002959 Eh/α   predicted    -0.4669574E-06 ( -43.72%)
   displ. norm   :     0.0078081 α      lambda       -0.3097722E-06
   maximum displ.:     0.0056449 α      in ANC's #3, #1, #2, ...

   *** GEOMETRY OPTIMIZATION CONVERGED AFTER 38 ITERATIONS ***

------------------------------------------------------------------------
 total energy gain   :        -4.7081820 Eh    -2954.4288 kcal/mol
 total RMSD          :         1.2890159 a0        0.6821 Å
 total power (kW/mol):      -325.2981611 (step)-1558.5521 (real)
------------------------------------------------------------------------

 ANCopt (total)                0 d,  0 h,  0 min,  7.931 sec
 optimizer setup                ...        0 min,  0.001 sec (  0.014%)
 model hessian                  ...        0 min,  0.034 sec (  0.430%)
 ANC generation                 ...        0 min,  0.003 sec (  0.043%)
 coordinate transformation      ...        0 min,  0.000 sec (  0.006%)
 single point calculation       ...        0 min,  7.780 sec ( 98.087%)
 optimization log               ...        0 min,  0.004 sec (  0.044%)
 hessian update                 ...        0 min,  0.084 sec (  1.064%)
 rational function              ...        0 min,  0.022 sec (  0.281%)

================
 final structure:
================
31
 xtb: 6.5.1 (b24c23e)
Zr          -1.31058036830081       -0.10407920441869        0.55611579571984
C           -1.85121034625003        1.20187363463228       -1.32405723465562
C            0.06698164210346       -2.09816205748002        0.91045016155703
C            0.58446495991059       -1.46906158454933       -0.24877606605776
C           -0.39792083870384       -1.55364922101219       -1.26468296283499
C           -1.52940981896958       -2.20519744823304       -0.73040473817946
C           -1.24957494482733       -2.53516938137104        0.62354493198518
H            0.63166220565953       -2.34503720206988        1.80254323619088
H            1.61148715933203       -1.14876556157319       -0.39090692333691
H           -0.24819988325608       -1.30407602091093       -2.30870511435646
H           -2.39203502437340       -2.53259329415756       -1.29790878475702
H           -1.85100535173555       -3.17780049246544        1.25881251272635
C           -0.59534004672586        0.28155403862291        2.85822237212305
C           -1.69347985397581        1.15279662701074        2.64166371215957
C           -1.31104424483522        2.10882240906498        1.67221414039591
C            0.03017442646862        1.84208138795057        1.29999880758808
C            0.47554718766295        0.72413813232063        2.04057617209294
H           -0.52809961883134       -0.45901058511546        3.64877080588667
H           -2.58565130743259        1.19788910237656        3.25408562441792
H           -1.88490907589907        2.98305195972681        1.38941516095644
H            0.65718585533094        2.48464560911388        0.69036193477427
H            1.49842714266522        0.36868297709852        2.09053295938069
H           -0.76033149227524        1.09900513150072       -1.09690022891510
H           -2.03822102004188        0.79664461905538       -2.31885443603300
H           -2.10041706559441        2.26285809059327       -1.32917116152996
C           -3.56088290168452       -0.37998470063213        0.76182132030088
C           -3.63777841148678        0.49359362873759       -0.36896153594846
H           -4.01227852745988        1.49847244261011       -0.18775987456929
H           -3.99894221641275        0.06669308019298       -1.30112011997371
H           -3.93616311696976        0.03164230964555        1.69968403407826
H           -3.86753546308756       -1.41232347626956        0.58247981884006

 Bond Distances (Angstroems)
 ---------------------------
Zr1-C2=2.3522        Zr1-C3=2.4494        Zr1-C4=2.4703        Zr1-C5=2.4999        Zr1-C6=2.4734        Zr1-C7=2.4328        
Zr1-C13=2.4413       Zr1-C14=2.4649       Zr1-C15=2.4784       Zr1-C16=2.4776       Zr1-C17=2.4657       Zr1-H23=2.1172       
Zr1-C26=2.2765       Zr1-C27=2.5747       C2-Zr1=2.3522        C2-H23=1.1190        C2-H24=1.0903        C2-H25=1.0899        
C3-Zr1=2.4494        C3-C4=1.4168         C3-C7=1.4165         C3-H8=1.0843         C4-Zr1=2.4703        C4-C3=1.4168         
C4-C5=1.4157         C4-H9=1.0852         C5-Zr1=2.4999        C5-C4=1.4157         C5-C6=1.4108         C5-H10=1.0838        
C6-Zr1=2.4734        C6-C5=1.4108         C6-C7=1.4214         C6-H11=1.0832        C7-Zr1=2.4328        C7-C3=1.4165         
C7-C6=1.4214         C7-H12=1.0855        H8-C3=1.0843         H9-C4=1.0852         H10-C5=1.0838        H11-C6=1.0832        
H12-C7=1.0855        C13-Zr1=2.4413       C13-C14=1.4184       C13-C17=1.4182       C13-H18=1.0853       C14-Zr1=2.4649       
C14-C13=1.4184       C14-C15=1.4142       C14-H19=1.0831       C15-Zr1=2.4784       C15-C14=1.4142       C15-C16=1.4172       
C15-H20=1.0833       C16-Zr1=2.4776       C16-C15=1.4172       C16-C17=1.4130       C16-H21=1.0852       C17-Zr1=2.4657       
C17-C13=1.4182       C17-C16=1.4130       C17-H22=1.0840       H18-C13=1.0853       H19-C14=1.0831       H20-C15=1.0833       
H21-C16=1.0852       H22-C17=1.0840       H23-Zr1=2.1172       H23-C2=1.1190        H24-C2=1.0903        H25-C2=1.0899        
C26-Zr1=2.2765       C26-C27=1.4310       C26-H30=1.0908       C26-H31=1.0918       C27-Zr1=2.5747       C27-C26=1.4310       
C27-H28=1.0876       C27-H29=1.0870       H28-C27=1.0876       H29-C27=1.0870       H30-C26=1.0908       H31-C26=1.0918       
 C  H  Rav=1.0882 sigma=0.0082  Rmin=1.0831  Rmax=1.1190    17
 C  C  Rav=1.4176 sigma=0.0050  Rmin=1.4108  Rmax=1.4310    11
 Zr H  Rav=2.1172 sigma=0.0000  Rmin=2.1172  Rmax=2.1172     1
 Zr C  Rav=2.4505 sigma=0.0685  Rmin=2.2765  Rmax=2.5747    13

 selected bond angles (degree)
 --------------------
C3-Zr1-C2=134.18               C4-Zr1-C2=102.87               C4-Zr1-C3= 33.47               C5-Zr1-C2= 79.84               
C5-Zr1-C3= 55.11               C5-Zr1-C4= 33.09               C6-Zr1-C2= 92.04               C6-Zr1-C3= 55.49               
C6-Zr1-C4= 55.18               C6-Zr1-C5= 32.95               C7-Zr1-C2=125.64               C7-Zr1-C3= 33.73               
C7-Zr1-C4= 55.78               C7-Zr1-C5= 55.36               C7-Zr1-C6= 33.67               C13-Zr1-C2=137.17              
C13-Zr1-C3= 80.06              C13-Zr1-C4= 99.78              C13-Zr1-C5=132.18              C13-Zr1-C6=130.59              
C13-Zr1-C7= 97.14              C14-Zr1-C2=110.95              C14-Zr1-C3=112.34              C14-Zr1-C4=132.58              
C14-Zr1-C5=165.61              C14-Zr1-C6=149.26              C14-Zr1-C7=119.34              C14-Zr1-C13= 33.60             
C15-Zr1-C2= 82.19              C15-Zr1-C3=131.44              C15-Zr1-C4=129.81              C15-Zr1-C5=147.76              
C15-Zr1-C6=173.07              C15-Zr1-C7=151.61              C15-Zr1-C13= 55.55             C15-Zr1-C14= 33.25             
C16-Zr1-C2= 85.89              C16-Zr1-C3=106.96              C16-Zr1-C4= 96.70              C16-Zr1-C5=118.46              
C16-Zr1-C6=150.61              C16-Zr1-C7=139.73              C16-Zr1-C13= 55.55             C16-Zr1-C14= 55.21             
C16-Zr1-C15= 33.23             C17-Zr1-C2=117.47              C17-Zr1-C3= 77.23              C17-Zr1-C4= 79.98              
C17-Zr1-C5=111.64              C17-Zr1-C6=131.50              C17-Zr1-C7=107.51              C17-Zr1-C13= 33.59             
C17-Zr1-C14= 55.38             C17-Zr1-C15= 55.19             C17-Zr1-C16= 33.22             H23-Zr1-C2= 28.38              
H23-Zr1-C3=115.43              H23-Zr1-C4= 81.96              H23-Zr1-C5= 70.49              H23-Zr1-C6= 95.72              
H23-Zr1-C7=125.66              H23-Zr1-C13=124.77             H23-Zr1-C14=114.28             H23-Zr1-C15= 81.04             
H23-Zr1-C16= 69.36             H23-Zr1-C17= 95.22             C26-Zr1-C2= 84.97              C26-Zr1-C3=116.37              
C26-Zr1-C4=136.12              C26-Zr1-C5=110.88              C26-Zr1-C6= 81.75              C26-Zr1-C7= 84.33              
C26-Zr1-C13=102.92             C26-Zr1-C14= 80.32             C26-Zr1-C15= 93.86             C26-Zr1-C16=127.09             
C26-Zr1-C17=134.62             C26-Zr1-H23=113.35             C27-Zr1-C2= 51.40              C27-Zr1-C3=138.53              
C27-Zr1-C4=134.80              C27-Zr1-C5=101.71              C27-Zr1-C6= 86.01              C27-Zr1-C7=105.34              
C27-Zr1-C13=124.54             C27-Zr1-C14= 92.59             C27-Zr1-C15= 87.38             C27-Zr1-C16=114.50             
C27-Zr1-C17=142.48             C27-Zr1-H23= 79.77             C27-Zr1-C26= 33.60             H23-C2-Zr1= 64.06              
H24-C2-Zr1=124.22              H24-C2-H23=108.56              H25-C2-Zr1=126.64              H25-C2-H23=108.26              
H25-C2-H24=108.56              C4-C3-Zr1= 74.07               C7-C3-Zr1= 72.49               C7-C3-C4=108.10                
H8-C3-Zr1=126.68               H8-C3-C4=125.74                H8-C3-C7=125.48                C3-C4-Zr1= 72.46               
C5-C4-Zr1= 74.60               C5-C4-C3=107.89                H9-C4-Zr1=127.27               H9-C4-C3=125.73                
H9-C4-C5=125.48                C4-C5-Zr1= 72.30               C6-C5-Zr1= 72.49               C6-C5-C4=108.20                
H10-C5-Zr1=128.21              H10-C5-C4=125.56               H10-C5-C6=125.59               C5-C6-Zr1= 74.56               
C7-C6-Zr1= 71.60               C7-C6-C5=108.06                H11-C6-Zr1=126.85              H11-C6-C5=125.44               
H11-C6-C7=125.85               C3-C7-Zr1= 73.78               C6-C7-Zr1= 74.73               C6-C7-C3=107.72                
H12-C7-Zr1=126.44              H12-C7-C3=125.38               H12-C7-C6=125.86               

 selected dihedral angles (degree)
 ---------------------------------
H23-C2-Zr1-C3=302.62          H23-C2-Zr1-C4=316.42          H23-C2-Zr1-C5=292.48          H23-C2-Zr1-C6=261.73          
H23-C2-Zr1-C7=259.52          H23-C2-Zr1-C13= 76.59         H23-C2-Zr1-C14=102.58         H23-C2-Zr1-C15= 85.59         
H23-C2-Zr1-C16= 52.37         H23-C2-Zr1-C17= 41.70         H23-C2-Zr1-C26=180.19         H23-C2-Zr1-C27=178.48         
H24-C2-Zr1-C3= 38.20          H24-C2-Zr1-C4= 52.00          H24-C2-Zr1-C5= 28.06          H24-C2-Zr1-C6=357.31          
H24-C2-Zr1-C7=355.10          H24-C2-Zr1-C13=172.17         H24-C2-Zr1-C14=198.16         H24-C2-Zr1-C15=181.17         
H24-C2-Zr1-C16=147.95         H24-C2-Zr1-C17=137.28         H24-C2-Zr1-H23= 95.58         H24-C2-Zr1-C26=275.77         
H24-C2-Zr1-C27=274.06         H25-C2-Zr1-C3=208.46          H25-C2-Zr1-C4=222.26          H25-C2-Zr1-C5=198.32          
H25-C2-Zr1-C6=167.57          H25-C2-Zr1-C7=165.36          H25-C2-Zr1-C13=342.43         H25-C2-Zr1-C14=  8.42         
H25-C2-Zr1-C15=351.43         H25-C2-Zr1-C16=318.21         H25-C2-Zr1-C17=307.54         H25-C2-Zr1-H23=265.84         
H25-C2-Zr1-C26= 86.03         H25-C2-Zr1-C27= 84.32         C4-C3-Zr1-C2= 24.94           C4-C3-Zr1-C5= 37.14           
C4-C3-Zr1-C6= 77.50           C4-C3-Zr1-C7=115.40           C4-C3-Zr1-C13=234.72          C4-C3-Zr1-C14=225.18          
C4-C3-Zr1-C15=257.69          C4-C3-Zr1-C16=283.89          C4-C3-Zr1-C17=268.89          C4-C3-Zr1-H23=358.63          
C4-C3-Zr1-C26=135.14          C4-C3-Zr1-C27=102.58          C7-C3-Zr1-C2=269.54           C7-C3-Zr1-C4=244.60           
C7-C3-Zr1-C5=281.74           C7-C3-Zr1-C6=322.10           C7-C3-Zr1-C13=119.33          C7-C3-Zr1-C14=109.79          
C7-C3-Zr1-C15=142.29          C7-C3-Zr1-C16=168.49          C7-C3-Zr1-C17=153.49          C7-C3-Zr1-H23=243.23          
C7-C3-Zr1-C26= 19.75          C7-C3-Zr1-C27=347.19          H8-C3-Zr1-C2=147.95           H8-C3-Zr1-C4=123.01           
H8-C3-Zr1-C5=160.15           H8-C3-Zr1-C6=200.50           H8-C3-Zr1-C7=238.40           H8-C3-Zr1-C13=357.73          
H8-C3-Zr1-C14=348.19          H8-C3-Zr1-C15= 20.70          H8-C3-Zr1-C16= 46.89          H8-C3-Zr1-C17= 31.90          
H8-C3-Zr1-H23=121.64          H8-C3-Zr1-C26=258.15          H8-C3-Zr1-C27=225.59          C3-C4-Zr1-C2=198.07           
C3-C4-Zr1-C5=245.09           C3-C4-Zr1-C6=281.50           C3-C4-Zr1-C7=322.65           C3-C4-Zr1-C13= 54.68          
C3-C4-Zr1-C14= 63.01          C3-C4-Zr1-C15=107.56          C3-C4-Zr1-C16=110.78          C3-C4-Zr1-C17= 81.96          
C3-C4-Zr1-H23=178.75          C3-C4-Zr1-C26=294.26          C3-C4-Zr1-C27=245.62          C5-C4-Zr1-C2=312.98           
C5-C4-Zr1-C3=114.91           C5-C4-Zr1-C6= 36.41           C5-C4-Zr1-C7= 77.56           C5-C4-Zr1-C13=169.59          
C5-C4-Zr1-C14=177.92          C5-C4-Zr1-C15=222.46          C5-C4-Zr1-C16=225.69          C5-C4-Zr1-C17=196.87          
C5-C4-Zr1-H23=293.66          C5-C4-Zr1-C26= 49.17          C5-C4-Zr1-C27=  0.53          H9-C4-Zr1-C2= 76.14           
H9-C4-Zr1-C3=238.06           H9-C4-Zr1-C5=123.16           H9-C4-Zr1-C6=159.56           H9-C4-Zr1-C7=200.72           
H9-C4-Zr1-C13=292.75          H9-C4-Zr1-C14=301.07          H9-C4-Zr1-C15=345.62          H9-C4-Zr1-C16=348.84          
H9-C4-Zr1-C17=320.03          H9-C4-Zr1-H23= 56.81          H9-C4-Zr1-C26=172.32          H9-C4-Zr1-C27=123.68          
Zr1-C4-C3-C7= 65.01           Zr1-C4-C3-H8=235.95           C5-C4-C3-Zr1=293.24           C5-C4-C3-C7=358.25            
C5-C4-C3-H8=169.20            H9-C4-C3-Zr1=123.71           H9-C4-C3-C7=188.72            H9-C4-C3-H8=359.67            
C4-C5-Zr1-C2=133.57           C4-C5-Zr1-C3=322.42           C4-C5-Zr1-C6=243.61           C4-C5-Zr1-C7=281.06           
C4-C5-Zr1-C13=346.10          C4-C5-Zr1-C14=353.82          C4-C5-Zr1-C15= 76.43          C4-C5-Zr1-C16= 53.94          
C4-C5-Zr1-C17= 17.91          C4-C5-Zr1-H23=105.80          C4-C5-Zr1-C26=214.15          C4-C5-Zr1-C27=180.38          
C6-C5-Zr1-C2=249.96           C6-C5-Zr1-C3= 78.81           C6-C5-Zr1-C4=116.39           C6-C5-Zr1-C7= 37.45           
C6-C5-Zr1-C13=102.49          C6-C5-Zr1-C14=110.21          C6-C5-Zr1-C15=192.82          C6-C5-Zr1-C16=170.33          
C6-C5-Zr1-C17=134.30          C6-C5-Zr1-H23=222.18          C6-C5-Zr1-C26=330.54          C6-C5-Zr1-C27=296.77          
H10-C5-Zr1-C2= 11.84          H10-C5-Zr1-C3=200.70          H10-C5-Zr1-C4=238.28          H10-C5-Zr1-C6=121.89          
H10-C5-Zr1-C7=159.34          H10-C5-Zr1-C13=224.38         H10-C5-Zr1-C14=232.10         H10-C5-Zr1-C15=314.71         
H10-C5-Zr1-C16=292.22         H10-C5-Zr1-C17=256.19         H10-C5-Zr1-H23=344.07         H10-C5-Zr1-C26= 92.42         
H10-C5-Zr1-C27= 58.66         Zr1-C5-C4-C3= 65.33           Zr1-C5-C4-H9=234.89           C6-C5-C4-Zr1=295.93           
C6-C5-C4-C3=  1.26            C6-C5-C4-H9=170.83            H10-C5-C4-Zr1=124.75          H10-C5-C4-C3=190.08           
H10-C5-C4-H9=359.64           C5-C6-Zr1-C2= 67.71           C5-C6-Zr1-C3=282.45           C5-C6-Zr1-C4=323.43           
C5-C6-Zr1-C7=244.47           C5-C6-Zr1-C13=252.31          C5-C6-Zr1-C14=207.15          C5-C6-Zr1-C15=101.25          
C5-C6-Zr1-C16=342.48          C5-C6-Zr1-C17=297.35          C5-C6-Zr1-H23= 39.50          C5-C6-Zr1-C26=152.33          
C5-C6-Zr1-C27=118.79          C7-C6-Zr1-C2=183.24           C7-C6-Zr1-C3= 37.97           C7-C6-Zr1-C4= 78.96           
C7-C6-Zr1-C5=115.53           C7-C6-Zr1-C13=  7.84          C7-C6-Zr1-C14=322.67          C7-C6-Zr1-C15=216.77          
C7-C6-Zr1-C16= 98.01          C7-C6-Zr1-C17= 52.87          C7-C6-Zr1-H23=155.03          C7-C6-Zr1-C26=267.86          
C7-C6-Zr1-C27=234.32          H11-C6-Zr1-C2=304.70          H11-C6-Zr1-C3=159.44          H11-C6-Zr1-C4=200.42          
H11-C6-Zr1-C5=236.99          H11-C6-Zr1-C7=121.47          H11-C6-Zr1-C13=129.30         H11-C6-Zr1-C14= 84.14         
H11-C6-Zr1-C15=338.24         H11-C6-Zr1-C16=219.47         H11-C6-Zr1-C17=174.34         H11-C6-Zr1-H23=276.49         
H11-C6-Zr1-C26= 29.32         H11-C6-Zr1-C27=355.78         Zr1-C6-C5-C4= 63.94           Zr1-C6-C5-H10=235.13          
C7-C6-C5-Zr1=295.76           C7-C6-C5-C4=359.70            C7-C6-C5-H10=170.89           H11-C6-C5-Zr1=124.54          
H11-C6-C5-C4=188.49           H11-C6-C5-H10=359.67          C3-C7-Zr1-C2=118.06           C3-C7-Zr1-C4= 37.05           
C3-C7-Zr1-C5= 77.45           C3-C7-Zr1-C6=114.07           C3-C7-Zr1-C13=300.06          C3-C7-Zr1-C14=273.25          
C3-C7-Zr1-C15=285.33          C3-C7-Zr1-C16=342.82          C3-C7-Zr1-C17=332.84          C3-C7-Zr1-H23= 82.94          
C3-C7-Zr1-C26=197.71          C3-C7-Zr1-C27=171.24          C6-C7-Zr1-C2=  3.98           C6-C7-Zr1-C3=245.93           
C6-C7-Zr1-C4=282.98           C6-C7-Zr1-C5=323.37           C6-C7-Zr1-C13=185.99          C6-C7-Zr1-C14=159.17          
C6-C7-Zr1-C15=171.26          C6-C7-Zr1-C16=228.75          C6-C7-Zr1-C17=218.77          C6-C7-Zr1-H23=328.87          
C6-C7-Zr1-C26= 83.64          C6-C7-Zr1-C27= 57.17          H12-C7-Zr1-C2=240.39          H12-C7-Zr1-C3=122.33          
H12-C7-Zr1-C4=159.38          H12-C7-Zr1-C5=199.78          H12-C7-Zr1-C6=236.41          H12-C7-Zr1-C13= 62.39         
H12-C7-Zr1-C14= 35.58         H12-C7-Zr1-C15= 47.67         H12-C7-Zr1-C16=105.16         H12-C7-Zr1-C17= 95.18         
H12-C7-Zr1-H23=205.27         H12-C7-Zr1-C26=320.04         H12-C7-Zr1-C27=293.57         Zr1-C7-C3-C4=293.95           
Zr1-C7-C3-H8=122.97           C6-C7-C3-Zr1= 67.61           C6-C7-C3-C4=  1.56            C6-C7-C3-H8=190.59            
H12-C7-C3-Zr1=236.49          H12-C7-C3-C4=170.44           H12-C7-C3-H8=359.46           Zr1-C7-C6-C5= 66.19           
Zr1-C7-C6-H11=237.36          C3-C7-C6-Zr1=293.03           C3-C7-C6-C5=359.22            C3-C7-C6-H11=170.39           
H12-C7-C6-Zr1=124.22          H12-C7-C6-C5=190.41           H12-C7-C6-H11=  1.58          

 CMA Distance (Angstroems)
 ---------------------------
R(CMA):  2.7721
           -------------------------------------------------
          |                Final Singlepoint                |
           -------------------------------------------------

          ...................................................
          :                      SETUP                      :
          :.................................................:
          :  # basis functions                  79          :
          :  # atomic orbitals                  78          :
          :  # shells                           46          :
          :  # electrons                        72          :
          :  max. iterations                   250          :
          :  Hamiltonian                  GFN2-xTB          :
          :  restarted?                      false          :
          :  GBSA solvation                  false          :
          :  PC potential                    false          :
          :  electronic temp.          300.0000000     K    :
          :  accuracy                    1.0000000          :
          :  -> integral cutoff          0.2500000E+02      :
          :  -> integral neglect         0.1000000E-07      :
          :  -> SCF convergence          0.1000000E-05 Eh   :
          :  -> wf. convergence          0.1000000E-03 e    :
          :  Broyden damping             0.4000000          :
          ...................................................

 iter      E             dE          RMSdq      gap      omega  full diag
   1    -38.2804741 -0.382805E+02  0.858E-05    2.01       0.0  T
   2    -38.2804741 -0.247056E-10  0.494E-05    2.01     363.7  T
   3    -38.2804741 -0.498090E-11  0.324E-05    2.01     554.5  T

   *** convergence criteria satisfied after 3 iterations ***

         #    Occupation            Energy/Eh            Energy/eV
      -------------------------------------------------------------
         1        2.0000           -0.8742230             -23.7888
       ...           ...                  ...                  ...
        30        2.0000           -0.5862295             -15.9521
        31        2.0000           -0.5790980             -15.7581
        32        2.0000           -0.5197899             -14.1442
        33        2.0000           -0.5194246             -14.1343
        34        2.0000           -0.5082844             -13.8311
        35        2.0000           -0.5031400             -13.6911
        36        2.0000           -0.4962338             -13.5032 (HOMO)
        37                         -0.4222272             -11.4894 (LUMO)
        38                         -0.4074024             -11.0860
        39                         -0.4025887             -10.9550
        40                         -0.4016637             -10.9298
        41                         -0.3929700             -10.6933
       ...                                ...                  ...
        78                          2.4209102              65.8763
      -------------------------------------------------------------
                  HL-Gap            0.0740065 Eh            2.0138 eV
             Fermi-level           -0.4592305 Eh          -12.4963 eV

 SCC (total)                   0 d,  0 h,  0 min,  0.010 sec
 SCC setup                      ...        0 min,  0.000 sec (  0.914%)
 Dispersion                     ...        0 min,  0.000 sec (  0.971%)
 classical contributions        ...        0 min,  0.000 sec (  0.269%)
 integral evaluation            ...        0 min,  0.001 sec ( 12.649%)
 iterations                     ...        0 min,  0.005 sec ( 48.435%)
 molecular gradient             ...        0 min,  0.004 sec ( 35.353%)
 printout                       ...        0 min,  0.000 sec (  1.260%)

         :::::::::::::::::::::::::::::::::::::::::::::::::::::
         ::                     SUMMARY                     ::
         :::::::::::::::::::::::::::::::::::::::::::::::::::::
         :: total energy             -37.647282486758 Eh    ::
         :: gradient norm              0.000296343934 Eh/a0 ::
         :: HOMO-LUMO gap              2.013820482787 eV    ::
         ::.................................................::
         :: SCC energy               -38.280474055354 Eh    ::
         :: -> isotropic ES            0.087763777297 Eh    ::
         :: -> anisotropic ES         -0.013137488718 Eh    ::
         :: -> anisotropic XC          0.021000205960 Eh    ::
         :: -> dispersion             -0.028176368008 Eh    ::
         :: repulsion energy           0.632466068164 Eh    ::
         :: add. restraining           0.000054644383 Eh    ::
         :: total charge               1.000000000000 e     ::
         :::::::::::::::::::::::::::::::::::::::::::::::::::::

           -------------------------------------------------
          |                Property Printout                |
           -------------------------------------------------

    * Orbital Energies and Occupations

         #    Occupation            Energy/Eh            Energy/eV
      -------------------------------------------------------------
         1        2.0000           -0.8742230             -23.7888
       ...           ...                  ...                  ...
        24        2.0000           -0.5930261             -16.1371
        25        2.0000           -0.5908419             -16.0776
        26        2.0000           -0.5893530             -16.0371
        27        2.0000           -0.5887899             -16.0218
        28        2.0000           -0.5885147             -16.0143
        29        2.0000           -0.5880751             -16.0023
        30        2.0000           -0.5862295             -15.9521
        31        2.0000           -0.5790980             -15.7581
        32        2.0000           -0.5197899             -14.1442
        33        2.0000           -0.5194246             -14.1343
        34        2.0000           -0.5082844             -13.8311
        35        2.0000           -0.5031400             -13.6911
        36        2.0000           -0.4962338             -13.5032 (HOMO)
        37                         -0.4222272             -11.4894 (LUMO)
        38                         -0.4074024             -11.0860
        39                         -0.4025887             -10.9550
        40                         -0.4016637             -10.9298
        41                         -0.3929700             -10.6933
        42                         -0.3717305             -10.1153
        43                         -0.3046719              -8.2905
        44                         -0.3037889              -8.2665
        45                         -0.3025253              -8.2321
        46                         -0.3020278              -8.2186
        47                         -0.0579923              -1.5781
       ...                                ...                  ...
        78                          2.4209102              65.8763
      -------------------------------------------------------------
                  HL-Gap            0.0740065 Eh            2.0138 eV
             Fermi-level           -0.4592305 Eh          -12.4963 eV

     #   Z          covCN         q      C6AA      α(0)
     1  40 Zr      10.458     0.954   138.727    17.698
     2   6 C        3.771    -0.252    25.629     7.214
     3   6 C        3.764    -0.085    22.162     6.710
     4   6 C        3.754    -0.092    22.316     6.736
     5   6 C        3.741    -0.088    22.252     6.730
     6   6 C        3.754    -0.091    22.286     6.732
     7   6 C        3.767    -0.092    22.286     6.728
     8   1 H        0.925     0.086     1.917     2.165
     9   1 H        0.925     0.076     2.018     2.221
    10   1 H        0.925     0.073     2.057     2.243
    11   1 H        0.925     0.081     1.974     2.197
    12   1 H        0.925     0.083     1.946     2.181
    13   6 C        3.764    -0.091    22.279     6.728
    14   6 C        3.757    -0.087    22.216     6.720
    15   6 C        3.751    -0.093    22.329     6.739
    16   6 C        3.751    -0.091    22.295     6.734
    17   6 C        3.757    -0.086    22.190     6.716
    18   1 H        0.925     0.083     1.946     2.181
    19   1 H        0.925     0.081     1.972     2.196
    20   1 H        0.925     0.077     2.005     2.214
    21   1 H        0.925     0.072     2.069     2.249
    22   1 H        0.925     0.083     1.949     2.183
    23   1 H        1.586     0.098     1.795     2.092
    24   1 H        0.925     0.083     1.945     2.181
    25   1 H        0.925     0.085     1.932     2.174
    26   6 C        3.627    -0.227    25.548     7.281
    27   6 C        3.735    -0.067    21.866     6.674
    28   1 H        0.925     0.112     1.682     2.028
    29   1 H        0.925     0.113     1.675     2.024
    30   1 H        0.927     0.101     1.777     2.084
    31   1 H        0.927     0.101     1.778     2.085

 Mol. C6AA /au·bohr⁶  :       9430.418279
 Mol. C8AA /au·bohr⁸  :     320443.228804
 Mol. α(0) /au        :        142.838944


Wiberg/Mayer (AO) data.
largest (>0.10) Wiberg bond orders for each atom

 ---------------------------------------------------------------------------
     #   Z sym  total        # sym  WBO       # sym  WBO       # sym  WBO
 ---------------------------------------------------------------------------
     1  40 Zr   4.327 --    26 C    0.566     2 C    0.477     7 C    0.258
                            13 C    0.257     3 C    0.240    14 C    0.238
                             4 C    0.235     6 C    0.230    16 C    0.230
                            17 C    0.228    15 C    0.227     5 C    0.220
                            27 C    0.205    23 H    0.133
     2   6 C    3.920 --    25 H    0.956    24 H    0.955    23 H    0.805
                             1 Zr   0.477    27 C    0.470    26 C    0.148
     3   6 C    3.981 --     4 C    1.306     7 C    1.301     8 H    0.923
                             1 Zr   0.240
     4   6 C    3.978 --     3 C    1.306     5 C    1.303     9 H    0.924
                             1 Zr   0.235
     5   6 C    3.980 --     6 C    1.326     4 C    1.303    10 H    0.929
                             1 Zr   0.220
     6   6 C    3.978 --     5 C    1.326     7 C    1.284    11 H    0.927
                             1 Zr   0.230
     7   6 C    3.980 --     3 C    1.301     6 C    1.284    12 H    0.918
                             1 Zr   0.258
     8   1 H    0.990 --     3 C    0.923
     9   1 H    0.992 --     4 C    0.924
    10   1 H    0.992 --     5 C    0.929
    11   1 H    0.990 --     6 C    0.927
    12   1 H    0.991 --     7 C    0.918
    13   6 C    3.979 --    17 C    1.300    14 C    1.289    18 H    0.919
                             1 Zr   0.257
    14   6 C    3.981 --    15 C    1.312    13 C    1.289    19 H    0.925
                             1 Zr   0.238
    15   6 C    3.977 --    14 C    1.312    16 C    1.301    20 H    0.928
                             1 Zr   0.227
    16   6 C    3.979 --    17 C    1.318    15 C    1.301    21 H    0.925
                             1 Zr   0.230
    17   6 C    3.981 --    16 C    1.318    13 C    1.300    22 H    0.925
                             1 Zr   0.228
    18   1 H    0.991 --    13 C    0.919
    19   1 H    0.991 --    14 C    0.925
    20   1 H    0.991 --    15 C    0.928
    21   1 H    0.993 --    16 C    0.925
    22   1 H    0.991 --    17 C    0.925
    23   1 H    0.990 --     2 C    0.805     1 Zr   0.133
    24   1 H    0.992 --     2 C    0.955
    25   1 H    0.991 --     2 C    0.956
    26   6 C    3.906 --    27 C    1.295    31 H    0.900    30 H    0.895
                             1 Zr   0.566     2 C    0.148
    27   6 C    3.973 --    26 C    1.295    29 H    0.941    28 H    0.939
                             2 C    0.470     1 Zr   0.205
    28   1 H    0.986 --    27 C    0.939
    29   1 H    0.986 --    27 C    0.941
    30   1 H    0.989 --    26 C    0.895
    31   1 H    0.989 --    26 C    0.900
 ---------------------------------------------------------------------------

Topologies differ in total number of bonds
Writing topology from bond orders to xtbtopo.mol

molecular dipole:
                 x           y           z       tot (Debye)
 q only:       -3.298       0.052       0.658
   full:       -2.968       0.212       0.473       7.659
molecular quadrupole (traceless):
                xx          xy          yy          xz          yz          zz
 q only:       14.279      -1.082      -9.008      -1.684      -4.130      -5.271
  q+dip:       13.792      -1.054      -9.897      -1.254      -7.457      -3.895
   full:       12.571      -0.581      -8.995      -2.170      -6.527      -3.577

           -------------------------------------------------
          |                Geometry Summary                 |
           -------------------------------------------------

      molecular mass/u    :      264.4982010
   center of mass at/Å    :       -1.2164811      -0.1449680       0.6182271
  moments of inertia/u·Å² :        0.5743116E+03   0.7223588E+03   0.9078632E+03
rotational constants/cm⁻¹ :        0.2935276E-01   0.2333692E-01   0.1856847E-01

 * 41 selected distances

     #   Z          #   Z                                           value/Å
     1  40 Zr       2   6 C                                       2.3522001
     1  40 Zr       3   6 C                                       2.4494076
     1  40 Zr       4   6 C                                       2.4702684
     3   6 C        4   6 C                                       1.4168141
     1  40 Zr       5   6 C                                       2.4999020
     4   6 C        5   6 C                                       1.4157345
     1  40 Zr       6   6 C                                       2.4734026
     5   6 C        6   6 C                                       1.4107572
     1  40 Zr       7   6 C                                       2.4327904
     3   6 C        7   6 C                                       1.4165492
     6   6 C        7   6 C                                       1.4213969
     3   6 C        8   1 H                                       1.0842701
     4   6 C        9   1 H                                       1.0851569
     5   6 C       10   1 H                                       1.0838291
     6   6 C       11   1 H                                       1.0832227
     7   6 C       12   1 H                                       1.0854761
     1  40 Zr      13   6 C                                       2.4413065
     1  40 Zr      14   6 C                                       2.4649260
    13   6 C       14   6 C                                       1.4184050
     1  40 Zr      15   6 C                                       2.4784290
    14   6 C       15   6 C                                       1.4142401
     1  40 Zr      16   6 C                                       2.4776052
    15   6 C       16   6 C                                       1.4172378
     1  40 Zr      17   6 C                                       2.4657290
    13   6 C       17   6 C                                       1.4181769
    16   6 C       17   6 C                                       1.4130142
    13   6 C       18   1 H                                       1.0853222
    14   6 C       19   1 H                                       1.0830808 (min)
    15   6 C       20   1 H                                       1.0833160
    16   6 C       21   1 H                                       1.0852140
    17   6 C       22   1 H                                       1.0840331
     2   6 C       23   1 H                                       1.1190170
     2   6 C       24   1 H                                       1.0903235
     2   6 C       25   1 H                                       1.0898708
     1  40 Zr      26   6 C                                       2.2764668
     1  40 Zr      27   6 C                                       2.5746520 (max)
    26   6 C       27   6 C                                       1.4309865
    27   6 C       28   1 H                                       1.0875964
    27   6 C       29   1 H                                       1.0870157
    26   6 C       30   1 H                                       1.0908065
    26   6 C       31   1 H                                       1.0917521

 * 3 distinct bonds (by element types)

   Z      Z             #   av. dist./Å        max./Å        min./Å
   1 H    6 C          17     1.0881943     1.1190170     1.0830808
   6 C    6 C          11     1.4175739     1.4309865     1.4107572
   6 C   40 Zr         13     2.4505450     2.5746520     2.2764668


optimized geometry written to: xtbopt.xyz


           -------------------------------------------------
          | TOTAL ENERGY              -37.647282486758 Eh   |
          | GRADIENT NORM               0.000296343934 Eh/α |
          | HOMO-LUMO GAP               2.013820482787 eV   |
           -------------------------------------------------

------------------------------------------------------------------------
 * finished run on 2026/08/03 at 12:17:11.700     
------------------------------------------------------------------------
 total:
 * wall-time:     0 d,  0 h,  0 min,  8.790 sec
 *  cpu-time:     0 d,  0 h,  1 min,  7.460 sec
 * ratio c/w:     7.674 speedup
 SCF:
 * wall-time:     0 d,  0 h,  0 min,  0.746 sec
 *  cpu-time:     0 d,  0 h,  0 min,  5.806 sec
 * ratio c/w:     7.784 speedup
 ANC optimizer:
 * wall-time:     0 d,  0 h,  0 min,  7.951 sec
 *  cpu-time:     0 d,  0 h,  1 min,  0.974 sec
 * ratio c/w:     7.669 speedup

