31
 energy: -37.647282486758 gnorm: 0.000296343934 xtb: 6.5.1 (b24c23e)
Zr          -1.31058036830081       -0.10407920441869        0.55611579571984
C           -1.85121034625003        1.20187363463228       -1.32405723465562
C            0.06698164210346       -2.09816205748002        0.91045016155703
C            0.58446495991059       -1.46906158454933       -0.24877606605776
C           -0.39792083870384       -1.55364922101219       -1.26468296283499
C           -1.52940981896958       -2.20519744823304       -0.73040473817946
C           -1.24957494482733       -2.53516938137104        0.62354493198518
H            0.63166220565953       -2.34503720206988        1.80254323619088
H            1.61148715933203       -1.14876556157319       -0.39090692333691
H           -0.24819988325608       -1.30407602091093       -2.30870511435646
H           -2.39203502437340       -2.53259329415756       -1.29790878475702
H           -1.85100535173555       -3.17780049246544        1.25881251272635
C           -0.59534004672586        0.28155403862291        2.85822237212305
C           -1.69347985397581        1.15279662701074        2.64166371215957
C           -1.31104424483522        2.10882240906498        1.67221414039591
C            0.03017442646862        1.84208138795057        1.29999880758808
C            0.47554718766295        0.72413813232063        2.04057617209294
H           -0.52809961883134       -0.45901058511546        3.64877080588667
H           -2.58565130743259        1.19788910237656        3.25408562441792
H           -1.88490907589907        2.98305195972681        1.38941516095644
H            0.65718585533094        2.48464560911388        0.69036193477427
H            1.49842714266522        0.36868297709852        2.09053295938069
H           -0.76033149227524        1.09900513150072       -1.09690022891510
H           -2.03822102004188        0.79664461905538       -2.31885443603300
H           -2.10041706559441        2.26285809059327       -1.32917116152996
C           -3.56088290168452       -0.37998470063213        0.76182132030088
C           -3.63777841148678        0.49359362873759       -0.36896153594846
H           -4.01227852745988        1.49847244261011       -0.18775987456929
H           -3.99894221641275        0.06669308019298       -1.30112011997371
H           -3.93616311696976        0.03164230964555        1.69968403407826
H           -3.86753546308756       -1.41232347626956        0.58247981884006
