77
Co porphyrin with four meso phenyl substitutions; C11:phi=-25deg angle=65.0deg, C14:phi=-25deg angle=65.0deg, C21:phi=-25deg angle=65.0deg, C28:phi=30deg angle=60.0deg; source Coordinates from ORCA-job ./CoPor E -2369.803340232490
 Co       0.00213612       0.13787848       0.09524498
  N      -1.98277208       0.27020450       0.12851130
  N       1.98698421       0.00559604       0.06164614
  N       0.13337154       2.12219088       0.03510295
  N      -0.12911804      -1.84635142       0.15548049
  C      -2.88845897      -0.76359753       0.17543220
  C      -2.74447649       1.41499025       0.10918090
  C      -4.15126504       1.09686010       0.14451062
  H      -4.95253607       1.83443491       0.13782295
  C      -4.24109246      -0.26170451       0.18579335
  C      -2.24965136       2.70894874       0.06230173
  C       1.27802652       2.88308906      -0.00850144
  C       0.95904831       4.28968904      -0.04360884
  C      -0.39990775       4.38022203      -0.02080383
  H      -1.02538144       5.27166657      -0.03519997
  C      -0.90118557       3.02819900       0.02798516
  C      -2.56834625      -2.11188080       0.20906685
  C       0.40414276      -4.10437090       0.21200056
  C       0.90542573      -2.75237790       0.16263305
  H      -1.69213381      -4.81447120       0.27263218
  C      -1.27378045      -2.60722756       0.19946839
  C      -0.95480627      -4.01381857       0.23501181
  C       2.57258107       2.38771270      -0.01842927
  C       4.15546561      -0.82107541       0.04461107
  C       4.24528105       0.53749658       0.00355315
  H       5.13661938       1.16230354      -0.03148740
  C       2.89266143       1.03940517       0.01458137
  C       2.74869036      -1.13919981       0.08047596
  C       2.25388287      -2.43315432       0.12767337
  H       3.39328000       3.10598242      -0.05472858
  H      -3.38902524      -2.83016600       0.24546648
  H      -2.96852355       3.52985522       0.05178300
  H       2.97274858      -3.25406920       0.13802975
  C      -5.46057114      -1.11651720       0.23340662
  C      -6.34631561      -1.13061517      -0.84680954
  C      -7.48967918      -1.93207379      -0.80216811
  C      -7.74729826      -2.71943443       0.32268950
  C      -6.86155379      -2.70533645       1.40290566
  C      -5.71819023      -1.90387784       1.35826423
  H      -6.14641648      -0.51966390      -1.71964107
  H      -8.17697124      -1.94301309      -1.64036018
  H      -8.63448946      -3.34132500       0.35732895
  H      -7.06145292      -3.31628773       2.27573719
  H      -5.03089816      -1.89293854       2.19645630
  C       1.96779034       5.38510787      -0.09457053
  C       2.79627182       5.52033813      -1.21123530
  C       3.74205211       6.54738519      -1.25901617
  C       3.85935091       7.43920198      -0.19013226
  C       3.03086942       7.30397171       0.92653251
  C       2.08508914       6.27692466       0.97431337
  H       2.70525400       4.82833427      -2.04063412
  H       4.38491104       6.65231690      -2.12549047
  H       4.59322766       8.23613755      -0.22720775
  H       3.12188725       7.99597558       1.75593133
  H       1.44223021       6.17199295       1.84078768
  C       1.25985883      -5.32398278       0.23192262
  C       1.22215978      -6.22127053      -0.83815329
  C       2.02446538      -7.36475898      -0.81947469
  C       2.86447003      -7.61095968       0.26927984
  C       2.90216907      -6.71367192       1.33935576
  C       2.09986347      -5.57018347       1.32067715
  H       0.57035947      -6.03023148      -1.68297069
  H       1.99521287      -8.06100803      -1.64979845
  H       3.48701782      -8.49824778       0.28377347
  H       3.55396938      -6.90471097       2.18417315
  H       2.12911599      -4.87393442       2.15100091
  C       5.25170042      -1.83018232       0.05312623
  C       6.15531440      -1.88889782      -1.01066100
  C       7.18312650      -2.83502019      -1.00267733
  C       7.30732462      -3.72242707       0.06909357
  C       6.40371064      -3.66371157       1.13288080
  C       5.37589854      -2.71758919       1.12489712
  H       6.05894306      -1.20031581      -1.84229998
  H       7.88428437      -2.88058040      -1.82812140
  H       8.10485383      -4.45656927       0.07528848
  H       6.50008198      -4.35229357       1.96451977
  H       4.67474066      -2.67202899       1.95034119
