29

C      2.785972    0.084912    0.511333
C      2.154816   -1.278557    0.843947
C      0.758787   -1.480339    0.236443
N     -0.163943   -0.432047    0.689789
C     -1.468459   -0.581021    0.035136
C     -2.391607    0.570712    0.443039
C     -3.754824    0.458589   -0.244765
N     -4.607238    1.577499    0.144170
C      3.127219    0.234799   -0.980891
N      3.868436    1.468715   -1.233110
H      3.721936    0.179576    1.103894
H      2.108592    0.907413    0.827455
H      2.825213   -2.092978    0.492705
H      2.078255   -1.372010    1.949220
H      0.380207   -2.480321    0.547558
H      0.836095   -1.480449   -0.872336
H     -0.305018   -0.554724    1.720783
H     -1.934213   -1.550895    0.324114
H     -1.340551   -0.559077   -1.070550
H     -1.917543    1.537137    0.163178
H     -2.534489    0.554905    1.545852
H     -3.613778    0.476143   -1.348032
H     -4.243977   -0.502028    0.033836
H     -4.870423    1.454281    1.149182
H     -5.494453    1.507080   -0.404883
H      2.195357    0.254236   -1.584406
H      3.740844   -0.629024   -1.317351
H      3.301255    2.279218   -0.892826
H      4.757533    1.448254   -0.682381
