77
Co porphyrin with phenyl groups replacing the 4 meso hydrogens
 Co       0.00213612       0.13787848       0.09524498
  N      -1.98277208       0.27020450       0.12851130
  N       1.98698421       0.00559604       0.06164614
  N       0.13337154       2.12219088       0.03510295
  N      -0.12911804      -1.84635142       0.15548049
  C      -2.88845897      -0.76359753       0.17543220
  H      -5.13244254      -0.88651031       0.22059519
  C      -2.74447649       1.41499025       0.10918090
  C      -4.15126504       1.09686010       0.14451062
  H      -4.95253607       1.83443491       0.13782295
  C      -4.24109246      -0.26170451       0.18579335
  C      -2.24965136       2.70894874       0.06230173
  C       1.27802652       2.88308906      -0.00850144
  C       0.95904831       4.28968904      -0.04360884
  H       1.69636618       5.09036142      -0.08085817
  C      -0.39990775       4.38022203      -0.02080383
  H      -1.02538144       5.27166657      -0.03519997
  C      -0.90118557       3.02819900       0.02798516
  C      -2.56834625      -2.11188080       0.20906685
  H       1.02960706      -4.99581576       0.22656209
  C       0.40414276      -4.10437090       0.21200056
  C       0.90542573      -2.75237790       0.16263305
  H      -1.69213381      -4.81447120       0.27263218
  C      -1.27378045      -2.60722756       0.19946839
  C      -0.95480627      -4.01381857       0.23501181
  C       2.57258107       2.38771270      -0.01842927
  H       4.95673549      -1.55866098       0.05083505
  C       4.15546561      -0.82107541       0.04461107
  C       4.24528105       0.53749658       0.00355315
  H       5.13661938       1.16230354      -0.03148740
  C       2.89266143       1.03940517       0.01458137
  C       2.74869036      -1.13919981       0.08047596
  C       2.25388287      -2.43315432       0.12767337
  C      -3.22859025       3.82683490       0.04797763
  C      -3.97865075       4.11310105       1.19122022
  C      -4.89895871       5.16403441       1.17775402
  C      -5.06920618       5.92870161       0.02104524
  C      -4.31914568       5.64243546      -1.12219734
  C      -3.39883772       4.59150211      -1.10873115
  H      -3.84667159       3.52031615       2.08792338
  H      -5.48043997       5.38596105       2.06404805
  H      -5.78265895       6.74341946       0.01060581
  H      -4.45112483       6.23522037      -2.01890051
  H      -2.81735646       4.36957547      -1.99502518
  C      -3.68592391      -3.09002148       0.25863485
  C      -3.95994274      -3.89422487      -0.85028693
  C      -5.01058608      -4.81378243      -0.80368767
  C      -5.78721058      -4.92913659       0.35183336
  C      -5.51319175      -4.12493320       1.46075514
  C      -4.46254841      -3.20537564       1.41415589
  H      -3.35788919      -3.80480021      -1.74606802
  H      -5.22301834      -5.43723866      -1.66337591
  H      -6.60170358      -5.64200762       0.38795863
  H      -6.11524530      -4.21435786       2.35653623
  H      -4.25011615      -2.58191941       2.27384412
  C       3.69018439       3.36583097      -0.06786059
  C       3.96422263       4.17003026       1.04112512
  C       5.01489009       5.08956675       0.99465436
  C       5.79151931       5.20490395      -0.16080211
  C       5.51748107       4.40070466      -1.26978781
  C       4.46681361       3.48116817      -1.22331705
  H       3.36214293       4.08061541       1.93688961
  H       5.22732946       5.71299651       1.85436003
  H       6.60603102       5.91775866      -0.19682776
  H       6.11956077       4.49011952      -2.16555230
  H       4.25437424       2.85773841      -2.08302273
  C       3.23281248      -3.55105142       0.14177637
  C       3.98286986      -3.83732414      -1.00157013
  C       4.90316910      -4.88826777      -0.98831179
  C       5.07341096      -5.65293869       0.16829304
  C       4.32335358      -5.36666597       1.31163954
  C       3.40305434      -4.31572234       1.29838120
  H       3.85088706      -3.24450041      -1.89824708
  H       5.48461269      -5.11018605      -1.87463264
  H       5.78685697      -6.46766451       0.17857133
  H       4.45533638      -5.95948970       2.20831649
  H       2.82161075      -4.09380406       2.18470204
