59

C      8.572198    2.462095   -0.870638
C      7.756432    1.430683   -0.076233
C      8.452565    0.059897   -0.178708
C      7.672051    1.888537    1.392705
O      6.448752    1.377743   -0.666884
C      5.380287    0.570397   -0.248800
O      5.497051   -0.200248    0.742036
N      4.140811    0.638186   -0.962750
C      2.968546   -0.151114   -0.591306
C      3.144849   -1.612207   -1.024161
C      1.958101   -2.483053   -0.601688
N      0.746303   -2.085444   -1.339858
C     -0.303638   -1.599958   -0.435907
C     -1.492532   -1.076938   -1.251999
C     -2.546319   -0.369885   -0.385208
C     -3.294832   -1.335177    0.544500
N     -4.370056   -0.636150    1.245968
C     -5.606317   -0.283827    0.616204
O     -5.819266   -0.610220   -0.582809
O     -6.567281    0.421921    1.355799
C     -7.871561    0.813958    0.899938
C     -8.717147   -0.426625    0.551739
C     -7.765646    1.757068   -0.314721
C     -8.548284    1.567729    2.054913
H      9.603480    2.553573   -0.466509
H      8.636865    2.162303   -1.938901
H      8.083328    3.458001   -0.822243
H      8.454441   -0.291532   -1.233220
H      9.504496    0.128993    0.173752
H      7.938219   -0.702610    0.441304
H      7.095556    2.835591    1.465945
H      7.175450    1.127041    2.027617
H      8.688855    2.059532    1.807463
H      4.052737    1.330274   -1.740313
H      2.805446   -0.085566    0.506370
H      2.075182    0.276141   -1.096212
H      4.065932   -2.027394   -0.561124
H      3.266565   -1.661348   -2.128788
H      2.208813   -3.542670   -0.834673
H      1.830545   -2.425773    0.504143
H      0.375157   -2.924137   -1.846296
H      0.094119   -0.770187    0.190363
H     -0.636191   -2.427946    0.228771
H     -1.964231   -1.914937   -1.810358
H     -1.113448   -0.345442   -1.999024
H     -2.065245    0.431640    0.217833
H     -3.276329    0.118307   -1.066591
H     -2.588466   -1.744516    1.298200
H     -3.715568   -2.188605   -0.031593
H     -4.257938   -0.438861    2.265434
H     -8.733138   -1.132099    1.410499
H     -9.762068   -0.132484    0.313344
H     -8.307162   -0.961045   -0.330236
H     -7.084258    2.604288   -0.084529
H     -8.764936    2.166411   -0.578187
H     -7.375860    1.228127   -1.208045
H     -7.954158    2.466792    2.327948
H     -8.617923    0.915939    2.952943
H     -9.573336    1.893232    1.772782
