77
Co-porphyrin with four meso H replaced by phenyl groups
Co     0.0021361233     0.1378784763     0.0952449769
N     -1.9827720759     0.2702045009     0.1285112969
N      1.9869842058     0.0055960378     0.0616461391
N      0.1333715387     2.1221908793     0.0351029481
N     -0.1291180421    -1.8463514236     0.1554804899
C     -2.8884589726    -0.7635975273     0.1754321981
H     -5.1324425355    -0.8865103134     0.2205951860
C     -2.7444764877     1.4149902544     0.1091808968
C     -4.1512650421     1.0968600982     0.1445106240
H     -4.9525360702     1.8344349072     0.1378229493
C     -4.2410924642    -0.2617045082     0.1857933540
C     -2.2496513617     2.7089487437     0.0623017332
C      1.2780265234     2.8830890555    -0.0085014401
C      0.9590483056     4.2896890425    -0.0436088394
H      1.6963661793     5.0903614201    -0.0808581719
C     -0.3999077473     4.3802220342    -0.0208038322
H     -1.0253814363     5.2716665673    -0.0351999686
C     -0.9011855679     3.0281989984     0.0279851643
C     -2.5683462528    -2.1118807996     0.2090668538
H      1.0296070592    -4.9958157573     0.2265620938
C      0.4041427612    -4.1043709008     0.2120005573
C      0.9054257255    -2.7523778979     0.1626330451
H     -1.6921338088    -4.8144711991     0.2726321812
C     -1.2737804522    -2.6072275557     0.1994683935
C     -0.9548062682    -4.0138185669     0.2350118086
C      2.5725810662     2.3877126983    -0.0184292731
H      4.9567354939    -1.5586609764     0.0508350453
C      4.1554656137    -0.8210754137     0.0446110724
C      4.2452810482     0.5374965778     0.0035531483
H      5.1366193774     1.1623035383    -0.0314873951
C      2.8926614251     1.0394051736     0.0145813696
C      2.7486903565    -1.1391998088     0.0804759613
C      2.2538828725    -2.4331543186     0.1276733741
C     -3.2312253509     3.8298440189     0.0479390758
C     -3.6687379627     4.3906308644     1.2503158173
C     -4.5890459244     5.4415642197     1.2368496211
C     -5.0718412743     5.9317107294     0.0210066834
C     -4.6343286624     5.3709238839    -1.1813700581
C     -3.7140207008     4.3199905286    -1.1679038619
H     -3.2954960315     4.0117058604     2.1902659767
H     -4.9272804418     5.8751002205     2.1663892637
H     -5.7833177228     6.7441717342     0.0105961666
H     -5.0075705936     5.7498488879    -2.1213202175
H     -3.3757861834     3.8864545278    -2.0974435045
C     -3.6889321975    -3.0926544275     0.2587682784
C     -4.2369698097    -3.5877514926    -0.9270405898
C     -5.2876131416    -4.5073090484    -0.8804413346
C     -5.7902188614    -4.9317695391     0.3519667886
C     -5.2421812492    -4.4366724740     1.5377756568
C     -4.1915379172    -3.5171149182     1.4911764017
H     -3.8484127750    -3.2596073767    -1.8797970487
H     -5.7112928991    -4.8900612533    -1.7971725999
H     -6.6024556535    -5.6426658600     0.3879919823
H     -5.6307382838    -4.7648165899     2.4905321157
H     -3.7678581598    -3.1343627132     2.4079076669
C      3.6931927444     3.3684638591    -0.0679936472
C      4.2411588839     3.8634772798     1.1178831690
C      5.2918263432     4.7830137709     1.0714124102
C      5.7945276631     5.2075368413    -0.1609351648
C      5.2465615236     4.7125234206    -1.3468119811
C      4.1958940642     3.7929869295    -1.3003412223
H      3.8525279423     3.5352847844     2.0705928190
H      5.7154508462     5.1657013116     1.9881962052
H      6.6067831076     5.9184168774    -0.1968610199
H      5.6351924652     5.0407159160    -2.2995216310
H      3.7722695612     3.4102993889    -2.2171250172
C      3.2354475563    -3.5540605613     0.1418143320
C      3.6728370250    -4.1147169065    -1.0606680651
C      4.5931362620    -5.1656605448    -1.0474097308
C      5.0760460304    -5.6559478378     0.1683310006
C      4.6386565618    -5.0952914926     1.3708133977
C      3.7183573247    -4.0443478543     1.3575550633
H      3.2995066385    -3.7356830651    -2.0005392103
H      4.9312755793    -5.5990956578    -1.9770310542
H      5.7875157341    -6.4684167922     0.1785808224
H      5.0119869482    -5.4743253340     2.3106845429
H      3.3802180074    -3.6109127413     2.2871763868
