31
[Cp2Zr(CH2CH2CH3)]+ approximate explicit-atom 3D model
Zr     0.000000     0.000000     0.000000  # Zr
C     -1.514043     1.165522     1.756511  # CpAC1
C     -2.216265     1.234244     0.548553  # CpAC2
C     -1.514043     2.084822    -0.311914  # CpAC3
C     -0.377824     2.541785     0.364246  # CpAC4
C     -0.377824     1.973627     1.642604  # CpAC5
H     -1.799057     0.589693     2.624606  # CpAH1
H     -3.138590     0.720785     0.320349  # CpAH2
H     -1.799057     2.343316    -1.321047  # CpAH3
H      0.368352     3.215003    -0.031228  # CpAH4
H      0.368352     2.131204     2.407320  # CpAH5
C     -1.058563    -1.400137    -1.911848  # CpBC1
C     -2.113413    -1.079635    -1.050701  # CpBC2
C     -1.905957    -1.754653     0.156906  # CpBC3
C     -0.722892    -2.492339     0.042102  # CpBC4
C     -0.199174    -2.273236    -1.236458  # CpBC5
H     -0.930200    -1.037236    -2.920919  # CpBH1
H     -2.942393    -0.425859    -1.278229  # CpBH2
H     -2.546658    -1.713498     1.025358  # CpBH3
H     -0.289887    -3.120680     0.806362  # CpBH4
H      0.709138    -2.702727    -1.632572  # CpBH5
C      1.950000     1.050000    -0.450000  # PropylC1
C      3.105006     0.082293    -0.184661  # PropylC2
C      4.181401    -0.071478    -1.261056  # PropylC3
H      2.350667     1.879151     0.133159  # C1H1
H      2.270676     1.350257    -1.447553  # C1H2
H      2.395481    -0.681322     0.134035  # C2H1
H      3.239996     0.511485     0.808149  # C2H2
H      3.967570     0.605606    -2.088059  # C3H1
H      4.187229    -1.098945    -1.624893  # C3H2
H      5.156248     0.169356    -0.837060  # C3H3
