31
TS-like [Cp2Zr(CH3)(C2H4)]+ insertion geometry; approximate, not a validated TS
Zr     0.000000     0.000000     0.000000  # Zr
C     -1.514043     1.165522     1.756511  # CpAC1
C     -2.216265     1.234244     0.548553  # CpAC2
C     -1.514043     2.084822    -0.311914  # CpAC3
C     -0.377824     2.541785     0.364246  # CpAC4
C     -0.377824     1.973627     1.642604  # CpAC5
H     -1.799057     0.589693     2.624606  # CpAH1
H     -3.138590     0.720785     0.320349  # CpAH2
H     -1.799057     2.343316    -1.321047  # CpAH3
H      0.368352     3.215003    -0.031228  # CpAH4
H      0.368352     2.131204     2.407320  # CpAH5
C     -1.058563    -1.400137    -1.911848  # CpBC1
C     -2.113413    -1.079635    -1.050701  # CpBC2
C     -1.905957    -1.754653     0.156906  # CpBC3
C     -0.722892    -2.492339     0.042102  # CpBC4
C     -0.199174    -2.273236    -1.236458  # CpBC5
H     -0.930200    -1.037236    -2.920919  # CpBH1
H     -2.942393    -0.425859    -1.278229  # CpBH2
H     -2.546658    -1.713498     1.025358  # CpBH3
H     -0.289887    -3.120680     0.806362  # CpBH4
H      0.709138    -2.702727    -1.632572  # CpBH5
C      2.200000    -0.700000     0.300000  # MigratingMeC
C      2.150000     0.850000    -0.450000  # AlphaC
C      3.150000     0.050000    -1.150000  # BetaC
H      2.682194    -0.809246    -0.671419  # MeH1
H      2.208776    -1.658044     0.819783  # MeH2
H      2.739060     0.039553     0.892094  # MeH3
H      1.858751     1.304204     0.497087  # AlphaH1
H      1.487663     1.714148    -0.501547  # AlphaH2
H      3.862595     0.821715    -1.441142  # BetaH1
H      3.059458     0.447554    -2.160867  # BetaH2
