44
CpRu(eta6-sumanene)+ convex initial geometry; ring [2, 3, 7, 8, 12, 13]; Ru-centroid 1.695 A
C     -3.17190747     0.75655430     0.00135533
C     -1.99690366     1.72016576     0.17615345
C     -1.00020891     1.03034671     0.87039209
C      0.32251602     1.42330213     0.83054759
C      0.74131153     2.53363540     0.09367011
C      2.23993295     2.36430499    -0.16166571
C      2.47959001     0.89269300     0.17988663
C      1.35746682     0.44630407     0.88187985
C      1.03790499    -0.89364181     0.97147977
C      1.81805481    -1.88117174     0.36537012
C      0.93246719    -3.11799328     0.20492552
C     -0.47395942    -2.56208383     0.43441272
C     -0.32673364    -1.29904897     1.01258694
C     -1.32989682    -0.35205851     0.96283152
C     -2.55063944    -0.60168869     0.33141235
C     -2.76121949    -1.89986797    -0.10262722
C     -1.73373356    -2.86981943    -0.05166514
C      3.01255614    -1.45979071    -0.19463765
C      3.33986619    -0.08735624    -0.28640988
C     -0.25975077     3.31069767    -0.46494656
C     -1.61454679     2.90821449    -0.42413606
H     -3.98848666     0.99717572     0.68742727
H     -3.56722268     0.78290082    -1.01454381
H      2.49995782     2.58534042    -1.19730537
H      2.82949954     3.02266434     0.48204931
H      1.18231872    -3.88408826     0.94388940
H      1.03416517    -3.56082815    -0.78632332
H     -3.67559072    -2.16654536    -0.61461339
H     -1.92142642    -3.82248374    -0.52760963
H      3.66288757    -2.16349380    -0.69582755
H      4.22168399     0.17957915    -0.85250455
H     -0.01349559     4.17760662    -1.06256472
H     -2.32645542     3.49047192    -0.99289141
Ru     0.02884902     0.16785592     2.61313406
C     -0.02758805     1.55185139     4.68489838
C      1.21406169     0.76689661     4.72197979
C      0.85051516    -0.65371491     4.81784128
C     -0.61577368    -0.74667917     4.84000068
C     -1.15850422     0.61647343     4.75783538
H     -0.09707699     2.63141646     4.61585822
H      2.22140385     1.16575412     4.68509551
H      1.54258539    -1.48681326     4.86408822
H     -1.19540517    -1.66040475     4.90546631
H     -2.20879619     0.88487477     4.75204724
