44
 energy: -67.158034448836 gnorm: 0.000891101468 xtb: 6.5.1 (b24c23e)
C           -3.19170993454608        0.78607289003632        0.13533262895227
C           -2.01503300937826        1.76141368932908        0.32657832767114
C           -1.00291247364002        1.01644474563511        0.98982668880659
C            0.33900196208315        1.41496377906777        0.94857906075279
C            0.74209392766036        2.58004355602583        0.24234510465994
C            2.24771804678642        2.40195637722985       -0.02923163635737
C            2.48510424852653        0.91433722983069        0.25249191565201
C            1.37947901581842        0.44187444715962        0.96351017040102
C            1.04135938163890       -0.89877383743579        1.00253026666889
C            1.80969844720984       -1.86295469143418        0.34523947979053
C            0.92221324184905       -3.08885065965931        0.14966266616160
C           -0.47787789436512       -2.54247810596743        0.41412869283853
C           -0.32493035779598       -1.30465632411694        1.04376153508569
C           -1.34123588775524       -0.36639402640392        1.04592421164727
C           -2.56286729612523       -0.58525902131709        0.40497224603854
C           -2.77507119778304       -1.86677761346609       -0.07939880907731
C           -1.74527314521178       -2.83297289624365       -0.06986822732730
C            3.00135580434827       -1.42299824022572       -0.21273533025052
C            3.33500214704596       -0.05177724292404       -0.26348996508519
C           -0.25014902080803        3.32117451080489       -0.44418350769988
C           -1.62750829873169        2.91216009323109       -0.40219862986635
H           -4.00574626777059        0.98769876903737        0.83636071341492
H           -3.59696259375282        0.85549723592982       -0.87442518684088
H            2.49332907222309        2.66461872143175       -1.05846439152886
H            2.85634400657768        3.02709423277768        0.62926871894054
H            1.17813079516504       -3.87837352603816        0.86055045066321
H            1.01491408387900       -3.50262971734537       -0.85382376837452
H           -3.69249466978884       -2.11419007324324       -0.59189006681634
H           -1.93462763542931       -3.76814254993773       -0.57561973388380
H            3.64195135043425       -2.11170624206175       -0.74330449874110
H            4.20898695347291        0.23282505932923       -0.82977238576587
H            0.02931425815777        4.14353681685757       -1.09520518121032
H           -2.34608720348659        3.43778105579622       -1.02311770903257
Ru          -0.87387495861408        3.11115104672907        1.65529435649841
C           -1.76807769904576        4.91958135245461        2.58359309079212
C           -0.35953132944067        4.94839667941858        2.79126094937629
C           -0.00660465473082        3.81216683803991        3.57492383224956
C           -1.19695943455720        3.08193547846772        3.85161099681539
C           -2.28527852828445        3.76565464264992        3.23940403024131
H           -2.35611115820706        5.70554715947548        2.12919905011551
H            0.30244247501863        5.75921486315277        2.51831562671240
H            0.96966823062837        3.61090202932145        3.99516546775958
H           -1.27644799828029        2.22948656215635        4.51300954044787
H           -3.33276126099486        3.52606457644435        3.36380585870418
