33

C     -3.098914    0.737615   -0.021537
C     -1.962815    1.690555    0.291018
C     -0.999847    1.014023    1.007141
C      0.338681    1.411674    0.966820
C      0.735311    2.492121    0.209749
C      2.187957    2.308243   -0.180788
C      2.432453    0.890011    0.293923
C      1.337826    0.468478    1.016376
C      1.014445   -0.887476    1.107039
C      1.780602   -1.843243    0.476678
C      0.910680   -3.047457    0.177318
C     -0.457172   -2.508041    0.544091
C     -0.302981   -1.278858    1.146727
C     -1.318129   -0.320555    1.096384
C     -2.503454   -0.576352    0.442612
C     -2.718968   -1.850511   -0.126827
C     -1.685634   -2.825987   -0.075574
C      2.947087   -1.449689   -0.215142
C      3.276262   -0.069443   -0.307429
C     -0.237217    3.247291   -0.481695
C     -1.599725    2.842517   -0.440656
H     -4.006093    0.993194    0.565012
H     -3.308260    0.714586   -1.112593
H      2.315251    2.385228   -1.281984
H      2.839623    3.026919    0.358812
H      1.185746   -3.907924    0.822503
H      0.956633   -3.311494   -0.901077
H     -3.599044   -2.032353   -0.729655
H     -1.785903   -3.743947   -0.639745
H      3.500519   -2.173462   -0.798983
H      4.078091    0.248375   -0.960926
H      0.068850    4.033095   -1.159804
H     -2.321859    3.322864   -1.087790
