      -----------------------------------------------------------      
     |                   =====================                   |     
     |                           x T B                           |     
     |                   =====================                   |     
     |                         S. Grimme                         |     
     |          Mulliken Center for Theoretical Chemistry        |     
     |                    University of Bonn                     |     
      -----------------------------------------------------------      

   * xtb version 6.5.1 (b24c23e) compiled by 'conda@728c89f4b128' on 2022-07-12

   xtb is free software: you can redistribute it and/or modify it under
   the terms of the GNU Lesser General Public License as published by
   the Free Software Foundation, either version 3 of the License, or
   (at your option) any later version.
   
   xtb is distributed in the hope that it will be useful,
   but WITHOUT ANY WARRANTY; without even the implied warranty of
   MERCHANTABILITY or FITNESS FOR A PARTICULAR PURPOSE.  See the
   GNU Lesser General Public License for more details.
   
   Cite this work as:
   * C. Bannwarth, E. Caldeweyher, S. Ehlert, A. Hansen, P. Pracht,
     J. Seibert, S. Spicher, S. Grimme, WIREs Comput. Mol. Sci., 2020, 11,
     e01493. DOI: 10.1002/wcms.1493
   
   for GFN2-xTB:
   * C. Bannwarth, S. Ehlert and S. Grimme., J. Chem. Theory Comput., 2019,
     15, 1652-1671. DOI: 10.1021/acs.jctc.8b01176
   for GFN1-xTB:
   * S. Grimme, C. Bannwarth, P. Shushkov, J. Chem. Theory Comput., 2017,
     13, 1989-2009. DOI: 10.1021/acs.jctc.7b00118
   for GFN0-xTB:
   * P. Pracht, E. Caldeweyher, S. Ehlert, S. Grimme, ChemRxiv, 2019, preprint.
     DOI: 10.26434/chemrxiv.8326202.v1
   for GFN-FF:
   * S. Spicher and S. Grimme, Angew. Chem. Int. Ed., 2020, 59, 15665-15673.
     DOI: 10.1002/anie.202004239
   
   for ALPB and GBSA implicit solvation:
   * S. Ehlert, M. Stahn, S. Spicher, S. Grimme, J. Chem. Theory Comput.,
     2021, 17, 4250-4261. DOI: 10.1021/acs.jctc.1c00471
   
   for DFT-D4:
   * E. Caldeweyher, C. Bannwarth and S. Grimme, J. Chem. Phys., 2017,
     147, 034112. DOI: 10.1063/1.4993215
   * E. Caldeweyher, S. Ehlert, A. Hansen, H. Neugebauer, S. Spicher,
     C. Bannwarth and S. Grimme, J. Chem. Phys., 2019, 150, 154122.
     DOI: 10.1063/1.5090222
   * E. Caldeweyher, J.-M. Mewes, S. Ehlert and S. Grimme, Phys. Chem. Chem. Phys.
     2020, 22, 8499-8512. DOI: 10.1039/D0CP00502A
   
   for sTDA-xTB:
   * S. Grimme and C. Bannwarth, J. Chem. Phys., 2016, 145, 054103.
     DOI: 10.1063/1.4959605
   
   in the mass-spec context:
   * V. Asgeirsson, C. Bauer and S. Grimme, Chem. Sci., 2017, 8, 4879.
     DOI: 10.1039/c7sc00601b
   * J. Koopman and S. Grimme, ACS Omega 2019, 4, 12, 15120-15133.
     DOI: 10.1021/acsomega.9b02011
   
   for metadynamics refer to:
   * S. Grimme, J. Chem. Theory Comput., 2019, 155, 2847-2862
     DOI: 10.1021/acs.jctc.9b00143
   
   for SPH calculations refer to:
   * S. Spicher and S. Grimme, J. Chem. Theory Comput., 2021, 17, 1701-1714
     DOI: 10.1021/acs.jctc.0c01306
   
   with help from (in alphabetical order)
   P. Atkinson, C. Bannwarth, F. Bohle, G. Brandenburg, E. Caldeweyher
   M. Checinski, S. Dohm, S. Ehlert, S. Ehrlich, I. Gerasimov, C. Hölzer
   A. Katbashev, J. Koopman, C. Lavigne, S. Lehtola, F. März, M. Müller,
   F. Musil, H. Neugebauer, J. Pisarek, C. Plett, P. Pracht, F. Pultar,
   J. Seibert, P. Shushkov, S. Spicher, M. Stahn, M. Steiner, T. Strunk,
   J. Stückrath, T. Rose, and J. Unsleber
   
 * started run on 2026/08/16 at 16:15:36.737     

           -------------------------------------------------
          |                Calculation Setup                |
           -------------------------------------------------

          program call               : /h/332/chchoi/miniconda3/envs/el-agente/bin/xtb reactant_prets.xyz --opt --gfn 2 -P 4 --chrg 1 --uhf 0 --input detailed_input.inp
          coordinate file            : reactant_prets.xyz
          omp threads                :                     4

   ID    Z sym.   atoms
    1   40 Zr     1
    2    6 C      2-7, 13-17, 26, 27
    3    1 H      8-12, 18-25, 28-31
constraining bond 2 27 to    2.2000000 Å, actual value:    2.3278084 Å
constraining bond 26 27 to    1.4200000 Å, actual value:    1.3349601 Å
constraining bond 1 26 to    2.3500000 Å, actual value:    2.5634266 Å
constraining bond 1 2 to    2.5000000 Å, actual value:    2.4750002 Å

           -------------------------------------------------
          |                 G F N 2 - x T B                 |
           -------------------------------------------------

        Reference                      10.1021/acs.jctc.8b01176
      * Hamiltonian:
        H0-scaling (s, p, d)           1.850000    2.230000    2.230000
        zeta-weighting                 0.500000
      * Dispersion:
        s8                             2.700000
        a1                             0.520000
        a2                             5.000000
        s9                             5.000000
      * Repulsion:
        kExp                           1.500000    1.000000
        rExp                           1.000000
      * Coulomb:
        alpha                          2.000000
        third order                    shell-resolved
        anisotropic                    true
        a3                             3.000000
        a5                             4.000000
        cn-shift                       1.200000
        cn-exp                         4.000000
        max-rad                        5.000000


          ...................................................
          :                      SETUP                      :
          :.................................................:
          :  # basis functions                  79          :
          :  # atomic orbitals                  78          :
          :  # shells                           46          :
          :  # electrons                        72          :
          :  max. iterations                   250          :
          :  Hamiltonian                  GFN2-xTB          :
          :  restarted?                      false          :
          :  GBSA solvation                  false          :
          :  PC potential                    false          :
          :  electronic temp.          300.0000000     K    :
          :  accuracy                    1.0000000          :
          :  -> integral cutoff          0.2500000E+02      :
          :  -> integral neglect         0.1000000E-07      :
          :  -> SCF convergence          0.1000000E-05 Eh   :
          :  -> wf. convergence          0.1000000E-03 e    :
          :  Broyden damping             0.4000000          :
          ...................................................

 iter      E             dE          RMSdq      gap      omega  full diag
   1    -37.7871279 -0.377871E+02  0.623E+00    0.44       0.0  T
   2    -37.8962134 -0.109085E+00  0.427E+00    1.85       1.0  T
   3    -37.9401794 -0.439661E-01  0.332E+00    0.67       1.0  T
   4    -37.9736505 -0.334711E-01  0.920E-01    0.91       1.0  T
   5    -37.9806580 -0.700755E-02  0.420E-01    1.01       1.0  T
   6    -37.9828966 -0.223859E-02  0.205E-01    1.00       1.0  T
   7    -37.9831201 -0.223460E-03  0.125E-01    1.01       1.0  T
   8    -37.9831949 -0.747776E-04  0.750E-02    1.01       1.0  T
   9    -37.9831931  0.176380E-05  0.441E-02    1.01       1.0  T
  10    -37.9832036 -0.104523E-04  0.175E-02    1.01       1.0  T
  11    -37.9832060 -0.240522E-05  0.109E-02    1.02       1.7  T
  12    -37.9832072 -0.128172E-05  0.422E-03    1.02       4.3  T
  13    -37.9832073 -0.979416E-07  0.178E-03    1.02      10.1  T
  14    -37.9832074 -0.437369E-07  0.996E-04    1.02      18.0  T
  15    -37.9832074 -0.235094E-08  0.690E-04    1.02      26.0  T

   *** convergence criteria satisfied after 15 iterations ***

         #    Occupation            Energy/Eh            Energy/eV
      -------------------------------------------------------------
         1        2.0000           -0.8508867             -23.1538
       ...           ...                  ...                  ...
        30        2.0000           -0.5482977             -14.9199
        31        2.0000           -0.5258178             -14.3082
        32        2.0000           -0.5056115             -13.7584
        33        2.0000           -0.5033315             -13.6963
        34        2.0000           -0.4951791             -13.4745
        35        2.0000           -0.4911071             -13.3637
        36        2.0000           -0.4810789             -13.0908 (HOMO)
        37                         -0.4437099             -12.0740 (LUMO)
        38                         -0.4375041             -11.9051
        39                         -0.4323594             -11.7651
        40                         -0.4293164             -11.6823
        41                         -0.4201496             -11.4329
       ...                                ...                  ...
        78                          1.9074083              51.9032
      -------------------------------------------------------------
                  HL-Gap            0.0373690 Eh            1.0169 eV
             Fermi-level           -0.4623950 Eh          -12.5824 eV

 SCC (total)                   0 d,  0 h,  0 min,  0.214 sec
 SCC setup                      ...        0 min,  0.000 sec (  0.173%)
 Dispersion                     ...        0 min,  0.002 sec (  1.054%)
 classical contributions        ...        0 min,  0.002 sec (  0.865%)
 integral evaluation            ...        0 min,  0.006 sec (  2.974%)
 iterations                     ...        0 min,  0.190 sec ( 88.833%)
 molecular gradient             ...        0 min,  0.013 sec (  5.997%)
 printout                       ...        0 min,  0.000 sec (  0.090%)

         :::::::::::::::::::::::::::::::::::::::::::::::::::::
         ::                     SUMMARY                     ::
         :::::::::::::::::::::::::::::::::::::::::::::::::::::
         :: total energy             -37.136539770822 Eh    ::
         :: gradient norm              1.351220307257 Eh/a0 ::
         :: HOMO-LUMO gap              1.016862370730 eV    ::
         ::.................................................::
         :: SCC energy               -37.983207386065 Eh    ::
         :: -> isotropic ES            0.099065083943 Eh    ::
         :: -> anisotropic ES         -0.001766716410 Eh    ::
         :: -> anisotropic XC          0.020124319402 Eh    ::
         :: -> dispersion             -0.027137725537 Eh    ::
         :: repulsion energy           0.596819297029 Eh    ::
         :: add. restraining           0.249055492706 Eh    ::
         :: total charge               0.999999999992 e     ::
         :::::::::::::::::::::::::::::::::::::::::::::::::::::

      ----------------------------------------------------------- 
     |                   =====================                   |
     |                        A N C O P T                        |
     |                   =====================                   |
     |               Approximate Normal Coordinate               |
     |                Rational Function Optimizer                |
      ----------------------------------------------------------- 

          ...................................................
          :                      SETUP                      :
          :.................................................:
          :   optimization level            normal          :
          :   max. optcycles                   200          :
          :   ANC micro-cycles                  20          :
          :   degrees of freedom                87          :
          :.................................................:
          :   RF solver                   davidson          :
          :   write xtbopt.log                true          :
          :   linear?                        false          :
          :   energy convergence         0.5000000E-05 Eh   :
          :   grad. convergence          0.1000000E-02 Eh/α :
          :   maximium RF displ.         1.0000000          :
          :   Hlow (freq-cutoff)         0.1000000E-01      :
          :   Hmax (freq-cutoff)         5.0000000          :
          :   S6 in model hess.         20.0000000          :
          ...................................................

generating ANC from model Hessian ...
Using Lindh-Hessian (1995)
 Shifting diagonal of input Hessian by    7.9226027718477809E-002
 Lowest  eigenvalues of input Hessian
    0.010000    0.064854    0.078822    0.000000    0.000000    0.000000
    0.000000    0.000000    0.000000    0.079502    0.079728    0.079773
    0.079872    0.080076    0.080498    0.080853    0.083448    0.085650
 Highest eigenvalues
    1.561249    1.561446    3.490182    3.909367    5.421318    6.558284


........................................................................
.............................. CYCLE    1 ..............................
........................................................................
   1    -37.9832074 -0.379832E+02  0.355E-04    1.02       0.0  T
   2    -37.9832074 -0.223039E-09  0.143E-04    1.02     125.3  T
   3    -37.9832074 -0.427896E-09  0.162E-04    1.02     110.7  T
     SCC iter.                  ...        0 min,  0.078 sec
     gradient                   ...        0 min,  0.017 sec
 * total energy  :   -37.1365398 Eh     change       -0.1297508E-08 Eh
   gradient norm :     1.3512228 Eh/α   predicted     0.0000000E+00 (-100.00%)
   displ. norm   :     0.4268692 α      lambda       -0.4696010E+00
   maximum displ.:     0.2307985 α      in ANC's #84, #87, #58, ...

........................................................................
.............................. CYCLE    2 ..............................
........................................................................
   1    -38.0158882 -0.380159E+02  0.961E-01    0.88       0.0  T
   2    -38.0132519  0.263622E-02  0.909E-01    0.85       1.0  T
   3    -38.0249574 -0.117054E-01  0.439E-01    0.82       1.0  T
   4    -38.0244903  0.467052E-03  0.202E-01    0.87       1.0  T
   5    -38.0252947 -0.804440E-03  0.585E-02    0.81       1.0  T
   6    -38.0252975 -0.272540E-05  0.515E-02    0.83       1.0  T
   7    -38.0253100 -0.125082E-04  0.284E-02    0.82       1.0  T
   8    -38.0253175 -0.754359E-05  0.758E-03    0.82       2.4  T
   9    -38.0253179 -0.396319E-06  0.454E-03    0.82       4.0  T
  10    -38.0253181 -0.169936E-06  0.200E-03    0.82       9.0  T
  11    -38.0253181 -0.137506E-07  0.104E-03    0.82      17.2  T
  12    -38.0253181  0.191498E-09  0.680E-04    0.82      26.4  T
  13    -38.0253181 -0.535920E-08  0.395E-04    0.82      45.5  T
     SCC iter.                  ...        0 min,  0.181 sec
     gradient                   ...        0 min,  0.008 sec
 * total energy  :   -37.4207660 Eh     change       -0.2842262E+00 Eh
   gradient norm :     0.2507025 Eh/α   predicted    -0.2776025E+00 (  -2.33%)
   displ. norm   :     0.5649633 α      lambda       -0.9883186E-01
   maximum displ.:     0.2601511 α      in ANC's #21, #1, #53, ...

........................................................................
.............................. CYCLE    3 ..............................
........................................................................
   1    -38.0956552 -0.380957E+02  0.818E-01    1.08       0.0  T
   2    -38.0947011  0.954052E-03  0.637E-01    1.09       1.0  T
   3    -38.0987515 -0.405033E-02  0.445E-01    1.09       1.0  T
   4    -38.0998361 -0.108466E-02  0.166E-01    1.13       1.0  T
   5    -38.1002914 -0.455241E-03  0.629E-02    1.10       1.0  T
   6    -38.1003065 -0.150904E-04  0.398E-02    1.10       1.0  T
   7    -38.1003170 -0.105386E-04  0.201E-02    1.09       1.0  T
   8    -38.1003175 -0.481080E-06  0.864E-03    1.09       2.1  T
   9    -38.1003179 -0.434698E-06  0.295E-03    1.09       6.1  T
  10    -38.1003179 -0.306884E-07  0.214E-03    1.09       8.4  T
  11    -38.1003180 -0.974391E-08  0.140E-03    1.09      12.9  T
  12    -38.1003180 -0.124511E-07  0.637E-04    1.09      28.2  T
  13    -38.1003180 -0.129099E-08  0.364E-04    1.09      49.3  T
     SCC iter.                  ...        0 min,  0.351 sec
     gradient                   ...        0 min,  0.011 sec
 * total energy  :   -37.4960219 Eh     change       -0.7525596E-01 Eh
   gradient norm :     0.1444918 Eh/α   predicted    -0.6528008E-01 ( -13.26%)
   displ. norm   :     0.6259776 α      lambda       -0.6853385E-01
   maximum displ.:     0.2964543 α      in ANC's #21, #4, #50, ...

........................................................................
.............................. CYCLE    4 ..............................
........................................................................
   1    -38.1627818 -0.381628E+02  0.676E-01    1.19       0.0  T
   2    -38.1620666  0.715270E-03  0.414E-01    1.21       1.0  T
   3    -38.1634529 -0.138634E-02  0.384E-01    1.18       1.0  T
   4    -38.1655527 -0.209981E-02  0.980E-02    1.23       1.0  T
   5    -38.1656574 -0.104656E-03  0.365E-02    1.21       1.0  T
   6    -38.1656580 -0.657112E-06  0.154E-02    1.21       1.2  T
   7    -38.1656598 -0.179454E-05  0.104E-02    1.21       1.7  T
   8    -38.1656603 -0.495670E-06  0.544E-03    1.21       3.3  T
   9    -38.1656604 -0.737217E-07  0.205E-03    1.21       8.8  T
  10    -38.1656604 -0.333998E-07  0.112E-03    1.21      16.0  T
  11    -38.1656604 -0.422553E-08  0.570E-04    1.21      31.5  T
  12    -38.1656604 -0.130809E-08  0.274E-04    1.21      65.5  T
     SCC iter.                  ...        0 min,  0.062 sec
     gradient                   ...        0 min,  0.012 sec
 * total energy  :   -37.5399508 Eh     change       -0.4392889E-01 Eh
   gradient norm :     0.1599931 Eh/α   predicted    -0.4769436E-01 (   8.57%)
   displ. norm   :     0.7470236 α      lambda       -0.5041251E-01
   maximum displ.:     0.5408694 α      in ANC's #1, #4, #21, ...

........................................................................
.............................. CYCLE    5 ..............................
........................................................................
   1    -38.1817786 -0.381818E+02  0.107E+00    1.58       0.0  T
   2    -38.1818261 -0.474336E-04  0.955E-01    1.53       1.0  T
   3    -38.1869693 -0.514319E-02  0.628E-01    1.52       1.0  T
   4    -38.1861378  0.831444E-03  0.283E-01    1.60       1.0  T
   5    -38.1880439 -0.190612E-02  0.103E-01    1.51       1.0  T
   6    -38.1881274 -0.834605E-04  0.611E-02    1.53       1.0  T
   7    -38.1881423 -0.148967E-04  0.252E-02    1.53       1.0  T
   8    -38.1881435 -0.121424E-05  0.127E-02    1.53       1.4  T
   9    -38.1881445 -0.975871E-06  0.475E-03    1.53       3.8  T
  10    -38.1881447 -0.185496E-06  0.280E-03    1.53       6.4  T
  11    -38.1881446  0.130583E-07  0.170E-03    1.53      10.5  T
  12    -38.1881447 -0.323314E-07  0.565E-04    1.53      31.8  T
  13    -38.1881447 -0.736620E-09  0.346E-04    1.53      51.8  T
     SCC iter.                  ...        0 min,  0.053 sec
     gradient                   ...        0 min,  0.016 sec
 * total energy  :   -37.5641526 Eh     change       -0.2420179E-01 Eh
   gradient norm :     0.2150877 Eh/α   predicted    -0.3927249E-01 (  62.27%)
   displ. norm   :     0.5686381 α      lambda       -0.4375460E-01
   maximum displ.:     0.2858123 α      in ANC's #1, #4, #70, ...

........................................................................
.............................. CYCLE    6 ..............................
........................................................................
   1    -38.2167435 -0.382167E+02  0.635E-01    1.42       0.0  T
   2    -38.2173353 -0.591820E-03  0.415E-01    1.50       1.0  T
   3    -38.2173615 -0.261744E-04  0.277E-01    1.43       1.0  T
   4    -38.2178345 -0.473005E-03  0.711E-02    1.48       1.0  T
   5    -38.2179112 -0.767375E-04  0.472E-02    1.47       1.0  T
   6    -38.2179352 -0.239546E-04  0.228E-02    1.46       1.0  T
   7    -38.2179361 -0.893843E-06  0.114E-02    1.47       1.6  T
   8    -38.2179370 -0.889958E-06  0.552E-03    1.47       3.3  T
   9    -38.2179371 -0.172468E-06  0.213E-03    1.47       8.4  T
  10    -38.2179371 -0.640413E-08  0.134E-03    1.47      13.4  T
  11    -38.2179371 -0.796309E-08  0.392E-04    1.47      45.8  T
  12    -38.2179371 -0.526597E-09  0.147E-04    1.47     122.2  T
     SCC iter.                  ...        0 min,  0.057 sec
     gradient                   ...        0 min,  0.014 sec
 * total energy  :   -37.5897805 Eh     change       -0.2562790E-01 Eh
   gradient norm :     0.0828414 Eh/α   predicted    -0.2895133E-01 (  12.97%)
   displ. norm   :     0.4298408 α      lambda       -0.1480364E-01
   maximum displ.:     0.2132335 α      in ANC's #4, #70, #23, ...

........................................................................
.............................. CYCLE    7 ..............................
........................................................................
   1    -38.2292362 -0.382292E+02  0.380E-01    1.50       0.0  T
   2    -38.2288764  0.359821E-03  0.332E-01    1.51       1.0  T
   3    -38.2299520 -0.107561E-02  0.187E-01    1.49       1.0  T
   4    -38.2300623 -0.110313E-03  0.496E-02    1.51       1.0  T
   5    -38.2301320 -0.697022E-04  0.239E-02    1.50       1.0  T
   6    -38.2301341 -0.207361E-05  0.124E-02    1.50       1.4  T
   7    -38.2301347 -0.646752E-06  0.630E-03    1.50       2.8  T
   8    -38.2301348 -0.105382E-06  0.200E-03    1.50       9.0  T
   9    -38.2301349 -0.184274E-07  0.949E-04    1.50      18.9  T
  10    -38.2301349 -0.111842E-07  0.461E-04    1.50      38.9  T
     SCC iter.                  ...        0 min,  0.052 sec
     gradient                   ...        0 min,  0.009 sec
 * total energy  :   -37.6014360 Eh     change       -0.1165548E-01 Eh
   gradient norm :     0.0510266 Eh/α   predicted    -0.8769431E-02 ( -24.76%)
   displ. norm   :     0.5275098 α      lambda       -0.1321934E-01
   maximum displ.:     0.2538873 α      in ANC's #4, #11, #70, ...

........................................................................
.............................. CYCLE    8 ..............................
........................................................................
   1    -38.2385559 -0.382386E+02  0.456E-01    1.55       0.0  T
   2    -38.2383335  0.222400E-03  0.409E-01    1.54       1.0  T
   3    -38.2392517 -0.918228E-03  0.234E-01    1.53       1.0  T
   4    -38.2393470 -0.952795E-04  0.648E-02    1.55       1.0  T
   5    -38.2394495 -0.102542E-03  0.353E-02    1.53       1.0  T
   6    -38.2394533 -0.378436E-05  0.149E-02    1.53       1.2  T
   7    -38.2394540 -0.707498E-06  0.650E-03    1.54       2.8  T
   8    -38.2394543 -0.215932E-06  0.187E-03    1.53       9.6  T
   9    -38.2394543 -0.368395E-07  0.879E-04    1.54      20.4  T
  10    -38.2394543 -0.426235E-08  0.489E-04    1.54      36.8  T
     SCC iter.                  ...        0 min,  0.061 sec
     gradient                   ...        0 min,  0.005 sec
 * total energy  :   -37.6116201 Eh     change       -0.1018411E-01 Eh
   gradient norm :     0.0380799 Eh/α   predicted    -0.8448925E-02 ( -17.04%)
   displ. norm   :     0.5404804 α      lambda       -0.9117861E-02
   maximum displ.:     0.2446316 α      in ANC's #4, #11, #70, ...

........................................................................
.............................. CYCLE    9 ..............................
........................................................................
   1    -38.2433084 -0.382433E+02  0.397E-01    1.57       0.0  T
   2    -38.2432688  0.395143E-04  0.343E-01    1.54       1.0  T
   3    -38.2435289 -0.260035E-03  0.194E-01    1.54       1.0  T
   4    -38.2436664 -0.137504E-03  0.646E-02    1.56       1.0  T
   5    -38.2437533 -0.868744E-04  0.343E-02    1.54       1.0  T
   6    -38.2437566 -0.334706E-05  0.126E-02    1.55       1.4  T
   7    -38.2437570 -0.359243E-06  0.505E-03    1.55       3.6  T
   8    -38.2437572 -0.213820E-06  0.174E-03    1.55      10.3  T
   9    -38.2437572 -0.387343E-07  0.744E-04    1.55      24.1  T
  10    -38.2437572 -0.110081E-08  0.464E-04    1.55      38.7  T
     SCC iter.                  ...        0 min,  0.022 sec
     gradient                   ...        0 min,  0.004 sec
 * total energy  :   -37.6184981 Eh     change       -0.6878034E-02 Eh
   gradient norm :     0.0355094 Eh/α   predicted    -0.5890691E-02 ( -14.36%)
   displ. norm   :     0.4845900 α      lambda       -0.5581927E-02
   maximum displ.:     0.2097906 α      in ANC's #4, #11, #2, ...

........................................................................
.............................. CYCLE   10 ..............................
........................................................................
   1    -38.2469242 -0.382469E+02  0.298E-01    1.56       0.0  T
   2    -38.2469393 -0.150813E-04  0.214E-01    1.55       1.0  T
   3    -38.2466875  0.251798E-03  0.129E-01    1.55       1.0  T
   4    -38.2470095 -0.321984E-03  0.461E-02    1.55       1.0  T
   5    -38.2470407 -0.312741E-04  0.222E-02    1.55       1.0  T
   6    -38.2470417 -0.945436E-06  0.110E-02    1.55       1.6  T
   7    -38.2470425 -0.767387E-06  0.362E-03    1.55       5.0  T
   8    -38.2470426 -0.100446E-06  0.201E-03    1.55       8.9  T
   9    -38.2470426 -0.297833E-07  0.766E-04    1.55      23.5  T
  10    -38.2470426 -0.151978E-08  0.437E-04    1.55      41.1  T
     SCC iter.                  ...        0 min,  0.024 sec
     gradient                   ...        0 min,  0.004 sec
 * total energy  :   -37.6224514 Eh     change       -0.3953252E-02 Eh
   gradient norm :     0.0297524 Eh/α   predicted    -0.3446375E-02 ( -12.82%)
   displ. norm   :     0.3766744 α      lambda       -0.2889623E-02
   maximum displ.:     0.1656484 α      in ANC's #4, #11, #2, ...

........................................................................
.............................. CYCLE   11 ..............................
........................................................................
   1    -38.2468497 -0.382468E+02  0.188E-01    1.55       0.0  T
   2    -38.2468605 -0.108082E-04  0.131E-01    1.54       1.0  T
   3    -38.2467690  0.915365E-04  0.862E-02    1.54       1.0  T
   4    -38.2468899 -0.120912E-03  0.291E-02    1.55       1.0  T
   5    -38.2469034 -0.135034E-04  0.129E-02    1.54       1.4  T
   6    -38.2469037 -0.315213E-06  0.772E-03    1.54       2.3  T
   7    -38.2469041 -0.337073E-06  0.268E-03    1.54       6.7  T
   8    -38.2469041 -0.322921E-07  0.167E-03    1.54      10.8  T
   9    -38.2469041 -0.164274E-07  0.593E-04    1.54      30.3  T
  10    -38.2469041 -0.105369E-08  0.384E-04    1.54      46.7  T
     SCC iter.                  ...        0 min,  0.022 sec
     gradient                   ...        0 min,  0.004 sec
 * total energy  :   -37.6244875 Eh     change       -0.2036103E-02 Eh
   gradient norm :     0.0239504 Eh/α   predicted    -0.1649809E-02 ( -18.97%)
   displ. norm   :     0.3201264 α      lambda       -0.2303497E-02
   maximum displ.:     0.1412023 α      in ANC's #2, #4, #11, ...

........................................................................
.............................. CYCLE   12 ..............................
........................................................................
   1    -38.2523094 -0.382523E+02  0.168E-01    1.54       0.0  T
   2    -38.2523242 -0.148061E-04  0.984E-02    1.54       1.0  T
   3    -38.2522711  0.531499E-04  0.724E-02    1.54       1.0  T
   4    -38.2523398 -0.687186E-04  0.191E-02    1.54       1.0  T
   5    -38.2523448 -0.503756E-05  0.108E-02    1.54       1.7  T
   6    -38.2523448  0.234257E-07  0.583E-03    1.54       3.1  T
   7    -38.2523451 -0.267691E-06  0.210E-03    1.54       8.5  T
   8    -38.2523451 -0.517343E-08  0.165E-03    1.54      10.9  T
   9    -38.2523451 -0.732717E-08  0.732E-04    1.54      24.5  T
  10    -38.2523451 -0.364466E-09  0.313E-04    1.54      57.4  T
     SCC iter.                  ...        0 min,  0.028 sec
     gradient                   ...        0 min,  0.004 sec
 * total energy  :   -37.6260853 Eh     change       -0.1597799E-02 Eh
   gradient norm :     0.0236135 Eh/α   predicted    -0.1269785E-02 ( -20.53%)
   displ. norm   :     0.3561151 α      lambda       -0.2271092E-02
   maximum displ.:     0.1920331 α      in ANC's #2, #4, #8, ...

........................................................................
.............................. CYCLE   13 ..............................
........................................................................
   1    -38.2533488 -0.382533E+02  0.169E-01    1.54       0.0  T
   2    -38.2533613 -0.124972E-04  0.111E-01    1.53       1.0  T
   3    -38.2533240  0.373536E-04  0.498E-02    1.53       1.0  T
   4    -38.2533706 -0.466804E-04  0.142E-02    1.53       1.3  T
   5    -38.2533706  0.243227E-07  0.768E-03    1.53       2.3  T
   6    -38.2533710 -0.364494E-06  0.274E-03    1.53       6.6  T
   7    -38.2533710 -0.146453E-07  0.192E-03    1.53       9.3  T
   8    -38.2533710 -0.301597E-07  0.118E-03    1.53      15.3  T
   9    -38.2533710 -0.824429E-08  0.782E-04    1.53      23.0  T
  10    -38.2533710  0.201602E-09  0.279E-04    1.53      64.5  T
     SCC iter.                  ...        0 min,  0.022 sec
     gradient                   ...        0 min,  0.004 sec
 * total energy  :   -37.6276949 Eh     change       -0.1609624E-02 Eh
   gradient norm :     0.0225874 Eh/α   predicted    -0.1279565E-02 ( -20.51%)
   displ. norm   :     0.3655378 α      lambda       -0.2233219E-02
   maximum displ.:     0.2274369 α      in ANC's #2, #8, #17, ...

........................................................................
.............................. CYCLE   14 ..............................
........................................................................
   1    -38.2579889 -0.382580E+02  0.189E-01    1.53       0.0  T
   2    -38.2579941 -0.519185E-05  0.132E-01    1.53       1.0  T
   3    -38.2579473  0.467905E-04  0.958E-02    1.54       1.0  T
   4    -38.2580516 -0.104337E-03  0.202E-02    1.53       1.0  T
   5    -38.2580602 -0.858785E-05  0.108E-02    1.53       1.7  T
   6    -38.2580605 -0.331049E-06  0.325E-03    1.53       5.5  T
   7    -38.2580606 -0.765359E-07  0.166E-03    1.53      10.9  T
   8    -38.2580606 -0.103475E-07  0.108E-03    1.53      16.7  T
   9    -38.2580606 -0.576435E-09  0.747E-04    1.53      24.0  T
  10    -38.2580606 -0.710813E-09  0.250E-04    1.53      72.0  T
     SCC iter.                  ...        0 min,  0.022 sec
     gradient                   ...        0 min,  0.004 sec
 * total energy  :   -37.6293535 Eh     change       -0.1658562E-02 Eh
   gradient norm :     0.0259721 Eh/α   predicted    -0.1265826E-02 ( -23.68%)
   displ. norm   :     0.3889799 α      lambda       -0.2202565E-02
   maximum displ.:     0.2490142 α      in ANC's #2, #8, #17, ...

........................................................................
.............................. CYCLE   15 ..............................
........................................................................
   1    -38.2589538 -0.382590E+02  0.194E-01    1.53       0.0  T
   2    -38.2589652 -0.113231E-04  0.131E-01    1.54       1.0  T
   3    -38.2589019  0.632153E-04  0.927E-02    1.54       1.0  T
   4    -38.2590078 -0.105820E-03  0.250E-02    1.53       1.0  T
   5    -38.2590170 -0.922137E-05  0.130E-02    1.54       1.4  T
   6    -38.2590171 -0.155384E-06  0.592E-03    1.54       3.0  T
   7    -38.2590175 -0.380993E-06  0.218E-03    1.54       8.2  T
   8    -38.2590175 -0.139208E-07  0.148E-03    1.54      12.1  T
   9    -38.2590175 -0.379133E-08  0.946E-04    1.54      19.0  T
  10    -38.2590175 -0.225728E-08  0.468E-04    1.54      38.4  T
     SCC iter.                  ...        0 min,  0.022 sec
     gradient                   ...        0 min,  0.004 sec
 * total energy  :   -37.6309189 Eh     change       -0.1565371E-02 Eh
   gradient norm :     0.0252194 Eh/α   predicted    -0.1267916E-02 ( -19.00%)
   displ. norm   :     0.3327145 α      lambda       -0.1856898E-02
   maximum displ.:     0.2298258 α      in ANC's #2, #8, #17, ...

........................................................................
.............................. CYCLE   16 ..............................
........................................................................
   1    -38.2607308 -0.382607E+02  0.173E-01    1.56       0.0  T
   2    -38.2607325 -0.164379E-05  0.117E-01    1.56       1.0  T
   3    -38.2606141  0.118331E-03  0.833E-02    1.57       1.0  T
   4    -38.2607521 -0.137961E-03  0.142E-02    1.56       1.3  T
   5    -38.2607537 -0.165257E-05  0.860E-03    1.56       2.1  T
   6    -38.2607541 -0.367082E-06  0.269E-03    1.56       6.7  T
   7    -38.2607542 -0.935068E-07  0.848E-04    1.56      21.2  T
   8    -38.2607542 -0.479316E-08  0.442E-04    1.56      40.6  T
     SCC iter.                  ...        0 min,  0.018 sec
     gradient                   ...        0 min,  0.004 sec
 * total energy  :   -37.6321777 Eh     change       -0.1258804E-02 Eh
   gradient norm :     0.0316527 Eh/α   predicted    -0.1031232E-02 ( -18.08%)
   displ. norm   :     0.2629560 α      lambda       -0.1575737E-02
   maximum displ.:     0.1470651 α      in ANC's #2, #17, #8, ...

........................................................................
.............................. CYCLE   17 ..............................
........................................................................
   1    -38.2630543 -0.382631E+02  0.152E-01    1.58       0.0  T
   2    -38.2630594 -0.509391E-05  0.101E-01    1.58       1.0  T
   3    -38.2629878  0.715309E-04  0.633E-02    1.58       1.0  T
   4    -38.2630691 -0.812893E-04  0.199E-02    1.58       1.0  T
   5    -38.2630738 -0.462910E-05  0.124E-02    1.59       1.4  T
   6    -38.2630745 -0.743326E-06  0.547E-03    1.58       3.3  T
   7    -38.2630745 -0.351313E-07  0.238E-03    1.58       7.5  T
   8    -38.2630746 -0.133382E-07  0.152E-03    1.58      11.8  T
   9    -38.2630746 -0.725097E-08  0.736E-04    1.58      24.4  T
  10    -38.2630746 -0.432856E-09  0.248E-04    1.58      72.5  T
     SCC iter.                  ...        0 min,  0.021 sec
     gradient                   ...        0 min,  0.009 sec
 * total energy  :   -37.6332143 Eh     change       -0.1036668E-02 Eh
   gradient norm :     0.0165027 Eh/α   predicted    -0.8423534E-03 ( -18.74%)
   displ. norm   :     0.3703554 α      lambda       -0.1570844E-02
   maximum displ.:     0.2542611 α      in ANC's #2, #17, #4, ...

........................................................................
.............................. CYCLE   18 ..............................
........................................................................
   1    -38.2578678 -0.382579E+02  0.226E-01    1.61       0.0  T
   2    -38.2578636  0.421290E-05  0.144E-01    1.62       1.0  T
   3    -38.2576511  0.212505E-03  0.123E-01    1.60       1.0  T
   4    -38.2579183 -0.267209E-03  0.172E-02    1.61       1.0  T
   5    -38.2579217 -0.347269E-05  0.986E-03    1.61       1.8  T
   6    -38.2579222 -0.441968E-06  0.366E-03    1.61       4.9  T
   7    -38.2579223 -0.866352E-07  0.207E-03    1.61       8.7  T
   8    -38.2579223 -0.164448E-08  0.113E-03    1.61      15.9  T
   9    -38.2579223 -0.779824E-08  0.434E-04    1.61      41.4  T
  10    -38.2579223 -0.175984E-08  0.218E-04    1.61      82.6  T
     SCC iter.                  ...        0 min,  0.020 sec
     gradient                   ...        0 min,  0.004 sec
 * total energy  :   -37.6340733 Eh     change       -0.8590110E-03 Eh
   gradient norm :     0.0424752 Eh/α   predicted    -0.8931627E-03 (   3.98%)
   displ. norm   :     0.2177315 α      lambda       -0.1533820E-02
   maximum displ.:     0.0859783 α      in ANC's #22, #17, #2, ...

........................................................................
.............................. CYCLE   19 ..............................
........................................................................
   1    -38.2633847 -0.382634E+02  0.131E-01    1.64       0.0  T
   2    -38.2633901 -0.546854E-05  0.761E-02    1.64       1.0  T
   3    -38.2633381  0.520406E-04  0.690E-02    1.63       1.0  T
   4    -38.2634015 -0.633922E-04  0.170E-02    1.64       1.1  T
   5    -38.2634030 -0.149292E-05  0.110E-02    1.64       1.6  T
   6    -38.2634031 -0.137891E-06  0.472E-03    1.64       3.8  T
   7    -38.2634035 -0.347133E-06  0.177E-03    1.64      10.1  T
   8    -38.2634035 -0.112017E-07  0.900E-04    1.64      20.0  T
   9    -38.2634035 -0.131725E-08  0.589E-04    1.64      30.5  T
     SCC iter.                  ...        0 min,  0.017 sec
     gradient                   ...        0 min,  0.004 sec
 * total energy  :   -37.6349602 Eh     change       -0.8868171E-03 Eh
   gradient norm :     0.0216814 Eh/α   predicted    -0.8032787E-03 (  -9.42%)
   displ. norm   :     0.3040343 α      lambda       -0.1076219E-02
   maximum displ.:     0.1812965 α      in ANC's #2, #17, #4, ...

........................................................................
.............................. CYCLE   20 ..............................
........................................................................
   1    -38.2617220 -0.382617E+02  0.162E-01    1.64       0.0  T
   2    -38.2617242 -0.215267E-05  0.952E-02    1.66       1.0  T
   3    -38.2616313  0.928581E-04  0.835E-02    1.64       1.0  T
   4    -38.2617420 -0.110681E-03  0.167E-02    1.65       1.1  T
   5    -38.2617437 -0.173844E-05  0.926E-03    1.65       1.9  T
   6    -38.2617442 -0.497934E-06  0.358E-03    1.65       5.0  T
   7    -38.2617444 -0.111288E-06  0.151E-03    1.65      11.9  T
   8    -38.2617444 -0.408198E-08  0.116E-03    1.65      15.5  T
   9    -38.2617444 -0.427081E-08  0.516E-04    1.65      34.8  T
  10    -38.2617444 -0.245208E-09  0.233E-04    1.65      77.2  T
     SCC iter.                  ...        0 min,  0.024 sec
     gradient                   ...        0 min,  0.004 sec
 * total energy  :   -37.6356869 Eh     change       -0.7267257E-03 Eh
   gradient norm :     0.0144630 Eh/α   predicted    -0.5878728E-03 ( -19.11%)
   displ. norm   :     0.2138141 α      lambda       -0.7785339E-03
   maximum displ.:     0.1139267 α      in ANC's #2, #17, #4, ...
 * RMSD in coord.:     1.0150565 α      energy gain  -0.4991471E+00 Eh

generating ANC from model Hessian ...
Using Lindh-Hessian (1995)
 Shifting diagonal of input Hessian by    1.0092806244985771E-002
 Lowest  eigenvalues of input Hessian
    0.010000    0.000000    0.000000    0.000000    0.000000    0.000000
    0.000000    0.010202    0.010491    0.011289    0.011519    0.011838
    0.012060    0.013363    0.016124    0.016593    0.017069    0.017600
 Highest eigenvalues
    1.736024    1.742694    3.296988    3.994597    4.889039    6.205552


........................................................................
.............................. CYCLE   21 ..............................
........................................................................
   1    -38.2642147 -0.382642E+02  0.989E-02    1.66       0.0  T
   2    -38.2642173 -0.257539E-05  0.608E-02    1.67       1.0  T
   3    -38.2641910  0.262599E-04  0.436E-02    1.66       1.0  T
   4    -38.2642207 -0.296433E-04  0.117E-02    1.67       1.5  T
   5    -38.2642223 -0.157665E-05  0.674E-03    1.66       2.7  T
   6    -38.2642224 -0.165762E-06  0.182E-03    1.66       9.9  T
   7    -38.2642225 -0.325022E-07  0.955E-04    1.66      18.8  T
   8    -38.2642225 -0.337573E-08  0.682E-04    1.66      26.3  T
     SCC iter.                  ...        0 min,  0.016 sec
     gradient                   ...        0 min,  0.004 sec
 * total energy  :   -37.6362350 Eh     change       -0.5481504E-03 Eh
   gradient norm :     0.0128076 Eh/α   predicted     0.0000000E+00 (-100.00%)
   displ. norm   :     0.2859347 α      lambda       -0.1495930E-02
   maximum displ.:     0.1812347 α      in ANC's #4, #8, #7, ...

........................................................................
.............................. CYCLE   22 ..............................
........................................................................
   1    -38.2658284 -0.382658E+02  0.207E-01    1.67       0.0  T
   2    -38.2658289 -0.435151E-06  0.136E-01    1.66       1.0  T
   3    -38.2656594  0.169443E-03  0.105E-01    1.68       1.0  T
   4    -38.2658702 -0.210763E-03  0.194E-02    1.67       1.0  T
   5    -38.2658730 -0.282094E-05  0.112E-02    1.67       1.6  T
   6    -38.2658736 -0.558426E-06  0.611E-03    1.67       2.9  T
   7    -38.2658738 -0.202615E-06  0.340E-03    1.67       5.3  T
   8    -38.2658738 -0.532570E-08  0.234E-03    1.67       7.7  T
   9    -38.2658738 -0.270827E-07  0.782E-04    1.67      23.0  T
  10    -38.2658738 -0.985452E-09  0.262E-04    1.67      68.6  T
     SCC iter.                  ...        0 min,  0.018 sec
     gradient                   ...        0 min,  0.004 sec
 * total energy  :   -37.6373831 Eh     change       -0.1148044E-02 Eh
   gradient norm :     0.0060472 Eh/α   predicted    -0.8091311E-03 ( -29.52%)
   displ. norm   :     0.4917329 α      lambda       -0.1660188E-02
   maximum displ.:     0.3049016 α      in ANC's #4, #8, #7, ...

........................................................................
.............................. CYCLE   23 ..............................
........................................................................
   1    -38.2643232 -0.382643E+02  0.220E-01    1.67       0.0  T
   2    -38.2643334 -0.101684E-04  0.131E-01    1.68       1.0  T
   3    -38.2643113  0.221073E-04  0.485E-02    1.67       1.0  T
   4    -38.2643373 -0.259795E-04  0.224E-02    1.68       1.0  T
   5    -38.2643396 -0.231334E-05  0.135E-02    1.68       1.3  T
   6    -38.2643393  0.280006E-06  0.679E-03    1.68       2.6  T
   7    -38.2643398 -0.497218E-06  0.341E-03    1.68       5.3  T
   8    -38.2643398 -0.303909E-07  0.207E-03    1.68       8.7  T
   9    -38.2643398 -0.216124E-07  0.728E-04    1.68      24.7  T
  10    -38.2643398 -0.166457E-08  0.294E-04    1.68      61.0  T
     SCC iter.                  ...        0 min,  0.018 sec
     gradient                   ...        0 min,  0.004 sec
 * total energy  :   -37.6385859 Eh     change       -0.1202802E-02 Eh
   gradient norm :     0.0114563 Eh/α   predicted    -0.1030814E-02 ( -14.30%)
   displ. norm   :     0.4025914 α      lambda       -0.9549433E-03
   maximum displ.:     0.2543314 α      in ANC's #4, #8, #7, ...

........................................................................
.............................. CYCLE   24 ..............................
........................................................................
   1    -38.2633344 -0.382633E+02  0.185E-01    1.69       0.0  T
   2    -38.2633390 -0.465659E-05  0.111E-01    1.70       1.0  T
   3    -38.2632984  0.406445E-04  0.578E-02    1.69       1.0  T
   4    -38.2633441 -0.457543E-04  0.174E-02    1.69       1.0  T
   5    -38.2633435  0.657350E-06  0.140E-02    1.69       1.3  T
   6    -38.2633447 -0.128120E-05  0.505E-03    1.70       3.6  T
   7    -38.2633450 -0.237912E-06  0.241E-03    1.69       7.5  T
   8    -38.2633450 -0.148274E-07  0.111E-03    1.69      16.2  T
   9    -38.2633450 -0.677254E-08  0.512E-04    1.69      35.1  T
  10    -38.2633450 -0.668805E-09  0.225E-04    1.69      79.7  T
     SCC iter.                  ...        0 min,  0.019 sec
     gradient                   ...        0 min,  0.004 sec
 * total energy  :   -37.6392383 Eh     change       -0.6524149E-03 Eh
   gradient norm :     0.0163508 Eh/α   predicted    -0.5548613E-03 ( -14.95%)
   displ. norm   :     0.3352103 α      lambda       -0.1100782E-02
   maximum displ.:     0.2278026 α      in ANC's #4, #8, #7, ...

........................................................................
.............................. CYCLE   25 ..............................
........................................................................
   1    -38.2674911 -0.382675E+02  0.125E-01    1.71       0.0  T
   2    -38.2674949 -0.383596E-05  0.904E-02    1.70       1.0  T
   3    -38.2674531  0.418346E-04  0.522E-02    1.72       1.0  T
   4    -38.2675016 -0.485020E-04  0.168E-02    1.70       1.1  T
   5    -38.2675073 -0.571225E-05  0.738E-03    1.70       2.4  T
   6    -38.2675074 -0.728707E-07  0.437E-03    1.70       4.1  T
   7    -38.2675075 -0.168577E-06  0.176E-03    1.70      10.2  T
   8    -38.2675075 -0.110234E-08  0.131E-03    1.70      13.7  T
   9    -38.2675075 -0.977722E-08  0.556E-04    1.70      32.3  T
  10    -38.2675076 -0.153188E-08  0.131E-04    1.70     137.1  T
     SCC iter.                  ...        0 min,  0.019 sec
     gradient                   ...        0 min,  0.005 sec
 * total energy  :   -37.6400114 Eh     change       -0.7730938E-03 Eh
   gradient norm :     0.0107337 Eh/α   predicted    -0.6122387E-03 ( -20.81%)
   displ. norm   :     0.4005868 α      lambda       -0.8064045E-03
   maximum displ.:     0.2401449 α      in ANC's #4, #8, #3, ...

........................................................................
.............................. CYCLE   26 ..............................
........................................................................
   1    -38.2682288 -0.382682E+02  0.188E-01    1.71       0.0  T
   2    -38.2682307 -0.187173E-05  0.118E-01    1.71       1.0  T
   3    -38.2681391  0.915727E-04  0.733E-02    1.70       1.0  T
   4    -38.2682382 -0.991107E-04  0.162E-02    1.71       1.1  T
   5    -38.2682373  0.913899E-06  0.124E-02    1.71       1.4  T
   6    -38.2682391 -0.180488E-05  0.275E-03    1.71       6.5  T
   7    -38.2682391 -0.363334E-07  0.185E-03    1.71       9.7  T
   8    -38.2682391 -0.107224E-08  0.107E-03    1.71      16.8  T
   9    -38.2682392 -0.465531E-08  0.422E-04    1.71      42.6  T
  10    -38.2682392 -0.450008E-09  0.161E-04    1.71     111.7  T
     SCC iter.                  ...        0 min,  0.026 sec
     gradient                   ...        0 min,  0.004 sec
 * total energy  :   -37.6405688 Eh     change       -0.5573960E-03 Eh
   gradient norm :     0.0130926 Eh/α   predicted    -0.4679042E-03 ( -16.06%)
   displ. norm   :     0.3114155 α      lambda       -0.7025084E-03
   maximum displ.:     0.1658173 α      in ANC's #3, #4, #6, ...

........................................................................
.............................. CYCLE   27 ..............................
........................................................................
   1    -38.2730897 -0.382731E+02  0.132E-01    1.71       0.0  T
   2    -38.2730927 -0.304883E-05  0.826E-02    1.70       1.0  T
   3    -38.2730475  0.451906E-04  0.584E-02    1.72       1.0  T
   4    -38.2730973 -0.497062E-04  0.147E-02    1.71       1.2  T
   5    -38.2731014 -0.414540E-05  0.601E-03    1.71       3.0  T
   6    -38.2731014 -0.169452E-07  0.251E-03    1.71       7.1  T
   7    -38.2731015 -0.747693E-07  0.873E-04    1.71      20.6  T
   8    -38.2731015 -0.493216E-09  0.601E-04    1.71      29.9  T
     SCC iter.                  ...        0 min,  0.015 sec
     gradient                   ...        0 min,  0.004 sec
 * total energy  :   -37.6409607 Eh     change       -0.3918934E-03 Eh
   gradient norm :     0.0065816 Eh/α   predicted    -0.3853193E-03 (  -1.68%)
   displ. norm   :     0.5011099 α      lambda       -0.6047925E-03
   maximum displ.:     0.2348239 α      in ANC's #4, #8, #3, ...

........................................................................
.............................. CYCLE   28 ..............................
........................................................................
   1    -38.2660381 -0.382660E+02  0.207E-01    1.71       0.0  T
   2    -38.2660416 -0.352226E-05  0.123E-01    1.72       1.0  T
   3    -38.2658971  0.144506E-03  0.102E-01    1.70       1.0  T
   4    -38.2660576 -0.160561E-03  0.226E-02    1.71       1.0  T
   5    -38.2660573  0.282366E-06  0.168E-02    1.71       1.1  T
   6    -38.2660584 -0.107131E-05  0.541E-03    1.71       3.3  T
   7    -38.2660589 -0.466459E-06  0.228E-03    1.71       7.9  T
   8    -38.2660589 -0.205156E-07  0.115E-03    1.71      15.6  T
   9    -38.2660589 -0.779400E-08  0.568E-04    1.71      31.6  T
  10    -38.2660589 -0.414317E-09  0.293E-04    1.71      61.4  T
     SCC iter.                  ...        0 min,  0.019 sec
     gradient                   ...        0 min,  0.004 sec
 * total energy  :   -37.6411001 Eh     change       -0.1394266E-03 Eh
   gradient norm :     0.0173766 Eh/α   predicted    -0.3783329E-03 ( 171.35%)
   displ. norm   :     0.1226409 α      lambda       -0.6013728E-03
   maximum displ.:     0.0750728 α      in ANC's #4, #3, #11, ...

........................................................................
.............................. CYCLE   29 ..............................
........................................................................
   1    -38.2703149 -0.382703E+02  0.703E-02    1.71       0.0  T
   2    -38.2703166 -0.168291E-05  0.389E-02    1.71       1.0  T
   3    -38.2702972  0.194508E-04  0.434E-02    1.71       1.0  T
   4    -38.2703223 -0.251870E-04  0.149E-02    1.71       1.2  T
   5    -38.2703221  0.251669E-06  0.120E-02    1.71       1.5  T
   6    -38.2703228 -0.723713E-06  0.416E-03    1.71       4.3  T
   7    -38.2703230 -0.213584E-06  0.150E-03    1.71      12.0  T
   8    -38.2703230  0.197924E-08  0.725E-04    1.71      24.8  T
   9    -38.2703230 -0.608778E-08  0.264E-04    1.71      68.0  T
     SCC iter.                  ...        0 min,  0.017 sec
     gradient                   ...        0 min,  0.004 sec
 * total energy  :   -37.6414083 Eh     change       -0.3081764E-03 Eh
   gradient norm :     0.0086580 Eh/α   predicted    -0.3052106E-03 (  -0.96%)
   displ. norm   :     0.1765827 α      lambda       -0.2819997E-03
   maximum displ.:     0.1312962 α      in ANC's #3, #1, #5, ...

........................................................................
.............................. CYCLE   30 ..............................
........................................................................
   1    -38.2724611 -0.382725E+02  0.610E-02    1.71       0.0  T
   2    -38.2724633 -0.222425E-05  0.350E-02    1.71       1.0  T
   3    -38.2724578  0.556756E-05  0.242E-02    1.71       1.0  T
   4    -38.2724651 -0.732898E-05  0.741E-03    1.71       2.4  T
   5    -38.2724661 -0.995781E-06  0.328E-03    1.71       5.5  T
   6    -38.2724661 -0.130916E-07  0.223E-03    1.71       8.1  T
   7    -38.2724661 -0.797046E-08  0.711E-04    1.71      25.3  T
   8    -38.2724661 -0.346439E-08  0.442E-04    1.71      40.6  T
     SCC iter.                  ...        0 min,  0.016 sec
     gradient                   ...        0 min,  0.004 sec
 * total energy  :   -37.6415776 Eh     change       -0.1693033E-03 Eh
   gradient norm :     0.0059866 Eh/α   predicted    -0.1453973E-03 ( -14.12%)
   displ. norm   :     0.3659084 α      lambda       -0.2791125E-03
   maximum displ.:     0.2493389 α      in ANC's #3, #8, #1, ...

........................................................................
.............................. CYCLE   31 ..............................
........................................................................
   1    -38.2700653 -0.382701E+02  0.121E-01    1.70       0.0  T
   2    -38.2700671 -0.187497E-05  0.741E-02    1.71       1.0  T
   3    -38.2700431  0.240444E-04  0.377E-02    1.70       1.0  T
   4    -38.2700692 -0.260776E-04  0.874E-03    1.71       2.1  T
   5    -38.2700699 -0.716448E-06  0.525E-03    1.71       3.4  T
   6    -38.2700700 -0.555924E-07  0.192E-03    1.71       9.4  T
   7    -38.2700700 -0.479427E-07  0.840E-04    1.71      21.4  T
   8    -38.2700700  0.213170E-09  0.679E-04    1.71      26.5  T
     SCC iter.                  ...        0 min,  0.015 sec
     gradient                   ...        0 min,  0.004 sec
 * total energy  :   -37.6417933 Eh     change       -0.2157432E-03 Eh
   gradient norm :     0.0049498 Eh/α   predicted    -0.1582426E-03 ( -26.65%)
   displ. norm   :     0.3436373 α      lambda       -0.2262265E-03
   maximum displ.:     0.2492722 α      in ANC's #3, #1, #8, ...

........................................................................
.............................. CYCLE   32 ..............................
........................................................................
   1    -38.2684447 -0.382684E+02  0.103E-01    1.70       0.0  T
   2    -38.2684468 -0.210560E-05  0.663E-02    1.71       1.0  T
   3    -38.2684320  0.147727E-04  0.277E-02    1.70       1.0  T
   4    -38.2684478 -0.157229E-04  0.946E-03    1.71       1.9  T
   5    -38.2684487 -0.935795E-06  0.456E-03    1.71       3.9  T
   6    -38.2684486  0.666512E-07  0.209E-03    1.71       8.6  T
   7    -38.2684487 -0.997886E-07  0.699E-04    1.71      25.7  T
   8    -38.2684487 -0.114313E-08  0.481E-04    1.71      37.4  T
     SCC iter.                  ...        0 min,  0.014 sec
     gradient                   ...        0 min,  0.004 sec
 * total energy  :   -37.6419609 Eh     change       -0.1676056E-03 Eh
   gradient norm :     0.0065252 Eh/α   predicted    -0.1264753E-03 ( -24.54%)
   displ. norm   :     0.3132641 α      lambda       -0.2757272E-03
   maximum displ.:     0.2495786 α      in ANC's #3, #1, #7, ...

........................................................................
.............................. CYCLE   33 ..............................
........................................................................
   1    -38.2697512 -0.382698E+02  0.670E-02    1.71       0.0  T
   2    -38.2697516 -0.314741E-06  0.422E-02    1.70       1.0  T
   3    -38.2697314  0.201259E-04  0.335E-02    1.71       1.0  T
   4    -38.2697549 -0.235045E-04  0.618E-03    1.71       2.9  T
   5    -38.2697551 -0.159804E-06  0.475E-03    1.71       3.8  T
   6    -38.2697552 -0.128947E-06  0.156E-03    1.71      11.5  T
   7    -38.2697552 -0.460945E-08  0.895E-04    1.71      20.1  T
   8    -38.2697552 -0.274815E-08  0.522E-04    1.71      34.4  T
     SCC iter.                  ...        0 min,  0.023 sec
     gradient                   ...        0 min,  0.004 sec
 * total energy  :   -37.6421843 Eh     change       -0.2233699E-03 Eh
   gradient norm :     0.0073824 Eh/α   predicted    -0.1513946E-03 ( -32.22%)
   displ. norm   :     0.4342902 α      lambda       -0.3850799E-03
   maximum displ.:     0.3616013 α      in ANC's #3, #1, #2, ...

........................................................................
.............................. CYCLE   34 ..............................
........................................................................
   1    -38.2716310 -0.382716E+02  0.739E-02    1.70       0.0  T
   2    -38.2716324 -0.142176E-05  0.462E-02    1.70       1.0  T
   3    -38.2716153  0.170756E-04  0.295E-02    1.71       1.0  T
   4    -38.2716346 -0.192151E-04  0.749E-03    1.70       2.4  T
   5    -38.2716352 -0.674320E-06  0.396E-03    1.70       4.5  T
   6    -38.2716352  0.185750E-09  0.173E-03    1.70      10.4  T
   7    -38.2716353 -0.398017E-07  0.839E-04    1.70      21.4  T
   8    -38.2716353 -0.263954E-08  0.567E-04    1.70      31.7  T
     SCC iter.                  ...        0 min,  0.017 sec
     gradient                   ...        0 min,  0.004 sec
 * total energy  :   -37.6425002 Eh     change       -0.3158906E-03 Eh
   gradient norm :     0.0065661 Eh/α   predicted    -0.2288549E-03 ( -27.55%)
   displ. norm   :     0.5244810 α      lambda       -0.4123369E-03
   maximum displ.:     0.4398428 α      in ANC's #3, #1, #2, ...

........................................................................
.............................. CYCLE   35 ..............................
........................................................................
   1    -38.2710082 -0.382710E+02  0.826E-02    1.70       0.0  T
   2    -38.2710103 -0.210321E-05  0.527E-02    1.70       1.0  T
   3    -38.2709890  0.212804E-04  0.328E-02    1.70       1.0  T
   4    -38.2710135 -0.244970E-04  0.941E-03    1.70       1.9  T
   5    -38.2710148 -0.122534E-05  0.396E-03    1.70       4.5  T
   6    -38.2710147  0.426582E-07  0.182E-03    1.70       9.9  T
   7    -38.2710148 -0.555635E-07  0.623E-04    1.70      28.8  T
   8    -38.2710148 -0.433339E-09  0.327E-04    1.70      54.9  T
     SCC iter.                  ...        0 min,  0.017 sec
     gradient                   ...        0 min,  0.004 sec
 * total energy  :   -37.6428369 Eh     change       -0.3366734E-03 Eh
   gradient norm :     0.0091397 Eh/α   predicted    -0.2628853E-03 ( -21.92%)
   displ. norm   :     0.5898011 α      lambda       -0.5381335E-03
   maximum displ.:     0.5169237 α      in ANC's #3, #1, #55, ...

........................................................................
.............................. CYCLE   36 ..............................
........................................................................
   1    -38.2726376 -0.382726E+02  0.827E-02    1.70       0.0  T
   2    -38.2726401 -0.245581E-05  0.605E-02    1.69       1.0  T
   3    -38.2726417 -0.159728E-05  0.414E-02    1.70       1.0  T
   4    -38.2726552 -0.135325E-04  0.117E-02    1.69       1.5  T
   5    -38.2726589 -0.369677E-05  0.665E-03    1.69       2.7  T
   6    -38.2726593 -0.343896E-06  0.299E-03    1.69       6.0  T
   7    -38.2726593 -0.376140E-07  0.677E-04    1.69      26.5  T
   8    -38.2726593 -0.136598E-08  0.342E-04    1.69      52.5  T
     SCC iter.                  ...        0 min,  0.016 sec
     gradient                   ...        0 min,  0.004 sec
 * total energy  :   -37.6431528 Eh     change       -0.3159528E-03 Eh
   gradient norm :     0.0140469 Eh/α   predicted    -0.3626688E-03 (  14.79%)
   displ. norm   :     0.4621793 α      lambda       -0.4359411E-03
   maximum displ.:     0.3954794 α      in ANC's #3, #8, #55, ...

........................................................................
.............................. CYCLE   37 ..............................
........................................................................
   1    -38.2719801 -0.382720E+02  0.668E-02    1.68       0.0  T
   2    -38.2719820 -0.190428E-05  0.378E-02    1.68       1.0  T
   3    -38.2719735  0.854771E-05  0.273E-02    1.68       1.0  T
   4    -38.2719837 -0.102537E-04  0.573E-03    1.68       3.1  T
   5    -38.2719840 -0.248678E-06  0.498E-03    1.68       3.6  T
   6    -38.2719841 -0.156192E-06  0.155E-03    1.68      11.6  T
   7    -38.2719841 -0.241886E-07  0.661E-04    1.68      27.2  T
   8    -38.2719841 -0.350520E-08  0.356E-04    1.68      50.5  T
     SCC iter.                  ...        0 min,  0.016 sec
     gradient                   ...        0 min,  0.004 sec
 * total energy  :   -37.6433803 Eh     change       -0.2274959E-03 Eh
   gradient norm :     0.0107637 Eh/α   predicted    -0.2645344E-03 (  16.28%)
   displ. norm   :     0.2476558 α      lambda       -0.3121887E-03
   maximum displ.:     0.1711831 α      in ANC's #3, #7, #6, ...

........................................................................
.............................. CYCLE   38 ..............................
........................................................................
   1    -38.2782959 -0.382783E+02  0.652E-02    1.68       0.0  T
   2    -38.2782969 -0.105748E-05  0.368E-02    1.68       1.0  T
   3    -38.2782922  0.474497E-05  0.173E-02    1.68       1.0  T
   4    -38.2782976 -0.542700E-05  0.441E-03    1.68       4.1  T
   5    -38.2782979 -0.229945E-06  0.248E-03    1.68       7.2  T
   6    -38.2782979 -0.186094E-07  0.142E-03    1.68      12.7  T
   7    -38.2782979 -0.142731E-07  0.661E-04    1.68      27.2  T
   8    -38.2782979  0.356692E-11  0.475E-04    1.68      37.8  T
     SCC iter.                  ...        0 min,  0.016 sec
     gradient                   ...        0 min,  0.004 sec
 * total energy  :   -37.6435433 Eh     change       -0.1629633E-03 Eh
   gradient norm :     0.0100754 Eh/α   predicted    -0.1656700E-03 (   1.66%)
   displ. norm   :     0.4535919 α      lambda       -0.3275138E-03
   maximum displ.:     0.3843741 α      in ANC's #3, #1, #4, ...

........................................................................
.............................. CYCLE   39 ..............................
........................................................................
   1    -38.2704551 -0.382705E+02  0.905E-02    1.67       0.0  T
   2    -38.2704595 -0.437511E-05  0.538E-02    1.68       1.0  T
   3    -38.2704441  0.153957E-04  0.330E-02    1.67       1.0  T
   4    -38.2704625 -0.183959E-04  0.817E-03    1.67       2.2  T
   5    -38.2704635 -0.987292E-06  0.598E-03    1.67       3.0  T
   6    -38.2704636 -0.640376E-07  0.322E-03    1.67       5.6  T
   7    -38.2704636 -0.206197E-07  0.861E-04    1.67      20.8  T
   8    -38.2704636 -0.839545E-08  0.533E-04    1.67      33.7  T
     SCC iter.                  ...        0 min,  0.016 sec
     gradient                   ...        0 min,  0.004 sec
 * total energy  :   -37.6436219 Eh     change       -0.7860010E-04 Eh
   gradient norm :     0.0133283 Eh/α   predicted    -0.1974504E-03 ( 151.21%)
   displ. norm   :     0.2181494 α      lambda       -0.4165223E-03
   maximum displ.:     0.1237230 α      in ANC's #7, #1, #2, ...

........................................................................
.............................. CYCLE   40 ..............................
........................................................................
   1    -38.2787016 -0.382787E+02  0.107E-01    1.67       0.0  T
   2    -38.2787078 -0.625876E-05  0.703E-02    1.67       1.0  T
   3    -38.2786817  0.261297E-04  0.392E-02    1.67       1.0  T
   4    -38.2787133 -0.316130E-04  0.132E-02    1.67       1.4  T
   5    -38.2787148 -0.149063E-05  0.852E-03    1.67       2.1  T
   6    -38.2787146  0.173417E-06  0.512E-03    1.67       3.5  T
   7    -38.2787149 -0.240908E-06  0.118E-03    1.67      15.3  T
   8    -38.2787149 -0.129443E-07  0.831E-04    1.67      21.6  T
   9    -38.2787149 -0.157771E-08  0.386E-04    1.67      46.5  T
     SCC iter.                  ...        0 min,  0.018 sec
     gradient                   ...        0 min,  0.004 sec
 * total energy  :   -37.6436342 Eh     change       -0.1227769E-04 Eh
   gradient norm :     0.0149534 Eh/α   predicted    -0.2181739E-03 (1676.99%)
   displ. norm   :     0.0840654 α      lambda       -0.3229977E-03
   maximum displ.:     0.0492071 α      in ANC's #7, #6, #8, ...

........................................................................
.............................. CYCLE   41 ..............................
........................................................................
   1    -38.2752336 -0.382752E+02  0.780E-02    1.67       0.0  T
   2    -38.2752332  0.329251E-06  0.434E-02    1.68       1.0  T
   3    -38.2752100  0.232832E-04  0.470E-02    1.67       1.0  T
   4    -38.2752409 -0.309885E-04  0.833E-03    1.68       2.2  T
   5    -38.2752414 -0.415819E-06  0.556E-03    1.68       3.2  T
   6    -38.2752415 -0.138402E-06  0.121E-03    1.68      14.8  T
   7    -38.2752415 -0.118251E-07  0.708E-04    1.68      25.4  T
   8    -38.2752415 -0.342914E-08  0.391E-04    1.68      46.0  T
     SCC iter.                  ...        0 min,  0.016 sec
     gradient                   ...        0 min,  0.004 sec
 * total energy  :   -37.6437812 Eh     change       -0.1470036E-03 Eh
   gradient norm :     0.0074877 Eh/α   predicted    -0.1626462E-03 (  10.64%)
   displ. norm   :     0.0627620 α      lambda       -0.6354583E-04
   maximum displ.:     0.0404385 α      in ANC's #3, #6, #1, ...

........................................................................
.............................. CYCLE   42 ..............................
........................................................................
   1    -38.2744839 -0.382745E+02  0.293E-02    1.67       0.0  T
   2    -38.2744838  0.114047E-06  0.183E-02    1.67       1.0  T
   3    -38.2744836  0.161655E-06  0.165E-02    1.67       1.1  T
   4    -38.2744863 -0.269567E-05  0.454E-03    1.67       4.0  T
   5    -38.2744865 -0.246916E-06  0.245E-03    1.67       7.3  T
   6    -38.2744866 -0.256140E-07  0.109E-03    1.67      16.5  T
   7    -38.2744866 -0.491958E-08  0.616E-04    1.67      29.2  T
   8    -38.2744866 -0.626464E-09  0.411E-04    1.67      43.7  T
     SCC iter.                  ...        0 min,  0.016 sec
     gradient                   ...        0 min,  0.004 sec
 * total energy  :   -37.6438143 Eh     change       -0.3310306E-04 Eh
   gradient norm :     0.0051438 Eh/α   predicted    -0.3190458E-04 (  -3.62%)
   displ. norm   :     0.0801024 α      lambda       -0.3477872E-04
   maximum displ.:     0.0535995 α      in ANC's #3, #4, #7, ...
 * RMSD in coord.:     0.9390525 α      energy gain  -0.8127380E-02 Eh

generating ANC from model Hessian ...
Using Lindh-Hessian (1995)
 Shifting diagonal of input Hessian by    1.0060697904001714E-002
 Lowest  eigenvalues of input Hessian
    0.010000    0.000000    0.000000    0.000000    0.000000    0.000000
    0.000000    0.010130    0.010545    0.011232    0.011347    0.011649
    0.011702    0.013472    0.014896    0.015858    0.016351    0.017322
 Highest eigenvalues
    1.735413    1.736349    3.293033    3.994550    4.857211    6.237508


........................................................................
.............................. CYCLE   43 ..............................
........................................................................
   1    -38.2741420 -0.382741E+02  0.234E-02    1.67       0.0  T
   2    -38.2741421 -0.129548E-06  0.159E-02    1.67       1.1  T
   3    -38.2741406  0.154886E-05  0.105E-02    1.67       1.7  T
   4    -38.2741425 -0.199388E-05  0.346E-03    1.67       5.2  T
   5    -38.2741427 -0.166668E-06  0.144E-03    1.67      12.5  T
   6    -38.2741427 -0.198007E-09  0.718E-04    1.67      25.0  T
   7    -38.2741427 -0.444665E-08  0.274E-04    1.67      65.5  T
     SCC iter.                  ...        0 min,  0.014 sec
     gradient                   ...        0 min,  0.004 sec
 * total energy  :   -37.6438437 Eh     change       -0.2942305E-04 Eh
   gradient norm :     0.0041656 Eh/α   predicted     0.0000000E+00 (-100.00%)
   displ. norm   :     0.0655309 α      lambda        0.1639166E-04
   maximum displ.:     0.0519366 α      in ANC's #8, #9, #3, ...

........................................................................
.............................. CYCLE   44 ..............................
........................................................................
   1    -38.2742647 -0.382743E+02  0.255E-02    1.67       0.0  T
   2    -38.2742647 -0.384247E-07  0.139E-02    1.68       1.3  T
   3    -38.2742628  0.193107E-05  0.138E-02    1.67       1.3  T
   4    -38.2742654 -0.259852E-05  0.278E-03    1.67       6.5  T
   5    -38.2742654 -0.392440E-07  0.169E-03    1.67      10.6  T
   6    -38.2742654 -0.860520E-08  0.839E-04    1.67      21.4  T
   7    -38.2742654 -0.565522E-08  0.285E-04    1.67      63.1  T
     SCC iter.                  ...        0 min,  0.014 sec
     gradient                   ...        0 min,  0.004 sec
 * total energy  :   -37.6439034 Eh     change       -0.5976272E-04 Eh
   gradient norm :     0.0010677 Eh/α   predicted    -0.3648046E-04 ( -38.96%)
   displ. norm   :     0.2051120 α      lambda       -0.9918617E-04
   maximum displ.:     0.1539886 α      in ANC's #8, #9, #3, ...

........................................................................
.............................. CYCLE   45 ..............................
........................................................................
   1    -38.2738377 -0.382738E+02  0.690E-02    1.68       0.0  T
   2    -38.2738386 -0.910213E-06  0.387E-02    1.69       1.0  T
   3    -38.2738330  0.560310E-05  0.229E-02    1.68       1.0  T
   4    -38.2738392 -0.616670E-05  0.576E-03    1.68       3.1  T
   5    -38.2738394 -0.206374E-06  0.395E-03    1.68       4.5  T
   6    -38.2738394 -0.400076E-07  0.192E-03    1.68       9.4  T
   7    -38.2738394 -0.230535E-07  0.747E-04    1.68      24.0  T
   8    -38.2738394 -0.149907E-08  0.316E-04    1.68      56.9  T
     SCC iter.                  ...        0 min,  0.019 sec
     gradient                   ...        0 min,  0.004 sec
 * total energy  :   -37.6439676 Eh     change       -0.6416943E-04 Eh
   gradient norm :     0.0056285 Eh/α   predicted    -0.5053016E-04 ( -21.26%)
   displ. norm   :     0.0350741 α      lambda       -0.3708720E-04
   maximum displ.:     0.0204263 α      in ANC's #2, #1, #8, ...

........................................................................
.............................. CYCLE   46 ..............................
........................................................................
   1    -38.2741357 -0.382741E+02  0.230E-02    1.69       0.0  T
   2    -38.2741358 -0.110021E-06  0.149E-02    1.68       1.2  T
   3    -38.2741346  0.118885E-05  0.982E-03    1.69       1.8  T
   4    -38.2741359 -0.128196E-05  0.242E-03    1.68       7.4  T
   5    -38.2741359 -0.235956E-07  0.206E-03    1.68       8.7  T
   6    -38.2741359 -0.229468E-07  0.643E-04    1.68      27.9  T
   7    -38.2741359 -0.568652E-08  0.299E-04    1.68      60.1  T
     SCC iter.                  ...        0 min,  0.014 sec
     gradient                   ...        0 min,  0.004 sec
 * total energy  :   -37.6439943 Eh     change       -0.2670256E-04 Eh
   gradient norm :     0.0032467 Eh/α   predicted    -0.1856711E-04 ( -30.47%)
   displ. norm   :     0.0693642 α      lambda       -0.4423442E-04
   maximum displ.:     0.0390528 α      in ANC's #2, #3, #8, ...

........................................................................
.............................. CYCLE   47 ..............................
........................................................................
   1    -38.2745483 -0.382745E+02  0.315E-02    1.68       0.0  T
   2    -38.2745486 -0.285613E-06  0.207E-02    1.68       1.0  T
   3    -38.2745483  0.337426E-06  0.640E-03    1.68       2.8  T
   4    -38.2745487 -0.425368E-06  0.264E-03    1.68       6.8  T
   5    -38.2745487 -0.294227E-08  0.157E-03    1.68      11.4  T
   6    -38.2745487 -0.970150E-08  0.992E-04    1.68      18.1  T
   7    -38.2745487 -0.158491E-07  0.431E-04    1.68      41.7  T
     SCC iter.                  ...        0 min,  0.014 sec
     gradient                   ...        0 min,  0.004 sec
 * total energy  :   -37.6440191 Eh     change       -0.2475567E-04 Eh
   gradient norm :     0.0008996 Eh/α   predicted    -0.2222596E-04 ( -10.22%)
   displ. norm   :     0.1071872 α      lambda       -0.1512670E-04
   maximum displ.:     0.0552419 α      in ANC's #8, #2, #3, ...

........................................................................
.............................. CYCLE   48 ..............................
........................................................................
   1    -38.2742892 -0.382743E+02  0.273E-02    1.69       0.0  T
   2    -38.2742892  0.464044E-07  0.180E-02    1.69       1.0  T
   3    -38.2742845  0.463564E-05  0.136E-02    1.68       1.3  T
   4    -38.2742897 -0.513826E-05  0.184E-03    1.69       9.8  T
   5    -38.2742897 -0.132385E-07  0.135E-03    1.69      13.3  T
   6    -38.2742897 -0.128860E-07  0.376E-04    1.69      47.8  T
   7    -38.2742897 -0.440423E-09  0.228E-04    1.69      78.8  T
     SCC iter.                  ...        0 min,  0.015 sec
     gradient                   ...        0 min,  0.004 sec
 * total energy  :   -37.6440302 Eh     change       -0.1111271E-04 Eh
   gradient norm :     0.0023558 Eh/α   predicted    -0.7605879E-05 ( -31.56%)
   displ. norm   :     0.0510184 α      lambda       -0.1029506E-04
   maximum displ.:     0.0266318 α      in ANC's #2, #3, #8, ...

........................................................................
.............................. CYCLE   49 ..............................
........................................................................
   1    -38.2742475 -0.382742E+02  0.172E-02    1.69       0.0  T
   2    -38.2742475 -0.323048E-08  0.112E-02    1.69       1.6  T
   3    -38.2742465  0.107555E-05  0.759E-03    1.68       2.4  T
   4    -38.2742477 -0.121882E-05  0.206E-03    1.69       8.7  T
   5    -38.2742477 -0.466692E-07  0.106E-03    1.69      17.0  T
   6    -38.2742477 -0.104144E-09  0.401E-04    1.69      44.8  T
   7    -38.2742477 -0.213639E-08  0.128E-04    1.69     140.5  T
     SCC iter.                  ...        0 min,  0.016 sec
     gradient                   ...        0 min,  0.004 sec
 * total energy  :   -37.6440362 Eh     change       -0.5977933E-05 Eh
   gradient norm :     0.0009438 Eh/α   predicted    -0.5161110E-05 ( -13.66%)
   displ. norm   :     0.0352991 α      lambda       -0.4063382E-05
   maximum displ.:     0.0240859 α      in ANC's #3, #2, #14, ...

........................................................................
.............................. CYCLE   50 ..............................
........................................................................
   1    -38.2746980 -0.382747E+02  0.780E-03    1.69       0.0  T
   2    -38.2746981 -0.630185E-07  0.524E-03    1.69       3.4  T
   3    -38.2746981  0.453406E-07  0.334E-03    1.69       5.4  T
   4    -38.2746982 -0.956423E-07  0.104E-03    1.69      17.2  T
   5    -38.2746982 -0.295322E-07  0.532E-04    1.69      33.7  T
   6    -38.2746982 -0.169572E-08  0.222E-04    1.69      81.0  T
     SCC iter.                  ...        0 min,  0.012 sec
     gradient                   ...        0 min,  0.004 sec
 * total energy  :   -37.6440403 Eh     change       -0.4165386E-05 Eh
   gradient norm :     0.0010786 Eh/α   predicted    -0.2034587E-05 ( -51.15%)
   displ. norm   :     0.0431428 α      lambda       -0.4255903E-05
   maximum displ.:     0.0277394 α      in ANC's #3, #2, #8, ...

........................................................................
.............................. CYCLE   51 ..............................
........................................................................
   1    -38.2748939 -0.382749E+02  0.764E-03    1.69       0.0  T
   2    -38.2748939 -0.244027E-07  0.517E-03    1.69       3.5  T
   3    -38.2748939  0.229495E-08  0.366E-03    1.69       4.9  T
   4    -38.2748941 -0.152975E-06  0.109E-03    1.69      16.5  T
   5    -38.2748941 -0.270628E-07  0.424E-04    1.69      42.4  T
   6    -38.2748941 -0.242871E-09  0.181E-04    1.69      99.0  T
     SCC iter.                  ...        0 min,  0.012 sec
     gradient                   ...        0 min,  0.004 sec
 * total energy  :   -37.6440457 Eh     change       -0.5392445E-05 Eh
   gradient norm :     0.0008370 Eh/α   predicted    -0.2131135E-05 ( -60.48%)
   displ. norm   :     0.0669563 α      lambda       -0.5722611E-05
   maximum displ.:     0.0434136 α      in ANC's #3, #2, #8, ...

........................................................................
.............................. CYCLE   52 ..............................
........................................................................
   1    -38.2746081 -0.382746E+02  0.129E-02    1.69       0.0  T
   2    -38.2746081 -0.411049E-07  0.861E-03    1.69       2.1  T
   3    -38.2746077  0.448627E-06  0.435E-03    1.69       4.1  T
   4    -38.2746082 -0.468964E-06  0.142E-03    1.69      12.7  T
   5    -38.2746082 -0.355350E-07  0.744E-04    1.69      24.1  T
   6    -38.2746082 -0.189904E-08  0.156E-04    1.69     115.3  T
     SCC iter.                  ...        0 min,  0.012 sec
     gradient                   ...        0 min,  0.004 sec
 * total energy  :   -37.6440525 Eh     change       -0.6730693E-05 Eh
   gradient norm :     0.0004496 Eh/α   predicted    -0.2867360E-05 ( -57.40%)
   displ. norm   :     0.0742292 α      lambda       -0.4529854E-05
   maximum displ.:     0.0502358 α      in ANC's #3, #2, #4, ...

........................................................................
.............................. CYCLE   53 ..............................
........................................................................
   1    -38.2744284 -0.382744E+02  0.147E-02    1.68       0.0  T
   2    -38.2744284  0.190311E-08  0.952E-03    1.68       1.9  T
   3    -38.2744275  0.838003E-06  0.605E-03    1.69       3.0  T
   4    -38.2744284 -0.896188E-06  0.106E-03    1.68      17.0  T
   5    -38.2744284  0.343022E-09  0.654E-04    1.68      27.5  T
   6    -38.2744284 -0.270919E-08  0.125E-04    1.68     144.0  T
     SCC iter.                  ...        0 min,  0.012 sec
     gradient                   ...        0 min,  0.004 sec
 * total energy  :   -37.6440579 Eh     change       -0.5479282E-05 Eh
   gradient norm :     0.0003659 Eh/α   predicted    -0.2270691E-05 ( -58.56%)
   displ. norm   :     0.0869342 α      lambda       -0.4330507E-05
   maximum displ.:     0.0582947 α      in ANC's #3, #2, #1, ...

........................................................................
.............................. CYCLE   54 ..............................
........................................................................
   1    -38.2743207 -0.382743E+02  0.210E-02    1.68       0.0  T
   2    -38.2743207 -0.908314E-08  0.142E-02    1.68       1.3  T
   3    -38.2743192  0.146936E-05  0.759E-03    1.68       2.4  T
   4    -38.2743208 -0.154531E-05  0.136E-03    1.68      13.2  T
   5    -38.2743208 -0.173472E-07  0.764E-04    1.68      23.5  T
   6    -38.2743208 -0.230515E-08  0.213E-04    1.68      84.3  T
     SCC iter.                  ...        0 min,  0.013 sec
     gradient                   ...        0 min,  0.004 sec
 * total energy  :   -37.6440632 Eh     change       -0.5259271E-05 Eh
   gradient norm :     0.0005856 Eh/α   predicted    -0.2176134E-05 ( -58.62%)
   displ. norm   :     0.1273252 α      lambda       -0.4878624E-05
   maximum displ.:     0.0849379 α      in ANC's #2, #3, #1, ...

........................................................................
.............................. CYCLE   55 ..............................
........................................................................
   1    -38.2742140 -0.382742E+02  0.306E-02    1.69       0.0  T
   2    -38.2742141 -0.757072E-07  0.203E-02    1.69       1.0  T
   3    -38.2742137  0.432349E-06  0.442E-03    1.69       4.1  T
   4    -38.2742141 -0.451780E-06  0.182E-03    1.69       9.9  T
   5    -38.2742141 -0.137084E-07  0.114E-03    1.69      15.7  T
   6    -38.2742142 -0.157162E-07  0.255E-04    1.69      70.4  T
   7    -38.2742142 -0.568278E-09  0.103E-04    1.69     174.5  T
     SCC iter.                  ...        0 min,  0.014 sec
     gradient                   ...        0 min,  0.004 sec
 * total energy  :   -37.6440679 Eh     change       -0.4724965E-05 Eh
   gradient norm :     0.0005668 Eh/α   predicted    -0.2459489E-05 ( -47.95%)
   displ. norm   :     0.0662259 α      lambda       -0.1665421E-05
   maximum displ.:     0.0471512 α      in ANC's #2, #3, #1, ...

   *** GEOMETRY OPTIMIZATION CONVERGED AFTER 55 ITERATIONS ***

------------------------------------------------------------------------
 total energy gain   :        -0.5075281 Eh     -318.4787 kcal/mol
 total RMSD          :         1.5079297 a0        0.7980 Å
 total power (kW/mol):       -24.2275447 (step) -599.4455 (real)
------------------------------------------------------------------------

 ANCopt (total)                0 d,  0 h,  0 min,  2.223 sec
 optimizer setup                ...        0 min,  0.001 sec (  0.023%)
 model hessian                  ...        0 min,  0.059 sec (  2.664%)
 ANC generation                 ...        0 min,  0.011 sec (  0.479%)
 coordinate transformation      ...        0 min,  0.001 sec (  0.025%)
 single point calculation       ...        0 min,  2.117 sec ( 95.219%)
 optimization log               ...        0 min,  0.005 sec (  0.206%)
 hessian update                 ...        0 min,  0.005 sec (  0.209%)
 rational function              ...        0 min,  0.022 sec (  0.998%)

================
 final structure:
================
31
 xtb: 6.5.1 (b24c23e)
Zr          -1.19589461219931        0.01913906731395        0.29329002917304
C           -0.39208322787003        1.34470932522574       -1.66297528281415
C            0.29059698486888       -1.91037792582814        0.61671726312443
C            0.23748434003595       -1.67932510178648       -0.77860912775666
C           -1.08853119489334       -1.91345910014878       -1.21330222318770
C           -1.85987926811009       -2.29522728337516       -0.08339874456579
C           -1.00479472000644       -2.29854075695806        1.04588847869416
H            1.19516698839034       -1.94993994887803        1.21430561850524
H            1.09449312021173       -1.51595945573239       -1.42298347016715
H           -1.41978050830793       -1.94543924446643       -2.24453464213255
H           -2.86663123137752       -2.69802954977843       -0.10822815473606
H           -1.25936259356501       -2.69199165440468        2.02409863277667
C           -0.58965662238084        0.27172484059324        2.65538466206570
C           -1.96002294757424        0.61270806527524        2.52822424176021
C           -2.03718568596015        1.81097352059601        1.76974820462585
C           -0.72590076301775        2.18278401589318        1.39902512465637
C            0.17167854092587        1.22271867851839        1.93350856696990
H           -0.18648707670093       -0.49006599383591        3.31261916027045
H           -2.77881786300858        0.15633720883614        3.07647681895265
H           -2.92165028830254        2.42402167471437        1.64569902639075
H           -0.44519602763926        3.11797364997658        0.92873062191961
H            1.25414773879701        1.30761585326458        1.94874884778945
H            0.42217859318208        1.11676743321681       -0.93257994862287
H           -0.26167053130602        0.75179940002045       -2.56798132821989
H           -0.34291704527654        2.39945288883529       -1.91490494275026
C           -3.28148662076668        0.38010883183484       -0.72182590260160
C           -2.58077287397241        1.36098497691333       -1.47346538159425
H           -2.64457821484288        2.39314642794714       -1.13137930795148
H           -2.60302206442546        1.26663684676660       -2.55478489018614
H           -3.91128761975231        0.72471080966055        0.10188951006407
H           -3.68660448515671       -0.45835298022194       -1.28745003043655

 Bond Distances (Angstroems)
 ---------------------------
Zr1-C2=2.4960        Zr1-C3=2.4571        Zr1-C4=2.4675        Zr1-C5=2.4528        Zr1-C6=2.4370        Zr1-C7=2.4443        
Zr1-C13=2.4517       Zr1-C14=2.4354       Zr1-C15=2.4695       Zr1-C16=2.4749       Zr1-C17=2.4514       Zr1-H23=2.3077       
Zr1-C26=2.3474       Zr1-C27=2.6153       C2-Zr1=2.4960        C2-H23=1.1173        C2-H24=1.0898        C2-H25=1.0855        
C3-Zr1=2.4571        C3-C4=1.4153         C3-C7=1.4188         C3-H8=1.0849         C4-Zr1=2.4675        C4-C3=1.4153         
C4-C5=1.4150         C4-H9=1.0846         C5-Zr1=2.4528        C5-C4=1.4150         C5-C6=1.4204         C5-H10=1.0836        
C6-Zr1=2.4370        C6-C5=1.4204         C6-C7=1.4165         C6-H11=1.0846        C7-Zr1=2.4443        C7-C3=1.4188         
C7-C6=1.4165         C7-H12=1.0847        H8-C3=1.0849         H9-C4=1.0846         H10-C5=1.0836        H11-C6=1.0846        
H12-C7=1.0847        C13-Zr1=2.4517       C13-C14=1.4179       C13-C17=1.4160       C13-H18=1.0839       C14-Zr1=2.4354       
C14-C13=1.4179       C14-C15=1.4202       C14-H19=1.0859       C15-Zr1=2.4695       C15-C14=1.4202       C15-C16=1.4125       
C15-H20=1.0833       C16-Zr1=2.4749       C16-C15=1.4125       C16-C17=1.4188       C16-H21=1.0838       C17-Zr1=2.4514       
C17-C13=1.4160       C17-C16=1.4188       C17-H22=1.0859       H18-C13=1.0839       H19-C14=1.0859       H20-C15=1.0833       
H21-C16=1.0838       H22-C17=1.0859       H23-Zr1=2.3077       H23-C2=1.1173        H24-C2=1.0898        H25-C2=1.0855        
C26-Zr1=2.3474       C26-C27=1.4206       C26-H30=1.0927       C26-H31=1.0895       C27-Zr1=2.6153       C27-C26=1.4206       
C27-H28=1.0892       C27-H29=1.0857       H28-C27=1.0892       H29-C27=1.0857       H30-C26=1.0927       H31-C26=1.0895       
 C  H  Rav=1.0879 sigma=0.0078  Rmin=1.0833  Rmax=1.1173    17
 C  C  Rav=1.4174 sigma=0.0025  Rmin=1.4125  Rmax=1.4206    11
 Zr H  Rav=2.3077 sigma=0.0000  Rmin=2.3077  Rmax=2.3077     1
 Zr C  Rav=2.4616 sigma=0.0555  Rmin=2.3474  Rmax=2.6153    13

 selected bond angles (degree)
 --------------------
C3-Zr1-C2=108.99               C4-Zr1-C2= 80.68               C4-Zr1-C3= 33.40               C5-Zr1-C2= 85.58               
C5-Zr1-C3= 55.64               C5-Zr1-C4= 33.42               C6-Zr1-C2=118.10               C6-Zr1-C3= 55.90               
C6-Zr1-C4= 55.77               C6-Zr1-C5= 33.77               C7-Zr1-C2=136.03               C7-Zr1-C3= 33.65               
C7-Zr1-C4= 55.64               C7-Zr1-C5= 55.85               C7-Zr1-C6= 33.74               C13-Zr1-C2=128.37              
C13-Zr1-C3= 78.73              C13-Zr1-C4=110.23              C13-Zr1-C5=131.46              C13-Zr1-C6=108.31              
C13-Zr1-C7= 77.39              C14-Zr1-C2=133.70              C14-Zr1-C3=105.09              C14-Zr1-C4=138.48              
C14-Zr1-C5=140.30              C14-Zr1-C6=106.73              C14-Zr1-C7= 88.46              C14-Zr1-C13= 33.73             
C15-Zr1-C2=101.13              C15-Zr1-C3=134.20              C15-Zr1-C4=163.15              C15-Zr1-C5=162.53              
C15-Zr1-C6=133.52              C15-Zr1-C7=122.04              C15-Zr1-C13= 55.49             C15-Zr1-C14= 33.65             
C16-Zr1-C2= 79.91              C16-Zr1-C3=120.85              C16-Zr1-C4=133.28              C16-Zr1-C5=162.74              
C16-Zr1-C6=162.00              C16-Zr1-C7=132.57              C16-Zr1-C13= 55.42             C16-Zr1-C14= 55.70             
C16-Zr1-C15= 33.20             C17-Zr1-C2= 94.82              C17-Zr1-C3= 87.71              C17-Zr1-C4=107.73              
C17-Zr1-C5=140.66              C17-Zr1-C6=136.19              C17-Zr1-C7=102.47              C17-Zr1-C13= 33.57             
C17-Zr1-C14= 56.04             C17-Zr1-C15= 55.51             C17-Zr1-C16= 33.47             H23-Zr1-C2= 26.53              
H23-Zr1-C3= 91.10              H23-Zr1-C4= 71.90              H23-Zr1-C5= 91.02              H23-Zr1-C6=124.10              
H23-Zr1-C7=124.04              H23-Zr1-C13=106.82             H23-Zr1-C14=126.27             H23-Zr1-C15=102.20             
H23-Zr1-C16= 71.84             H23-Zr1-C17= 74.38             C26-Zr1-C2= 82.27              C26-Zr1-C3=135.66              
C26-Zr1-C4=115.73              C26-Zr1-C5= 83.94              C26-Zr1-C6= 80.63              C26-Zr1-C7=110.39              
C26-Zr1-C13=128.35             C26-Zr1-C14= 94.62             C26-Zr1-C15= 81.04             C26-Zr1-C16=103.15             
C26-Zr1-C17=135.19             C26-Zr1-H23=108.67             C27-Zr1-C2= 50.85              C27-Zr1-C3=144.31              
C27-Zr1-C4=111.55              C27-Zr1-C5= 90.72              C27-Zr1-C6=103.80              C27-Zr1-C7=137.38              
C27-Zr1-C13=136.80             C27-Zr1-C14=109.19             C27-Zr1-C15= 81.44             C27-Zr1-C16= 87.35             
C27-Zr1-C17=119.70             C27-Zr1-H23= 76.61             C27-Zr1-C26= 32.70             H23-C2-Zr1= 67.30              
H24-C2-Zr1=113.61              H24-C2-H23=110.16              H25-C2-Zr1=135.44              H25-C2-H23=108.48              
H25-C2-H24=109.30              C4-C3-Zr1= 73.70               C7-C3-Zr1= 72.68               C7-C3-C4=107.98                
H8-C3-Zr1=127.27               H8-C3-C4=125.47                H8-C3-C7=125.78                C3-C4-Zr1= 72.90               
C5-C4-Zr1= 72.72               C5-C4-C3=108.12                H9-C4-Zr1=127.84               H9-C4-C3=125.50                
H9-C4-C5=125.65                C4-C5-Zr1= 73.86               C6-C5-Zr1= 72.51               C6-C5-C4=108.00                
H10-C5-Zr1=126.47              H10-C5-C4=125.71               H10-C5-C6=125.67               C5-C6-Zr1= 73.72               
C7-C6-Zr1= 73.41               C7-C6-C5=107.88                H11-C6-Zr1=127.53              H11-C6-C5=125.85               
H11-C6-C7=125.29               C3-C7-Zr1= 73.67               C6-C7-Zr1= 72.85               C6-C7-C3=108.02                
H12-C7-Zr1=127.11              H12-C7-C3=125.90               H12-C7-C6=125.32               

 selected dihedral angles (degree)
 ---------------------------------
H23-C2-Zr1-C3=310.07          H23-C2-Zr1-C4=292.09          H23-C2-Zr1-C5=258.77          H23-C2-Zr1-C6=249.30          
H23-C2-Zr1-C7=285.75          H23-C2-Zr1-C13= 40.57         H23-C2-Zr1-C14= 85.28         H23-C2-Zr1-C15= 95.07         
H23-C2-Zr1-C16= 69.39         H23-C2-Zr1-C17= 39.30         H23-C2-Zr1-C26=174.30         H23-C2-Zr1-C27=164.23         
H24-C2-Zr1-C3= 53.07          H24-C2-Zr1-C4= 35.08          H24-C2-Zr1-C5=  1.76          H24-C2-Zr1-C6=352.30          
H24-C2-Zr1-C7= 28.75          H24-C2-Zr1-C13=143.57         H24-C2-Zr1-C14=188.28         H24-C2-Zr1-C15=198.06         
H24-C2-Zr1-C16=172.38         H24-C2-Zr1-C17=142.29         H24-C2-Zr1-H23=103.00         H24-C2-Zr1-C26=277.29         
H24-C2-Zr1-C27=267.23         H25-C2-Zr1-C3=216.36          H25-C2-Zr1-C4=198.38          H25-C2-Zr1-C5=165.06          
H25-C2-Zr1-C6=155.59          H25-C2-Zr1-C7=192.04          H25-C2-Zr1-C13=306.86         H25-C2-Zr1-C14=351.57         
H25-C2-Zr1-C15=  1.35         H25-C2-Zr1-C16=335.67         H25-C2-Zr1-C17=305.59         H25-C2-Zr1-H23=266.29         
H25-C2-Zr1-C26= 80.59         H25-C2-Zr1-C27= 70.52         C4-C3-Zr1-C2=326.40           C4-C3-Zr1-C5= 36.89           
C4-C3-Zr1-C6= 78.02           C4-C3-Zr1-C7=115.34           C4-C3-Zr1-C13=199.48          C4-C3-Zr1-C14=178.24          
C4-C3-Zr1-C15=198.14          C4-C3-Zr1-C16=237.00          C4-C3-Zr1-C17=232.09          C4-C3-Zr1-H23=306.41          
C4-C3-Zr1-C26= 64.95          C4-C3-Zr1-C27= 14.68          C7-C3-Zr1-C2=211.06           C7-C3-Zr1-C4=244.66           
C7-C3-Zr1-C5=281.55           C7-C3-Zr1-C6=322.68           C7-C3-Zr1-C13= 84.13          C7-C3-Zr1-C14= 62.90          
C7-C3-Zr1-C15= 82.80          C7-C3-Zr1-C16=121.65          C7-C3-Zr1-C17=116.75          C7-C3-Zr1-H23=191.07          
C7-C3-Zr1-C26=309.61          C7-C3-Zr1-C27=259.34          H8-C3-Zr1-C2= 88.90           H8-C3-Zr1-C4=122.50           
H8-C3-Zr1-C5=159.39           H8-C3-Zr1-C6=200.52           H8-C3-Zr1-C7=237.84           H8-C3-Zr1-C13=321.97          
H8-C3-Zr1-C14=300.74          H8-C3-Zr1-C15=320.63          H8-C3-Zr1-C16=359.49          H8-C3-Zr1-C17=354.59          
H8-C3-Zr1-H23= 68.91          H8-C3-Zr1-C26=187.45          H8-C3-Zr1-C27=137.18          C3-C4-Zr1-C2=147.98           
C3-C4-Zr1-C5=244.12           C3-C4-Zr1-C6=281.53           C3-C4-Zr1-C7=322.65           C3-C4-Zr1-C13= 20.39          
C3-C4-Zr1-C14=357.44          C3-C4-Zr1-C15= 50.36          C3-C4-Zr1-C16= 81.47          C3-C4-Zr1-C17= 55.86          
C3-C4-Zr1-H23=122.17          C3-C4-Zr1-C26=224.66          C3-C4-Zr1-C27=189.15          C5-C4-Zr1-C2=263.86           
C5-C4-Zr1-C3=115.88           C5-C4-Zr1-C6= 37.41           C5-C4-Zr1-C7= 78.54           C5-C4-Zr1-C13=136.28          
C5-C4-Zr1-C14=113.32          C5-C4-Zr1-C15=166.24          C5-C4-Zr1-C16=197.35          C5-C4-Zr1-C17=171.75          
C5-C4-Zr1-H23=238.05          C5-C4-Zr1-C26=340.54          C5-C4-Zr1-C27=305.03          H9-C4-Zr1-C2= 25.96           
H9-C4-Zr1-C3=237.98           H9-C4-Zr1-C5=122.10           H9-C4-Zr1-C6=159.50           H9-C4-Zr1-C7=200.63           
H9-C4-Zr1-C13=258.37          H9-C4-Zr1-C14=235.42          H9-C4-Zr1-C15=288.34          H9-C4-Zr1-C16=319.44          
H9-C4-Zr1-C17=293.84          H9-C4-Zr1-H23=  0.14          H9-C4-Zr1-C26=102.64          H9-C4-Zr1-C27= 67.12          
Zr1-C4-C3-C7= 65.10           Zr1-C4-C3-H8=235.50           C5-C4-C3-Zr1=295.32           C5-C4-C3-C7=  0.43            
C5-C4-C3-H8=170.82            H9-C4-C3-Zr1=124.67           H9-C4-C3-C7=189.77            H9-C4-C3-H8=  0.17            
C4-C5-Zr1-C2= 79.76           C4-C5-Zr1-C3=323.13           C4-C5-Zr1-C6=244.62           C4-C5-Zr1-C7=282.13           
C4-C5-Zr1-C13=300.07          C4-C5-Zr1-C14=252.38          C4-C5-Zr1-C15=193.27          C4-C5-Zr1-C16= 47.01          
C4-C5-Zr1-C17=347.54          C4-C5-Zr1-H23= 53.77          C4-C5-Zr1-C26=162.44          C4-C5-Zr1-C27=130.39          
C6-C5-Zr1-C2=195.13           C6-C5-Zr1-C3= 78.51           C6-C5-Zr1-C4=115.38           C6-C5-Zr1-C7= 37.51           
C6-C5-Zr1-C13= 55.44          C6-C5-Zr1-C14=  7.75          C6-C5-Zr1-C15=308.65          C6-C5-Zr1-C16=162.39          
C6-C5-Zr1-C17=102.92          C6-C5-Zr1-H23=169.14          C6-C5-Zr1-C26=277.81          C6-C5-Zr1-C27=245.76          
H10-C5-Zr1-C2=316.96          H10-C5-Zr1-C3=200.33          H10-C5-Zr1-C4=237.20          H10-C5-Zr1-C6=121.82          
H10-C5-Zr1-C7=159.33          H10-C5-Zr1-C13=177.27         H10-C5-Zr1-C14=129.58         H10-C5-Zr1-C15= 70.47         
H10-C5-Zr1-C16=284.21         H10-C5-Zr1-C17=224.74         H10-C5-Zr1-H23=290.97         H10-C5-Zr1-C26= 39.63         
H10-C5-Zr1-C27=  7.59         Zr1-C5-C4-C3= 64.79           Zr1-C5-C4-H9=235.43           C6-C5-C4-Zr1=295.03           
C6-C5-C4-C3=359.83            C6-C5-C4-H9=170.46            H10-C5-C4-Zr1=123.64          H10-C5-C4-C3=188.44           
H10-C5-C4-H9=359.07           C5-C6-Zr1-C2= 17.16           C5-C6-Zr1-C3=282.34           C5-C6-Zr1-C4=322.99           
C5-C6-Zr1-C7=245.12           C5-C6-Zr1-C13=220.55          C5-C6-Zr1-C14=185.16          C5-C6-Zr1-C15=161.13          
C5-C6-Zr1-C16=196.89          C5-C6-Zr1-C17=243.20          C5-C6-Zr1-H23=346.86          C5-C6-Zr1-C26= 93.12          
C5-C6-Zr1-C27= 69.87          C7-C6-Zr1-C2=132.04           C7-C6-Zr1-C3= 37.22           C7-C6-Zr1-C4= 77.87           
C7-C6-Zr1-C5=114.88           C7-C6-Zr1-C13=335.42          C7-C6-Zr1-C14=300.04          C7-C6-Zr1-C15=276.01          
C7-C6-Zr1-C16=311.77          C7-C6-Zr1-C17=358.08          C7-C6-Zr1-H23=101.73          C7-C6-Zr1-C26=208.00          
C7-C6-Zr1-C27=184.74          H11-C6-Zr1-C2=254.13          H11-C6-Zr1-C3=159.31          H11-C6-Zr1-C4=199.96          
H11-C6-Zr1-C5=236.97          H11-C6-Zr1-C7=122.09          H11-C6-Zr1-C13= 97.52         H11-C6-Zr1-C14= 62.13         
H11-C6-Zr1-C15= 38.10         H11-C6-Zr1-C16= 73.86         H11-C6-Zr1-C17=120.17         H11-C6-Zr1-H23=223.83         
H11-C6-Zr1-C26=330.09         H11-C6-Zr1-C27=306.84         Zr1-C6-C5-C4= 65.86           Zr1-C6-C5-H10=237.25          
C7-C6-C5-Zr1=294.00           C7-C6-C5-C4=359.86            C7-C6-C5-H10=171.25           H11-C6-C5-Zr1=124.88          
H11-C6-C5-C4=190.74           H11-C6-C5-H10=  2.14          C3-C7-Zr1-C2= 44.64           C3-C7-Zr1-C4= 37.06           
C3-C7-Zr1-C5= 77.78           C3-C7-Zr1-C6=115.33           C3-C7-Zr1-C13=271.46          C3-C7-Zr1-C14=239.30          
C3-C7-Zr1-C15=237.04          C3-C7-Zr1-C16=277.09          C3-C7-Zr1-C17=293.96          C3-C7-Zr1-H23= 13.40          
C3-C7-Zr1-C26=144.94          C3-C7-Zr1-C27=122.14          C6-C7-Zr1-C2=289.32           C6-C7-Zr1-C3=244.67           
C6-C7-Zr1-C4=281.74           C6-C7-Zr1-C5=322.46           C6-C7-Zr1-C13=156.13          C6-C7-Zr1-C14=123.97          
C6-C7-Zr1-C15=121.71          C6-C7-Zr1-C16=161.76          C6-C7-Zr1-C17=178.64          C6-C7-Zr1-H23=258.07          
C6-C7-Zr1-C26= 29.61          C6-C7-Zr1-C27=  6.81          H12-C7-Zr1-C2=167.63          H12-C7-Zr1-C3=122.99          
H12-C7-Zr1-C4=160.05          H12-C7-Zr1-C5=200.77          H12-C7-Zr1-C6=238.32          H12-C7-Zr1-C13= 34.45         
H12-C7-Zr1-C14=  2.28         H12-C7-Zr1-C15=  0.03         H12-C7-Zr1-C16= 40.08         H12-C7-Zr1-C17= 56.95         
H12-C7-Zr1-H23=136.38         H12-C7-Zr1-C26=267.93         H12-C7-Zr1-C27=245.13         Zr1-C7-C3-C4=294.22           
Zr1-C7-C3-H8=123.86           C6-C7-C3-Zr1= 65.26           C6-C7-C3-C4=359.49            C6-C7-C3-H8=189.12            
H12-C7-C3-Zr1=235.67          H12-C7-C3-C4=169.89           H12-C7-C3-H8=359.53           Zr1-C7-C6-C5= 66.21           
Zr1-C7-C6-H11=235.40          C3-C7-C6-Zr1=294.19           C3-C7-C6-C5=  0.41            C3-C7-C6-H11=169.60           
H12-C7-C6-Zr1=123.72          H12-C7-C6-C5=189.93           H12-C7-C6-H11=359.12          
           -------------------------------------------------
          |                Final Singlepoint                |
           -------------------------------------------------

          ...................................................
          :                      SETUP                      :
          :.................................................:
          :  # basis functions                  79          :
          :  # atomic orbitals                  78          :
          :  # shells                           46          :
          :  # electrons                        72          :
          :  max. iterations                   250          :
          :  Hamiltonian                  GFN2-xTB          :
          :  restarted?                      false          :
          :  GBSA solvation                  false          :
          :  PC potential                    false          :
          :  electronic temp.          300.0000000     K    :
          :  accuracy                    1.0000000          :
          :  -> integral cutoff          0.2500000E+02      :
          :  -> integral neglect         0.1000000E-07      :
          :  -> SCF convergence          0.1000000E-05 Eh   :
          :  -> wf. convergence          0.1000000E-03 e    :
          :  Broyden damping             0.4000000          :
          ...................................................

 iter      E             dE          RMSdq      gap      omega  full diag
   1    -38.2742142 -0.382742E+02  0.656E-05    1.69       0.0  T
   2    -38.2742142 -0.121432E-10  0.382E-05    1.69     470.7  T
   3    -38.2742142 -0.100044E-10  0.349E-05    1.69     514.0  T

   *** convergence criteria satisfied after 3 iterations ***

         #    Occupation            Energy/Eh            Energy/eV
      -------------------------------------------------------------
         1        2.0000           -0.8732258             -23.7617
       ...           ...                  ...                  ...
        30        2.0000           -0.5856267             -15.9357
        31        2.0000           -0.5782355             -15.7346
        32        2.0000           -0.5219566             -14.2032
        33        2.0000           -0.5215764             -14.1928
        34        2.0000           -0.5114197             -13.9164
        35        2.0000           -0.5063107             -13.7774
        36        2.0000           -0.4875414             -13.2667 (HOMO)
        37                         -0.4256007             -11.5812 (LUMO)
        38                         -0.4096801             -11.1480
        39                         -0.4037493             -10.9866
        40                         -0.4029772             -10.9656
        41                         -0.4019889             -10.9387
       ...                                ...                  ...
        78                          2.5087494              68.2665
      -------------------------------------------------------------
                  HL-Gap            0.0619407 Eh            1.6855 eV
             Fermi-level           -0.4565711 Eh          -12.4239 eV

 SCC (total)                   0 d,  0 h,  0 min,  0.011 sec
 SCC setup                      ...        0 min,  0.000 sec (  0.952%)
 Dispersion                     ...        0 min,  0.000 sec (  0.834%)
 classical contributions        ...        0 min,  0.000 sec (  0.246%)
 integral evaluation            ...        0 min,  0.001 sec ( 11.739%)
 iterations                     ...        0 min,  0.006 sec ( 52.604%)
 molecular gradient             ...        0 min,  0.004 sec ( 31.966%)
 printout                       ...        0 min,  0.000 sec (  1.507%)

         :::::::::::::::::::::::::::::::::::::::::::::::::::::
         ::                     SUMMARY                     ::
         :::::::::::::::::::::::::::::::::::::::::::::::::::::
         :: total energy             -37.644067913845 Eh    ::
         :: gradient norm              0.000566860725 Eh/a0 ::
         :: HOMO-LUMO gap              1.685491653515 eV    ::
         ::.................................................::
         :: SCC energy               -38.274214151388 Eh    ::
         :: -> isotropic ES            0.087427011088 Eh    ::
         :: -> anisotropic ES         -0.013479521318 Eh    ::
         :: -> anisotropic XC          0.020911887003 Eh    ::
         :: -> dispersion             -0.027954608398 Eh    ::
         :: repulsion energy           0.629350744694 Eh    ::
         :: add. restraining           0.000114135061 Eh    ::
         :: total charge               1.000000000000 e     ::
         :::::::::::::::::::::::::::::::::::::::::::::::::::::

           -------------------------------------------------
          |                Property Printout                |
           -------------------------------------------------

    * Orbital Energies and Occupations

         #    Occupation            Energy/Eh            Energy/eV
      -------------------------------------------------------------
         1        2.0000           -0.8732258             -23.7617
       ...           ...                  ...                  ...
        24        2.0000           -0.5951797             -16.1957
        25        2.0000           -0.5935801             -16.1521
        26        2.0000           -0.5913179             -16.0906
        27        2.0000           -0.5911120             -16.0850
        28        2.0000           -0.5898502             -16.0506
        29        2.0000           -0.5892380             -16.0340
        30        2.0000           -0.5856267             -15.9357
        31        2.0000           -0.5782355             -15.7346
        32        2.0000           -0.5219566             -14.2032
        33        2.0000           -0.5215764             -14.1928
        34        2.0000           -0.5114197             -13.9164
        35        2.0000           -0.5063107             -13.7774
        36        2.0000           -0.4875414             -13.2667 (HOMO)
        37                         -0.4256007             -11.5812 (LUMO)
        38                         -0.4096801             -11.1480
        39                         -0.4037493             -10.9866
        40                         -0.4029772             -10.9656
        41                         -0.4019889             -10.9387
        42                         -0.3705282             -10.0826
        43                         -0.3073652              -8.3638
        44                         -0.3062866              -8.3345
        45                         -0.3057597              -8.3201
        46                         -0.3046520              -8.2900
        47                         -0.0571499              -1.5551
       ...                                ...                  ...
        78                          2.5087494              68.2665
      -------------------------------------------------------------
                  HL-Gap            0.0619407 Eh            1.6855 eV
             Fermi-level           -0.4565711 Eh          -12.4239 eV

     #   Z          covCN         q      C6AA      α(0)
     1  40 Zr      10.135     0.955   138.711    17.697
     2   6 C        3.652    -0.250    25.920     7.311
     3   6 C        3.758    -0.088    22.236     6.723
     4   6 C        3.753    -0.087    22.225     6.723
     5   6 C        3.760    -0.090    22.274     6.728
     6   6 C        3.764    -0.089    22.234     6.721
     7   6 C        3.763    -0.086    22.194     6.715
     8   1 H        0.925     0.081     1.965     2.192
     9   1 H        0.925     0.076     2.017     2.221
    10   1 H        0.925     0.084     1.939     2.178
    11   1 H        0.925     0.084     1.935     2.175
    12   1 H        0.925     0.085     1.926     2.170
    13   6 C        3.762    -0.083    22.123     6.705
    14   6 C        3.764    -0.092    22.301     6.731
    15   6 C        3.755    -0.089    22.253     6.726
    16   6 C        3.751    -0.089    22.270     6.730
    17   6 C        3.759    -0.092    22.308     6.734
    18   1 H        0.925     0.086     1.918     2.166
    19   1 H        0.925     0.081     1.967     2.193
    20   1 H        0.925     0.080     1.977     2.199
    21   1 H        0.925     0.079     1.984     2.203
    22   1 H        0.925     0.076     2.022     2.224
    23   1 H        1.305     0.081     1.951     2.180
    24   1 H        0.925     0.075     2.033     2.230
    25   1 H        0.925     0.079     1.994     2.208
    26   6 C        3.616    -0.215    25.347     7.264
    27   6 C        3.634    -0.071    22.265     6.791
    28   1 H        0.925     0.108     1.711     2.046
    29   1 H        0.925     0.115     1.655     2.012
    30   1 H        0.930     0.099     1.796     2.096
    31   1 H        0.925     0.097     1.817     2.108

 Mol. C6AA /au·bohr⁶  :       9449.057725
 Mol. C8AA /au·bohr⁸  :     320881.531589
 Mol. α(0) /au        :        143.098226


Wiberg/Mayer (AO) data.
largest (>0.10) Wiberg bond orders for each atom

 ---------------------------------------------------------------------------
     #   Z sym  total        # sym  WBO       # sym  WBO       # sym  WBO
 ---------------------------------------------------------------------------
     1  40 Zr   4.327 --    26 C    0.529     2 C    0.486    14 C    0.257
                             6 C    0.251     7 C    0.246    17 C    0.240
                             3 C    0.239     5 C    0.237    13 C    0.234
                             4 C    0.230    15 C    0.230    16 C    0.227
                            27 C    0.212    23 H    0.125
     2   6 C    3.915 --    25 H    0.967    24 H    0.951    23 H    0.823
                             1 Zr   0.486    27 C    0.430    26 C    0.161
     3   6 C    3.979 --     4 C    1.307     7 C    1.298     8 H    0.924
                             1 Zr   0.239
     4   6 C    3.981 --     5 C    1.311     3 C    1.307     9 H    0.926
                             1 Zr   0.230
     5   6 C    3.978 --     4 C    1.311     6 C    1.289    10 H    0.925
                             1 Zr   0.237
     6   6 C    3.981 --     7 C    1.300     5 C    1.289    11 H    0.921
                             1 Zr   0.251
     7   6 C    3.980 --     6 C    1.300     3 C    1.298    12 H    0.922
                             1 Zr   0.246
     8   1 H    0.991 --     3 C    0.924
     9   1 H    0.992 --     4 C    0.926
    10   1 H    0.990 --     5 C    0.925
    11   1 H    0.991 --     6 C    0.921
    12   1 H    0.990 --     7 C    0.922
    13   6 C    3.982 --    17 C    1.309    14 C    1.300    18 H    0.925
                             1 Zr   0.234
    14   6 C    3.979 --    13 C    1.300    15 C    1.287    19 H    0.919
                             1 Zr   0.257
    15   6 C    3.979 --    16 C    1.320    14 C    1.287    20 H    0.928
                             1 Zr   0.230
    16   6 C    3.979 --    15 C    1.320    17 C    1.295    21 H    0.927
                             1 Zr   0.227
    17   6 C    3.978 --    13 C    1.309    16 C    1.295    22 H    0.922
                             1 Zr   0.240
    18   1 H    0.990 --    13 C    0.925
    19   1 H    0.991 --    14 C    0.919
    20   1 H    0.991 --    15 C    0.928
    21   1 H    0.991 --    16 C    0.927
    22   1 H    0.992 --    17 C    0.922
    23   1 H    0.993 --     2 C    0.823     1 Zr   0.125
    24   1 H    0.993 --     2 C    0.951
    25   1 H    0.992 --     2 C    0.967
    26   6 C    3.917 --    27 C    1.336    31 H    0.914    30 H    0.884
                             1 Zr   0.529     2 C    0.161
    27   6 C    3.977 --    26 C    1.336    29 H    0.944    28 H    0.932
                             2 C    0.430     1 Zr   0.212
    28   1 H    0.987 --    27 C    0.932
    29   1 H    0.985 --    27 C    0.944
    30   1 H    0.990 --    26 C    0.884
    31   1 H    0.989 --    26 C    0.914
 ---------------------------------------------------------------------------

Topologies differ in total number of bonds
Writing topology from bond orders to xtbtopo.mol

molecular dipole:
                 x           y           z       tot (Debye)
 q only:       -2.712       0.438      -0.025
   full:       -2.338       0.426       0.091       6.045
molecular quadrupole (traceless):
                xx          xy          yy          xz          yz          zz
 q only:        8.721      -2.293      -5.717       1.721      -4.782      -3.004
  q+dip:        9.482      -0.644      -7.632       0.437      -7.724      -1.850
   full:        9.611      -0.477      -6.937      -0.389      -6.056      -2.675

           -------------------------------------------------
          |                Geometry Summary                 |
           -------------------------------------------------

      molecular mass/u    :      264.4982010
   center of mass at/Å    :       -1.1668560      -0.0198365       0.3746228
  moments of inertia/u·Å² :        0.5880651E+03   0.7240440E+03   0.9163610E+03
rotational constants/cm⁻¹ :        0.2866627E-01   0.2328261E-01   0.1839628E-01

 * 40 selected distances

     #   Z          #   Z                                           value/Å
     1  40 Zr       2   6 C                                       2.4960417 (max)
     1  40 Zr       3   6 C                                       2.4570917
     1  40 Zr       4   6 C                                       2.4674531
     3   6 C        4   6 C                                       1.4153242
     1  40 Zr       5   6 C                                       2.4528114
     4   6 C        5   6 C                                       1.4149538
     1  40 Zr       6   6 C                                       2.4370192
     5   6 C        6   6 C                                       1.4203545
     1  40 Zr       7   6 C                                       2.4442922
     3   6 C        7   6 C                                       1.4187665
     6   6 C        7   6 C                                       1.4164994
     3   6 C        8   1 H                                       1.0848613
     4   6 C        9   1 H                                       1.0846063
     5   6 C       10   1 H                                       1.0836002
     6   6 C       11   1 H                                       1.0846271
     7   6 C       12   1 H                                       1.0846676
     1  40 Zr      13   6 C                                       2.4516966
     1  40 Zr      14   6 C                                       2.4353949
    13   6 C       14   6 C                                       1.4178659
     1  40 Zr      15   6 C                                       2.4694881
    14   6 C       15   6 C                                       1.4202396
     1  40 Zr      16   6 C                                       2.4748545
    15   6 C       16   6 C                                       1.4124968
     1  40 Zr      17   6 C                                       2.4513625
    13   6 C       17   6 C                                       1.4160247
    16   6 C       17   6 C                                       1.4188189
    13   6 C       18   1 H                                       1.0838950
    14   6 C       19   1 H                                       1.0859469
    15   6 C       20   1 H                                       1.0832793 (min)
    16   6 C       21   1 H                                       1.0837675
    17   6 C       22   1 H                                       1.0859004
     2   6 C       23   1 H                                       1.1173439
     2   6 C       24   1 H                                       1.0897641
     2   6 C       25   1 H                                       1.0855276
     1  40 Zr      26   6 C                                       2.3474357
    26   6 C       27   6 C                                       1.4205914
    27   6 C       28   1 H                                       1.0892435
    27   6 C       29   1 H                                       1.0856559
    26   6 C       30   1 H                                       1.0926606
    26   6 C       31   1 H                                       1.0895272

 * 3 distinct bonds (by element types)

   Z      Z             #   av. dist./Å        max./Å        min./Å
   1 H    6 C          17     1.0879338     1.1173439     1.0832793
   6 C    6 C          11     1.4174487     1.4205914     1.4124968
   6 C   40 Zr         12     2.4487451     2.4960417     2.3474357


optimized geometry written to: xtbopt.xyz


           -------------------------------------------------
          | TOTAL ENERGY              -37.644067913845 Eh   |
          | GRADIENT NORM               0.000566860725 Eh/α |
          | HOMO-LUMO GAP               1.685491653515 eV   |
           -------------------------------------------------

------------------------------------------------------------------------
 * finished run on 2026/08/16 at 16:15:39.297     
------------------------------------------------------------------------
 total:
 * wall-time:     0 d,  0 h,  0 min,  2.560 sec
 *  cpu-time:     0 d,  0 h,  0 min, 17.071 sec
 * ratio c/w:     6.669 speedup
 SCF:
 * wall-time:     0 d,  0 h,  0 min,  0.215 sec
 *  cpu-time:     0 d,  0 h,  0 min,  1.201 sec
 * ratio c/w:     5.593 speedup
 ANC optimizer:
 * wall-time:     0 d,  0 h,  0 min,  2.245 sec
 *  cpu-time:     0 d,  0 h,  0 min, 15.348 sec
 * ratio c/w:     6.835 speedup

