31
 energy: -37.644067913845 gnorm: 0.000566860725 xtb: 6.5.1 (b24c23e)
Zr          -1.19589461219931        0.01913906731395        0.29329002917304
C           -0.39208322787003        1.34470932522574       -1.66297528281415
C            0.29059698486888       -1.91037792582814        0.61671726312443
C            0.23748434003595       -1.67932510178648       -0.77860912775666
C           -1.08853119489334       -1.91345910014878       -1.21330222318770
C           -1.85987926811009       -2.29522728337516       -0.08339874456579
C           -1.00479472000644       -2.29854075695806        1.04588847869416
H            1.19516698839034       -1.94993994887803        1.21430561850524
H            1.09449312021173       -1.51595945573239       -1.42298347016715
H           -1.41978050830793       -1.94543924446643       -2.24453464213255
H           -2.86663123137752       -2.69802954977843       -0.10822815473606
H           -1.25936259356501       -2.69199165440468        2.02409863277667
C           -0.58965662238084        0.27172484059324        2.65538466206570
C           -1.96002294757424        0.61270806527524        2.52822424176021
C           -2.03718568596015        1.81097352059601        1.76974820462585
C           -0.72590076301775        2.18278401589318        1.39902512465637
C            0.17167854092587        1.22271867851839        1.93350856696990
H           -0.18648707670093       -0.49006599383591        3.31261916027045
H           -2.77881786300858        0.15633720883614        3.07647681895265
H           -2.92165028830254        2.42402167471437        1.64569902639075
H           -0.44519602763926        3.11797364997658        0.92873062191961
H            1.25414773879701        1.30761585326458        1.94874884778945
H            0.42217859318208        1.11676743321681       -0.93257994862287
H           -0.26167053130602        0.75179940002045       -2.56798132821989
H           -0.34291704527654        2.39945288883529       -1.91490494275026
C           -3.28148662076668        0.38010883183484       -0.72182590260160
C           -2.58077287397241        1.36098497691333       -1.47346538159425
H           -2.64457821484288        2.39314642794714       -1.13137930795148
H           -2.60302206442546        1.26663684676660       -2.55478489018614
H           -3.91128761975231        0.72471080966055        0.10188951006407
H           -3.68660448515671       -0.45835298022194       -1.28745003043655
