77
Co-porphyrin with meso-H atoms replaced by phenyl groups (approx. 70 deg phenyl twist)
Co       0.0021361233       0.1378784763       0.0952449769
N       -1.9827720759       0.2702045009       0.1285112969
N        1.9869842058       0.0055960378       0.0616461391
N        0.1333715387       2.1221908793       0.0351029481
N       -0.1291180421      -1.8463514236       0.1554804899
C       -2.8884589726      -0.7635975273       0.1754321981
C       -2.7444764877       1.4149902544       0.1091808968
C       -4.1512650421       1.0968600982       0.1445106240
H       -4.9525360702       1.8344349072       0.1378229493
C       -4.2410924642      -0.2617045082       0.1857933540
C       -2.2496513617       2.7089487437       0.0623017332
C        1.2780265234       2.8830890555      -0.0085014401
C        0.9590483056       4.2896890425      -0.0436088394
C       -0.3999077473       4.3802220342      -0.0208038322
H       -1.0253814363       5.2716665673      -0.0351999686
C       -0.9011855679       3.0281989984       0.0279851643
C       -2.5683462528      -2.1118807996       0.2090668538
C        0.4041427612      -4.1043709008       0.2120005573
C        0.9054257255      -2.7523778979       0.1626330451
H       -1.6921338088      -4.8144711991       0.2726321812
C       -1.2737804522      -2.6072275557       0.1994683935
C       -0.9548062682      -4.0138185669       0.2350118086
C        2.5725810662       2.3877126983      -0.0184292731
C        4.1554656137      -0.8210754137       0.0446110724
C        4.2452810482       0.5374965778       0.0035531483
H        5.1366193774       1.1623035383      -0.0314873951
C        2.8926614251       1.0394051736       0.0145813696
C        2.7486903565      -1.1391998088       0.0804759613
C        2.2538828725      -2.4331543186       0.1276733741
H        3.3932800026       3.1059824167      -0.0547285817
H       -3.3890252353      -2.8301660028       0.2454664845
H       -2.9685235543       3.5298552195       0.0517829999
H        2.9727485770      -3.2540691999       0.1380297468
C       -5.4605711382      -1.1165172012       0.2334066244
C       -5.7733122339      -1.8227985532       1.3973465513
C       -6.9166757960      -2.6242571653       1.4419879868
C       -7.7472982625      -2.7194344255       0.3226894954
C       -7.4345571668      -2.0131530735      -0.8412504315
C       -6.2911936047      -1.2116944614      -0.8858918670
H       -5.1258543791      -1.7486092949       2.2698230727
H       -7.1604793729      -3.1748529209       2.3493606390
H       -8.6385816692      -3.3441935011       0.3574887247
H       -8.0820150216      -2.0873423318      -1.7137269528
H       -6.0473900278      -0.6610987058      -1.7932645191
C        1.9677903398       5.3851078731      -0.0945705329
C        2.1575483869       6.2120210024       1.0152629542
C        3.1033286699       7.2390680536       0.9674820912
C        3.8593509058       7.4392019755      -0.1901322587
C        3.6695928587       6.6122888462      -1.2999657458
C        2.7238125757       5.5852417950      -1.2521848828
H        1.5682210811       6.0560144998       1.9176355479
H        3.2512535257       7.8836836964       1.8326467635
H        4.5966127012       8.2398134564      -0.2273787582
H        4.2589201645       6.7682953488      -2.2023383395
H        2.5758877198       4.9406261522      -2.1173495551
C        1.2598588269      -5.3239827761       0.2319226228
C        2.0209757641      -5.6251777182       1.3641758394
C        2.8232813638      -6.7686661677       1.3828544470
C        2.8644700264      -7.6109596751       0.2692798380
C        2.1033530892      -7.3097647330      -0.8629733786
C        1.3010474895      -6.1662762835      -0.8816519862
H        1.9888647284      -4.9685184543       2.2323281835
H        3.4165313281      -7.0034315236       2.2653853006
H        3.4898893523      -8.5023404349       0.2838403275
H        2.1354641249      -7.9664239968      -1.7311257227
H        0.7077975252      -5.9315109276      -1.7641828398
C        5.2517004204      -1.8301823162       0.0531262255
C        6.0670538965      -1.9658803925       1.1791797029
C        7.0948659939      -2.9120027702       1.1871633733
C        7.3073246151      -3.7224270715       0.0690935663
C        6.4919711390      -3.5867289952      -1.0569599111
C        5.4641590417      -2.6406066175      -1.0649435814
H        5.9014534017      -1.3341966106       2.0506572275
H        7.7305212053      -3.0177939294       2.0650424554
H        8.1085324705      -4.4599555392       0.0753170574
H        6.6575716339      -4.2184127771      -1.9284374356
H        4.8285038303      -2.5348154583      -1.9428226636
