59
Properties=species:S:1:pos:R:3 pbc="F F F"
C       -2.73858100      -0.34832500      -0.58811000
C       -1.52644800      -0.66487400       0.29884000
C       -0.35357800      -1.19847000      -0.54255700
N        0.83008400      -1.49847300       0.28214900
C        1.66618600      -0.31299800       0.52807200
C        2.74872900      -0.20118300      -0.55323100
C        3.57225200       1.09348100      -0.43707500
N        4.41247100       1.11851100       0.76007800
C       -3.93504700       0.14612900       0.23276100
N       -3.63843100       1.42866300       0.86517400
H       -2.46442700       0.42194200      -1.34211000
H       -3.04319400      -1.26841700      -1.13325900
H       -1.81442700      -1.43055600       1.05224300
H       -1.21406700       0.25466700       0.83708500
H       -0.10169600      -0.47440300      -1.34917600
H       -0.67231500      -2.13898300      -1.04117400
H        0.52761400      -1.90543200       1.19857200
H        2.16135600      -0.42293000       1.51755000
H        1.06006300       0.61921900       0.56299500
H        3.42209000      -1.08430300      -0.50020000
H        2.26690800      -0.21027600      -1.55433700
H        2.89779100       1.97757700      -0.43855300
H        4.22900000       1.17674500      -1.32949600
C        5.15509482      -0.14593684       0.86294457
H        3.80538900       1.21113800       1.60562600
H       -4.18804500      -0.60457200       1.01350900
H       -4.81751400       0.25462700      -0.43666400
C       -3.54882011       2.45071192      -0.18757758
H       -4.45835500       1.68665900       1.46062700
C        7.65299041      -1.63365670      -1.52295487
C        6.84386621      -1.69022017      -0.21815908
C        5.94820497      -2.94365123      -0.24222478
C        7.82151906      -1.74469892       0.97142238
O        6.04475704      -0.49885659      -0.16164131
O        4.97652951      -0.88377247       1.86746594
H        8.29853872      -2.53218479      -1.63173709
H        6.96983897      -1.58114379      -2.39800669
H        8.29977187      -0.72996328      -1.53639495
H        6.55861349      -3.85681245      -0.41256508
H        5.40870811      -3.07410229       0.71789613
H        5.19707516      -2.86234446      -1.05688790
H        8.41172182      -0.80491474       1.02575552
H        8.52418745      -2.59881056       0.86085271
H        7.28307517      -1.87447592       1.93222548
C       -1.07151956       2.75040199      -3.00155638
C       -2.29765586       3.26436516      -2.23161803
C       -1.99573615       4.67977860      -1.70310415
C       -3.50893719       3.28755275      -3.18353029
O       -2.52725927       2.35664879      -1.14329353
O       -4.39014047       3.38724704      -0.20836714
H       -0.83576010       3.41117810      -3.86394338
H       -0.18475232       2.71216881      -2.33271315
H       -1.25902833       1.72377656      -3.38372046
H       -1.69495005       5.35183147      -2.53578083
H       -2.88479102       5.12742288      -1.21412301
H       -1.16978995       4.64358701      -0.96081995
H       -3.76647458       2.25449576      -3.50126200
H       -3.28267495       3.89103732      -4.08911683
H       -4.39884265       3.73441434      -2.69538124
