31
 energy: -37.699951392656 gnorm: 0.000611739799 xtb: 6.5.1 (b24c23e)
Zr          -1.26122821304690       -0.21569847772860        0.76190864779841
C           -2.16847922279070        1.50238182304792       -1.36269430055635
C            0.29553417758833       -2.13559421614020        0.88958395447248
C            0.49183910232478       -1.52033188049227       -0.37035202179698
C           -0.70317452846815       -1.67070930823968       -1.12007675616845
C           -1.64503417599353       -2.35833720451328       -0.31156094206955
C           -1.03088961814549       -2.62827602576060        0.94274656041294
H            1.06562976901813       -2.31527791207910        1.63058721268126
H            1.44220301173945       -1.16964875628647       -0.76107306064438
H           -0.81447728517606       -1.46395232122608       -2.17930511588347
H           -2.59064167473567       -2.76514188197635       -0.64947522566307
H           -1.44138225966510       -3.26462126991975        1.72135069544026
C           -0.31414962525535        0.12296079444223        3.00438176323953
C           -1.55797613670037        0.80032668869537        2.93716456036717
C           -1.42206548753253        1.86484154996848        2.00336381810447
C           -0.10460355299688        1.82372048688906        1.47883754995598
C            0.57987799709102        0.75402316745954        2.10588804944292
H           -0.05242086386590       -0.64268947969269        3.72702972102514
H           -2.39720340087083        0.65589862245768        3.61031389852162
H           -2.14050591800529        2.66244246094796        1.85565838403161
H            0.35326445564606        2.58904500325074        0.85921124109278
H            1.64250136639894        0.55410605735345        2.02563245005887
H           -1.18902472185418        1.02082781609727       -1.09261019701606
H           -2.10670721852846        1.80891499111869       -2.40899975639067
H           -2.31276659437105        2.40860097777789       -0.76399227769065
C           -3.46636161872885        0.08201064838139        0.30490400229802
C           -3.35612598416232        0.54118290455814       -1.16322771190078
H           -4.26577592786809        1.06557877544772       -1.48389656103718
H           -3.23768923042267       -0.32607793683389       -1.82806473677043
H           -3.94915708393068        0.88557462498295        0.88621485307296
H           -4.12808989670266       -0.79654577197712        0.36363562156207
