      -----------------------------------------------------------      
     |                   =====================                   |     
     |                           x T B                           |     
     |                   =====================                   |     
     |                         S. Grimme                         |     
     |          Mulliken Center for Theoretical Chemistry        |     
     |                    University of Bonn                     |     
      -----------------------------------------------------------      

   * xtb version 6.5.1 (b24c23e) compiled by 'conda@728c89f4b128' on 2022-07-12

   xtb is free software: you can redistribute it and/or modify it under
   the terms of the GNU Lesser General Public License as published by
   the Free Software Foundation, either version 3 of the License, or
   (at your option) any later version.
   
   xtb is distributed in the hope that it will be useful,
   but WITHOUT ANY WARRANTY; without even the implied warranty of
   MERCHANTABILITY or FITNESS FOR A PARTICULAR PURPOSE.  See the
   GNU Lesser General Public License for more details.
   
   Cite this work as:
   * C. Bannwarth, E. Caldeweyher, S. Ehlert, A. Hansen, P. Pracht,
     J. Seibert, S. Spicher, S. Grimme, WIREs Comput. Mol. Sci., 2020, 11,
     e01493. DOI: 10.1002/wcms.1493
   
   for GFN2-xTB:
   * C. Bannwarth, S. Ehlert and S. Grimme., J. Chem. Theory Comput., 2019,
     15, 1652-1671. DOI: 10.1021/acs.jctc.8b01176
   for GFN1-xTB:
   * S. Grimme, C. Bannwarth, P. Shushkov, J. Chem. Theory Comput., 2017,
     13, 1989-2009. DOI: 10.1021/acs.jctc.7b00118
   for GFN0-xTB:
   * P. Pracht, E. Caldeweyher, S. Ehlert, S. Grimme, ChemRxiv, 2019, preprint.
     DOI: 10.26434/chemrxiv.8326202.v1
   for GFN-FF:
   * S. Spicher and S. Grimme, Angew. Chem. Int. Ed., 2020, 59, 15665-15673.
     DOI: 10.1002/anie.202004239
   
   for ALPB and GBSA implicit solvation:
   * S. Ehlert, M. Stahn, S. Spicher, S. Grimme, J. Chem. Theory Comput.,
     2021, 17, 4250-4261. DOI: 10.1021/acs.jctc.1c00471
   
   for DFT-D4:
   * E. Caldeweyher, C. Bannwarth and S. Grimme, J. Chem. Phys., 2017,
     147, 034112. DOI: 10.1063/1.4993215
   * E. Caldeweyher, S. Ehlert, A. Hansen, H. Neugebauer, S. Spicher,
     C. Bannwarth and S. Grimme, J. Chem. Phys., 2019, 150, 154122.
     DOI: 10.1063/1.5090222
   * E. Caldeweyher, J.-M. Mewes, S. Ehlert and S. Grimme, Phys. Chem. Chem. Phys.
     2020, 22, 8499-8512. DOI: 10.1039/D0CP00502A
   
   for sTDA-xTB:
   * S. Grimme and C. Bannwarth, J. Chem. Phys., 2016, 145, 054103.
     DOI: 10.1063/1.4959605
   
   in the mass-spec context:
   * V. Asgeirsson, C. Bauer and S. Grimme, Chem. Sci., 2017, 8, 4879.
     DOI: 10.1039/c7sc00601b
   * J. Koopman and S. Grimme, ACS Omega 2019, 4, 12, 15120-15133.
     DOI: 10.1021/acsomega.9b02011
   
   for metadynamics refer to:
   * S. Grimme, J. Chem. Theory Comput., 2019, 155, 2847-2862
     DOI: 10.1021/acs.jctc.9b00143
   
   for SPH calculations refer to:
   * S. Spicher and S. Grimme, J. Chem. Theory Comput., 2021, 17, 1701-1714
     DOI: 10.1021/acs.jctc.0c01306
   
   with help from (in alphabetical order)
   P. Atkinson, C. Bannwarth, F. Bohle, G. Brandenburg, E. Caldeweyher
   M. Checinski, S. Dohm, S. Ehlert, S. Ehrlich, I. Gerasimov, C. Hölzer
   A. Katbashev, J. Koopman, C. Lavigne, S. Lehtola, F. März, M. Müller,
   F. Musil, H. Neugebauer, J. Pisarek, C. Plett, P. Pracht, F. Pultar,
   J. Seibert, P. Shushkov, S. Spicher, M. Stahn, M. Steiner, T. Strunk,
   J. Stückrath, T. Rose, and J. Unsleber
   
 * started run on 2026/08/03 at 12:01:10.261     

           -------------------------------------------------
          |                Calculation Setup                |
           -------------------------------------------------

          program call               : /h/332/chchoi/miniconda3/envs/el-agente/bin/xtb ts.xyz --opt --gfn 2 -P 4 --chrg 1 --uhf 0 --input detailed_input.inp
          coordinate file            : ts.xyz
          omp threads                :                     4

   ID    Z sym.   atoms
    1   40 Zr     1
    2    6 C      2-7, 13-17, 26, 27
    3    1 H      8-12, 18-25, 28-31
constraining bond 2 27 to    1.5400000 Å, actual value:    2.0944115 Å
constraining bond 1 26 to    2.2800000 Å, actual value:    2.3945994 Å

           -------------------------------------------------
          |                 G F N 2 - x T B                 |
           -------------------------------------------------

        Reference                      10.1021/acs.jctc.8b01176
      * Hamiltonian:
        H0-scaling (s, p, d)           1.850000    2.230000    2.230000
        zeta-weighting                 0.500000
      * Dispersion:
        s8                             2.700000
        a1                             0.520000
        a2                             5.000000
        s9                             5.000000
      * Repulsion:
        kExp                           1.500000    1.000000
        rExp                           1.000000
      * Coulomb:
        alpha                          2.000000
        third order                    shell-resolved
        anisotropic                    true
        a3                             3.000000
        a5                             4.000000
        cn-shift                       1.200000
        cn-exp                         4.000000
        max-rad                        5.000000


          ...................................................
          :                      SETUP                      :
          :.................................................:
          :  # basis functions                  79          :
          :  # atomic orbitals                  78          :
          :  # shells                           46          :
          :  # electrons                        72          :
          :  max. iterations                   250          :
          :  Hamiltonian                  GFN2-xTB          :
          :  restarted?                      false          :
          :  GBSA solvation                  false          :
          :  PC potential                    false          :
          :  electronic temp.          300.0000000     K    :
          :  accuracy                    1.0000000          :
          :  -> integral cutoff          0.2500000E+02      :
          :  -> integral neglect         0.1000000E-07      :
          :  -> SCF convergence          0.1000000E-05 Eh   :
          :  -> wf. convergence          0.1000000E-03 e    :
          :  Broyden damping             0.4000000          :
          ...................................................

 iter      E             dE          RMSdq      gap      omega  full diag
   1    -38.1555586 -0.381556E+02  0.443E+00    1.01       0.0  T
   2    -38.2408980 -0.853394E-01  0.291E+00    2.33       1.0  T
   3    -38.2690977 -0.281997E-01  0.195E+00    1.45       1.0  T
   4    -38.2662301  0.286754E-02  0.571E-01    1.52       1.0  T
   5    -38.2716640 -0.543391E-02  0.331E-01    1.62       1.0  T
   6    -38.2725477 -0.883696E-03  0.167E-01    1.66       1.0  T
   7    -38.2726044 -0.566823E-04  0.115E-01    1.67       1.0  T
   8    -38.2725965  0.790545E-05  0.448E-02    1.67       1.0  T
   9    -38.2726250 -0.284499E-04  0.211E-02    1.68       1.0  T
  10    -38.2726254 -0.460058E-06  0.989E-03    1.68       1.8  T
  11    -38.2726259 -0.489991E-06  0.510E-03    1.68       3.5  T
  12    -38.2726260 -0.859918E-07  0.133E-03    1.68      13.5  T
  13    -38.2726260 -0.271173E-07  0.484E-04    1.68      37.1  T
  14    -38.2726260 -0.596053E-09  0.399E-04    1.68      45.1  T

   *** convergence criteria satisfied after 14 iterations ***

         #    Occupation            Energy/Eh            Energy/eV
      -------------------------------------------------------------
         1        2.0000           -0.8736487             -23.7732
       ...           ...                  ...                  ...
        30        2.0000           -0.5882417             -16.0069
        31        2.0000           -0.5730574             -15.5937
        32        2.0000           -0.5221726             -14.2090
        33        2.0000           -0.5219053             -14.2018
        34        2.0000           -0.5114646             -13.9177
        35        2.0000           -0.5063487             -13.7784
        36        2.0000           -0.4848839             -13.1944 (HOMO)
        37                         -0.4232383             -11.5169 (LUMO)
        38                         -0.4092989             -11.1376
        39                         -0.4036492             -10.9839
        40                         -0.4027473             -10.9593
        41                         -0.4000142             -10.8849
       ...                                ...                  ...
        78                          2.5112161              68.3337
      -------------------------------------------------------------
                  HL-Gap            0.0616455 Eh            1.6775 eV
             Fermi-level           -0.4540611 Eh          -12.3556 eV

 SCC (total)                   0 d,  0 h,  0 min,  1.909 sec
 SCC setup                      ...        0 min,  0.037 sec (  1.938%)
 Dispersion                     ...        0 min,  0.061 sec (  3.202%)
 classical contributions        ...        0 min,  0.031 sec (  1.605%)
 integral evaluation            ...        0 min,  0.096 sec (  5.042%)
 iterations                     ...        0 min,  1.436 sec ( 75.223%)
 molecular gradient             ...        0 min,  0.248 sec ( 12.978%)
 printout                       ...        0 min,  0.000 sec (  0.010%)

         :::::::::::::::::::::::::::::::::::::::::::::::::::::
         ::                     SUMMARY                     ::
         :::::::::::::::::::::::::::::::::::::::::::::::::::::
         :: total energy             -37.074753895274 Eh    ::
         :: gradient norm              1.550058849896 Eh/a0 ::
         :: HOMO-LUMO gap              1.677460186776 eV    ::
         ::.................................................::
         :: SCC energy               -38.272626021604 Eh    ::
         :: -> isotropic ES            0.087375123218 Eh    ::
         :: -> anisotropic ES         -0.012805982223 Eh    ::
         :: -> anisotropic XC          0.020206876986 Eh    ::
         :: -> dispersion             -0.027879920629 Eh    ::
         :: repulsion energy           0.624926317546 Eh    ::
         :: add. restraining           0.572272263254 Eh    ::
         :: total charge               1.000000000000 e     ::
         :::::::::::::::::::::::::::::::::::::::::::::::::::::

      ----------------------------------------------------------- 
     |                   =====================                   |
     |                        A N C O P T                        |
     |                   =====================                   |
     |               Approximate Normal Coordinate               |
     |                Rational Function Optimizer                |
      ----------------------------------------------------------- 

          ...................................................
          :                      SETUP                      :
          :.................................................:
          :   optimization level            normal          :
          :   max. optcycles                   200          :
          :   ANC micro-cycles                  20          :
          :   degrees of freedom                87          :
          :.................................................:
          :   RF solver                   davidson          :
          :   write xtbopt.log                true          :
          :   linear?                        false          :
          :   energy convergence         0.5000000E-05 Eh   :
          :   grad. convergence          0.1000000E-02 Eh/α :
          :   maximium RF displ.         1.0000000          :
          :   Hlow (freq-cutoff)         0.1000000E-01      :
          :   Hmax (freq-cutoff)         5.0000000          :
          :   S6 in model hess.         20.0000000          :
          ...................................................

generating ANC from model Hessian ...
Using Lindh-Hessian (1995)
 Shifting diagonal of input Hessian by    9.5463174891558169E-003
 Lowest  eigenvalues of input Hessian
    0.000000    0.000000    0.000000    0.000000    0.000000    0.000000
    0.010000    0.010083    0.010938    0.011146    0.012440    0.013887
    0.014638    0.015988    0.017487    0.017612    0.017755    0.018475
 Highest eigenvalues
    1.731057    1.732850    1.736887    1.737121    2.264355    2.452948


........................................................................
.............................. CYCLE    1 ..............................
........................................................................
   1    -38.2726260 -0.382726E+02  0.125E-04    1.68       0.0  T
   2    -38.2726260 -0.103881E-09  0.881E-05    1.68     203.9  T
   3    -38.2726260 -0.893365E-10  0.648E-05    1.68     277.2  T
     SCC iter.                  ...        0 min,  0.348 sec
     gradient                   ...        0 min,  0.300 sec
 * total energy  :   -37.0747539 Eh     change       -0.1181704E-08 Eh
   gradient norm :     1.5500559 Eh/α   predicted     0.0000000E+00 (-100.00%)
   displ. norm   :     0.5150090 α      lambda       -0.7816640E+00
   maximum displ.:     0.4006683 α      in ANC's #87, #86, #58, ...

........................................................................
.............................. CYCLE    2 ..............................
........................................................................
   1    -38.2439330 -0.382439E+02  0.138E+00    1.82       0.0  T
   2    -38.2516547 -0.772169E-02  0.176E+00    1.43       1.0  T
   3    -38.2562710 -0.461632E-02  0.134E+00    1.54       1.0  T
   4    -38.2552778  0.993236E-03  0.711E-01    1.47       1.0  T
   5    -38.2579440 -0.266619E-02  0.115E-01    1.66       1.0  T
   6    -38.2579800 -0.360304E-04  0.782E-02    1.65       1.0  T
   7    -38.2579917 -0.117377E-04  0.346E-02    1.66       1.0  T
   8    -38.2580024 -0.106895E-04  0.159E-02    1.65       1.1  T
   9    -38.2580034 -0.954176E-06  0.497E-03    1.65       3.6  T
  10    -38.2580035 -0.122213E-06  0.343E-03    1.65       5.2  T
  11    -38.2580035 -0.221793E-07  0.282E-03    1.65       6.4  T
  12    -38.2580035 -0.238998E-07  0.479E-04    1.65      37.5  T
  13    -38.2580035 -0.120416E-08  0.225E-04    1.65      79.7  T
     SCC iter.                  ...        0 min,  1.399 sec
     gradient                   ...        0 min,  0.249 sec
 * total energy  :   -37.5949384 Eh     change       -0.5201845E+00 Eh
   gradient norm :     0.5007068 Eh/α   predicted    -0.4944950E+00 (  -4.94%)
   displ. norm   :     0.4071424 α      lambda       -0.1362016E+00
   maximum displ.:     0.1872911 α      in ANC's #87, #23, #21, ...

........................................................................
.............................. CYCLE    3 ..............................
........................................................................
   1    -38.2714325 -0.382714E+02  0.478E-01    1.75       0.0  T
   2    -38.2725166 -0.108406E-02  0.733E-01    1.53       1.0  T
   3    -38.2730067 -0.490142E-03  0.609E-01    1.57       1.0  T
   4    -38.2730833 -0.765992E-04  0.206E-01    1.58       1.0  T
   5    -38.2733929 -0.309542E-03  0.342E-02    1.64       1.0  T
   6    -38.2733971 -0.424051E-05  0.240E-02    1.64       1.0  T
   7    -38.2734017 -0.461857E-05  0.748E-03    1.64       2.4  T
   8    -38.2734021 -0.340574E-06  0.277E-03    1.64       6.5  T
   9    -38.2734021 -0.267768E-07  0.111E-03    1.64      16.1  T
  10    -38.2734021 -0.139144E-07  0.670E-04    1.64      26.8  T
  11    -38.2734021 -0.924580E-09  0.304E-04    1.64      59.2  T
     SCC iter.                  ...        0 min,  1.255 sec
     gradient                   ...        0 min,  0.302 sec
 * total energy  :   -37.6691368 Eh     change       -0.7419839E-01 Eh
   gradient norm :     0.0665401 Eh/α   predicted    -0.7939029E-01 (   7.00%)
   displ. norm   :     0.5320897 α      lambda       -0.2193776E-01
   maximum displ.:     0.2842087 α      in ANC's #21, #23, #25, ...

........................................................................
.............................. CYCLE    4 ..............................
........................................................................
   1    -38.2982753 -0.382983E+02  0.651E-01    1.71       0.0  T
   2    -38.2984992 -0.223915E-03  0.474E-01    1.60       1.0  T
   3    -38.2985251 -0.258553E-04  0.248E-01    1.68       1.0  T
   4    -38.2986004 -0.753150E-04  0.824E-02    1.62       1.0  T
   5    -38.2986442 -0.437945E-04  0.344E-02    1.64       1.0  T
   6    -38.2986453 -0.115168E-05  0.184E-02    1.64       1.0  T
   7    -38.2986482 -0.284135E-05  0.726E-03    1.65       2.5  T
   8    -38.2986482 -0.207103E-07  0.417E-03    1.65       4.3  T
   9    -38.2986482 -0.359340E-07  0.220E-03    1.65       8.2  T
  10    -38.2986482 -0.237824E-07  0.851E-04    1.65      21.1  T
  11    -38.2986482 -0.200527E-08  0.166E-04    1.65     107.9  T
     SCC iter.                  ...        0 min,  1.505 sec
     gradient                   ...        0 min,  0.041 sec
 * total energy  :   -37.6834673 Eh     change       -0.1433049E-01 Eh
   gradient norm :     0.0366930 Eh/α   predicted    -0.1408446E-01 (  -1.72%)
   displ. norm   :     0.5613975 α      lambda       -0.1052170E-01
   maximum displ.:     0.2762348 α      in ANC's #12, #5, #14, ...

........................................................................
.............................. CYCLE    5 ..............................
........................................................................
   1    -38.3066814 -0.383067E+02  0.658E-01    1.73       0.0  T
   2    -38.3068341 -0.152700E-03  0.448E-01    1.63       1.0  T
   3    -38.3067829  0.511212E-04  0.244E-01    1.72       1.0  T
   4    -38.3069148 -0.131892E-03  0.515E-02    1.66       1.0  T
   5    -38.3069290 -0.141887E-04  0.321E-02    1.67       1.0  T
   6    -38.3069367 -0.765093E-05  0.139E-02    1.67       1.3  T
   7    -38.3069380 -0.129718E-05  0.640E-03    1.67       2.8  T
   8    -38.3069380 -0.230968E-07  0.326E-03    1.67       5.5  T
   9    -38.3069380 -0.410057E-07  0.191E-03    1.67       9.4  T
  10    -38.3069380 -0.134868E-07  0.103E-03    1.67      17.4  T
  11    -38.3069380 -0.138463E-08  0.270E-04    1.67      66.6  T
  12    -38.3069380 -0.576371E-09  0.128E-04    1.67     140.8  T
     SCC iter.                  ...        0 min,  0.704 sec
     gradient                   ...        0 min,  0.029 sec
 * total energy  :   -37.6902631 Eh     change       -0.6795754E-02 Eh
   gradient norm :     0.0287611 Eh/α   predicted    -0.6918943E-02 (   1.81%)
   displ. norm   :     0.5295482 α      lambda       -0.6507825E-02
   maximum displ.:     0.3258582 α      in ANC's #12, #9, #8, ...

........................................................................
.............................. CYCLE    6 ..............................
........................................................................
   1    -38.3174070 -0.383174E+02  0.599E-01    1.70       0.0  T
   2    -38.3174633 -0.563678E-04  0.382E-01    1.67       1.0  T
   3    -38.3173182  0.145144E-03  0.126E-01    1.72       1.0  T
   4    -38.3174681 -0.149892E-03  0.642E-02    1.66       1.0  T
   5    -38.3174930 -0.249103E-04  0.308E-02    1.68       1.0  T
   6    -38.3174948 -0.180378E-05  0.833E-03    1.68       2.2  T
   7    -38.3174950 -0.241421E-06  0.531E-03    1.68       3.4  T
   8    -38.3174951 -0.443442E-07  0.266E-03    1.68       6.8  T
   9    -38.3174951 -0.187939E-07  0.877E-04    1.68      20.5  T
  10    -38.3174951 -0.189433E-08  0.328E-04    1.68      54.7  T
     SCC iter.                  ...        0 min,  0.928 sec
     gradient                   ...        0 min,  0.186 sec
 * total energy  :   -37.6938631 Eh     change       -0.3600007E-02 Eh
   gradient norm :     0.0291546 Eh/α   predicted    -0.4166351E-02 (  15.73%)
   displ. norm   :     0.4485696 α      lambda       -0.3437666E-02
   maximum displ.:     0.2311405 α      in ANC's #12, #9, #4, ...

........................................................................
.............................. CYCLE    7 ..............................
........................................................................
   1    -38.3166018 -0.383166E+02  0.388E-01    1.70       0.0  T
   2    -38.3166254 -0.236202E-04  0.244E-01    1.69       1.0  T
   3    -38.3164480  0.177363E-03  0.109E-01    1.71       1.0  T
   4    -38.3166488 -0.200748E-03  0.317E-02    1.69       1.0  T
   5    -38.3166492 -0.397719E-06  0.186E-02    1.69       1.0  T
   6    -38.3166502 -0.986723E-06  0.417E-03    1.69       4.3  T
   7    -38.3166503 -0.110331E-06  0.199E-03    1.69       9.0  T
   8    -38.3166503 -0.103046E-07  0.118E-03    1.69      15.2  T
   9    -38.3166503 -0.503574E-08  0.598E-04    1.69      30.1  T
  10    -38.3166503 -0.213097E-08  0.293E-04    1.69      61.2  T
     SCC iter.                  ...        0 min,  0.910 sec
     gradient                   ...        0 min,  0.151 sec
 * total energy  :   -37.6958857 Eh     change       -0.2022683E-02 Eh
   gradient norm :     0.0270179 Eh/α   predicted    -0.2064699E-02 (   2.08%)
   displ. norm   :     0.4451161 α      lambda       -0.2582490E-02
   maximum displ.:     0.2083182 α      in ANC's #12, #9, #6, ...

........................................................................
.............................. CYCLE    8 ..............................
........................................................................
   1    -38.3098565 -0.383099E+02  0.283E-01    1.72       0.0  T
   2    -38.3098931 -0.365354E-04  0.173E-01    1.72       1.0  T
   3    -38.3097541  0.138984E-03  0.102E-01    1.73       1.0  T
   4    -38.3099211 -0.166964E-03  0.302E-02    1.71       1.0  T
   5    -38.3099212 -0.108681E-06  0.225E-02    1.72       1.0  T
   6    -38.3099216 -0.404062E-06  0.482E-03    1.71       3.7  T
   7    -38.3099221 -0.523638E-06  0.211E-03    1.72       8.5  T
   8    -38.3099221 -0.159108E-07  0.103E-03    1.72      17.5  T
   9    -38.3099221 -0.147925E-08  0.589E-04    1.72      30.5  T
  10    -38.3099221 -0.258280E-08  0.279E-04    1.72      64.5  T
     SCC iter.                  ...        0 min,  1.166 sec
     gradient                   ...        0 min,  0.307 sec
 * total energy  :   -37.6970489 Eh     change       -0.1163196E-02 Eh
   gradient norm :     0.0151506 Eh/α   predicted    -0.1547084E-02 (  33.00%)
   displ. norm   :     0.2513858 α      lambda       -0.1288772E-02
   maximum displ.:     0.1202154 α      in ANC's #4, #9, #13, ...

........................................................................
.............................. CYCLE    9 ..............................
........................................................................
   1    -38.3141320 -0.383141E+02  0.170E-01    1.72       0.0  T
   2    -38.3141470 -0.150224E-04  0.108E-01    1.71       1.0  T
   3    -38.3140937  0.533285E-04  0.562E-02    1.72       1.0  T
   4    -38.3141559 -0.621945E-04  0.137E-02    1.71       1.3  T
   5    -38.3141572 -0.134776E-05  0.716E-03    1.72       2.5  T
   6    -38.3141572  0.417513E-08  0.316E-03    1.71       5.7  T
   7    -38.3141573 -0.600539E-07  0.118E-03    1.71      15.3  T
   8    -38.3141573  0.227736E-09  0.545E-04    1.71      32.9  T
   9    -38.3141573 -0.222196E-08  0.247E-04    1.71      72.8  T
     SCC iter.                  ...        0 min,  1.003 sec
     gradient                   ...        0 min,  0.352 sec
 * total energy  :   -37.6978831 Eh     change       -0.8341371E-03 Eh
   gradient norm :     0.0138744 Eh/α   predicted    -0.6851157E-03 ( -17.87%)
   displ. norm   :     0.2641387 α      lambda       -0.7625706E-03
   maximum displ.:     0.1405153 α      in ANC's #4, #9, #13, ...

........................................................................
.............................. CYCLE   10 ..............................
........................................................................
   1    -38.3167041 -0.383167E+02  0.187E-01    1.70       0.0  T
   2    -38.3167179 -0.137961E-04  0.123E-01    1.71       1.0  T
   3    -38.3166645  0.534345E-04  0.577E-02    1.71       1.0  T
   4    -38.3167272 -0.627274E-04  0.180E-02    1.70       1.0  T
   5    -38.3167291 -0.188220E-05  0.101E-02    1.70       1.8  T
   6    -38.3167291 -0.160738E-07  0.325E-03    1.70       5.5  T
   7    -38.3167292 -0.630286E-07  0.160E-03    1.70      11.3  T
   8    -38.3167292 -0.503240E-08  0.758E-04    1.70      23.7  T
   9    -38.3167292 -0.342512E-08  0.375E-04    1.70      47.9  T
     SCC iter.                  ...        0 min,  1.160 sec
     gradient                   ...        0 min,  0.334 sec
 * total energy  :   -37.6983331 Eh     change       -0.4500036E-03 Eh
   gradient norm :     0.0114809 Eh/α   predicted    -0.4078896E-03 (  -9.36%)
   displ. norm   :     0.3177305 α      lambda       -0.6616120E-03
   maximum displ.:     0.1467448 α      in ANC's #8, #4, #9, ...

........................................................................
.............................. CYCLE   11 ..............................
........................................................................
   1    -38.3155673 -0.383156E+02  0.172E-01    1.71       0.0  T
   2    -38.3155790 -0.117252E-04  0.108E-01    1.71       1.0  T
   3    -38.3155399  0.390924E-04  0.518E-02    1.71       1.0  T
   4    -38.3155869 -0.470364E-04  0.175E-02    1.70       1.0  T
   5    -38.3155879 -0.929948E-06  0.113E-02    1.71       1.6  T
   6    -38.3155879 -0.633030E-07  0.275E-03    1.71       6.5  T
   7    -38.3155880 -0.644205E-07  0.168E-03    1.71      10.7  T
   8    -38.3155880 -0.153214E-07  0.739E-04    1.71      24.3  T
   9    -38.3155880 -0.865228E-10  0.366E-04    1.71      49.1  T
     SCC iter.                  ...        0 min,  1.410 sec
     gradient                   ...        0 min,  0.302 sec
 * total energy  :   -37.6986353 Eh     change       -0.3022414E-03 Eh
   gradient norm :     0.0130978 Eh/α   predicted    -0.3642052E-03 (  20.50%)
   displ. norm   :     0.1646232 α      lambda       -0.5157546E-03
   maximum displ.:     0.0781292 α      in ANC's #14, #5, #4, ...

........................................................................
.............................. CYCLE   12 ..............................
........................................................................
   1    -38.3190255 -0.383190E+02  0.724E-02    1.72       0.0  T
   2    -38.3190310 -0.549232E-05  0.452E-02    1.71       1.0  T
   3    -38.3190290  0.198695E-05  0.268E-02    1.72       1.0  T
   4    -38.3190325 -0.348949E-05  0.663E-03    1.71       2.7  T
   5    -38.3190326 -0.122450E-06  0.472E-03    1.71       3.8  T
   6    -38.3190326 -0.119663E-07  0.206E-03    1.71       8.7  T
   7    -38.3190326 -0.558808E-07  0.882E-04    1.71      20.4  T
   8    -38.3190326 -0.133233E-08  0.294E-04    1.71      61.0  T
     SCC iter.                  ...        0 min,  0.983 sec
     gradient                   ...        0 min,  0.271 sec
 * total energy  :   -37.6988713 Eh     change       -0.2359298E-03 Eh
   gradient norm :     0.0115770 Eh/α   predicted    -0.2648671E-03 (  12.27%)
   displ. norm   :     0.1808262 α      lambda       -0.5486558E-03
   maximum displ.:     0.0834008 α      in ANC's #7, #6, #8, ...

........................................................................
.............................. CYCLE   13 ..............................
........................................................................
   1    -38.3189597 -0.383190E+02  0.123E-01    1.71       0.0  T
   2    -38.3189650 -0.528786E-05  0.687E-02    1.71       1.0  T
   3    -38.3189631  0.184803E-05  0.346E-02    1.71       1.0  T
   4    -38.3189669 -0.377432E-05  0.108E-02    1.71       1.7  T
   5    -38.3189670 -0.570583E-07  0.676E-03    1.71       2.7  T
   6    -38.3189671 -0.971592E-07  0.297E-03    1.71       6.0  T
   7    -38.3189672 -0.104681E-06  0.103E-03    1.71      17.5  T
   8    -38.3189672 -0.301647E-08  0.411E-04    1.71      43.7  T
   9    -38.3189672 -0.229356E-09  0.258E-04    1.71      69.6  T
     SCC iter.                  ...        0 min,  1.130 sec
     gradient                   ...        0 min,  0.307 sec
 * total energy  :   -37.6991697 Eh     change       -0.2984218E-03 Eh
   gradient norm :     0.0093308 Eh/α   predicted    -0.2832987E-03 (  -5.07%)
   displ. norm   :     0.1555594 α      lambda       -0.2929090E-03
   maximum displ.:     0.0660860 α      in ANC's #6, #4, #8, ...

........................................................................
.............................. CYCLE   14 ..............................
........................................................................
   1    -38.3176809 -0.383177E+02  0.670E-02    1.71       0.0  T
   2    -38.3176827 -0.177443E-05  0.398E-02    1.71       1.0  T
   3    -38.3176756  0.708141E-05  0.210E-02    1.71       1.0  T
   4    -38.3176843 -0.870954E-05  0.555E-03    1.71       3.2  T
   5    -38.3176843 -0.269612E-07  0.402E-03    1.71       4.5  T
   6    -38.3176843 -0.346770E-07  0.141E-03    1.71      12.7  T
   7    -38.3176844 -0.540445E-08  0.885E-04    1.71      20.3  T
   8    -38.3176844 -0.123350E-10  0.434E-04    1.71      41.3  T
     SCC iter.                  ...        0 min,  1.008 sec
     gradient                   ...        0 min,  0.328 sec
 * total energy  :   -37.6993898 Eh     change       -0.2201145E-03 Eh
   gradient norm :     0.0069489 Eh/α   predicted    -0.1500000E-03 ( -31.85%)
   displ. norm   :     0.2600563 α      lambda       -0.3691562E-03
   maximum displ.:     0.1293006 α      in ANC's #6, #4, #14, ...

........................................................................
.............................. CYCLE   15 ..............................
........................................................................
   1    -38.3166872 -0.383167E+02  0.103E-01    1.71       0.0  T
   2    -38.3166902 -0.303127E-05  0.632E-02    1.71       1.0  T
   3    -38.3166701  0.201932E-04  0.334E-02    1.70       1.0  T
   4    -38.3166938 -0.237154E-04  0.771E-03    1.71       2.3  T
   5    -38.3166938 -0.519948E-07  0.416E-03    1.71       4.3  T
   6    -38.3166938 -0.122428E-07  0.162E-03    1.71      11.1  T
   7    -38.3166938 -0.141213E-07  0.797E-04    1.71      22.5  T
   8    -38.3166938 -0.334467E-09  0.371E-04    1.71      48.4  T
     SCC iter.                  ...        0 min,  0.814 sec
     gradient                   ...        0 min,  0.087 sec
 * total energy  :   -37.6996344 Eh     change       -0.2446118E-03 Eh
   gradient norm :     0.0068685 Eh/α   predicted    -0.1970629E-03 ( -19.44%)
   displ. norm   :     0.1826395 α      lambda       -0.2147227E-03
   maximum displ.:     0.1046740 α      in ANC's #6, #4, #2, ...

........................................................................
.............................. CYCLE   16 ..............................
........................................................................
   1    -38.3172544 -0.383173E+02  0.746E-02    1.70       0.0  T
   2    -38.3172559 -0.149050E-05  0.459E-02    1.71       1.0  T
   3    -38.3172466  0.920673E-05  0.246E-02    1.70       1.0  T
   4    -38.3172574 -0.107948E-04  0.697E-03    1.71       2.6  T
   5    -38.3172575 -0.500578E-07  0.393E-03    1.71       4.6  T
   6    -38.3172575 -0.924292E-08  0.969E-04    1.71      18.5  T
   7    -38.3172575 -0.670236E-08  0.744E-04    1.71      24.1  T
     SCC iter.                  ...        0 min,  0.721 sec
     gradient                   ...        0 min,  0.248 sec
 * total energy  :   -37.6997738 Eh     change       -0.1393999E-03 Eh
   gradient norm :     0.0042901 Eh/α   predicted    -0.1109449E-03 ( -20.41%)
   displ. norm   :     0.1402399 α      lambda       -0.1392941E-03
   maximum displ.:     0.0746982 α      in ANC's #6, #3, #8, ...

........................................................................
.............................. CYCLE   17 ..............................
........................................................................
   1    -38.3174760 -0.383175E+02  0.531E-02    1.70       0.0  T
   2    -38.3174772 -0.117848E-05  0.340E-02    1.70       1.0  T
   3    -38.3174763  0.839806E-06  0.120E-02    1.70       1.5  T
   4    -38.3174776 -0.123783E-05  0.578E-03    1.70       3.1  T
   5    -38.3174776 -0.309468E-07  0.326E-03    1.70       5.5  T
   6    -38.3174776 -0.167423E-07  0.814E-04    1.70      22.1  T
   7    -38.3174776 -0.173117E-08  0.630E-04    1.70      28.5  T
     SCC iter.                  ...        0 min,  0.860 sec
     gradient                   ...        0 min,  0.169 sec
 * total energy  :   -37.6998610 Eh     change       -0.8716201E-04 Eh
   gradient norm :     0.0033796 Eh/α   predicted    -0.7101779E-04 ( -18.52%)
   displ. norm   :     0.0953552 α      lambda       -0.8711572E-04
   maximum displ.:     0.0449611 α      in ANC's #6, #3, #12, ...

........................................................................
.............................. CYCLE   18 ..............................
........................................................................
   1    -38.3188139 -0.383188E+02  0.569E-02    1.70       0.0  T
   2    -38.3188157 -0.179859E-05  0.363E-02    1.70       1.0  T
   3    -38.3188133  0.231657E-05  0.156E-02    1.70       1.1  T
   4    -38.3188163 -0.298091E-05  0.715E-03    1.70       2.5  T
   5    -38.3188167 -0.398743E-06  0.432E-03    1.70       4.2  T
   6    -38.3188168 -0.762633E-07  0.193E-03    1.70       9.3  T
   7    -38.3188168 -0.546414E-08  0.749E-04    1.70      24.0  T
   8    -38.3188168 -0.532779E-09  0.320E-04    1.70      56.0  T
     SCC iter.                  ...        0 min,  1.046 sec
     gradient                   ...        0 min,  0.286 sec
 * total energy  :   -37.6999097 Eh     change       -0.4871507E-04 Eh
   gradient norm :     0.0037952 Eh/α   predicted    -0.4395777E-04 (  -9.77%)
   displ. norm   :     0.0756763 α      lambda       -0.3673416E-04
   maximum displ.:     0.0361897 α      in ANC's #3, #4, #6, ...

........................................................................
.............................. CYCLE   19 ..............................
........................................................................
   1    -38.3184657 -0.383185E+02  0.302E-02    1.70       0.0  T
   2    -38.3184662 -0.571496E-06  0.162E-02    1.70       1.1  T
   3    -38.3184649  0.130073E-05  0.103E-02    1.70       1.8  T
   4    -38.3184667 -0.171406E-05  0.300E-03    1.70       6.0  T
   5    -38.3184667 -0.207584E-07  0.141E-03    1.70      12.7  T
   6    -38.3184667 -0.249173E-09  0.729E-04    1.70      24.7  T
   7    -38.3184667 -0.164624E-08  0.251E-04    1.70      71.4  T
     SCC iter.                  ...        0 min,  0.754 sec
     gradient                   ...        0 min,  0.261 sec
 * total energy  :   -37.6999288 Eh     change       -0.1911946E-04 Eh
   gradient norm :     0.0025874 Eh/α   predicted    -0.1847411E-04 (  -3.38%)
   displ. norm   :     0.0575108 α      lambda       -0.2609725E-04
   maximum displ.:     0.0235017 α      in ANC's #12, #4, #3, ...

........................................................................
.............................. CYCLE   20 ..............................
........................................................................
   1    -38.3187576 -0.383188E+02  0.403E-02    1.70       0.0  T
   2    -38.3187582 -0.575531E-06  0.273E-02    1.70       1.0  T
   3    -38.3187572  0.987370E-06  0.795E-03    1.70       2.3  T
   4    -38.3187584 -0.118902E-05  0.409E-03    1.70       4.4  T
   5    -38.3187585 -0.794826E-07  0.234E-03    1.70       7.7  T
   6    -38.3187585 -0.204441E-07  0.857E-04    1.70      21.0  T
   7    -38.3187585 -0.447999E-08  0.422E-04    1.70      42.6  T
     SCC iter.                  ...        0 min,  0.818 sec
     gradient                   ...        0 min,  0.267 sec
 * total energy  :   -37.6999395 Eh     change       -0.1072503E-04 Eh
   gradient norm :     0.0020515 Eh/α   predicted    -0.1309627E-04 (  22.11%)
   displ. norm   :     0.0190905 α      lambda       -0.1086554E-04
   maximum displ.:     0.0078808 α      in ANC's #9, #2, #12, ...
 * RMSD in coord.:     0.5859502 α      energy gain  -0.6251856E+00 Eh

generating ANC from model Hessian ...
Using Lindh-Hessian (1995)
 Shifting diagonal of input Hessian by    1.0042371331123179E-002
 Lowest  eigenvalues of input Hessian
    0.010000    0.000000    0.000000    0.000000    0.000000    0.000000
    0.000000    0.010472    0.010574    0.010682    0.011287    0.011326
    0.011890    0.012787    0.018006    0.018355    0.018781    0.020405
 Highest eigenvalues
    1.724411    1.725187    1.731746    1.733194    2.343869    3.091843


........................................................................
.............................. CYCLE   21 ..............................
........................................................................
   1    -38.3183634 -0.383184E+02  0.157E-02    1.70       0.0  T
   2    -38.3183635 -0.584511E-07  0.107E-02    1.70       1.7  T
   3    -38.3183634  0.726714E-07  0.298E-03    1.70       6.0  T
   4    -38.3183635 -0.103210E-06  0.174E-03    1.70      10.3  T
   5    -38.3183635 -0.647741E-08  0.759E-04    1.70      23.7  T
   6    -38.3183635 -0.145316E-08  0.314E-04    1.70      57.2  T
     SCC iter.                  ...        0 min,  0.779 sec
     gradient                   ...        0 min,  0.162 sec
 * total energy  :   -37.6999465 Eh     change       -0.6959779E-05 Eh
   gradient norm :     0.0012101 Eh/α   predicted     0.0000000E+00 (-100.00%)
   displ. norm   :     0.0262729 α      lambda       -0.1470208E-05
   maximum displ.:     0.0134240 α      in ANC's #1, #4, #2, ...

........................................................................
.............................. CYCLE   22 ..............................
........................................................................
   1    -38.3181977 -0.383182E+02  0.232E-02    1.70       0.0  T
   2    -38.3181978 -0.952390E-07  0.158E-02    1.70       1.1  T
   3    -38.3181976  0.209546E-06  0.362E-03    1.70       5.0  T
   4    -38.3181979 -0.276326E-06  0.193E-03    1.70       9.3  T
   5    -38.3181979 -0.971132E-08  0.114E-03    1.70      15.8  T
   6    -38.3181979 -0.201136E-08  0.332E-04    1.70      54.0  T
   7    -38.3181979 -0.948006E-09  0.169E-04    1.70     106.4  T
     SCC iter.                  ...        0 min,  0.792 sec
     gradient                   ...        0 min,  0.007 sec
 * total energy  :   -37.6999514 Eh     change       -0.4909040E-05 Eh
   gradient norm :     0.0006119 Eh/α   predicted    -0.2683741E-05 ( -45.33%)
   displ. norm   :     0.0375007 α      lambda       -0.3785752E-05
   maximum displ.:     0.0213446 α      in ANC's #4, #1, #5, ...

   *** GEOMETRY OPTIMIZATION CONVERGED AFTER 22 ITERATIONS ***

------------------------------------------------------------------------
 total energy gain   :        -0.6251975 Eh     -392.3174 kcal/mol
 total RMSD          :         0.5853334 a0        0.3097 Å
 total power (kW/mol):       -74.6116275 (step)  -53.5701 (real)
------------------------------------------------------------------------

 ANCopt (total)                0 d,  0 h,  0 min, 30.641 sec
 optimizer setup                ...        0 min,  0.001 sec (  0.002%)
 model hessian                  ...        0 min,  0.157 sec (  0.513%)
 ANC generation                 ...        0 min,  0.050 sec (  0.162%)
 coordinate transformation      ...        0 min,  0.000 sec (  0.001%)
 single point calculation       ...        0 min, 29.935 sec ( 97.694%)
 optimization log               ...        0 min,  0.002 sec (  0.007%)
 hessian update                 ...        0 min,  0.386 sec (  1.259%)
 rational function              ...        0 min,  0.109 sec (  0.356%)

================
 final structure:
================
31
 xtb: 6.5.1 (b24c23e)
Zr          -1.26122821304690       -0.21569847772860        0.76190864779841
C           -2.16847922279070        1.50238182304792       -1.36269430055635
C            0.29553417758833       -2.13559421614020        0.88958395447248
C            0.49183910232478       -1.52033188049227       -0.37035202179698
C           -0.70317452846815       -1.67070930823968       -1.12007675616845
C           -1.64503417599353       -2.35833720451328       -0.31156094206955
C           -1.03088961814549       -2.62827602576060        0.94274656041294
H            1.06562976901813       -2.31527791207910        1.63058721268126
H            1.44220301173945       -1.16964875628647       -0.76107306064438
H           -0.81447728517606       -1.46395232122608       -2.17930511588347
H           -2.59064167473567       -2.76514188197635       -0.64947522566307
H           -1.44138225966510       -3.26462126991975        1.72135069544026
C           -0.31414962525535        0.12296079444223        3.00438176323953
C           -1.55797613670037        0.80032668869537        2.93716456036717
C           -1.42206548753253        1.86484154996848        2.00336381810447
C           -0.10460355299688        1.82372048688906        1.47883754995598
C            0.57987799709102        0.75402316745954        2.10588804944292
H           -0.05242086386590       -0.64268947969269        3.72702972102514
H           -2.39720340087083        0.65589862245768        3.61031389852162
H           -2.14050591800529        2.66244246094796        1.85565838403161
H            0.35326445564606        2.58904500325074        0.85921124109278
H            1.64250136639894        0.55410605735345        2.02563245005887
H           -1.18902472185418        1.02082781609727       -1.09261019701606
H           -2.10670721852846        1.80891499111869       -2.40899975639067
H           -2.31276659437105        2.40860097777789       -0.76399227769065
C           -3.46636161872885        0.08201064838139        0.30490400229802
C           -3.35612598416232        0.54118290455814       -1.16322771190078
H           -4.26577592786809        1.06557877544772       -1.48389656103718
H           -3.23768923042267       -0.32607793683389       -1.82806473677043
H           -3.94915708393068        0.88557462498295        0.88621485307296
H           -4.12808989670266       -0.79654577197712        0.36363562156207

 Bond Distances (Angstroems)
 ---------------------------
Zr1-C2=2.8790        Zr1-C3=2.4750        Zr1-C4=2.4612        Zr1-C5=2.4434        Zr1-C6=2.4270        Zr1-C7=2.4303        
Zr1-C13=2.4577       Zr1-C14=2.4191       Zr1-C15=2.4281       Zr1-C16=2.4517       Zr1-C17=2.4772       Zr1-H23=2.2301       
Zr1-C26=2.2716       Zr1-C27=2.9441       C2-Zr1=2.8790        C2-H23=1.1244        C2-H24=1.0920        C2-H25=1.0957        
C2-C27=1.5408        C3-Zr1=2.4750        C3-C4=1.4158         C3-C7=1.4160         C3-H8=1.0837         C4-Zr1=2.4612        
C4-C3=1.4158         C4-C5=1.4187         C4-H9=1.0857         C5-Zr1=2.4434        C5-C4=1.4187         C5-C6=1.4190         
C5-H10=1.0849        C6-Zr1=2.4270        C6-C5=1.4190         C6-C7=1.4224         C6-H11=1.0834        C7-Zr1=2.4303        
C7-C3=1.4160         C7-C6=1.4224         C7-H12=1.0861        H8-C3=1.0837         H9-C4=1.0857         H10-C5=1.0849        
H11-C6=1.0834        H12-C7=1.0861        C13-Zr1=2.4577       C13-C14=1.4179       C13-C17=1.4159       C13-H18=1.0849       
C14-Zr1=2.4191       C14-C13=1.4179       C14-C15=1.4225       C14-H19=1.0855       C15-Zr1=2.4281       C15-C14=1.4225       
C15-C16=1.4186       C15-H20=1.0836       C16-Zr1=2.4517       C16-C15=1.4186       C16-C17=1.4163       C16-H21=1.0860       
C17-Zr1=2.4772       C17-C13=1.4159       C17-C16=1.4163       C17-H22=1.0842       H18-C13=1.0849       H19-C14=1.0855       
H20-C15=1.0836       H21-C16=1.0860       H22-C17=1.0842       H23-Zr1=2.2301       H23-C2=1.1244        H24-C2=1.0920        
H25-C2=1.0957        C26-Zr1=2.2716       C26-C27=1.5422       C26-H30=1.1031       C26-H31=1.1015       C27-Zr1=2.9441       
C27-C2=1.5408        C27-C26=1.5422       C27-H28=1.0979       C27-H29=1.0992       H28-C27=1.0979       H29-C27=1.0992       
H30-C26=1.1031       H31-C26=1.1015       
 C  H  Rav=1.0919 sigma=0.0105  Rmin=1.0834  Rmax=1.1244    17
 C  C  Rav=1.4389 sigma=0.0460  Rmin=1.4158  Rmax=1.5422    12
 Zr H  Rav=2.2301 sigma=0.0000  Rmin=2.2301  Rmax=2.2301     1
 Zr C  Rav=2.5050 sigma=0.1807  Rmin=2.2716  Rmax=2.9441    13

 selected bond angles (degree)
 --------------------
C3-Zr1-C2=134.36               C4-Zr1-C2=101.61               C4-Zr1-C3= 33.33               C5-Zr1-C2= 81.89               
C5-Zr1-C3= 55.54               C5-Zr1-C4= 33.63               C6-Zr1-C2= 98.66               C6-Zr1-C3= 55.77               
C6-Zr1-C4= 56.03               C6-Zr1-C5= 33.88               C7-Zr1-C2=132.62               C7-Zr1-C3= 33.54               
C7-Zr1-C4= 55.98               C7-Zr1-C5= 56.26               C7-Zr1-C6= 34.06               C13-Zr1-C2=135.44              
C13-Zr1-C3= 79.48              C13-Zr1-C4=102.61              C13-Zr1-C5=134.17              C13-Zr1-C6=125.88              
C13-Zr1-C7= 91.86              C14-Zr1-C2=111.98              C14-Zr1-C3=110.89              C14-Zr1-C4=136.36              
C14-Zr1-C5=166.10              C14-Zr1-C6=138.51              C14-Zr1-C7=111.20              C14-Zr1-C13= 33.79             
C15-Zr1-C2= 81.09              C15-Zr1-C3=132.84              C15-Zr1-C4=137.44              C15-Zr1-C5=156.81              
C15-Zr1-C6=166.44              C15-Zr1-C7=144.97              C15-Zr1-C13= 56.01             C15-Zr1-C14= 34.13             
C16-Zr1-C2= 82.42              C16-Zr1-C3=109.48              C16-Zr1-C4=103.85              C16-Zr1-C5=127.79              
C16-Zr1-C6=159.77              C16-Zr1-C7=139.40              C16-Zr1-C13= 55.72             C16-Zr1-C14= 56.33             
C16-Zr1-C15= 33.80             C17-Zr1-C2=113.64              C17-Zr1-C3= 78.94              C17-Zr1-C4= 85.85              
C17-Zr1-C5=118.77              C17-Zr1-C6=134.68              C17-Zr1-C7=106.13              C17-Zr1-C13= 33.34             
C17-Zr1-C14= 55.87             C17-Zr1-C15= 55.70             C17-Zr1-C16= 33.39             H23-Zr1-C2= 20.88              
H23-Zr1-C3=116.91              H23-Zr1-C4= 83.59              H23-Zr1-C5= 71.47              H23-Zr1-C6= 97.29              
H23-Zr1-C7=127.53              H23-Zr1-C13=132.06             H23-Zr1-C14=121.25             H23-Zr1-C15= 87.26             
H23-Zr1-C16= 76.51             H23-Zr1-C17=102.13             C26-Zr1-C2= 57.82              C26-Zr1-C3=136.27              
C26-Zr1-C4=131.94              C26-Zr1-C5= 98.33              C26-Zr1-C6= 82.72              C26-Zr1-C7=103.71              
C26-Zr1-C13=122.66             C26-Zr1-C14= 90.39             C26-Zr1-C15= 85.77             C26-Zr1-C16=114.06             
C26-Zr1-C17=141.20             C26-Zr1-H23= 77.96             C27-Zr1-C2= 30.66              C27-Zr1-C3=132.90              
C27-Zr1-C4=110.02              C27-Zr1-C5= 79.16              C27-Zr1-C6= 79.93              C27-Zr1-C7=111.80              
C27-Zr1-C13=146.66             C27-Zr1-C14=113.12             C27-Zr1-C15= 93.84             C27-Zr1-C16=108.24             
C27-Zr1-C17=141.54             C27-Zr1-H23= 48.45             C27-Zr1-C26= 31.13             H23-C2-Zr1= 44.98              
H24-C2-Zr1=148.95              H24-C2-H23=107.52              H25-C2-Zr1= 97.58              H25-C2-H23=109.74              
H25-C2-H24=107.39              C27-C2-Zr1= 77.00              C27-C2-H23=111.91              C27-C2-H24=110.04              
C27-C2-H25=110.10              C4-C3-Zr1= 72.80               C7-C3-Zr1= 71.50               C7-C3-C4=108.33                
H8-C3-Zr1=127.65               H8-C3-C4=125.59                H8-C3-C7=125.61                C3-C4-Zr1= 73.87               
C5-C4-Zr1= 72.50               C5-C4-C3=107.90                H9-C4-Zr1=128.16               H9-C4-C3=125.59                
H9-C4-C5=125.55                C4-C5-Zr1= 73.87               C6-C5-Zr1= 72.43               C6-C5-C4=108.02                
H10-C5-Zr1=127.96              H10-C5-C4=125.60               H10-C5-C6=125.49               C5-C6-Zr1= 73.70               
C7-C6-Zr1= 73.10               C7-C6-C5=107.93                H11-C6-Zr1=127.40              H11-C6-C5=125.70               
H11-C6-C7=125.49               C3-C7-Zr1= 74.96               C6-C7-Zr1= 72.85               C6-C7-C3=107.78                
H12-C7-Zr1=126.81              H12-C7-C3=125.79               H12-C7-C6=125.46               

 selected dihedral angles (degree)
 ---------------------------------
H23-C2-Zr1-C3=321.95          H23-C2-Zr1-C4=329.18          H23-C2-Zr1-C5=301.80          H23-C2-Zr1-C6=272.26          
H23-C2-Zr1-C7=275.14          H23-C2-Zr1-C13= 90.94         H23-C2-Zr1-C14=120.79         H23-C2-Zr1-C15=105.98         
H23-C2-Zr1-C16= 71.85         H23-C2-Zr1-C17= 59.72         H23-C2-Zr1-C26=196.58         H23-C2-Zr1-C27=219.39         
H24-C2-Zr1-C3=355.19          H24-C2-Zr1-C4=  2.42          H24-C2-Zr1-C5=335.03          H24-C2-Zr1-C6=305.50          
H24-C2-Zr1-C7=308.37          H24-C2-Zr1-C13=124.18         H24-C2-Zr1-C14=154.02         H24-C2-Zr1-C15=139.22         
H24-C2-Zr1-C16=105.08         H24-C2-Zr1-C17= 92.96         H24-C2-Zr1-H23= 33.23         H24-C2-Zr1-C26=229.82         
H24-C2-Zr1-C27=252.63         H25-C2-Zr1-C3=211.53          H25-C2-Zr1-C4=218.77          H25-C2-Zr1-C5=191.38          
H25-C2-Zr1-C6=161.84          H25-C2-Zr1-C7=164.72          H25-C2-Zr1-C13=340.53         H25-C2-Zr1-C14= 10.37         
H25-C2-Zr1-C15=355.57         H25-C2-Zr1-C16=321.43         H25-C2-Zr1-C17=309.30         H25-C2-Zr1-H23=249.58         
H25-C2-Zr1-C26= 86.17         H25-C2-Zr1-C27=108.98         C27-C2-Zr1-C3=102.56          C27-C2-Zr1-C4=109.79          
C27-C2-Zr1-C5= 82.41          C27-C2-Zr1-C6= 52.87          C27-C2-Zr1-C7= 55.75          C27-C2-Zr1-C13=231.55         
C27-C2-Zr1-C14=261.39         C27-C2-Zr1-C15=246.59         C27-C2-Zr1-C16=212.46         C27-C2-Zr1-C17=200.33         
C27-C2-Zr1-H23=140.61         C27-C2-Zr1-C26=337.19         C4-C3-Zr1-C2= 12.97           C4-C3-Zr1-C5= 37.40           
C4-C3-Zr1-C6= 78.72           C4-C3-Zr1-C7=116.80           C4-C3-Zr1-C13=226.65          C4-C3-Zr1-C14=213.97          
C4-C3-Zr1-C15=245.28          C4-C3-Zr1-C16=274.33          C4-C3-Zr1-C17=260.61          C4-C3-Zr1-H23=358.71          
C4-C3-Zr1-C26= 99.80          C4-C3-Zr1-C27= 55.77          C7-C3-Zr1-C2=256.17           C7-C3-Zr1-C4=243.20           
C7-C3-Zr1-C5=280.61           C7-C3-Zr1-C6=321.93           C7-C3-Zr1-C13=109.86          C7-C3-Zr1-C14= 97.17          
C7-C3-Zr1-C15=128.48          C7-C3-Zr1-C16=157.54          C7-C3-Zr1-C17=143.82          C7-C3-Zr1-H23=241.91          
C7-C3-Zr1-C26=343.00          C7-C3-Zr1-C27=298.98          H8-C3-Zr1-C2=135.02           H8-C3-Zr1-C4=122.05           
H8-C3-Zr1-C5=159.45           H8-C3-Zr1-C6=200.77           H8-C3-Zr1-C7=238.84           H8-C3-Zr1-C13=348.70          
H8-C3-Zr1-C14=336.02          H8-C3-Zr1-C15=  7.33          H8-C3-Zr1-C16= 36.38          H8-C3-Zr1-C17= 22.66          
H8-C3-Zr1-H23=120.76          H8-C3-Zr1-C26=221.85          H8-C3-Zr1-C27=177.82          C3-C4-Zr1-C2=189.43           
C3-C4-Zr1-C5=244.74           C3-C4-Zr1-C6=282.12           C3-C4-Zr1-C7=323.48           C3-C4-Zr1-C13= 47.11          
C3-C4-Zr1-C14= 49.15          C3-C4-Zr1-C15=100.00          C3-C4-Zr1-C16=104.48          C3-C4-Zr1-C17= 76.13          
C3-C4-Zr1-H23=178.84          C3-C4-Zr1-C26=246.31          C3-C4-Zr1-C27=220.14          C5-C4-Zr1-C2=304.69           
C5-C4-Zr1-C3=115.26           C5-C4-Zr1-C6= 37.37           C5-C4-Zr1-C7= 78.74           C5-C4-Zr1-C13=162.37          
C5-C4-Zr1-C14=164.41          C5-C4-Zr1-C15=215.26          C5-C4-Zr1-C16=219.74          C5-C4-Zr1-C17=191.39          
C5-C4-Zr1-H23=294.10          C5-C4-Zr1-C26=  1.57          C5-C4-Zr1-C27=335.40          H9-C4-Zr1-C2= 66.52           
H9-C4-Zr1-C3=237.10           H9-C4-Zr1-C5=121.84           H9-C4-Zr1-C6=159.21           H9-C4-Zr1-C7=200.58           
H9-C4-Zr1-C13=284.21          H9-C4-Zr1-C14=286.24          H9-C4-Zr1-C15=337.10          H9-C4-Zr1-C16=341.57          
H9-C4-Zr1-C17=313.22          H9-C4-Zr1-H23= 55.94          H9-C4-Zr1-C26=123.41          H9-C4-Zr1-C27= 97.23          
Zr1-C4-C3-C7= 63.09           Zr1-C4-C3-H8=235.61           C5-C4-C3-Zr1=294.98           C5-C4-C3-C7=358.07            
C5-C4-C3-H8=170.60            H9-C4-C3-Zr1=125.73           H9-C4-C3-C7=188.82            H9-C4-C3-H8=  1.34            
C4-C5-Zr1-C2=125.55           C4-C5-Zr1-C3=322.93           C4-C5-Zr1-C6=244.57           C4-C5-Zr1-C7=282.16           
C4-C5-Zr1-C13=335.67          C4-C5-Zr1-C14=309.47          C4-C5-Zr1-C15= 82.42          C4-C5-Zr1-C16= 51.76          
C4-C5-Zr1-C17= 12.98          C4-C5-Zr1-H23=106.92          C4-C5-Zr1-C26=181.18          C4-C5-Zr1-C27=156.53          
C6-C5-Zr1-C2=240.98           C6-C5-Zr1-C3= 78.36           C6-C5-Zr1-C4=115.43           C6-C5-Zr1-C7= 37.58           
C6-C5-Zr1-C13= 91.09          C6-C5-Zr1-C14= 64.90          C6-C5-Zr1-C15=197.85          C6-C5-Zr1-C16=167.19          
C6-C5-Zr1-C17=128.41          C6-C5-Zr1-H23=222.35          C6-C5-Zr1-C26=296.61          C6-C5-Zr1-C27=271.95          
H10-C5-Zr1-C2=  2.66          H10-C5-Zr1-C3=200.04          H10-C5-Zr1-C4=237.11          H10-C5-Zr1-C6=121.69          
H10-C5-Zr1-C7=159.27          H10-C5-Zr1-C13=212.78         H10-C5-Zr1-C14=186.58         H10-C5-Zr1-C15=319.53         
H10-C5-Zr1-C16=288.87         H10-C5-Zr1-C17=250.09         H10-C5-Zr1-H23=344.04         H10-C5-Zr1-C26= 58.29         
H10-C5-Zr1-C27= 33.64         Zr1-C5-C4-C3= 65.92           Zr1-C5-C4-H9=235.19           C6-C5-C4-Zr1=295.12           
C6-C5-C4-C3=  1.04            C6-C5-C4-H9=170.31            H10-C5-C4-Zr1=125.48          H10-C5-C4-C3=191.40           
H10-C5-C4-H9=  0.67           C5-C6-Zr1-C2= 61.12           C5-C6-Zr1-C3=282.38           C5-C6-Zr1-C4=322.91           
C5-C6-Zr1-C7=244.91           C5-C6-Zr1-C13=242.27          C5-C6-Zr1-C14=199.18          C5-C6-Zr1-C15=149.02          
C5-C6-Zr1-C16=329.56          C5-C6-Zr1-C17=284.99          C5-C6-Zr1-H23= 40.09          C5-C6-Zr1-C26=116.89          
C5-C6-Zr1-C27= 85.51          C7-C6-Zr1-C2=176.22           C7-C6-Zr1-C3= 37.47           C7-C6-Zr1-C4= 78.00           
C7-C6-Zr1-C5=115.09           C7-C6-Zr1-C13=357.36          C7-C6-Zr1-C14=314.27          C7-C6-Zr1-C15=264.12          
C7-C6-Zr1-C16= 84.65          C7-C6-Zr1-C17= 40.08          C7-C6-Zr1-H23=155.18          C7-C6-Zr1-C26=231.98          
C7-C6-Zr1-C27=200.61          H11-C6-Zr1-C2=298.33          H11-C6-Zr1-C3=159.58          H11-C6-Zr1-C4=200.11          
H11-C6-Zr1-C5=237.20          H11-C6-Zr1-C7=122.11          H11-C6-Zr1-C13=119.47         H11-C6-Zr1-C14= 76.38         
H11-C6-Zr1-C15= 26.22         H11-C6-Zr1-C16=206.76         H11-C6-Zr1-C17=162.19         H11-C6-Zr1-H23=277.29         
H11-C6-Zr1-C26=354.09         H11-C6-Zr1-C27=322.71         Zr1-C6-C5-C4= 65.83           Zr1-C6-C5-H10=235.49          
C7-C6-C5-Zr1=294.40           C7-C6-C5-C4=  0.23            C7-C6-C5-H10=169.88           H11-C6-C5-Zr1=124.69          
H11-C6-C5-C4=190.52           H11-C6-C5-H10=  0.18          C3-C7-Zr1-C2=109.36           C3-C7-Zr1-C4= 36.29           
C3-C7-Zr1-C5= 77.06           C3-C7-Zr1-C6=114.44           C3-C7-Zr1-C13=292.30          C3-C7-Zr1-C14=263.86          
C3-C7-Zr1-C15=270.46          C3-C7-Zr1-C16=326.39          C3-C7-Zr1-C17=322.90          C3-C7-Zr1-H23= 82.77          
C3-C7-Zr1-C26=167.99          C3-C7-Zr1-C27=136.35          C6-C7-Zr1-C2=354.91           C6-C7-Zr1-C3=245.56           
C6-C7-Zr1-C4=281.84           C6-C7-Zr1-C5=322.62           C6-C7-Zr1-C13=177.86          C6-C7-Zr1-C14=149.42          
C6-C7-Zr1-C15=156.02          C6-C7-Zr1-C16=211.95          C6-C7-Zr1-C17=208.46          C6-C7-Zr1-H23=328.33          
C6-C7-Zr1-C26= 53.55          C6-C7-Zr1-C27= 21.91          H12-C7-Zr1-C2=233.09          H12-C7-Zr1-C3=123.73          
H12-C7-Zr1-C4=160.02          H12-C7-Zr1-C5=200.80          H12-C7-Zr1-C6=238.17          H12-C7-Zr1-C13= 56.03         
H12-C7-Zr1-C14= 27.59         H12-C7-Zr1-C15= 34.19         H12-C7-Zr1-C16= 90.12         H12-C7-Zr1-C17= 86.64         
H12-C7-Zr1-H23=206.50         H12-C7-Zr1-C26=291.73         H12-C7-Zr1-C27=260.09         Zr1-C7-C3-C4=296.07           
Zr1-C7-C3-H8=123.55           C6-C7-C3-Zr1= 65.99           C6-C7-C3-C4=  2.06            C6-C7-C3-H8=189.54            
H12-C7-C3-Zr1=235.17          H12-C7-C3-C4=171.24           H12-C7-C3-H8=358.72           Zr1-C7-C6-C5= 66.00           
Zr1-C7-C6-H11=235.73          C3-C7-C6-Zr1=292.59           C3-C7-C6-C5=358.59            C3-C7-C6-H11=168.32           
H12-C7-C6-Zr1=123.37          H12-C7-C6-C5=189.37           H12-C7-C6-H11=359.10          
           -------------------------------------------------
          |                Final Singlepoint                |
           -------------------------------------------------

          ...................................................
          :                      SETUP                      :
          :.................................................:
          :  # basis functions                  79          :
          :  # atomic orbitals                  78          :
          :  # shells                           46          :
          :  # electrons                        72          :
          :  max. iterations                   250          :
          :  Hamiltonian                  GFN2-xTB          :
          :  restarted?                      false          :
          :  GBSA solvation                  false          :
          :  PC potential                    false          :
          :  electronic temp.          300.0000000     K    :
          :  accuracy                    1.0000000          :
          :  -> integral cutoff          0.2500000E+02      :
          :  -> integral neglect         0.1000000E-07      :
          :  -> SCF convergence          0.1000000E-05 Eh   :
          :  -> wf. convergence          0.1000000E-03 e    :
          :  Broyden damping             0.4000000          :
          ...................................................

 iter      E             dE          RMSdq      gap      omega  full diag
   1    -38.3181979 -0.383182E+02  0.820E-05    1.70       0.0  T
   2    -38.3181979 -0.129035E-10  0.527E-05    1.70     340.9  T
   3    -38.3181979  0.405009E-12  0.443E-05    1.70     405.3  T

   *** convergence criteria satisfied after 3 iterations ***

         #    Occupation            Energy/Eh            Energy/eV
      -------------------------------------------------------------
         1        2.0000           -0.8717972             -23.7228
       ...           ...                  ...                  ...
        30        2.0000           -0.5752216             -15.6526
        31        2.0000           -0.5579625             -15.1829
        32        2.0000           -0.5267453             -14.3335
        33        2.0000           -0.5248923             -14.2830
        34        2.0000           -0.5148301             -14.0092
        35        2.0000           -0.5093489             -13.8601
        36        2.0000           -0.4892864             -13.3142 (HOMO)
        37                         -0.4267963             -11.6137 (LUMO)
        38                         -0.4199686             -11.4279
        39                         -0.4117957             -11.2055
        40                         -0.4039906             -10.9931
        41                         -0.3832018             -10.4275
       ...                                ...                  ...
        78                          2.5600965              69.6638
      -------------------------------------------------------------
                  HL-Gap            0.0624901 Eh            1.7004 eV
             Fermi-level           -0.4580414 Eh          -12.4639 eV

 SCC (total)                   0 d,  0 h,  0 min,  0.868 sec
 SCC setup                      ...        0 min,  0.030 sec (  3.398%)
 Dispersion                     ...        0 min,  0.057 sec (  6.532%)
 classical contributions        ...        0 min,  0.038 sec (  4.325%)
 integral evaluation            ...        0 min,  0.112 sec ( 12.941%)
 iterations                     ...        0 min,  0.462 sec ( 53.216%)
 molecular gradient             ...        0 min,  0.170 sec ( 19.557%)
 printout                       ...        0 min,  0.000 sec (  0.026%)

         :::::::::::::::::::::::::::::::::::::::::::::::::::::
         ::                     SUMMARY                     ::
         :::::::::::::::::::::::::::::::::::::::::::::::::::::
         :: total energy             -37.699951392656 Eh    ::
         :: gradient norm              0.000611739799 Eh/a0 ::
         :: HOMO-LUMO gap              1.700442769200 eV    ::
         ::.................................................::
         :: SCC energy               -38.318197899105 Eh    ::
         :: -> isotropic ES            0.087930815210 Eh    ::
         :: -> anisotropic ES         -0.012217884651 Eh    ::
         :: -> anisotropic XC          0.016939915631 Eh    ::
         :: -> dispersion             -0.027282963058 Eh    ::
         :: repulsion energy           0.617476612578 Eh    ::
         :: add. restraining           0.000127705804 Eh    ::
         :: total charge               1.000000000000 e     ::
         :::::::::::::::::::::::::::::::::::::::::::::::::::::

           -------------------------------------------------
          |                Property Printout                |
           -------------------------------------------------

    * Orbital Energies and Occupations

         #    Occupation            Energy/Eh            Energy/eV
      -------------------------------------------------------------
         1        2.0000           -0.8717972             -23.7228
       ...           ...                  ...                  ...
        24        2.0000           -0.5968166             -16.2402
        25        2.0000           -0.5963485             -16.2275
        26        2.0000           -0.5937154             -16.1558
        27        2.0000           -0.5931435             -16.1403
        28        2.0000           -0.5920386             -16.1102
        29        2.0000           -0.5918051             -16.1038
        30        2.0000           -0.5752216             -15.6526
        31        2.0000           -0.5579625             -15.1829
        32        2.0000           -0.5267453             -14.3335
        33        2.0000           -0.5248923             -14.2830
        34        2.0000           -0.5148301             -14.0092
        35        2.0000           -0.5093489             -13.8601
        36        2.0000           -0.4892864             -13.3142 (HOMO)
        37                         -0.4267963             -11.6137 (LUMO)
        38                         -0.4199686             -11.4279
        39                         -0.4117957             -11.2055
        40                         -0.4039906             -10.9931
        41                         -0.3832018             -10.4275
        42                         -0.3109082              -8.4602
        43                         -0.3103066              -8.4439
        44                         -0.3086100              -8.3977
        45                         -0.3070368              -8.3549
        46                         -0.0973323              -2.6485
        47                         -0.0495416              -1.3481
       ...                                ...                  ...
        78                          2.5600965              69.6638
      -------------------------------------------------------------
                  HL-Gap            0.0624901 Eh            1.7004 eV
             Fermi-level           -0.4580414 Eh          -12.4639 eV

     #   Z          covCN         q      C6AA      α(0)
     1  40 Zr       9.569     0.948   138.896    17.709
     2   6 C        4.117    -0.128    22.853     6.790
     3   6 C        3.751    -0.080    22.083     6.702
     4   6 C        3.752    -0.090    22.277     6.731
     5   6 C        3.761    -0.091    22.291     6.730
     6   6 C        3.767    -0.083    22.116     6.702
     7   6 C        3.763    -0.088    22.229     6.721
     8   1 H        0.925     0.087     1.909     2.160
     9   1 H        0.925     0.077     2.013     2.219
    10   1 H        0.925     0.080     1.979     2.200
    11   1 H        0.925     0.095     1.834     2.118
    12   1 H        0.925     0.082     1.954     2.186
    13   6 C        3.756    -0.084    22.154     6.711
    14   6 C        3.767    -0.086    22.173     6.711
    15   6 C        3.769    -0.087    22.202     6.715
    16   6 C        3.755    -0.093    22.322     6.737
    17   6 C        3.749    -0.083    22.149     6.712
    18   1 H        0.925     0.083     1.943     2.180
    19   1 H        0.925     0.088     1.900     2.155
    20   1 H        0.925     0.090     1.880     2.144
    21   1 H        0.925     0.074     2.040     2.234
    22   1 H        0.925     0.084     1.935     2.175
    23   1 H        1.427     0.076     2.006     2.211
    24   1 H        0.924     0.093     1.849     2.127
    25   1 H        0.924     0.095     1.827     2.114
    26   6 C        3.621    -0.274    26.675     7.447
    27   6 C        4.093    -0.072    21.782     6.629
    28   1 H        0.924     0.079     1.991     2.206
    29   1 H        0.923     0.072     2.066     2.248
    30   1 H        0.924     0.068     2.110     2.272
    31   1 H        0.924     0.066     2.128     2.281

 Mol. C6AA /au·bohr⁶  :       9449.575111
 Mol. C8AA /au·bohr⁸  :     320376.821109
 Mol. α(0) /au        :        142.975812


Wiberg/Mayer (AO) data.
largest (>0.10) Wiberg bond orders for each atom

 ---------------------------------------------------------------------------
     #   Z sym  total        # sym  WBO       # sym  WBO       # sym  WBO
 ---------------------------------------------------------------------------
     1  40 Zr   4.250 --    26 C    0.840    14 C    0.273     7 C    0.265
                             6 C    0.263    15 C    0.256     5 C    0.249
                            16 C    0.241    13 C    0.233     4 C    0.233
                            17 C    0.222     3 C    0.219     2 C    0.147
                            23 H    0.130
     2   6 C    3.978 --    27 C    0.985    24 H    0.971    25 H    0.947
                            23 H    0.827     1 Zr   0.147
     3   6 C    3.981 --     4 C    1.314     7 C    1.311     8 H    0.926
                             1 Zr   0.219
     4   6 C    3.979 --     3 C    1.314     5 C    1.297     9 H    0.922
                             1 Zr   0.233
     5   6 C    3.978 --     4 C    1.297     6 C    1.295    10 H    0.923
                             1 Zr   0.249
     6   6 C    3.981 --     5 C    1.295     7 C    1.278    11 H    0.922
                             1 Zr   0.263
     7   6 C    3.979 --     3 C    1.311     6 C    1.278    12 H    0.917
                             1 Zr   0.265
     8   1 H    0.990 --     3 C    0.926
     9   1 H    0.993 --     4 C    0.922
    10   1 H    0.991 --     5 C    0.923
    11   1 H    0.988 --     6 C    0.922
    12   1 H    0.991 --     7 C    0.917
    13   6 C    3.980 --    17 C    1.315    14 C    1.298    18 H    0.922
                             1 Zr   0.233
    14   6 C    3.981 --    13 C    1.298    15 C    1.280    19 H    0.917
                             1 Zr   0.273
    15   6 C    3.980 --    16 C    1.298    14 C    1.280    20 H    0.923
                             1 Zr   0.256
    16   6 C    3.979 --    17 C    1.307    15 C    1.298    21 H    0.922
                             1 Zr   0.241
    17   6 C    3.980 --    13 C    1.315    16 C    1.307    22 H    0.925
                             1 Zr   0.222
    18   1 H    0.991 --    13 C    0.922
    19   1 H    0.990 --    14 C    0.917
    20   1 H    0.989 --    15 C    0.923
    21   1 H    0.992 --    16 C    0.922
    22   1 H    0.990 --    17 C    0.925
    23   1 H    0.994 --     2 C    0.827     1 Zr   0.130
    24   1 H    0.990 --     2 C    0.971
    25   1 H    0.989 --     2 C    0.947
    26   6 C    3.832 --    27 C    0.989    30 H    0.914    31 H    0.913
                             1 Zr   0.840
    27   6 C    3.986 --    26 C    0.989     2 C    0.985    28 H    0.959
                            29 H    0.940
    28   1 H    0.993 --    27 C    0.959
    29   1 H    0.993 --    27 C    0.940
    30   1 H    0.994 --    26 C    0.914
    31   1 H    0.995 --    26 C    0.913
 ---------------------------------------------------------------------------

Topologies differ in total number of bonds
Writing topology from bond orders to xtbtopo.mol

molecular dipole:
                 x           y           z       tot (Debye)
 q only:       -2.540       0.081       0.733
   full:       -2.223       0.084       0.736       5.957
molecular quadrupole (traceless):
                xx          xy          yy          xz          yz          zz
 q only:        5.157      -1.669      -4.680      -0.096      -5.403      -0.477
  q+dip:        7.010      -2.104      -6.579       0.379      -8.704      -0.431
   full:        4.421      -0.569      -5.235      -1.648      -8.565       0.814

           -------------------------------------------------
          |                Geometry Summary                 |
           -------------------------------------------------

      molecular mass/u    :      264.4982010
   center of mass at/Å    :       -1.1885051      -0.1990731       0.7078606
  moments of inertia/u·Å² :        0.6334725E+03   0.6948172E+03   0.9951759E+03
rotational constants/cm⁻¹ :        0.2661147E-01   0.2426197E-01   0.1693935E-01

 * 40 selected distances

     #   Z          #   Z                                           value/Å
     1  40 Zr       3   6 C                                       2.4750376
     1  40 Zr       4   6 C                                       2.4611641
     3   6 C        4   6 C                                       1.4158116
     1  40 Zr       5   6 C                                       2.4434301
     4   6 C        5   6 C                                       1.4187172
     1  40 Zr       6   6 C                                       2.4270447
     5   6 C        6   6 C                                       1.4190243
     1  40 Zr       7   6 C                                       2.4302859
     3   6 C        7   6 C                                       1.4159668
     6   6 C        7   6 C                                       1.4224374
     3   6 C        8   1 H                                       1.0837064
     4   6 C        9   1 H                                       1.0857409
     5   6 C       10   1 H                                       1.0849432
     6   6 C       11   1 H                                       1.0834435 (min)
     7   6 C       12   1 H                                       1.0861234
     1  40 Zr      13   6 C                                       2.4577092
     1  40 Zr      14   6 C                                       2.4191126
    13   6 C       14   6 C                                       1.4179025
     1  40 Zr      15   6 C                                       2.4281119
    14   6 C       15   6 C                                       1.4225498
     1  40 Zr      16   6 C                                       2.4517338
    15   6 C       16   6 C                                       1.4186349
     1  40 Zr      17   6 C                                       2.4771584 (max)
    13   6 C       17   6 C                                       1.4159154
    16   6 C       17   6 C                                       1.4163192
    13   6 C       18   1 H                                       1.0848698
    14   6 C       19   1 H                                       1.0854916
    15   6 C       20   1 H                                       1.0835779
    16   6 C       21   1 H                                       1.0859566
    17   6 C       22   1 H                                       1.0842400
     2   6 C       23   1 H                                       1.1243536
     2   6 C       24   1 H                                       1.0920319
     2   6 C       25   1 H                                       1.0956716
     1  40 Zr      26   6 C                                       2.2715850
     2   6 C       27   6 C                                       1.5408425
    26   6 C       27   6 C                                       1.5422069
    27   6 C       28   1 H                                       1.0978537
    27   6 C       29   1 H                                       1.0991711
    26   6 C       30   1 H                                       1.1030544
    26   6 C       31   1 H                                       1.1014515

 * 3 distinct bonds (by element types)

   Z      Z             #   av. dist./Å        max./Å        min./Å
   1 H    6 C          17     1.0918636     1.1243536     1.0834435
   6 C    6 C          12     1.4388607     1.5422069     1.4158116
   6 C   40 Zr         11     2.4311248     2.4771584     2.2715850


optimized geometry written to: xtbopt.xyz


           -------------------------------------------------
          | TOTAL ENERGY              -37.699951392656 Eh   |
          | GRADIENT NORM               0.000611739799 Eh/α |
          | HOMO-LUMO GAP               1.700442769200 eV   |
           -------------------------------------------------

------------------------------------------------------------------------
 * finished run on 2026/08/03 at 12:01:43.906     
------------------------------------------------------------------------
 total:
 * wall-time:     0 d,  0 h,  0 min, 33.645 sec
 *  cpu-time:     0 d,  0 h,  0 min, 53.674 sec
 * ratio c/w:     1.595 speedup
 SCF:
 * wall-time:     0 d,  0 h,  0 min,  1.909 sec
 *  cpu-time:     0 d,  0 h,  0 min,  3.148 sec
 * ratio c/w:     1.649 speedup
 ANC optimizer:
 * wall-time:     0 d,  0 h,  0 min, 31.525 sec
 *  cpu-time:     0 d,  0 h,  0 min, 50.297 sec
 * ratio c/w:     1.595 speedup

