      -----------------------------------------------------------      
     |                   =====================                   |     
     |                           x T B                           |     
     |                   =====================                   |     
     |                         S. Grimme                         |     
     |          Mulliken Center for Theoretical Chemistry        |     
     |                    University of Bonn                     |     
      -----------------------------------------------------------      

   * xtb version 6.5.1 (b24c23e) compiled by 'conda@728c89f4b128' on 2022-07-12

   xtb is free software: you can redistribute it and/or modify it under
   the terms of the GNU Lesser General Public License as published by
   the Free Software Foundation, either version 3 of the License, or
   (at your option) any later version.
   
   xtb is distributed in the hope that it will be useful,
   but WITHOUT ANY WARRANTY; without even the implied warranty of
   MERCHANTABILITY or FITNESS FOR A PARTICULAR PURPOSE.  See the
   GNU Lesser General Public License for more details.
   
   Cite this work as:
   * C. Bannwarth, E. Caldeweyher, S. Ehlert, A. Hansen, P. Pracht,
     J. Seibert, S. Spicher, S. Grimme, WIREs Comput. Mol. Sci., 2020, 11,
     e01493. DOI: 10.1002/wcms.1493
   
   for GFN2-xTB:
   * C. Bannwarth, S. Ehlert and S. Grimme., J. Chem. Theory Comput., 2019,
     15, 1652-1671. DOI: 10.1021/acs.jctc.8b01176
   for GFN1-xTB:
   * S. Grimme, C. Bannwarth, P. Shushkov, J. Chem. Theory Comput., 2017,
     13, 1989-2009. DOI: 10.1021/acs.jctc.7b00118
   for GFN0-xTB:
   * P. Pracht, E. Caldeweyher, S. Ehlert, S. Grimme, ChemRxiv, 2019, preprint.
     DOI: 10.26434/chemrxiv.8326202.v1
   for GFN-FF:
   * S. Spicher and S. Grimme, Angew. Chem. Int. Ed., 2020, 59, 15665-15673.
     DOI: 10.1002/anie.202004239
   
   for ALPB and GBSA implicit solvation:
   * S. Ehlert, M. Stahn, S. Spicher, S. Grimme, J. Chem. Theory Comput.,
     2021, 17, 4250-4261. DOI: 10.1021/acs.jctc.1c00471
   
   for DFT-D4:
   * E. Caldeweyher, C. Bannwarth and S. Grimme, J. Chem. Phys., 2017,
     147, 034112. DOI: 10.1063/1.4993215
   * E. Caldeweyher, S. Ehlert, A. Hansen, H. Neugebauer, S. Spicher,
     C. Bannwarth and S. Grimme, J. Chem. Phys., 2019, 150, 154122.
     DOI: 10.1063/1.5090222
   * E. Caldeweyher, J.-M. Mewes, S. Ehlert and S. Grimme, Phys. Chem. Chem. Phys.
     2020, 22, 8499-8512. DOI: 10.1039/D0CP00502A
   
   for sTDA-xTB:
   * S. Grimme and C. Bannwarth, J. Chem. Phys., 2016, 145, 054103.
     DOI: 10.1063/1.4959605
   
   in the mass-spec context:
   * V. Asgeirsson, C. Bauer and S. Grimme, Chem. Sci., 2017, 8, 4879.
     DOI: 10.1039/c7sc00601b
   * J. Koopman and S. Grimme, ACS Omega 2019, 4, 12, 15120-15133.
     DOI: 10.1021/acsomega.9b02011
   
   for metadynamics refer to:
   * S. Grimme, J. Chem. Theory Comput., 2019, 155, 2847-2862
     DOI: 10.1021/acs.jctc.9b00143
   
   for SPH calculations refer to:
   * S. Spicher and S. Grimme, J. Chem. Theory Comput., 2021, 17, 1701-1714
     DOI: 10.1021/acs.jctc.0c01306
   
   with help from (in alphabetical order)
   P. Atkinson, C. Bannwarth, F. Bohle, G. Brandenburg, E. Caldeweyher
   M. Checinski, S. Dohm, S. Ehlert, S. Ehrlich, I. Gerasimov, C. Hölzer
   A. Katbashev, J. Koopman, C. Lavigne, S. Lehtola, F. März, M. Müller,
   F. Musil, H. Neugebauer, J. Pisarek, C. Plett, P. Pracht, F. Pultar,
   J. Seibert, P. Shushkov, S. Spicher, M. Stahn, M. Steiner, T. Strunk,
   J. Stückrath, T. Rose, and J. Unsleber
   
 * started run on 2026/08/03 at 11:59:36.231     

           -------------------------------------------------
          |                Calculation Setup                |
           -------------------------------------------------

          program call               : /h/332/chchoi/miniconda3/envs/el-agente/bin/xtb reactant_raw.xyz --opt --gfn 2 -P 4 --chrg 1 --uhf 0 --input detailed_input.inp
          coordinate file            : reactant_raw.xyz
          omp threads                :                     4

   ID    Z sym.   atoms
    1   40 Zr     1
    2    6 C      2-7, 13-17, 26, 27
    3    1 H      8-12, 18-25, 28-31
constraining bond 2 27 to    3.2000000 Å, actual value:    3.9015773 Å
constraining bond 1 26 to    2.5500000 Å, actual value:    2.5634266 Å
constraining bond 1 27 to    2.5500000 Å, actual value:    2.5634266 Å

molecular fragmentation (1/2 indicates fragments):
1111111111111111111111111222222
# atoms in fragment 1/2:    25     6
 fragment masses (1/2) :      236.44       28.05
CMA distance (Bohr)    :   5.713
constraining FC (au)   :  0.5000

           -------------------------------------------------
          |                 G F N 2 - x T B                 |
           -------------------------------------------------

        Reference                      10.1021/acs.jctc.8b01176
      * Hamiltonian:
        H0-scaling (s, p, d)           1.850000    2.230000    2.230000
        zeta-weighting                 0.500000
      * Dispersion:
        s8                             2.700000
        a1                             0.520000
        a2                             5.000000
        s9                             5.000000
      * Repulsion:
        kExp                           1.500000    1.000000
        rExp                           1.000000
      * Coulomb:
        alpha                          2.000000
        third order                    shell-resolved
        anisotropic                    true
        a3                             3.000000
        a5                             4.000000
        cn-shift                       1.200000
        cn-exp                         4.000000
        max-rad                        5.000000


          ...................................................
          :                      SETUP                      :
          :.................................................:
          :  # basis functions                  79          :
          :  # atomic orbitals                  78          :
          :  # shells                           46          :
          :  # electrons                        72          :
          :  max. iterations                   250          :
          :  Hamiltonian                  GFN2-xTB          :
          :  restarted?                      false          :
          :  GBSA solvation                  false          :
          :  PC potential                    false          :
          :  electronic temp.          300.0000000     K    :
          :  accuracy                    1.0000000          :
          :  -> integral cutoff          0.2500000E+02      :
          :  -> integral neglect         0.1000000E-07      :
          :  -> SCF convergence          0.1000000E-05 Eh   :
          :  -> wf. convergence          0.1000000E-03 e    :
          :  Broyden damping             0.4000000          :
          ...................................................

 iter      E             dE          RMSdq      gap      omega  full diag
   1    -37.9358315 -0.379358E+02  0.428E+00    0.51       0.0  T
   2    -38.0423316 -0.106500E+00  0.369E+00    1.54       1.0  T
   3    -38.0982795 -0.559479E-01  0.295E+00    0.88       1.0  T
   4    -38.0959865  0.229300E-02  0.138E+00    0.94       1.0  T
   5    -38.0918736  0.411285E-02  0.808E-01    0.68       1.0  T
   6    -38.0992658 -0.739216E-02  0.397E-01    0.91       1.0  T
   7    -38.1004409 -0.117516E-02  0.248E-01    0.84       1.0  T
   8    -38.1004833 -0.423793E-04  0.144E-01    0.83       1.0  T
   9    -38.1004655  0.178148E-04  0.680E-02    0.87       1.0  T
  10    -38.1005093 -0.437925E-04  0.358E-02    0.86       1.0  T
  11    -38.1005263 -0.169736E-04  0.151E-02    0.85       1.2  T
  12    -38.1005272 -0.933394E-06  0.398E-03    0.85       4.5  T
  13    -38.1005273 -0.681398E-07  0.181E-03    0.85       9.9  T
  14    -38.1005273 -0.262446E-07  0.122E-03    0.85      14.8  T
  15    -38.1005273 -0.145466E-07  0.493E-04    0.85      36.4  T
  16    -38.1005273 -0.624851E-10  0.227E-04    0.85      79.0  T

   *** convergence criteria satisfied after 16 iterations ***

         #    Occupation            Energy/Eh            Energy/eV
      -------------------------------------------------------------
         1        2.0000           -0.8628382             -23.4790
       ...           ...                  ...                  ...
        30        2.0000           -0.5740484             -15.6207
        31        2.0000           -0.5511875             -14.9986
        32        2.0000           -0.5101738             -13.8825
        33        2.0000           -0.5045726             -13.7301
        34        2.0000           -0.4941790             -13.4473
        35        2.0000           -0.4918471             -13.3838
        36        2.0000           -0.4836941             -13.1620 (HOMO)
        37        0.0000           -0.4525088             -12.3134 (LUMO)
        38                         -0.4374614             -11.9039
        39                         -0.4348634             -11.8332
        40                         -0.4310524             -11.7295
        41                         -0.4230109             -11.5107
       ...                                ...                  ...
        78                          1.3654739              37.1564
      -------------------------------------------------------------
                  HL-Gap            0.0311853 Eh            0.8486 eV
             Fermi-level           -0.4681013 Eh          -12.7377 eV

 SCC (total)                   0 d,  0 h,  0 min,  0.767 sec
 SCC setup                      ...        0 min,  0.013 sec (  1.645%)
 Dispersion                     ...        0 min,  0.018 sec (  2.392%)
 classical contributions        ...        0 min,  0.010 sec (  1.301%)
 integral evaluation            ...        0 min,  0.027 sec (  3.488%)
 iterations                     ...        0 min,  0.598 sec ( 77.902%)
 molecular gradient             ...        0 min,  0.101 sec ( 13.219%)
 printout                       ...        0 min,  0.000 sec (  0.046%)

         :::::::::::::::::::::::::::::::::::::::::::::::::::::
         ::                     SUMMARY                     ::
         :::::::::::::::::::::::::::::::::::::::::::::::::::::
         :: total energy             -36.658853259464 Eh    ::
         :: gradient norm              1.928595074829 Eh/a0 ::
         :: HOMO-LUMO gap              0.848595247981 eV    ::
         ::.................................................::
         :: SCC energy               -38.100527322913 Eh    ::
         :: -> isotropic ES            0.097833142149 Eh    ::
         :: -> anisotropic ES         -0.000863661912 Eh    ::
         :: -> anisotropic XC          0.021668513651 Eh    ::
         :: -> dispersion             -0.027679947800 Eh    ::
         :: repulsion energy           0.561366578861 Eh    ::
         :: add. restraining           0.879501755042 Eh    ::
         :: total charge               1.000000000030 e     ::
         :::::::::::::::::::::::::::::::::::::::::::::::::::::

      ----------------------------------------------------------- 
     |                   =====================                   |
     |                        A N C O P T                        |
     |                   =====================                   |
     |               Approximate Normal Coordinate               |
     |                Rational Function Optimizer                |
      ----------------------------------------------------------- 

          ...................................................
          :                      SETUP                      :
          :.................................................:
          :   optimization level            normal          :
          :   max. optcycles                   200          :
          :   ANC micro-cycles                  20          :
          :   degrees of freedom                87          :
          :.................................................:
          :   RF solver                   davidson          :
          :   write xtbopt.log                true          :
          :   linear?                        false          :
          :   energy convergence         0.5000000E-05 Eh   :
          :   grad. convergence          0.1000000E-02 Eh/α :
          :   maximium RF displ.         1.0000000          :
          :   Hlow (freq-cutoff)         0.1000000E-01      :
          :   Hmax (freq-cutoff)         5.0000000          :
          :   S6 in model hess.         20.0000000          :
          ...................................................

generating ANC from model Hessian ...
Using Lindh-Hessian (1995)
 Shifting diagonal of input Hessian by    1.1009148529971232E-002
 Lowest  eigenvalues of input Hessian
    0.010000    0.000000    0.000000    0.000000    0.000000    0.000000
    0.000000    0.011355    0.011558    0.011640    0.011731    0.011925
    0.012136    0.012171    0.012290    0.012848    0.014111    0.014677
 Highest eigenvalues
    1.493045    1.493229    1.539524    1.850905    2.494892    3.370320


........................................................................
.............................. CYCLE    1 ..............................
........................................................................
   1    -38.1005273 -0.381005E+02  0.131E-04    0.85       0.0  T
   2    -38.1005273  0.682121E-11  0.133E-04    0.85     134.9  T
   3    -38.1005273 -0.170346E-09  0.612E-05    0.85     293.7  T
     SCC iter.                  ...        0 min,  0.124 sec
     gradient                   ...        0 min,  0.089 sec
 * total energy  :   -36.6588533 Eh     change       -0.3488552E-09 Eh
   gradient norm :     1.9285951 Eh/α   predicted     0.0000000E+00 (-100.00%)
   displ. norm   :     0.5885724 α      lambda       -0.1066871E+01
   maximum displ.:     0.3766206 α      in ANC's #86, #87, #60, ...

........................................................................
.............................. CYCLE    2 ..............................
........................................................................
   1    -38.1107604 -0.381108E+02  0.884E-01    0.77       0.0  T
   2    -38.1115802 -0.819819E-03  0.519E-01    0.77       1.0  T
   3    -38.1106766  0.903531E-03  0.419E-01    0.86       1.0  T
   4    -38.1121208 -0.144412E-02  0.183E-01    0.77       1.0  T
   5    -38.1122353 -0.114505E-03  0.113E-01    0.80       1.0  T
   6    -38.1122398 -0.454923E-05  0.537E-02    0.79       1.0  T
   7    -38.1122616 -0.217984E-04  0.228E-02    0.80       1.0  T
   8    -38.1122633 -0.164060E-05  0.153E-02    0.79       1.2  T
   9    -38.1122633 -0.647264E-07  0.855E-03    0.79       2.1  T
  10    -38.1122640 -0.712574E-06  0.302E-03    0.79       5.9  T
  11    -38.1122641 -0.568124E-07  0.123E-03    0.79      14.6  T
  12    -38.1122641 -0.163988E-07  0.421E-04    0.79      42.7  T
  13    -38.1122641 -0.102629E-08  0.211E-04    0.79      85.3  T
     SCC iter.                  ...        0 min,  0.322 sec
     gradient                   ...        0 min,  0.025 sec
 * total energy  :   -37.3952631 Eh     change       -0.7364098E+00 Eh
   gradient norm :     0.6864657 Eh/α   predicted    -0.7182272E+00 (  -2.47%)
   displ. norm   :     0.5468266 α      lambda       -0.2822747E+00
   maximum displ.:     0.2733642 α      in ANC's #60, #41, #86, ...

........................................................................
.............................. CYCLE    3 ..............................
........................................................................
   1    -38.1578364 -0.381578E+02  0.823E-01    0.97       0.0  T
   2    -38.1583250 -0.488575E-03  0.542E-01    0.98       1.0  T
   3    -38.1577958  0.529233E-03  0.308E-01    1.03       1.0  T
   4    -38.1585282 -0.732452E-03  0.123E-01    0.97       1.0  T
   5    -38.1586172 -0.889322E-04  0.868E-02    0.99       1.0  T
   6    -38.1586119  0.527012E-05  0.425E-02    0.99       1.0  T
   7    -38.1586374 -0.254779E-04  0.155E-02    0.98       1.2  T
   8    -38.1586370  0.397999E-06  0.108E-02    0.98       1.7  T
   9    -38.1586382 -0.122076E-05  0.540E-03    0.98       3.3  T
  10    -38.1586383 -0.851883E-07  0.223E-03    0.98       8.0  T
  11    -38.1586383 -0.211294E-07  0.490E-04    0.98      36.7  T
  12    -38.1586383 -0.375385E-08  0.283E-04    0.98      63.4  T
     SCC iter.                  ...        0 min,  0.459 sec
     gradient                   ...        0 min,  0.053 sec
 * total energy  :   -37.5729597 Eh     change       -0.1776967E+00 Eh
   gradient norm :     0.1371171 Eh/α   predicted    -0.1833401E+00 (   3.18%)
   displ. norm   :     0.6697423 α      lambda       -0.6693491E-01
   maximum displ.:     0.3945993 α      in ANC's #22, #25, #41, ...

........................................................................
.............................. CYCLE    4 ..............................
........................................................................
   1    -38.2350507 -0.382351E+02  0.596E-01    1.27       0.0  T
   2    -38.2353821 -0.331432E-03  0.429E-01    1.35       1.0  T
   3    -38.2353312  0.508438E-04  0.238E-01    1.32       1.0  T
   4    -38.2353259  0.533087E-05  0.130E-01    1.34       1.0  T
   5    -38.2355413 -0.215394E-03  0.843E-02    1.34       1.0  T
   6    -38.2355590 -0.177100E-04  0.311E-02    1.33       1.0  T
   7    -38.2355624 -0.335135E-05  0.132E-02    1.33       1.4  T
   8    -38.2355626 -0.205780E-06  0.772E-03    1.33       2.3  T
   9    -38.2355627 -0.964988E-07  0.367E-03    1.33       4.9  T
  10    -38.2355628 -0.160881E-06  0.184E-03    1.33       9.8  T
  11    -38.2355628 -0.281003E-08  0.528E-04    1.33      34.0  T
  12    -38.2355628 -0.433985E-09  0.216E-04    1.33      83.2  T
     SCC iter.                  ...        0 min,  0.570 sec
     gradient                   ...        0 min,  0.095 sec
 * total energy  :   -37.6182520 Eh     change       -0.4529232E-01 Eh
   gradient norm :     0.0794012 Eh/α   predicted    -0.4847990E-01 (   7.04%)
   displ. norm   :     0.6208284 α      lambda       -0.2844419E-01
   maximum displ.:     0.2834646 α      in ANC's #25, #14, #22, ...

........................................................................
.............................. CYCLE    5 ..............................
........................................................................
   1    -38.2843492 -0.382843E+02  0.494E-01    1.38       0.0  T
   2    -38.2846825 -0.333307E-03  0.353E-01    1.34       1.0  T
   3    -38.2845559  0.126570E-03  0.189E-01    1.34       1.0  T
   4    -38.2847242 -0.168279E-03  0.828E-02    1.34       1.0  T
   5    -38.2848305 -0.106312E-03  0.537E-02    1.33       1.0  T
   6    -38.2848349 -0.441527E-05  0.276E-02    1.34       1.0  T
   7    -38.2848386 -0.368906E-05  0.102E-02    1.34       1.8  T
   8    -38.2848385  0.967353E-07  0.597E-03    1.34       3.0  T
   9    -38.2848388 -0.300678E-06  0.209E-03    1.34       8.6  T
  10    -38.2848388 -0.639791E-08  0.958E-04    1.34      18.7  T
  11    -38.2848388 -0.842910E-09  0.432E-04    1.34      41.6  T
     SCC iter.                  ...        0 min,  0.541 sec
     gradient                   ...        0 min,  0.056 sec
 * total energy  :   -37.6319602 Eh     change       -0.1370813E-01 Eh
   gradient norm :     0.0824754 Eh/α   predicted    -0.1970374E-01 (  43.74%)
   displ. norm   :     0.5922210 α      lambda       -0.1913623E-01
   maximum displ.:     0.2654734 α      in ANC's #1, #14, #20, ...

........................................................................
.............................. CYCLE    6 ..............................
........................................................................
   1    -38.2973271 -0.382973E+02  0.448E-01    1.55       0.0  T
   2    -38.2979368 -0.609634E-03  0.451E-01    1.53       1.0  T
   3    -38.2979955 -0.587355E-04  0.383E-01    1.53       1.0  T
   4    -38.2980640 -0.684426E-04  0.138E-01    1.53       1.0  T
   5    -38.2981023 -0.383461E-04  0.804E-02    1.54       1.0  T
   6    -38.2981205 -0.182001E-04  0.268E-02    1.55       1.0  T
   7    -38.2981229 -0.237727E-05  0.117E-02    1.55       1.5  T
   8    -38.2981231 -0.191393E-06  0.636E-03    1.55       2.8  T
   9    -38.2981234 -0.359429E-06  0.325E-03    1.55       5.5  T
  10    -38.2981235 -0.547123E-07  0.156E-03    1.55      11.5  T
  11    -38.2981235 -0.159476E-08  0.555E-04    1.55      32.4  T
  12    -38.2981235 -0.196646E-08  0.225E-04    1.55      79.9  T
     SCC iter.                  ...        0 min,  0.741 sec
     gradient                   ...        0 min,  0.035 sec
 * total energy  :   -37.6378660 Eh     change       -0.5905864E-02 Eh
   gradient norm :     0.0453799 Eh/α   predicted    -0.1292391E-01 ( 118.83%)
   displ. norm   :     0.5175239 α      lambda       -0.1349020E-01
   maximum displ.:     0.2900223 α      in ANC's #1, #15, #14, ...

........................................................................
.............................. CYCLE    7 ..............................
........................................................................
   1    -38.2877227 -0.382877E+02  0.614E-01    1.40       0.0  T
   2    -38.2882127 -0.489920E-03  0.536E-01    1.41       1.0  T
   3    -38.2881451  0.675964E-04  0.320E-01    1.34       1.0  T
   4    -38.2882444 -0.993261E-04  0.126E-01    1.41       1.0  T
   5    -38.2884148 -0.170454E-03  0.926E-02    1.38       1.0  T
   6    -38.2884273 -0.124665E-04  0.357E-02    1.39       1.0  T
   7    -38.2884319 -0.455130E-05  0.166E-02    1.39       1.1  T
   8    -38.2884324 -0.575664E-06  0.798E-03    1.39       2.3  T
   9    -38.2884328 -0.318929E-06  0.412E-03    1.39       4.4  T
  10    -38.2884328 -0.579550E-07  0.205E-03    1.39       8.8  T
  11    -38.2884328 -0.660641E-08  0.429E-04    1.39      41.9  T
  12    -38.2884328 -0.131244E-08  0.220E-04    1.39      81.6  T
     SCC iter.                  ...        0 min,  0.563 sec
     gradient                   ...        0 min,  0.060 sec
 * total energy  :   -37.6381635 Eh     change       -0.2974376E-03 Eh
   gradient norm :     0.1021287 Eh/α   predicted    -0.8551646E-02 (2775.11%)
   displ. norm   :     0.3130683 α      lambda       -0.1345518E-01
   maximum displ.:     0.1693704 α      in ANC's #26, #14, #1, ...

........................................................................
.............................. CYCLE    8 ..............................
........................................................................
   1    -38.2883021 -0.382883E+02  0.399E-01    1.55       0.0  T
   2    -38.2884983 -0.196273E-03  0.358E-01    1.54       1.0  T
   3    -38.2885095 -0.111263E-04  0.204E-01    1.56       1.0  T
   4    -38.2884859  0.235296E-04  0.731E-02    1.54       1.0  T
   5    -38.2885802 -0.942752E-04  0.541E-02    1.55       1.0  T
   6    -38.2885830 -0.273483E-05  0.157E-02    1.55       1.1  T
   7    -38.2885843 -0.139230E-05  0.906E-03    1.55       2.0  T
   8    -38.2885848 -0.411517E-06  0.301E-03    1.55       6.0  T
   9    -38.2885848 -0.396604E-07  0.151E-03    1.55      11.9  T
  10    -38.2885848 -0.149535E-07  0.733E-04    1.55      24.5  T
  11    -38.2885848 -0.984379E-09  0.331E-04    1.55      54.3  T
     SCC iter.                  ...        0 min,  0.485 sec
     gradient                   ...        0 min,  0.116 sec
 * total energy  :   -37.6431939 Eh     change       -0.5030477E-02 Eh
   gradient norm :     0.0360538 Eh/α   predicted    -0.7386979E-02 (  46.84%)
   displ. norm   :     0.2338333 α      lambda       -0.2994390E-02
   maximum displ.:     0.1001505 α      in ANC's #2, #19, #5, ...

........................................................................
.............................. CYCLE    9 ..............................
........................................................................
   1    -38.2936163 -0.382936E+02  0.182E-01    1.58       0.0  T
   2    -38.2936807 -0.643889E-04  0.151E-01    1.56       1.0  T
   3    -38.2936933 -0.126029E-04  0.944E-02    1.57       1.0  T
   4    -38.2936963 -0.300133E-05  0.277E-02    1.57       1.0  T
   5    -38.2936989 -0.259213E-05  0.216E-02    1.57       1.0  T
   6    -38.2937000 -0.112113E-05  0.768E-03    1.57       2.3  T
   7    -38.2937003 -0.285930E-06  0.369E-03    1.57       4.9  T
   8    -38.2937004 -0.374835E-07  0.198E-03    1.57       9.1  T
   9    -38.2937004 -0.828526E-08  0.110E-03    1.57      16.3  T
  10    -38.2937004 -0.557555E-08  0.551E-04    1.57      32.6  T
  11    -38.2937004 -0.127360E-08  0.138E-04    1.57     130.4  T
     SCC iter.                  ...        0 min,  0.597 sec
     gradient                   ...        0 min,  0.131 sec
 * total energy  :   -37.6444849 Eh     change       -0.1290988E-02 Eh
   gradient norm :     0.0191650 Eh/α   predicted    -0.1579058E-02 (  22.31%)
   displ. norm   :     0.2006183 α      lambda       -0.1233375E-02
   maximum displ.:     0.0812179 α      in ANC's #2, #14, #19, ...

........................................................................
.............................. CYCLE   10 ..............................
........................................................................
   1    -38.2967860 -0.382968E+02  0.106E-01    1.54       0.0  T
   2    -38.2967982 -0.122181E-04  0.639E-02    1.54       1.0  T
   3    -38.2967864  0.117647E-04  0.414E-02    1.53       1.0  T
   4    -38.2968051 -0.187058E-04  0.130E-02    1.54       1.4  T
   5    -38.2968054 -0.236288E-06  0.940E-03    1.54       1.9  T
   6    -38.2968058 -0.434368E-06  0.489E-03    1.54       3.7  T
   7    -38.2968059 -0.108812E-06  0.154E-03    1.54      11.7  T
   8    -38.2968059  0.336897E-09  0.144E-03    1.54      12.5  T
   9    -38.2968059 -0.640934E-08  0.779E-04    1.54      23.0  T
  10    -38.2968059 -0.237250E-09  0.399E-04    1.54      45.1  T
     SCC iter.                  ...        0 min,  0.498 sec
     gradient                   ...        0 min,  0.115 sec
 * total energy  :   -37.6450985 Eh     change       -0.6135636E-03 Eh
   gradient norm :     0.0197202 Eh/α   predicted    -0.6415102E-03 (   4.55%)
   displ. norm   :     0.2203285 α      lambda       -0.8123039E-03
   maximum displ.:     0.1035009 α      in ANC's #2, #7, #14, ...

........................................................................
.............................. CYCLE   11 ..............................
........................................................................
   1    -38.2933730 -0.382934E+02  0.152E-01    1.53       0.0  T
   2    -38.2933785 -0.553502E-05  0.991E-02    1.53       1.0  T
   3    -38.2933745  0.395881E-05  0.231E-02    1.53       1.0  T
   4    -38.2933792 -0.465827E-05  0.132E-02    1.53       1.4  T
   5    -38.2933809 -0.165149E-05  0.734E-03    1.53       2.4  T
   6    -38.2933810 -0.192467E-06  0.309E-03    1.53       5.8  T
   7    -38.2933811 -0.215429E-07  0.224E-03    1.53       8.0  T
   8    -38.2933811 -0.367466E-08  0.127E-03    1.53      14.1  T
   9    -38.2933811 -0.503226E-08  0.751E-04    1.53      23.9  T
  10    -38.2933811 -0.206867E-08  0.288E-04    1.53      62.3  T
     SCC iter.                  ...        0 min,  0.488 sec
     gradient                   ...        0 min,  0.113 sec
 * total energy  :   -37.6455709 Eh     change       -0.4724043E-03 Eh
   gradient norm :     0.0104424 Eh/α   predicted    -0.4258737E-03 (  -9.85%)
   displ. norm   :     0.2270978 α      lambda       -0.4999713E-03
   maximum displ.:     0.1464932 α      in ANC's #7, #2, #14, ...

........................................................................
.............................. CYCLE   12 ..............................
........................................................................
   1    -38.2964054 -0.382964E+02  0.109E-01    1.53       0.0  T
   2    -38.2964134 -0.794182E-05  0.680E-02    1.53       1.0  T
   3    -38.2964027  0.106939E-04  0.362E-02    1.53       1.0  T
   4    -38.2964173 -0.145827E-04  0.113E-02    1.53       1.6  T
   5    -38.2964185 -0.119153E-05  0.792E-03    1.53       2.3  T
   6    -38.2964187 -0.259700E-06  0.323E-03    1.53       5.6  T
   7    -38.2964188 -0.396161E-07  0.179E-03    1.53      10.0  T
   8    -38.2964188  0.134745E-08  0.137E-03    1.53      13.1  T
   9    -38.2964188 -0.792009E-08  0.508E-04    1.53      35.4  T
  10    -38.2964188 -0.110207E-08  0.226E-04    1.53      79.5  T
     SCC iter.                  ...        0 min,  0.523 sec
     gradient                   ...        0 min,  0.121 sec
 * total energy  :   -37.6458827 Eh     change       -0.3117603E-03 Eh
   gradient norm :     0.0072622 Eh/α   predicted    -0.2628811E-03 ( -15.68%)
   displ. norm   :     0.3244030 α      lambda       -0.5171195E-03
   maximum displ.:     0.2410931 α      in ANC's #7, #2, #9, ...

........................................................................
.............................. CYCLE   13 ..............................
........................................................................
   1    -38.2951909 -0.382952E+02  0.156E-01    1.52       0.0  T
   2    -38.2951971 -0.617621E-05  0.996E-02    1.52       1.0  T
   3    -38.2951739  0.232228E-04  0.430E-02    1.51       1.0  T
   4    -38.2952017 -0.278361E-04  0.147E-02    1.52       1.2  T
   5    -38.2952019 -0.234104E-06  0.104E-02    1.52       1.7  T
   6    -38.2952025 -0.541223E-06  0.455E-03    1.52       3.9  T
   7    -38.2952026 -0.130872E-06  0.246E-03    1.52       7.3  T
   8    -38.2952026  0.920487E-08  0.156E-03    1.52      11.5  T
   9    -38.2952026 -0.152723E-07  0.716E-04    1.52      25.1  T
  10    -38.2952026 -0.125176E-08  0.212E-04    1.52      84.6  T
     SCC iter.                  ...        0 min,  0.552 sec
     gradient                   ...        0 min,  0.114 sec
 * total energy  :   -37.6462268 Eh     change       -0.3441525E-03 Eh
   gradient norm :     0.0120098 Eh/α   predicted    -0.2857745E-03 ( -16.96%)
   displ. norm   :     0.2467896 α      lambda       -0.4365538E-03
   maximum displ.:     0.1871091 α      in ANC's #7, #9, #3, ...

........................................................................
.............................. CYCLE   14 ..............................
........................................................................
   1    -38.2959000 -0.382959E+02  0.977E-02    1.51       0.0  T
   2    -38.2959027 -0.268086E-05  0.605E-02    1.51       1.0  T
   3    -38.2958932  0.946060E-05  0.319E-02    1.51       1.0  T
   4    -38.2959046 -0.114406E-04  0.960E-03    1.51       1.9  T
   5    -38.2959045  0.124391E-06  0.711E-03    1.51       2.5  T
   6    -38.2959048 -0.302826E-06  0.281E-03    1.51       6.4  T
   7    -38.2959049 -0.342045E-07  0.119E-03    1.51      15.1  T
   8    -38.2959049  0.229770E-08  0.886E-04    1.51      20.3  T
   9    -38.2959049 -0.432578E-08  0.389E-04    1.51      46.2  T
     SCC iter.                  ...        0 min,  0.503 sec
     gradient                   ...        0 min,  0.127 sec
 * total energy  :   -37.6465749 Eh     change       -0.3480565E-03 Eh
   gradient norm :     0.0134986 Eh/α   predicted    -0.2315733E-03 ( -33.47%)
   displ. norm   :     0.4027115 α      lambda       -0.8708881E-03
   maximum displ.:     0.2827097 α      in ANC's #7, #9, #3, ...

........................................................................
.............................. CYCLE   15 ..............................
........................................................................
   1    -38.2963622 -0.382964E+02  0.137E-01    1.50       0.0  T
   2    -38.2963689 -0.674887E-05  0.820E-02    1.51       1.0  T
   3    -38.2963518  0.171213E-04  0.455E-02    1.50       1.0  T
   4    -38.2963728 -0.210159E-04  0.124E-02    1.50       1.5  T
   5    -38.2963726  0.246697E-06  0.917E-03    1.50       2.0  T
   6    -38.2963732 -0.655093E-06  0.309E-03    1.51       5.8  T
   7    -38.2963733 -0.485059E-07  0.144E-03    1.51      12.5  T
   8    -38.2963733  0.309917E-08  0.102E-03    1.51      17.6  T
   9    -38.2963733 -0.695310E-08  0.417E-04    1.51      43.1  T
  10    -38.2963733 -0.678618E-09  0.178E-04    1.51     100.9  T
     SCC iter.                  ...        0 min,  0.477 sec
     gradient                   ...        0 min,  0.043 sec
 * total energy  :   -37.6472250 Eh     change       -0.6501608E-03 Eh
   gradient norm :     0.0162635 Eh/α   predicted    -0.5060662E-03 ( -22.16%)
   displ. norm   :     0.3877079 α      lambda       -0.1101493E-02
   maximum displ.:     0.1982220 α      in ANC's #7, #9, #3, ...

........................................................................
.............................. CYCLE   16 ..............................
........................................................................
   1    -38.2986445 -0.382986E+02  0.122E-01    1.51       0.0  T
   2    -38.2986504 -0.592875E-05  0.736E-02    1.50       1.0  T
   3    -38.2986399  0.105461E-04  0.336E-02    1.51       1.0  T
   4    -38.2986528 -0.129525E-04  0.829E-03    1.50       2.2  T
   5    -38.2986530 -0.189675E-06  0.598E-03    1.50       3.0  T
   6    -38.2986531 -0.919244E-07  0.236E-03    1.50       7.6  T
   7    -38.2986532 -0.574470E-07  0.751E-04    1.50      23.9  T
   8    -38.2986532 -0.736357E-09  0.511E-04    1.50      35.2  T
     SCC iter.                  ...        0 min,  0.344 sec
     gradient                   ...        0 min,  0.026 sec
 * total energy  :   -37.6479887 Eh     change       -0.7636486E-03 Eh
   gradient norm :     0.0180437 Eh/α   predicted    -0.6335347E-03 ( -17.04%)
   displ. norm   :     0.6836711 α      lambda       -0.1567199E-02
   maximum displ.:     0.4609625 α      in ANC's #7, #9, #3, ...

........................................................................
.............................. CYCLE   17 ..............................
........................................................................
   1    -38.2869276 -0.382869E+02  0.249E-01    1.48       0.0  T
   2    -38.2869859 -0.583172E-04  0.113E-01    1.52       1.0  T
   3    -38.2869880 -0.205257E-05  0.103E-01    1.49       1.0  T
   4    -38.2870058 -0.178489E-04  0.304E-02    1.50       1.0  T
   5    -38.2870063 -0.541303E-06  0.269E-02    1.50       1.0  T
   6    -38.2870077 -0.139194E-05  0.108E-02    1.51       1.7  T
   7    -38.2870083 -0.515008E-06  0.316E-03    1.51       5.7  T
   8    -38.2870083 -0.238323E-07  0.111E-03    1.51      16.2  T
   9    -38.2870083 -0.113843E-07  0.482E-04    1.51      37.2  T
  10    -38.2870083 -0.487624E-09  0.179E-04    1.51     100.5  T
     SCC iter.                  ...        0 min,  0.435 sec
     gradient                   ...        0 min,  0.067 sec
 * total energy  :   -37.6483477 Eh     change       -0.3590103E-03 Eh
   gradient norm :     0.0332462 Eh/α   predicted    -0.1149863E-02 ( 220.29%)
   displ. norm   :     0.2342123 α      lambda       -0.2938683E-02
   maximum displ.:     0.0836264 α      in ANC's #6, #21, #4, ...

........................................................................
.............................. CYCLE   18 ..............................
........................................................................
   1    -38.2962022 -0.382962E+02  0.203E-01    1.56       0.0  T
   2    -38.2962577 -0.554234E-04  0.874E-02    1.52       1.0  T
   3    -38.2962655 -0.786501E-05  0.814E-02    1.54       1.0  T
   4    -38.2962816 -0.160749E-04  0.344E-02    1.54       1.0  T
   5    -38.2962834 -0.184981E-05  0.282E-02    1.54       1.0  T
   6    -38.2962841 -0.668738E-06  0.123E-02    1.53       1.5  T
   7    -38.2962847 -0.580369E-06  0.276E-03    1.53       6.5  T
   8    -38.2962847 -0.115709E-07  0.133E-03    1.53      13.5  T
   9    -38.2962847 -0.100107E-07  0.809E-04    1.53      22.2  T
  10    -38.2962847 -0.266147E-08  0.258E-04    1.53      69.7  T
     SCC iter.                  ...        0 min,  0.435 sec
     gradient                   ...        0 min,  0.048 sec
 * total energy  :   -37.6496328 Eh     change       -0.1285093E-02 Eh
   gradient norm :     0.0181790 Eh/α   predicted    -0.1549948E-02 (  20.61%)
   displ. norm   :     0.3367813 α      lambda       -0.1446114E-02
   maximum displ.:     0.1778415 α      in ANC's #9, #6, #7, ...

........................................................................
.............................. CYCLE   19 ..............................
........................................................................
   1    -38.2964271 -0.382964E+02  0.138E-01    1.54       0.0  T
   2    -38.2964402 -0.130205E-04  0.841E-02    1.54       1.0  T
   3    -38.2964182  0.219109E-04  0.419E-02    1.54       1.0  T
   4    -38.2964466 -0.283148E-04  0.113E-02    1.54       1.6  T
   5    -38.2964470 -0.416493E-06  0.843E-03    1.54       2.1  T
   6    -38.2964474 -0.441020E-06  0.396E-03    1.54       4.5  T
   7    -38.2964475 -0.519469E-07  0.136E-03    1.54      13.2  T
   8    -38.2964475 -0.704141E-08  0.925E-04    1.54      19.4  T
   9    -38.2964475 -0.205441E-08  0.383E-04    1.54      46.9  T
     SCC iter.                  ...        0 min,  0.377 sec
     gradient                   ...        0 min,  0.066 sec
 * total energy  :   -37.6505966 Eh     change       -0.9638337E-03 Eh
   gradient norm :     0.0106051 Eh/α   predicted    -0.8050690E-03 ( -16.47%)
   displ. norm   :     0.6198248 α      lambda       -0.1353896E-02
   maximum displ.:     0.3403645 α      in ANC's #9, #7, #3, ...

........................................................................
.............................. CYCLE   20 ..............................
........................................................................
   1    -38.2878711 -0.382879E+02  0.209E-01    1.54       0.0  T
   2    -38.2879020 -0.309014E-04  0.115E-01    1.57       1.0  T
   3    -38.2878915  0.105261E-04  0.746E-02    1.55       1.0  T
   4    -38.2879141 -0.226242E-04  0.186E-02    1.56       1.0  T
   5    -38.2879151 -0.981443E-06  0.138E-02    1.56       1.3  T
   6    -38.2879155 -0.391696E-06  0.570E-03    1.56       3.1  T
   7    -38.2879159 -0.384971E-06  0.274E-03    1.56       6.6  T
   8    -38.2879159 -0.801244E-09  0.238E-03    1.56       7.5  T
   9    -38.2879159 -0.201414E-07  0.868E-04    1.56      20.7  T
  10    -38.2879159 -0.162001E-08  0.316E-04    1.56      56.8  T
     SCC iter.                  ...        0 min,  0.449 sec
     gradient                   ...        0 min,  0.118 sec
 * total energy  :   -37.6512720 Eh     change       -0.6754406E-03 Eh
   gradient norm :     0.0210733 Eh/α   predicted    -0.9370198E-03 (  38.73%)
   displ. norm   :     0.2157834 α      lambda       -0.1071775E-02
   maximum displ.:     0.1143174 α      in ANC's #9, #6, #4, ...
 * RMSD in coord.:     0.7912970 α      energy gain  -0.9924188E+00 Eh

generating ANC from model Hessian ...
Using Lindh-Hessian (1995)
 Shifting diagonal of input Hessian by    9.7755295264939316E-003
 Lowest  eigenvalues of input Hessian
    0.000000    0.000000    0.000000    0.000000    0.000000    0.000000
    0.010000    0.010151    0.010374    0.010490    0.011326    0.011405
    0.011531    0.011790    0.013690    0.016635    0.016917    0.017145
 Highest eigenvalues
    1.735650    1.739356    1.740020    1.746482    2.524154    3.414117


........................................................................
.............................. CYCLE   21 ..............................
........................................................................
   1    -38.2966283 -0.382966E+02  0.115E-01    1.58       0.0  T
   2    -38.2966433 -0.149827E-04  0.625E-02    1.56       1.0  T
   3    -38.2966420  0.136739E-05  0.488E-02    1.58       1.0  T
   4    -38.2966512 -0.920884E-05  0.118E-02    1.57       1.5  T
   5    -38.2966514 -0.223528E-06  0.878E-03    1.57       2.0  T
   6    -38.2966517 -0.297225E-06  0.317E-03    1.57       5.7  T
   7    -38.2966517 -0.446274E-07  0.140E-03    1.57      12.8  T
   8    -38.2966517 -0.185200E-08  0.884E-04    1.57      20.3  T
   9    -38.2966517 -0.166702E-08  0.412E-04    1.57      43.6  T
     SCC iter.                  ...        0 min,  0.474 sec
     gradient                   ...        0 min,  0.113 sec
 * total energy  :   -37.6520058 Eh     change       -0.7337139E-03 Eh
   gradient norm :     0.0149205 Eh/α   predicted     0.0000000E+00 (-100.00%)
   displ. norm   :     0.2226953 α      lambda       -0.9408989E-03
   maximum displ.:     0.1298260 α      in ANC's #4, #2, #5, ...

........................................................................
.............................. CYCLE   22 ..............................
........................................................................
   1    -38.3015195 -0.383015E+02  0.124E-01    1.59       0.0  T
   2    -38.3015242 -0.470017E-05  0.742E-02    1.58       1.0  T
   3    -38.3015198  0.434823E-05  0.379E-02    1.59       1.0  T
   4    -38.3015264 -0.659820E-05  0.991E-03    1.58       1.8  T
   5    -38.3015263  0.175871E-06  0.646E-03    1.59       2.8  T
   6    -38.3015267 -0.432362E-06  0.244E-03    1.58       7.4  T
   7    -38.3015267 -0.202615E-07  0.176E-03    1.58      10.2  T
   8    -38.3015267  0.711523E-09  0.104E-03    1.58      17.2  T
   9    -38.3015267 -0.566602E-08  0.515E-04    1.58      34.9  T
  10    -38.3015267 -0.161411E-08  0.154E-04    1.58     116.5  T
     SCC iter.                  ...        0 min,  0.502 sec
     gradient                   ...        0 min,  0.120 sec
 * total energy  :   -37.6526980 Eh     change       -0.6922864E-03 Eh
   gradient norm :     0.0045328 Eh/α   predicted    -0.4938149E-03 ( -28.67%)
   displ. norm   :     0.3599845 α      lambda       -0.8179134E-03
   maximum displ.:     0.2185912 α      in ANC's #4, #2, #5, ...

........................................................................
.............................. CYCLE   23 ..............................
........................................................................
   1    -38.3037576 -0.383038E+02  0.125E-01    1.60       0.0  T
   2    -38.3037615 -0.383079E-05  0.749E-02    1.60       1.0  T
   3    -38.3037543  0.710551E-05  0.316E-02    1.60       1.0  T
   4    -38.3037634 -0.900622E-05  0.776E-03    1.60       2.3  T
   5    -38.3037633  0.966602E-07  0.499E-03    1.60       3.6  T
   6    -38.3037635 -0.223104E-06  0.199E-03    1.60       9.0  T
   7    -38.3037635 -0.239588E-07  0.129E-03    1.60      13.9  T
   8    -38.3037635  0.184431E-08  0.819E-04    1.60      21.9  T
   9    -38.3037635 -0.345700E-08  0.282E-04    1.60      63.8  T
     SCC iter.                  ...        0 min,  0.646 sec
     gradient                   ...        0 min,  0.117 sec
 * total energy  :   -37.6533774 Eh     change       -0.6793262E-03 Eh
   gradient norm :     0.0079749 Eh/α   predicted    -0.4619536E-03 ( -32.00%)
   displ. norm   :     0.5226768 α      lambda       -0.9573767E-03
   maximum displ.:     0.3098347 α      in ANC's #4, #2, #5, ...

........................................................................
.............................. CYCLE   24 ..............................
........................................................................
   1    -38.3013044 -0.383013E+02  0.147E-01    1.61       0.0  T
   2    -38.3013108 -0.640774E-05  0.914E-02    1.62       1.0  T
   3    -38.3012988  0.119879E-04  0.335E-02    1.62       1.0  T
   4    -38.3013139 -0.151366E-04  0.916E-03    1.62       2.0  T
   5    -38.3013140 -0.416009E-07  0.571E-03    1.62       3.1  T
   6    -38.3013142 -0.190170E-06  0.266E-03    1.62       6.8  T
   7    -38.3013142 -0.301963E-07  0.166E-03    1.62      10.8  T
   8    -38.3013142  0.224887E-10  0.947E-04    1.62      19.0  T
   9    -38.3013142 -0.605348E-08  0.295E-04    1.62      60.9  T
     SCC iter.                  ...        0 min,  0.456 sec
     gradient                   ...        0 min,  0.111 sec
 * total energy  :   -37.6541968 Eh     change       -0.8194173E-03 Eh
   gradient norm :     0.0109711 Eh/α   predicted    -0.6094622E-03 ( -25.62%)
   displ. norm   :     0.5782690 α      lambda       -0.1003721E-02
   maximum displ.:     0.3490984 α      in ANC's #4, #2, #1, ...

........................................................................
.............................. CYCLE   25 ..............................
........................................................................
   1    -38.2970668 -0.382971E+02  0.157E-01    1.64       0.0  T
   2    -38.2970747 -0.783393E-05  0.981E-02    1.64       1.0  T
   3    -38.2970603  0.143549E-04  0.422E-02    1.64       1.0  T
   4    -38.2970784 -0.181254E-04  0.118E-02    1.64       1.5  T
   5    -38.2970783  0.926223E-07  0.781E-03    1.64       2.3  T
   6    -38.2970787 -0.357651E-06  0.327E-03    1.64       5.5  T
   7    -38.2970788 -0.104689E-06  0.175E-03    1.64      10.3  T
   8    -38.2970788 -0.110643E-08  0.900E-04    1.64      19.9  T
   9    -38.2970788 -0.323593E-08  0.305E-04    1.64      58.9  T
     SCC iter.                  ...        0 min,  0.412 sec
     gradient                   ...        0 min,  0.072 sec
 * total energy  :   -37.6549900 Eh     change       -0.7932276E-03 Eh
   gradient norm :     0.0127500 Eh/α   predicted    -0.6696825E-03 ( -15.57%)
   displ. norm   :     0.4993952 α      lambda       -0.8924761E-03
   maximum displ.:     0.3078917 α      in ANC's #2, #4, #1, ...

........................................................................
.............................. CYCLE   26 ..............................
........................................................................
   1    -38.2972182 -0.382972E+02  0.143E-01    1.66       0.0  T
   2    -38.2972245 -0.629150E-05  0.860E-02    1.65       1.0  T
   3    -38.2972158  0.862594E-05  0.433E-02    1.66       1.0  T
   4    -38.2972270 -0.111750E-04  0.114E-02    1.66       1.6  T
   5    -38.2972273 -0.241032E-06  0.801E-03    1.66       2.2  T
   6    -38.2972273 -0.626625E-07  0.317E-03    1.65       5.7  T
   7    -38.2972275 -0.135974E-06  0.143E-03    1.65      12.6  T
   8    -38.2972275  0.275264E-09  0.701E-04    1.65      25.6  T
   9    -38.2972275 -0.234613E-08  0.312E-04    1.65      57.6  T
     SCC iter.                  ...        0 min,  0.486 sec
     gradient                   ...        0 min,  0.117 sec
 * total energy  :   -37.6556548 Eh     change       -0.6647487E-03 Eh
   gradient norm :     0.0117618 Eh/α   predicted    -0.5575279E-03 ( -16.13%)
   displ. norm   :     0.4246712 α      lambda       -0.7222120E-03
   maximum displ.:     0.2836401 α      in ANC's #2, #4, #1, ...

........................................................................
.............................. CYCLE   27 ..............................
........................................................................
   1    -38.3011414 -0.383011E+02  0.122E-01    1.67       0.0  T
   2    -38.3011438 -0.238155E-05  0.790E-02    1.67       1.0  T
   3    -38.3011349  0.885743E-05  0.233E-02    1.67       1.0  T
   4    -38.3011449 -0.996393E-05  0.778E-03    1.67       2.3  T
   5    -38.3011450 -0.101940E-06  0.495E-03    1.67       3.6  T
   6    -38.3011450 -0.305723E-07  0.159E-03    1.67      11.3  T
   7    -38.3011451 -0.588613E-07  0.693E-04    1.67      25.9  T
   8    -38.3011451 -0.193842E-08  0.424E-04    1.67      42.3  T
     SCC iter.                  ...        0 min,  0.320 sec
     gradient                   ...        0 min,  0.118 sec
 * total energy  :   -37.6561768 Eh     change       -0.5220426E-03 Eh
   gradient norm :     0.0082122 Eh/α   predicted    -0.4262299E-03 ( -18.35%)
   displ. norm   :     0.4049321 α      lambda       -0.4757456E-03
   maximum displ.:     0.2732020 α      in ANC's #2, #4, #1, ...

........................................................................
.............................. CYCLE   28 ..............................
........................................................................
   1    -38.3046251 -0.383046E+02  0.123E-01    1.69       0.0  T
   2    -38.3046293 -0.417893E-05  0.768E-02    1.68       1.0  T
   3    -38.3046254  0.388897E-05  0.380E-02    1.69       1.0  T
   4    -38.3046308 -0.539192E-05  0.830E-03    1.69       2.2  T
   5    -38.3046307  0.590441E-07  0.699E-03    1.69       2.6  T
   6    -38.3046309 -0.166841E-06  0.242E-03    1.68       7.4  T
   7    -38.3046309 -0.587770E-07  0.708E-04    1.68      25.4  T
   8    -38.3046309  0.410758E-09  0.503E-04    1.68      35.7  T
     SCC iter.                  ...        0 min,  0.292 sec
     gradient                   ...        0 min,  0.029 sec
 * total energy  :   -37.6565043 Eh     change       -0.3274469E-03 Eh
   gradient norm :     0.0065201 Eh/α   predicted    -0.2768783E-03 ( -15.44%)
   displ. norm   :     0.4058637 α      lambda       -0.3464459E-03
   maximum displ.:     0.2842423 α      in ANC's #2, #1, #4, ...

........................................................................
.............................. CYCLE   29 ..............................
........................................................................
   1    -38.3037925 -0.383038E+02  0.948E-02    1.69       0.0  T
   2    -38.3037954 -0.289979E-05  0.579E-02    1.69       1.0  T
   3    -38.3037916  0.382940E-05  0.272E-02    1.68       1.0  T
   4    -38.3037965 -0.485003E-05  0.721E-03    1.69       2.5  T
   5    -38.3037964  0.120726E-07  0.517E-03    1.69       3.5  T
   6    -38.3037965 -0.100008E-06  0.133E-03    1.69      13.5  T
   7    -38.3037966 -0.267539E-07  0.467E-04    1.69      38.4  T
   8    -38.3037966 -0.691927E-10  0.269E-04    1.69      66.7  T
     SCC iter.                  ...        0 min,  0.351 sec
     gradient                   ...        0 min,  0.058 sec
 * total energy  :   -37.6567094 Eh     change       -0.2051674E-03 Eh
   gradient norm :     0.0058506 Eh/α   predicted    -0.2017590E-03 (  -1.66%)
   displ. norm   :     0.2386303 α      lambda       -0.2791483E-03
   maximum displ.:     0.1791447 α      in ANC's #2, #3, #1, ...

........................................................................
.............................. CYCLE   30 ..............................
........................................................................
   1    -38.3138087 -0.383138E+02  0.668E-02    1.71       0.0  T
   2    -38.3138132 -0.448277E-05  0.458E-02    1.70       1.0  T
   3    -38.3138137 -0.458080E-06  0.259E-02    1.70       1.0  T
   4    -38.3138150 -0.131490E-05  0.680E-03    1.70       2.6  T
   5    -38.3138151 -0.112941E-06  0.437E-03    1.70       4.1  T
   6    -38.3138152 -0.134656E-06  0.153E-03    1.70      11.7  T
   7    -38.3138153 -0.196253E-07  0.836E-04    1.70      21.5  T
   8    -38.3138153 -0.832770E-09  0.542E-04    1.70      33.1  T
     SCC iter.                  ...        0 min,  0.383 sec
     gradient                   ...        0 min,  0.094 sec
 * total energy  :   -37.6567750 Eh     change       -0.6554123E-04 Eh
   gradient norm :     0.0101227 Eh/α   predicted    -0.1475229E-03 ( 125.08%)
   displ. norm   :     0.2523489 α      lambda       -0.2390545E-03
   maximum displ.:     0.1745466 α      in ANC's #2, #4, #1, ...

........................................................................
.............................. CYCLE   31 ..............................
........................................................................
   1    -38.3073946 -0.383074E+02  0.766E-02    1.69       0.0  T
   2    -38.3073965 -0.191985E-05  0.496E-02    1.69       1.0  T
   3    -38.3073936  0.292898E-05  0.197E-02    1.69       1.0  T
   4    -38.3073972 -0.363516E-05  0.765E-03    1.69       2.3  T
   5    -38.3073973 -0.141043E-07  0.495E-03    1.69       3.6  T
   6    -38.3073974 -0.147362E-06  0.162E-03    1.69      11.1  T
   7    -38.3073974 -0.344673E-07  0.764E-04    1.69      23.5  T
   8    -38.3073974  0.950131E-09  0.511E-04    1.69      35.1  T
     SCC iter.                  ...        0 min,  0.457 sec
     gradient                   ...        0 min,  0.121 sec
 * total energy  :   -37.6568919 Eh     change       -0.1169304E-03 Eh
   gradient norm :     0.0056615 Eh/α   predicted    -0.1271390E-03 (   8.73%)
   displ. norm   :     0.0405211 α      lambda       -0.6623239E-04
   maximum displ.:     0.0174276 α      in ANC's #9, #4, #8, ...

........................................................................
.............................. CYCLE   32 ..............................
........................................................................
   1    -38.3078713 -0.383079E+02  0.326E-02    1.68       0.0  T
   2    -38.3078720 -0.767158E-06  0.172E-02    1.69       1.0  T
   3    -38.3078719  0.155481E-06  0.122E-02    1.68       1.5  T
   4    -38.3078723 -0.387803E-06  0.317E-03    1.69       5.7  T
   5    -38.3078723 -0.102027E-07  0.269E-03    1.69       6.7  T
   6    -38.3078723 -0.302253E-08  0.993E-04    1.69      18.1  T
   7    -38.3078723 -0.947423E-08  0.218E-04    1.69      82.4  T
     SCC iter.                  ...        0 min,  0.309 sec
     gradient                   ...        0 min,  0.103 sec
 * total energy  :   -37.6569391 Eh     change       -0.4715816E-04 Eh
   gradient norm :     0.0026805 Eh/α   predicted    -0.3317167E-04 ( -29.66%)
   displ. norm   :     0.1217105 α      lambda       -0.8489178E-04
   maximum displ.:     0.0979824 α      in ANC's #2, #4, #7, ...

........................................................................
.............................. CYCLE   33 ..............................
........................................................................
   1    -38.3083673 -0.383084E+02  0.400E-02    1.68       0.0  T
   2    -38.3083686 -0.123682E-05  0.213E-02    1.69       1.0  T
   3    -38.3083676  0.959521E-06  0.162E-02    1.68       1.1  T
   4    -38.3083692 -0.158209E-05  0.456E-03    1.69       3.9  T
   5    -38.3083692 -0.415187E-07  0.343E-03    1.69       5.2  T
   6    -38.3083693 -0.864954E-08  0.112E-03    1.69      16.0  T
   7    -38.3083693 -0.181457E-07  0.281E-04    1.69      63.8  T
   8    -38.3083693 -0.822084E-09  0.164E-04    1.69     109.7  T
     SCC iter.                  ...        0 min,  0.342 sec
     gradient                   ...        0 min,  0.118 sec
 * total energy  :   -37.6570019 Eh     change       -0.6285191E-04 Eh
   gradient norm :     0.0025947 Eh/α   predicted    -0.4307744E-04 ( -31.46%)
   displ. norm   :     0.1594513 α      lambda       -0.9509102E-04
   maximum displ.:     0.1010610 α      in ANC's #2, #5, #4, ...

........................................................................
.............................. CYCLE   34 ..............................
........................................................................
   1    -38.3093186 -0.383093E+02  0.476E-02    1.68       0.0  T
   2    -38.3093196 -0.104566E-05  0.277E-02    1.68       1.0  T
   3    -38.3093174  0.223290E-05  0.170E-02    1.68       1.1  T
   4    -38.3093202 -0.285358E-05  0.395E-03    1.68       4.5  T
   5    -38.3093203 -0.647500E-07  0.263E-03    1.68       6.8  T
   6    -38.3093203 -0.556705E-08  0.999E-04    1.68      18.0  T
   7    -38.3093203 -0.136495E-07  0.235E-04    1.68      76.3  T
     SCC iter.                  ...        0 min,  0.263 sec
     gradient                   ...        0 min,  0.041 sec
 * total energy  :   -37.6570742 Eh     change       -0.7227618E-04 Eh
   gradient norm :     0.0044171 Eh/α   predicted    -0.4875489E-04 ( -32.54%)
   displ. norm   :     0.3011072 α      lambda       -0.1435911E-03
   maximum displ.:     0.2249106 α      in ANC's #2, #5, #4, ...

........................................................................
.............................. CYCLE   35 ..............................
........................................................................
   1    -38.3078074 -0.383078E+02  0.738E-02    1.67       0.0  T
   2    -38.3078091 -0.169184E-05  0.436E-02    1.68       1.0  T
   3    -38.3078034  0.572694E-05  0.251E-02    1.67       1.0  T
   4    -38.3078103 -0.696752E-05  0.560E-03    1.67       3.2  T
   5    -38.3078104 -0.100741E-06  0.382E-03    1.67       4.7  T
   6    -38.3078105 -0.393280E-07  0.129E-03    1.67      13.9  T
   7    -38.3078105 -0.203991E-07  0.433E-04    1.67      41.4  T
   8    -38.3078105 -0.420677E-09  0.290E-04    1.67      61.9  T
     SCC iter.                  ...        0 min,  0.321 sec
     gradient                   ...        0 min,  0.036 sec
 * total energy  :   -37.6571710 Eh     change       -0.9677190E-04 Eh
   gradient norm :     0.0058948 Eh/α   predicted    -0.7830719E-04 ( -19.08%)
   displ. norm   :     0.1983272 α      lambda       -0.1010496E-03
   maximum displ.:     0.1326360 α      in ANC's #2, #5, #4, ...

........................................................................
.............................. CYCLE   36 ..............................
........................................................................
   1    -38.3075051 -0.383075E+02  0.514E-02    1.67       0.0  T
   2    -38.3075057 -0.552905E-06  0.313E-02    1.67       1.0  T
   3    -38.3075032  0.242094E-05  0.123E-02    1.67       1.5  T
   4    -38.3075060 -0.273874E-05  0.348E-03    1.67       5.2  T
   5    -38.3075060 -0.469922E-07  0.217E-03    1.67       8.3  T
   6    -38.3075060 -0.165579E-07  0.633E-04    1.67      28.4  T
   7    -38.3075060 -0.529310E-08  0.249E-04    1.67      72.2  T
     SCC iter.                  ...        0 min,  0.315 sec
     gradient                   ...        0 min,  0.042 sec
 * total energy  :   -37.6572421 Eh     change       -0.7116411E-04 Eh
   gradient norm :     0.0049996 Eh/α   predicted    -0.5251323E-04 ( -26.21%)
   displ. norm   :     0.1263095 α      lambda       -0.8668772E-04
   maximum displ.:     0.0765355 α      in ANC's #2, #5, #4, ...

........................................................................
.............................. CYCLE   37 ..............................
........................................................................
   1    -38.3078692 -0.383079E+02  0.476E-02    1.67       0.0  T
   2    -38.3078707 -0.150699E-05  0.270E-02    1.67       1.0  T
   3    -38.3078695  0.113287E-05  0.158E-02    1.67       1.1  T
   4    -38.3078715 -0.192839E-05  0.378E-03    1.67       4.8  T
   5    -38.3078715 -0.367759E-07  0.300E-03    1.67       6.0  T
   6    -38.3078715  0.860609E-10  0.124E-03    1.67      14.5  T
   7    -38.3078715 -0.992496E-08  0.390E-04    1.67      46.0  T
   8    -38.3078715 -0.103420E-08  0.203E-04    1.67      88.7  T
     SCC iter.                  ...        0 min,  0.342 sec
     gradient                   ...        0 min,  0.058 sec
 * total energy  :   -37.6572905 Eh     change       -0.4839017E-04 Eh
   gradient norm :     0.0020816 Eh/α   predicted    -0.4403829E-04 (  -8.99%)
   displ. norm   :     0.0601424 α      lambda       -0.1620565E-04
   maximum displ.:     0.0449848 α      in ANC's #4, #5, #6, ...

........................................................................
.............................. CYCLE   38 ..............................
........................................................................
   1    -38.3079755 -0.383080E+02  0.224E-02    1.66       0.0  T
   2    -38.3079757 -0.197150E-06  0.142E-02    1.66       1.3  T
   3    -38.3079750  0.735770E-06  0.651E-03    1.66       2.8  T
   4    -38.3079759 -0.890338E-06  0.150E-03    1.66      11.9  T
   5    -38.3079759 -0.102965E-07  0.860E-04    1.66      20.9  T
   6    -38.3079759 -0.589900E-09  0.185E-04    1.66      97.2  T
     SCC iter.                  ...        0 min,  0.250 sec
     gradient                   ...        0 min,  0.109 sec
 * total energy  :   -37.6573015 Eh     change       -0.1099541E-04 Eh
   gradient norm :     0.0014005 Eh/α   predicted    -0.8135049E-05 ( -26.01%)
   displ. norm   :     0.1000406 α      lambda       -0.1602256E-04
   maximum displ.:     0.0822850 α      in ANC's #4, #5, #2, ...

........................................................................
.............................. CYCLE   39 ..............................
........................................................................
   1    -38.3074616 -0.383075E+02  0.348E-02    1.65       0.0  T
   2    -38.3074622 -0.638558E-06  0.225E-02    1.65       1.0  T
   3    -38.3074600  0.228239E-05  0.113E-02    1.65       1.6  T
   4    -38.3074629 -0.289598E-05  0.211E-03    1.65       8.5  T
   5    -38.3074629 -0.209891E-07  0.122E-03    1.65      14.8  T
   6    -38.3074629 -0.739865E-08  0.341E-04    1.65      52.6  T
   7    -38.3074629 -0.134653E-08  0.181E-04    1.65      99.4  T
     SCC iter.                  ...        0 min,  0.356 sec
     gradient                   ...        0 min,  0.091 sec
 * total energy  :   -37.6573150 Eh     change       -0.1349826E-04 Eh
   gradient norm :     0.0016068 Eh/α   predicted    -0.8050895E-05 ( -40.36%)
   displ. norm   :     0.0508978 α      lambda       -0.8814963E-05
   maximum displ.:     0.0380088 α      in ANC's #4, #7, #2, ...

........................................................................
.............................. CYCLE   40 ..............................
........................................................................
   1    -38.3080060 -0.383080E+02  0.172E-02    1.65       0.0  T
   2    -38.3080061 -0.106763E-06  0.107E-02    1.65       1.7  T
   3    -38.3080059  0.276059E-06  0.450E-03    1.65       4.0  T
   4    -38.3080062 -0.338432E-06  0.117E-03    1.65      15.3  T
   5    -38.3080062 -0.373544E-08  0.747E-04    1.65      24.0  T
   6    -38.3080062 -0.175528E-08  0.305E-04    1.65      58.8  T
     SCC iter.                  ...        0 min,  0.248 sec
     gradient                   ...        0 min,  0.110 sec
 * total energy  :   -37.6573244 Eh     change       -0.9374416E-05 Eh
   gradient norm :     0.0009292 Eh/α   predicted    -0.4414391E-05 ( -52.91%)
   displ. norm   :     0.1030455 α      lambda       -0.1227503E-04
   maximum displ.:     0.0869522 α      in ANC's #4, #2, #7, ...

........................................................................
.............................. CYCLE   41 ..............................
........................................................................
   1    -38.3072473 -0.383072E+02  0.350E-02    1.64       0.0  T
   2    -38.3072476 -0.329922E-06  0.211E-02    1.65       1.0  T
   3    -38.3072468  0.776283E-06  0.114E-02    1.64       1.6  T
   4    -38.3072478 -0.944716E-06  0.240E-03    1.65       7.5  T
   5    -38.3072478 -0.645235E-07  0.144E-03    1.65      12.5  T
   6    -38.3072478 -0.775849E-09  0.637E-04    1.65      28.2  T
   7    -38.3072478 -0.546954E-08  0.220E-04    1.65      81.6  T
     SCC iter.                  ...        0 min,  0.348 sec
     gradient                   ...        0 min,  0.086 sec
 * total energy  :   -37.6573341 Eh     change       -0.9696342E-05 Eh
   gradient norm :     0.0013718 Eh/α   predicted    -0.6170479E-05 ( -36.36%)
   displ. norm   :     0.0619095 α      lambda       -0.8122745E-05
   maximum displ.:     0.0383297 α      in ANC's #4, #5, #7, ...

........................................................................
.............................. CYCLE   42 ..............................
........................................................................
   1    -38.3078304 -0.383078E+02  0.235E-02    1.65       0.0  T
   2    -38.3078305 -0.175405E-06  0.145E-02    1.65       1.2  T
   3    -38.3078300  0.556265E-06  0.521E-03    1.65       3.4  T
   4    -38.3078306 -0.660351E-06  0.169E-03    1.65      10.6  T
   5    -38.3078306 -0.947468E-08  0.102E-03    1.65      17.6  T
   6    -38.3078306  0.965194E-09  0.383E-04    1.65      46.9  T
   7    -38.3078306 -0.193767E-08  0.195E-04    1.65      91.9  T
     SCC iter.                  ...        0 min,  0.341 sec
     gradient                   ...        0 min,  0.120 sec
 * total energy  :   -37.6573417 Eh     change       -0.7664729E-05 Eh
   gradient norm :     0.0010557 Eh/α   predicted    -0.4072622E-05 ( -46.87%)
   displ. norm   :     0.0534084 α      lambda       -0.4774746E-05
   maximum displ.:     0.0293022 α      in ANC's #4, #2, #1, ...
 * RMSD in coord.:     0.6949532 α      energy gain  -0.6069690E-02 Eh

generating ANC from model Hessian ...
Using Lindh-Hessian (1995)
 Shifting diagonal of input Hessian by    9.6558796488929542E-003
 Lowest  eigenvalues of input Hessian
    0.000000    0.000000    0.000000    0.000000    0.000000    0.000000
    0.010000    0.010174    0.010469    0.010497    0.011319    0.011414
    0.011535    0.011804    0.013882    0.016779    0.017014    0.017105
 Highest eigenvalues
    1.739576    1.740072    1.746082    1.746230    2.534633    3.446317


........................................................................
.............................. CYCLE   43 ..............................
........................................................................
   1    -38.3079124 -0.383079E+02  0.262E-02    1.64       0.0  T
   2    -38.3079125 -0.125124E-06  0.170E-02    1.64       1.1  T
   3    -38.3079115  0.997696E-06  0.753E-03    1.64       2.4  T
   4    -38.3079127 -0.114246E-05  0.145E-03    1.64      12.4  T
   5    -38.3079127 -0.475671E-08  0.853E-04    1.64      21.0  T
   6    -38.3079127 -0.463217E-08  0.262E-04    1.64      68.5  T
     SCC iter.                  ...        0 min,  0.156 sec
     gradient                   ...        0 min,  0.039 sec
 * total energy  :   -37.6573465 Eh     change       -0.4722339E-05 Eh
   gradient norm :     0.0005018 Eh/α   predicted     0.0000000E+00 (-100.00%)
   displ. norm   :     0.0124371 α      lambda       -0.1122549E-05
   maximum displ.:     0.0076401 α      in ANC's #1, #3, #6, ...

   *** GEOMETRY OPTIMIZATION CONVERGED AFTER 43 ITERATIONS ***

------------------------------------------------------------------------
 total energy gain   :        -0.9984932 Eh     -626.5639 kcal/mol
 total RMSD          :         1.2659018 a0        0.6699 Å
 total power (kW/mol):       -60.9661289 (step) -107.7684 (real)
------------------------------------------------------------------------

 ANCopt (total)                0 d,  0 h,  0 min, 24.326 sec
 optimizer setup                ...        0 min,  0.000 sec (  0.002%)
 model hessian                  ...        0 min,  0.066 sec (  0.270%)
 ANC generation                 ...        0 min,  0.020 sec (  0.084%)
 coordinate transformation      ...        0 min,  0.001 sec (  0.003%)
 single point calculation       ...        0 min, 23.843 sec ( 98.017%)
 optimization log               ...        0 min,  0.004 sec (  0.018%)
 hessian update                 ...        0 min,  0.296 sec (  1.215%)
 rational function              ...        0 min,  0.084 sec (  0.347%)

================
 final structure:
================
31
 xtb: 6.5.1 (b24c23e)
Zr          -1.33516490687183       -0.01469892941741        0.40781800719833
C           -1.09618986489797        1.14231537798380       -1.46642866228213
C            0.23459820139921       -1.90845430900331        0.89609692812073
C            0.37274553775682       -1.55747151848602       -0.46856625960269
C           -0.83458159551481       -1.89914735932821       -1.12783779972458
C           -1.72117303750420       -2.43519840152402       -0.16299434537479
C           -1.06662527019969       -2.41759499953367        1.09350244402787
H            1.03627804314594       -1.92281863974188        1.62362557445322
H            1.29422655603334       -1.25282487406338       -0.95316867853905
H           -0.98370066167102       -1.90964722676036       -2.20036531813721
H           -2.62677155144200       -2.98397225104736       -0.38620598058060
H           -1.42881472762568       -2.89334871289518        1.99836971108714
C           -0.56703111254781        0.27782181981363        2.77549245945533
C           -1.78898783744368        0.96944702769444        2.65248493823700
C           -1.58838336072176        2.05502224026782        1.75775288161113
C           -0.24307611748606        2.01555906586900        1.31902296606829
C            0.38685693051130        0.91336236076127        1.94244229591227
H           -0.35799574723091       -0.50280309294724        3.49716634043325
H           -2.65714639190154        0.81507932315974        3.28466188820042
H           -2.26803191900660        2.88183994836962        1.59361644930470
H            0.25783167374598        2.78602883461682        0.74560452623156
H            1.45037702154765        0.70475576993082        1.91542962747663
H           -0.03545613673026        1.15865948228405       -1.76969405044900
H           -1.65528267627918        0.70907988515975       -2.31183546689350
H           -1.40985374687335        2.19545728979174       -1.39138456547704
C           -3.78686181324934       -0.49413562110295       -0.11884033754472
C           -3.75615066521422        0.78914036262003        0.27679505124557
H           -4.12506494929326        1.07129888709638        1.25938311288428
H           -3.63092085939483        1.59467296918439       -0.44593330980462
H           -4.16299559434553       -1.26647914499950        0.55073916209595
H           -3.69173378069595       -0.75141061374467       -1.17366526963303

 Bond Distances (Angstroems)
 ---------------------------
Zr1-C2=2.2155        Zr1-C3=2.5078        Zr1-C4=2.4628        Zr1-C5=2.4819        Zr1-C6=2.5167        Zr1-C7=2.5132        
Zr1-C13=2.5063       Zr1-C14=2.4926       Zr1-C15=2.4840       Zr1-C16=2.4789       Zr1-C17=2.4863       Zr1-C26=2.5530       
Zr1-C27=2.5543       C2-Zr1=2.2155        C2-H23=1.1034        C2-H24=1.1023        C2-H25=1.1014        C3-Zr1=2.5078        
C3-C4=1.4158         C3-C7=1.4112         C3-H8=1.0827         C4-Zr1=2.4628        C4-C3=1.4158         C4-C5=1.4174         
C4-H9=1.0848         C5-Zr1=2.4819        C5-C4=1.4174         C5-C6=1.4157         C5-H10=1.0829        C6-Zr1=2.5167        
C6-C5=1.4157         C6-C7=1.4169         C6-H11=1.0822        C7-Zr1=2.5132        C7-C3=1.4112         C7-C6=1.4169         
C7-H12=1.0846        H8-C3=1.0827         H9-C4=1.0848         H10-C5=1.0829        H11-C6=1.0822        H12-C7=1.0846        
C13-Zr1=2.5063       C13-C14=1.4095       C13-C17=1.4170       C13-H18=1.0835       C14-Zr1=2.4926       C14-C13=1.4095       
C14-C15=1.4210       C14-H19=1.0850       C15-Zr1=2.4840       C15-C14=1.4210       C15-C16=1.4156       C15-H20=1.0828       
C16-Zr1=2.4789       C16-C15=1.4156       C16-C17=1.4143       C16-H21=1.0832       C17-Zr1=2.4863       C17-C13=1.4170       
C17-C16=1.4143       C17-H22=1.0841       H18-C13=1.0835       H19-C14=1.0850       H20-C15=1.0828       H21-C16=1.0832       
H22-C17=1.0841       H23-C2=1.1034        H24-C2=1.1023        H25-C2=1.1014        C26-Zr1=2.5530       C26-C27=1.3432       
C26-H30=1.0892       C26-H31=1.0899       C27-Zr1=2.5543       C27-C26=1.3432       C27-H28=1.0868       C27-H29=1.0895       
H28-C27=1.0868       H29-C27=1.0895       H30-C26=1.0892       H31-C26=1.0899       
 C  H  Rav=1.0881 sigma=0.0070  Rmin=1.0822  Rmax=1.1034    17
 C  C  Rav=1.4089 sigma=0.0210  Rmin=1.3432  Rmax=1.4210    11
 Zr C  Rav=2.4810 sigma=0.0810  Rmin=2.2155  Rmax=2.5543    13

 selected bond angles (degree)
 --------------------
C3-Zr1-C2=119.44               C4-Zr1-C2= 87.21               C4-Zr1-C3= 33.08               C5-Zr1-C2= 81.45               
C5-Zr1-C3= 54.61               C5-Zr1-C4= 33.31               C6-Zr1-C2=109.08               C6-Zr1-C3= 54.12               
C6-Zr1-C4= 54.77               C6-Zr1-C5= 32.90               C7-Zr1-C2=135.94               C7-Zr1-C3= 32.65               
C7-Zr1-C4= 54.83               C7-Zr1-C5= 54.64               C7-Zr1-C6= 32.72               C13-Zr1-C2=134.84              
C13-Zr1-C3= 73.28              C13-Zr1-C4=101.35              C13-Zr1-C5=127.68              C13-Zr1-C6=111.93              
C13-Zr1-C7= 79.69              C14-Zr1-C2=125.12              C14-Zr1-C3=103.70              C14-Zr1-C4=133.95              
C14-Zr1-C5=153.34              C14-Zr1-C6=123.78              C14-Zr1-C7= 98.70              C14-Zr1-C13= 32.75             
C15-Zr1-C2= 92.04              C15-Zr1-C3=125.96              C15-Zr1-C4=141.82              C15-Zr1-C5=171.67              
C15-Zr1-C6=155.37              C15-Zr1-C7=131.24              C15-Zr1-C13= 54.59             C15-Zr1-C14= 33.18             
C16-Zr1-C2= 80.55              C16-Zr1-C3=105.73              C16-Zr1-C4=109.78              C16-Zr1-C5=139.50              
C16-Zr1-C6=159.83              C16-Zr1-C7=129.47              C16-Zr1-C13= 54.70             C16-Zr1-C14= 54.96             
C16-Zr1-C15= 33.15             C17-Zr1-C2=104.63              C17-Zr1-C3= 74.23              C17-Zr1-C4= 88.46              
C17-Zr1-C5=121.71              C17-Zr1-C6=127.25              C17-Zr1-C7= 96.57              C17-Zr1-C13= 32.97             
C17-Zr1-C14= 54.75             C17-Zr1-C15= 54.84             C17-Zr1-C16= 33.10             C26-Zr1-C2= 91.56              
C26-Zr1-C3=119.96              C26-Zr1-C4=118.35              C26-Zr1-C5= 85.61              C26-Zr1-C6= 67.99              
C26-Zr1-C7= 88.82              C26-Zr1-C13=120.74             C26-Zr1-C14= 94.88             C26-Zr1-C15= 99.83             
C26-Zr1-C16=130.75             C26-Zr1-C17=149.60             C27-Zr1-C2= 83.94              C27-Zr1-C3=147.24              
C27-Zr1-C4=146.74              C27-Zr1-C5=113.48              C27-Zr1-C6= 98.38              C27-Zr1-C7=114.59              
C27-Zr1-C13=107.59             C27-Zr1-C14= 75.49             C27-Zr1-C15= 70.67             C27-Zr1-C16=100.29             
C27-Zr1-C17=124.80             C27-Zr1-C26= 30.50             H23-C2-Zr1=110.12              H24-C2-Zr1=112.88              
H24-C2-H23=106.42              H25-C2-Zr1=114.27              H25-C2-H23=106.16              H25-C2-H24=106.48              
C4-C3-Zr1= 71.71               C7-C3-Zr1= 73.89               C7-C3-C4=108.32                H8-C3-Zr1=127.18               
H8-C3-C4=125.36                H8-C3-C7=125.73                C3-C4-Zr1= 75.20               C5-C4-Zr1= 74.09               
C5-C4-C3=107.79                H9-C4-Zr1=124.90               H9-C4-C3=125.67                H9-C4-C5=125.69                
C4-C5-Zr1= 72.60               C6-C5-Zr1= 74.90               C6-C5-C4=107.92                H10-C5-Zr1=126.33              
H10-C5-C4=125.47               H10-C5-C6=125.81               C5-C6-Zr1= 72.20               C7-C6-Zr1= 73.50               
C7-C6-C5=108.08                H11-C6-Zr1=131.52              H11-C6-C5=125.13               H11-C6-C7=125.16               
C3-C7-Zr1= 73.47               C6-C7-Zr1= 73.77               C6-C7-C3=107.84                H12-C7-Zr1=127.69              
H12-C7-C3=125.65               H12-C7-C6=125.46               

 selected dihedral angles (degree)
 ---------------------------------
H23-C2-Zr1-C3=329.72          H23-C2-Zr1-C4=321.94          H23-C2-Zr1-C5=288.95          H23-C2-Zr1-C6=270.85          
H23-C2-Zr1-C7=293.53          H23-C2-Zr1-C13= 65.20         H23-C2-Zr1-C14=106.55         H23-C2-Zr1-C15=103.73         
H23-C2-Zr1-C16= 72.53         H23-C2-Zr1-C17= 49.62         H23-C2-Zr1-C26=203.63         H23-C2-Zr1-C27=174.05         
H24-C2-Zr1-C3= 88.49          H24-C2-Zr1-C4= 80.72          H24-C2-Zr1-C5= 47.72          H24-C2-Zr1-C6= 29.62          
H24-C2-Zr1-C7= 52.30          H24-C2-Zr1-C13=183.97         H24-C2-Zr1-C14=225.33         H24-C2-Zr1-C15=222.51         
H24-C2-Zr1-C16=191.30         H24-C2-Zr1-C17=168.40         H24-C2-Zr1-C26=322.40         H24-C2-Zr1-C27=292.82         
H25-C2-Zr1-C3=210.36          H25-C2-Zr1-C4=202.58          H25-C2-Zr1-C5=169.59          H25-C2-Zr1-C6=151.49          
H25-C2-Zr1-C7=174.17          H25-C2-Zr1-C13=305.84         H25-C2-Zr1-C14=347.19         H25-C2-Zr1-C15=344.37         
H25-C2-Zr1-C16=313.17         H25-C2-Zr1-C17=290.26         H25-C2-Zr1-C26= 84.27         H25-C2-Zr1-C27= 54.69         
C4-C3-Zr1-C2=345.67           C4-C3-Zr1-C5= 38.05           C4-C3-Zr1-C6= 78.82           C4-C3-Zr1-C7=116.10           
C4-C3-Zr1-C13=213.14          C4-C3-Zr1-C14=200.83          C4-C3-Zr1-C15=228.28          C4-C3-Zr1-C16=257.79          
C4-C3-Zr1-C17=247.51          C4-C3-Zr1-C26= 96.85          C4-C3-Zr1-C27=116.45          C7-C3-Zr1-C2=229.57           
C7-C3-Zr1-C4=243.90           C7-C3-Zr1-C5=281.95           C7-C3-Zr1-C6=322.72           C7-C3-Zr1-C13= 97.04          
C7-C3-Zr1-C14= 84.73          C7-C3-Zr1-C15=112.18          C7-C3-Zr1-C16=141.68          C7-C3-Zr1-C17=131.41          
C7-C3-Zr1-C26=340.75          C7-C3-Zr1-C27=  0.35          H8-C3-Zr1-C2=106.62           H8-C3-Zr1-C4=120.95           
H8-C3-Zr1-C5=159.00           H8-C3-Zr1-C6=199.77           H8-C3-Zr1-C7=237.05           H8-C3-Zr1-C13=334.09          
H8-C3-Zr1-C14=321.79          H8-C3-Zr1-C15=349.23          H8-C3-Zr1-C16= 18.74          H8-C3-Zr1-C17=  8.46          
H8-C3-Zr1-C26=217.81          H8-C3-Zr1-C27=237.41          C3-C4-Zr1-C2=167.53           C3-C4-Zr1-C5=246.18           
C3-C4-Zr1-C6=283.33           C3-C4-Zr1-C7=323.66           C3-C4-Zr1-C13= 32.28          C3-C4-Zr1-C14= 28.68          
C3-C4-Zr1-C15= 77.78          C3-C4-Zr1-C16= 88.62          C3-C4-Zr1-C17= 62.81          C3-C4-Zr1-C26=257.80          
C3-C4-Zr1-C27=242.05          C5-C4-Zr1-C2=281.35           C5-C4-Zr1-C3=113.82           C5-C4-Zr1-C6= 37.15           
C5-C4-Zr1-C7= 77.48           C5-C4-Zr1-C13=146.09          C5-C4-Zr1-C14=142.50          C5-C4-Zr1-C15=191.60          
C5-C4-Zr1-C16=202.44          C5-C4-Zr1-C17=176.62          C5-C4-Zr1-C26= 11.61          C5-C4-Zr1-C27=355.87          
H9-C4-Zr1-C2= 44.09           H9-C4-Zr1-C3=236.56           H9-C4-Zr1-C5=122.74           H9-C4-Zr1-C6=159.89           
H9-C4-Zr1-C7=200.22           H9-C4-Zr1-C13=268.84          H9-C4-Zr1-C14=265.24          H9-C4-Zr1-C15=314.34          
H9-C4-Zr1-C16=325.18          H9-C4-Zr1-C17=299.37          H9-C4-Zr1-C26=134.36          H9-C4-Zr1-C27=118.61          
Zr1-C4-C3-C7= 65.34           Zr1-C4-C3-H8=236.91           C5-C4-C3-Zr1=292.49           C5-C4-C3-C7=357.83            
C5-C4-C3-H8=169.40            H9-C4-C3-Zr1=122.60           H9-C4-C3-C7=187.94            H9-C4-C3-H8=359.51            
C4-C5-Zr1-C2= 98.00           C4-C5-Zr1-C3=322.23           C4-C5-Zr1-C6=245.26           C4-C5-Zr1-C7=281.90           
C4-C5-Zr1-C13=316.28          C4-C5-Zr1-C14=282.37          C4-C5-Zr1-C15= 59.12          C4-C5-Zr1-C16= 33.58          
C4-C5-Zr1-C17=356.03          C4-C5-Zr1-C26=190.23          C4-C5-Zr1-C27=177.53          C6-C5-Zr1-C2=212.74           
C6-C5-Zr1-C3= 76.97           C6-C5-Zr1-C4=114.74           C6-C5-Zr1-C7= 36.64           C6-C5-Zr1-C13= 71.02          
C6-C5-Zr1-C14= 37.11          C6-C5-Zr1-C15=173.86          C6-C5-Zr1-C16=148.32          C6-C5-Zr1-C17=110.78          
C6-C5-Zr1-C26=304.98          C6-C5-Zr1-C27=292.27          H10-C5-Zr1-C2=336.37          H10-C5-Zr1-C3=200.60          
H10-C5-Zr1-C4=238.37          H10-C5-Zr1-C6=123.63          H10-C5-Zr1-C7=160.27          H10-C5-Zr1-C13=194.65         
H10-C5-Zr1-C14=160.74         H10-C5-Zr1-C15=297.49         H10-C5-Zr1-C16=271.95         H10-C5-Zr1-C17=234.40         
H10-C5-Zr1-C26= 68.61         H10-C5-Zr1-C27= 55.90         Zr1-C5-C4-C3= 68.26           Zr1-C5-C4-H9=238.15           
C6-C5-C4-Zr1=292.85           C6-C5-C4-C3=  1.11            C6-C5-C4-H9=170.99            H10-C5-C4-Zr1=122.62          
H10-C5-C4-C3=190.88           H10-C5-C4-H9=  0.76           C5-C6-Zr1-C2= 34.46           C5-C6-Zr1-C3=281.40           
C5-C6-Zr1-C4=322.37           C5-C6-Zr1-C7=244.21           C5-C6-Zr1-C13=233.78          C5-C6-Zr1-C14=199.01          
C5-C6-Zr1-C15=182.13          C5-C6-Zr1-C16=278.51          C5-C6-Zr1-C17=267.69          C5-C6-Zr1-C26=118.22          
C5-C6-Zr1-C27=120.91          C7-C6-Zr1-C2=150.25           C7-C6-Zr1-C3= 37.19           C7-C6-Zr1-C4= 78.15           
C7-C6-Zr1-C5=115.79           C7-C6-Zr1-C13=349.57          C7-C6-Zr1-C14=314.80          C7-C6-Zr1-C15=297.92          
C7-C6-Zr1-C16= 34.30          C7-C6-Zr1-C17= 23.48          C7-C6-Zr1-C26=234.00          C7-C6-Zr1-C27=236.70          
H11-C6-Zr1-C2=272.93          H11-C6-Zr1-C3=159.86          H11-C6-Zr1-C4=200.83          H11-C6-Zr1-C5=238.46          
H11-C6-Zr1-C7=122.68          H11-C6-Zr1-C13=112.24         H11-C6-Zr1-C14= 77.47         H11-C6-Zr1-C15= 60.59         
H11-C6-Zr1-C16=156.97         H11-C6-Zr1-C17=146.15         H11-C6-Zr1-C26=356.68         H11-C6-Zr1-C27=359.38         
Zr1-C6-C5-C4= 65.62           Zr1-C6-C5-H10=235.81          C7-C6-C5-Zr1=294.74           C7-C6-C5-C4=  0.36            
C7-C6-C5-H10=170.55           H11-C6-C5-Zr1=128.71          H11-C6-C5-C4=194.33           H11-C6-C5-H10=  4.52          
C3-C7-Zr1-C2= 72.39           C3-C7-Zr1-C4= 36.84           C3-C7-Zr1-C5= 77.95           C3-C7-Zr1-C6=114.79           
C3-C7-Zr1-C13=284.96          C3-C7-Zr1-C14=258.16          C3-C7-Zr1-C15=265.46          C3-C7-Zr1-C16=309.37          
C3-C7-Zr1-C17=313.40          C3-C7-Zr1-C26=163.40          C3-C7-Zr1-C27=180.21          C6-C7-Zr1-C2=317.60           
C6-C7-Zr1-C3=245.21           C6-C7-Zr1-C4=282.05           C6-C7-Zr1-C5=323.16           C6-C7-Zr1-C13=170.17          
C6-C7-Zr1-C14=143.37          C6-C7-Zr1-C15=150.67          C6-C7-Zr1-C16=194.58          C6-C7-Zr1-C17=198.61          
C6-C7-Zr1-C26= 48.61          C6-C7-Zr1-C27= 65.42          H12-C7-Zr1-C2=195.01          H12-C7-Zr1-C3=122.62          
H12-C7-Zr1-C4=159.46          H12-C7-Zr1-C5=200.56          H12-C7-Zr1-C6=237.41          H12-C7-Zr1-C13= 47.58         
H12-C7-Zr1-C14= 20.77         H12-C7-Zr1-C15= 28.08         H12-C7-Zr1-C16= 71.98         H12-C7-Zr1-C17= 76.02         
H12-C7-Zr1-C26=286.02         H12-C7-Zr1-C27=302.83         Zr1-C7-C3-C4=296.08           Zr1-C7-C3-H8=124.55           
C6-C7-C3-Zr1= 66.31           C6-C7-C3-C4=  2.39            C6-C7-C3-H8=190.86            H12-C7-C3-Zr1=235.12          
H12-C7-C3-C4=171.20           H12-C7-C3-H8=359.67           Zr1-C7-C6-C5= 64.40           Zr1-C7-C6-H11=230.43          
C3-C7-C6-Zr1=293.89           C3-C7-C6-C5=358.30            C3-C7-C6-H11=164.33           H12-C7-C6-Zr1=125.06          
H12-C7-C6-C5=189.46           H12-C7-C6-H11=355.49          

 CMA Distance (Angstroems)
 ---------------------------
R(CMA):  2.9066
           -------------------------------------------------
          |                Final Singlepoint                |
           -------------------------------------------------

          ...................................................
          :                      SETUP                      :
          :.................................................:
          :  # basis functions                  79          :
          :  # atomic orbitals                  78          :
          :  # shells                           46          :
          :  # electrons                        72          :
          :  max. iterations                   250          :
          :  Hamiltonian                  GFN2-xTB          :
          :  restarted?                      false          :
          :  GBSA solvation                  false          :
          :  PC potential                    false          :
          :  electronic temp.          300.0000000     K    :
          :  accuracy                    1.0000000          :
          :  -> integral cutoff          0.2500000E+02      :
          :  -> integral neglect         0.1000000E-07      :
          :  -> SCF convergence          0.1000000E-05 Eh   :
          :  -> wf. convergence          0.1000000E-03 e    :
          :  Broyden damping             0.4000000          :
          ...................................................

 iter      E             dE          RMSdq      gap      omega  full diag
   1    -38.3079127 -0.383079E+02  0.138E-04    1.64       0.0  T
   2    -38.3079127 -0.169109E-10  0.964E-05    1.64     186.4  T
   3    -38.3079127  0.284075E-10  0.710E-05    1.64     252.9  T

   *** convergence criteria satisfied after 3 iterations ***

         #    Occupation            Energy/Eh            Energy/eV
      -------------------------------------------------------------
         1        2.0000           -0.8691270             -23.6502
       ...           ...                  ...                  ...
        30        2.0000           -0.5753196             -15.6552
        31        2.0000           -0.5741038             -15.6222
        32        2.0000           -0.5210318             -14.1780
        33        2.0000           -0.5148365             -14.0094
        34        2.0000           -0.5065411             -13.7837
        35        2.0000           -0.5001403             -13.6095
        36        2.0000           -0.4934096             -13.4264 (HOMO)
        37                         -0.4330652             -11.7843 (LUMO)
        38                         -0.4186338             -11.3916
        39                         -0.4056330             -11.0378
        40                         -0.4042398             -10.9999
        41                         -0.3894035             -10.5962
       ...                                ...                  ...
        78                          2.5304160              68.8561
      -------------------------------------------------------------
                  HL-Gap            0.0603444 Eh            1.6421 eV
             Fermi-level           -0.4632374 Eh          -12.6053 eV

 SCC (total)                   0 d,  0 h,  0 min,  0.155 sec
 SCC setup                      ...        0 min,  0.004 sec (  2.403%)
 Dispersion                     ...        0 min,  0.038 sec ( 24.285%)
 classical contributions        ...        0 min,  0.009 sec (  5.717%)
 integral evaluation            ...        0 min,  0.003 sec (  2.137%)
 iterations                     ...        0 min,  0.096 sec ( 61.736%)
 molecular gradient             ...        0 min,  0.006 sec (  3.596%)
 printout                       ...        0 min,  0.000 sec (  0.098%)

         :::::::::::::::::::::::::::::::::::::::::::::::::::::
         ::                     SUMMARY                     ::
         :::::::::::::::::::::::::::::::::::::::::::::::::::::
         :: total energy             -37.657346462378 Eh    ::
         :: gradient norm              0.000501337191 Eh/a0 ::
         :: HOMO-LUMO gap              1.642055742036 eV    ::
         ::.................................................::
         :: SCC energy               -38.307912661395 Eh    ::
         :: -> isotropic ES            0.092584091298 Eh    ::
         :: -> anisotropic ES         -0.013038839562 Eh    ::
         :: -> anisotropic XC          0.021804389602 Eh    ::
         :: -> dispersion             -0.028082550343 Eh    ::
         :: repulsion energy           0.649807154998 Eh    ::
         :: add. restraining           0.000049784772 Eh    ::
         :: total charge               1.000000000000 e     ::
         :::::::::::::::::::::::::::::::::::::::::::::::::::::

           -------------------------------------------------
          |                Property Printout                |
           -------------------------------------------------

    * Orbital Energies and Occupations

         #    Occupation            Energy/Eh            Energy/eV
      -------------------------------------------------------------
         1        2.0000           -0.8691270             -23.6502
       ...           ...                  ...                  ...
        24        2.0000           -0.5906049             -16.0712
        25        2.0000           -0.5895251             -16.0418
        26        2.0000           -0.5870795             -15.9752
        27        2.0000           -0.5863976             -15.9567
        28        2.0000           -0.5845850             -15.9074
        29        2.0000           -0.5840543             -15.8929
        30        2.0000           -0.5753196             -15.6552
        31        2.0000           -0.5741038             -15.6222
        32        2.0000           -0.5210318             -14.1780
        33        2.0000           -0.5148365             -14.0094
        34        2.0000           -0.5065411             -13.7837
        35        2.0000           -0.5001403             -13.6095
        36        2.0000           -0.4934096             -13.4264 (HOMO)
        37                         -0.4330652             -11.7843 (LUMO)
        38                         -0.4186338             -11.3916
        39                         -0.4056330             -11.0378
        40                         -0.4042398             -10.9999
        41                         -0.3894035             -10.5962
        42                         -0.3782984             -10.2940
        43                         -0.3039012              -8.2696
        44                         -0.3036059              -8.2615
        45                         -0.3006038              -8.1798
        46                         -0.2984402              -8.1210
        47                         -0.0601226              -1.6360
       ...                                ...                  ...
        78                          2.5304160              68.8561
      -------------------------------------------------------------
                  HL-Gap            0.0603444 Eh            1.6421 eV
             Fermi-level           -0.4632374 Eh          -12.6053 eV

     #   Z          covCN         q      C6AA      α(0)
     1  40 Zr       9.616     0.928   139.434    17.743
     2   6 C        3.573    -0.336    28.610     7.777
     3   6 C        3.742    -0.080    22.104     6.708
     4   6 C        3.758    -0.083    22.141     6.709
     5   6 C        3.750    -0.085    22.183     6.717
     6   6 C        3.736    -0.096    22.421     6.757
     7   6 C        3.732    -0.090    22.322     6.744
     8   1 H        0.925     0.083     1.952     2.185
     9   1 H        0.925     0.087     1.910     2.161
    10   1 H        0.925     0.085     1.928     2.172
    11   1 H        0.925     0.069     2.095     2.264
    12   1 H        0.925     0.073     2.057     2.243
    13   6 C        3.740    -0.083    22.164     6.717
    14   6 C        3.743    -0.095    22.385     6.750
    15   6 C        3.752    -0.096    22.390     6.748
    16   6 C        3.750    -0.079    22.078     6.701
    17   6 C        3.750    -0.085    22.179     6.717
    18   1 H        0.925     0.079     1.987     2.204
    19   1 H        0.925     0.066     2.133     2.284
    20   1 H        0.925     0.076     2.017     2.221
    21   1 H        0.925     0.091     1.864     2.135
    22   1 H        0.925     0.082     1.957     2.187
    23   1 H        0.930     0.060     2.198     2.318
    24   1 H        0.927     0.052     2.289     2.366
    25   1 H        0.926     0.054     2.266     2.354
    26   6 C        3.535    -0.093    23.545     7.123
    27   6 C        3.534    -0.094    23.562     7.127
    28   1 H        0.925     0.123     1.585     1.969
    29   1 H        0.926     0.140     1.463     1.891
    30   1 H        0.925     0.116     1.645     2.005
    31   1 H        0.926     0.130     1.537     1.939

 Mol. C6AA /au·bohr⁶  :       9507.498676
 Mol. C8AA /au·bohr⁸  :     322838.657001
 Mol. α(0) /au        :        143.935349


Wiberg/Mayer (AO) data.
largest (>0.10) Wiberg bond orders for each atom

 ---------------------------------------------------------------------------
     #   Z sym  total        # sym  WBO       # sym  WBO       # sym  WBO
 ---------------------------------------------------------------------------
     1  40 Zr   4.300 --     2 C    0.877     4 C    0.263    16 C    0.248
                            17 C    0.246     5 C    0.239    15 C    0.237
                             6 C    0.225    14 C    0.223     3 C    0.221
                             7 C    0.219    13 C    0.214    26 C    0.203
                            27 C    0.201
     2   6 C    3.808 --    25 H    0.925    24 H    0.922    23 H    0.912
                             1 Zr   0.877
     3   6 C    3.982 --     7 C    1.327     4 C    1.295     8 H    0.928
                             1 Zr   0.221
     4   6 C    3.982 --     3 C    1.295     5 C    1.294     9 H    0.919
                             1 Zr   0.263
     5   6 C    3.981 --     6 C    1.297     4 C    1.294    10 H    0.926
                             1 Zr   0.239
     6   6 C    3.979 --     5 C    1.297     7 C    1.292    11 H    0.934
                             1 Zr   0.225
     7   6 C    3.978 --     3 C    1.327     6 C    1.292    12 H    0.927
                             1 Zr   0.219
     8   1 H    0.991 --     3 C    0.928
     9   1 H    0.991 --     4 C    0.919
    10   1 H    0.990 --     5 C    0.926
    11   1 H    0.993 --     6 C    0.934
    12   1 H    0.992 --     7 C    0.927
    13   6 C    3.981 --    14 C    1.331    17 C    1.299    18 H    0.928
                             1 Zr   0.214
    14   6 C    3.978 --    13 C    1.331    15 C    1.281    19 H    0.927
                             1 Zr   0.223
    15   6 C    3.978 --    16 C    1.300    14 C    1.281    20 H    0.930
                             1 Zr   0.237
    16   6 C    3.983 --    17 C    1.300    15 C    1.300    21 H    0.923
                             1 Zr   0.248
    17   6 C    3.982 --    16 C    1.300    13 C    1.299    22 H    0.924
                             1 Zr   0.246
    18   1 H    0.993 --    13 C    0.928
    19   1 H    0.994 --    14 C    0.927
    20   1 H    0.991 --    15 C    0.930
    21   1 H    0.989 --    16 C    0.923
    22   1 H    0.991 --    17 C    0.924
    23   1 H    0.996 --     2 C    0.912
    24   1 H    0.996 --     2 C    0.922
    25   1 H    0.996 --     2 C    0.925
    26   6 C    3.988 --    27 C    1.804    30 H    0.923    31 H    0.910
                             1 Zr   0.203
    27   6 C    3.982 --    26 C    1.804    28 H    0.925    29 H    0.906
                             1 Zr   0.201
    28   1 H    0.983 --    27 C    0.925
    29   1 H    0.979 --    27 C    0.906
    30   1 H    0.986 --    26 C    0.923
    31   1 H    0.982 --    26 C    0.910
 ---------------------------------------------------------------------------

Topologies differ in total number of bonds
Writing topology from bond orders to xtbtopo.mol

molecular dipole:
                 x           y           z       tot (Debye)
 q only:       -3.921      -0.078       0.835
   full:       -4.085      -0.184       0.938      10.663
molecular quadrupole (traceless):
                xx          xy          yy          xz          yz          zz
 q only:       22.221      -0.219     -11.291      -3.299      -0.602     -10.930
  q+dip:       22.126       1.562     -13.640      -5.721      -5.227      -8.485
   full:       23.657       1.527     -13.687      -5.477      -3.429      -9.970

           -------------------------------------------------
          |                Geometry Summary                 |
           -------------------------------------------------

      molecular mass/u    :      264.4982010
   center of mass at/Å    :       -1.2575375      -0.1191814       0.5883329
  moments of inertia/u·Å² :        0.5814771E+03   0.7511509E+03   0.9022518E+03
rotational constants/cm⁻¹ :        0.2899105E-01   0.2244240E-01   0.1868396E-01

 * 41 selected distances

     #   Z          #   Z                                           value/Å
     1  40 Zr       2   6 C                                       2.2155344
     1  40 Zr       3   6 C                                       2.5077646
     1  40 Zr       4   6 C                                       2.4627537
     3   6 C        4   6 C                                       1.4158318
     1  40 Zr       5   6 C                                       2.4819286
     4   6 C        5   6 C                                       1.4173992
     1  40 Zr       6   6 C                                       2.5166740
     5   6 C        6   6 C                                       1.4157395
     1  40 Zr       7   6 C                                       2.5132026
     3   6 C        7   6 C                                       1.4111612
     6   6 C        7   6 C                                       1.4168723
     3   6 C        8   1 H                                       1.0826796
     4   6 C        9   1 H                                       1.0847933
     5   6 C       10   1 H                                       1.0828953
     6   6 C       11   1 H                                       1.0821668 (min)
     7   6 C       12   1 H                                       1.0845772
     1  40 Zr      13   6 C                                       2.5062884
     1  40 Zr      14   6 C                                       2.4925949
    13   6 C       14   6 C                                       1.4094875
     1  40 Zr      15   6 C                                       2.4839868
    14   6 C       15   6 C                                       1.4210072
     1  40 Zr      16   6 C                                       2.4788911
    15   6 C       16   6 C                                       1.4155894
     1  40 Zr      17   6 C                                       2.4863085
    13   6 C       17   6 C                                       1.4169641
    16   6 C       17   6 C                                       1.4143215
    13   6 C       18   1 H                                       1.0834595
    14   6 C       19   1 H                                       1.0849777
    15   6 C       20   1 H                                       1.0828161
    16   6 C       21   1 H                                       1.0832088
    17   6 C       22   1 H                                       1.0841225
     2   6 C       23   1 H                                       1.1033555
     2   6 C       24   1 H                                       1.1022661
     2   6 C       25   1 H                                       1.1014194
     1  40 Zr      26   6 C                                       2.5530467
     1  40 Zr      27   6 C                                       2.5543097 (max)
    26   6 C       27   6 C                                       1.3432305
    27   6 C       28   1 H                                       1.0868260
    27   6 C       29   1 H                                       1.0894502
    26   6 C       30   1 H                                       1.0891869
    26   6 C       31   1 H                                       1.0899062

 * 3 distinct bonds (by element types)

   Z      Z             #   av. dist./Å        max./Å        min./Å
   1 H    6 C          17     1.0881240     1.1033555     1.0821668
   6 C    6 C          11     1.4088731     1.4210072     1.3432305
   6 C   40 Zr         13     2.4810218     2.5543097     2.2155344


optimized geometry written to: xtbopt.xyz


           -------------------------------------------------
          | TOTAL ENERGY              -37.657346462378 Eh   |
          | GRADIENT NORM               0.000501337191 Eh/α |
          | HOMO-LUMO GAP               1.642055742036 eV   |
           -------------------------------------------------

------------------------------------------------------------------------
 * finished run on 2026/08/03 at 12:00:01.597     
------------------------------------------------------------------------
 total:
 * wall-time:     0 d,  0 h,  0 min, 25.367 sec
 *  cpu-time:     0 d,  0 h,  1 min, 41.278 sec
 * ratio c/w:     3.993 speedup
 SCF:
 * wall-time:     0 d,  0 h,  0 min,  0.768 sec
 *  cpu-time:     0 d,  0 h,  0 min,  5.887 sec
 * ratio c/w:     7.670 speedup
 ANC optimizer:
 * wall-time:     0 d,  0 h,  0 min, 24.505 sec
 *  cpu-time:     0 d,  0 h,  1 min, 34.763 sec
 * ratio c/w:     3.867 speedup

