31
 energy: -37.657346462378 gnorm: 0.000501337191 xtb: 6.5.1 (b24c23e)
Zr          -1.33516490687183       -0.01469892941741        0.40781800719833
C           -1.09618986489797        1.14231537798380       -1.46642866228213
C            0.23459820139921       -1.90845430900331        0.89609692812073
C            0.37274553775682       -1.55747151848602       -0.46856625960269
C           -0.83458159551481       -1.89914735932821       -1.12783779972458
C           -1.72117303750420       -2.43519840152402       -0.16299434537479
C           -1.06662527019969       -2.41759499953367        1.09350244402787
H            1.03627804314594       -1.92281863974188        1.62362557445322
H            1.29422655603334       -1.25282487406338       -0.95316867853905
H           -0.98370066167102       -1.90964722676036       -2.20036531813721
H           -2.62677155144200       -2.98397225104736       -0.38620598058060
H           -1.42881472762568       -2.89334871289518        1.99836971108714
C           -0.56703111254781        0.27782181981363        2.77549245945533
C           -1.78898783744368        0.96944702769444        2.65248493823700
C           -1.58838336072176        2.05502224026782        1.75775288161113
C           -0.24307611748606        2.01555906586900        1.31902296606829
C            0.38685693051130        0.91336236076127        1.94244229591227
H           -0.35799574723091       -0.50280309294724        3.49716634043325
H           -2.65714639190154        0.81507932315974        3.28466188820042
H           -2.26803191900660        2.88183994836962        1.59361644930470
H            0.25783167374598        2.78602883461682        0.74560452623156
H            1.45037702154765        0.70475576993082        1.91542962747663
H           -0.03545613673026        1.15865948228405       -1.76969405044900
H           -1.65528267627918        0.70907988515975       -2.31183546689350
H           -1.40985374687335        2.19545728979174       -1.39138456547704
C           -3.78686181324934       -0.49413562110295       -0.11884033754472
C           -3.75615066521422        0.78914036262003        0.27679505124557
H           -4.12506494929326        1.07129888709638        1.25938311288428
H           -3.63092085939483        1.59467296918439       -0.44593330980462
H           -4.16299559434553       -1.26647914499950        0.55073916209595
H           -3.69173378069595       -0.75141061374467       -1.17366526963303
