      -----------------------------------------------------------      
     |                   =====================                   |     
     |                           x T B                           |     
     |                   =====================                   |     
     |                         S. Grimme                         |     
     |          Mulliken Center for Theoretical Chemistry        |     
     |                    University of Bonn                     |     
      -----------------------------------------------------------      

   * xtb version 6.5.1 (b24c23e) compiled by 'conda@728c89f4b128' on 2022-07-12

   xtb is free software: you can redistribute it and/or modify it under
   the terms of the GNU Lesser General Public License as published by
   the Free Software Foundation, either version 3 of the License, or
   (at your option) any later version.
   
   xtb is distributed in the hope that it will be useful,
   but WITHOUT ANY WARRANTY; without even the implied warranty of
   MERCHANTABILITY or FITNESS FOR A PARTICULAR PURPOSE.  See the
   GNU Lesser General Public License for more details.
   
   Cite this work as:
   * C. Bannwarth, E. Caldeweyher, S. Ehlert, A. Hansen, P. Pracht,
     J. Seibert, S. Spicher, S. Grimme, WIREs Comput. Mol. Sci., 2020, 11,
     e01493. DOI: 10.1002/wcms.1493
   
   for GFN2-xTB:
   * C. Bannwarth, S. Ehlert and S. Grimme., J. Chem. Theory Comput., 2019,
     15, 1652-1671. DOI: 10.1021/acs.jctc.8b01176
   for GFN1-xTB:
   * S. Grimme, C. Bannwarth, P. Shushkov, J. Chem. Theory Comput., 2017,
     13, 1989-2009. DOI: 10.1021/acs.jctc.7b00118
   for GFN0-xTB:
   * P. Pracht, E. Caldeweyher, S. Ehlert, S. Grimme, ChemRxiv, 2019, preprint.
     DOI: 10.26434/chemrxiv.8326202.v1
   for GFN-FF:
   * S. Spicher and S. Grimme, Angew. Chem. Int. Ed., 2020, 59, 15665-15673.
     DOI: 10.1002/anie.202004239
   
   for ALPB and GBSA implicit solvation:
   * S. Ehlert, M. Stahn, S. Spicher, S. Grimme, J. Chem. Theory Comput.,
     2021, 17, 4250-4261. DOI: 10.1021/acs.jctc.1c00471
   
   for DFT-D4:
   * E. Caldeweyher, C. Bannwarth and S. Grimme, J. Chem. Phys., 2017,
     147, 034112. DOI: 10.1063/1.4993215
   * E. Caldeweyher, S. Ehlert, A. Hansen, H. Neugebauer, S. Spicher,
     C. Bannwarth and S. Grimme, J. Chem. Phys., 2019, 150, 154122.
     DOI: 10.1063/1.5090222
   * E. Caldeweyher, J.-M. Mewes, S. Ehlert and S. Grimme, Phys. Chem. Chem. Phys.
     2020, 22, 8499-8512. DOI: 10.1039/D0CP00502A
   
   for sTDA-xTB:
   * S. Grimme and C. Bannwarth, J. Chem. Phys., 2016, 145, 054103.
     DOI: 10.1063/1.4959605
   
   in the mass-spec context:
   * V. Asgeirsson, C. Bauer and S. Grimme, Chem. Sci., 2017, 8, 4879.
     DOI: 10.1039/c7sc00601b
   * J. Koopman and S. Grimme, ACS Omega 2019, 4, 12, 15120-15133.
     DOI: 10.1021/acsomega.9b02011
   
   for metadynamics refer to:
   * S. Grimme, J. Chem. Theory Comput., 2019, 155, 2847-2862
     DOI: 10.1021/acs.jctc.9b00143
   
   for SPH calculations refer to:
   * S. Spicher and S. Grimme, J. Chem. Theory Comput., 2021, 17, 1701-1714
     DOI: 10.1021/acs.jctc.0c01306
   
   with help from (in alphabetical order)
   P. Atkinson, C. Bannwarth, F. Bohle, G. Brandenburg, E. Caldeweyher
   M. Checinski, S. Dohm, S. Ehlert, S. Ehrlich, I. Gerasimov, C. Hölzer
   A. Katbashev, J. Koopman, C. Lavigne, S. Lehtola, F. März, M. Müller,
   F. Musil, H. Neugebauer, J. Pisarek, C. Plett, P. Pracht, F. Pultar,
   J. Seibert, P. Shushkov, S. Spicher, M. Stahn, M. Steiner, T. Strunk,
   J. Stückrath, T. Rose, and J. Unsleber
   
 * started run on 2026/08/03 at 12:00:09.553     

           -------------------------------------------------
          |                Calculation Setup                |
           -------------------------------------------------

          program call               : /h/332/chchoi/miniconda3/envs/el-agente/bin/xtb reactant.xyz --opt --gfn 2 -P 4 --chrg 1 --uhf 0 --input detailed_input.inp
          coordinate file            : reactant.xyz
          omp threads                :                     4

   ID    Z sym.   atoms
    1   40 Zr     1
    2    6 C      2-7, 13-17, 26, 27
    3    1 H      8-12, 18-25, 28-31
constraining bond 2 27 to    2.1000000 Å, actual value:    3.1998367 Å
constraining bond 1 26 to    2.4000000 Å, actual value:    2.5530467 Å
constraining bond 1 2 to    2.4500000 Å, actual value:    2.2155344 Å

           -------------------------------------------------
          |                 G F N 2 - x T B                 |
           -------------------------------------------------

        Reference                      10.1021/acs.jctc.8b01176
      * Hamiltonian:
        H0-scaling (s, p, d)           1.850000    2.230000    2.230000
        zeta-weighting                 0.500000
      * Dispersion:
        s8                             2.700000
        a1                             0.520000
        a2                             5.000000
        s9                             5.000000
      * Repulsion:
        kExp                           1.500000    1.000000
        rExp                           1.000000
      * Coulomb:
        alpha                          2.000000
        third order                    shell-resolved
        anisotropic                    true
        a3                             3.000000
        a5                             4.000000
        cn-shift                       1.200000
        cn-exp                         4.000000
        max-rad                        5.000000


          ...................................................
          :                      SETUP                      :
          :.................................................:
          :  # basis functions                  79          :
          :  # atomic orbitals                  78          :
          :  # shells                           46          :
          :  # electrons                        72          :
          :  max. iterations                   250          :
          :  Hamiltonian                  GFN2-xTB          :
          :  restarted?                      false          :
          :  GBSA solvation                  false          :
          :  PC potential                    false          :
          :  electronic temp.          300.0000000     K    :
          :  accuracy                    1.0000000          :
          :  -> integral cutoff          0.2500000E+02      :
          :  -> integral neglect         0.1000000E-07      :
          :  -> SCF convergence          0.1000000E-05 Eh   :
          :  -> wf. convergence          0.1000000E-03 e    :
          :  Broyden damping             0.4000000          :
          ...................................................

 iter      E             dE          RMSdq      gap      omega  full diag
   1    -38.1915715 -0.381916E+02  0.402E+00    1.25       0.0  T
   2    -38.2924172 -0.100846E+00  0.324E+00    1.89       1.0  T
   3    -38.3071572 -0.147400E-01  0.229E+00    1.60       1.0  T
   4    -38.3062941  0.863089E-03  0.458E-01    1.76       1.0  T
   5    -38.3075556 -0.126148E-02  0.312E-01    1.56       1.0  T
   6    -38.3078941 -0.338539E-03  0.160E-01    1.61       1.0  T
   7    -38.3078457  0.484151E-04  0.893E-02    1.62       1.0  T
   8    -38.3079102 -0.645000E-04  0.334E-02    1.64       1.0  T
   9    -38.3079119 -0.172915E-05  0.121E-02    1.64       1.5  T
  10    -38.3079123 -0.397139E-06  0.723E-03    1.64       2.5  T
  11    -38.3079126 -0.324032E-06  0.218E-03    1.64       8.2  T
  12    -38.3079127 -0.202900E-07  0.108E-03    1.64      16.6  T
  13    -38.3079127 -0.718077E-08  0.371E-04    1.64      48.4  T
  14    -38.3079127 -0.420307E-09  0.126E-04    1.64     142.6  T

   *** convergence criteria satisfied after 14 iterations ***

         #    Occupation            Energy/Eh            Energy/eV
      -------------------------------------------------------------
         1        2.0000           -0.8691271             -23.6502
       ...           ...                  ...                  ...
        30        2.0000           -0.5753188             -15.6552
        31        2.0000           -0.5741029             -15.6221
        32        2.0000           -0.5210316             -14.1780
        33        2.0000           -0.5148364             -14.0094
        34        2.0000           -0.5065409             -13.7837
        35        2.0000           -0.5001403             -13.6095
        36        2.0000           -0.4934090             -13.4263 (HOMO)
        37                         -0.4330652             -11.7843 (LUMO)
        38                         -0.4186342             -11.3916
        39                         -0.4056333             -11.0378
        40                         -0.4042402             -10.9999
        41                         -0.3894037             -10.5962
       ...                                ...                  ...
        78                          2.5304160              68.8561
      -------------------------------------------------------------
                  HL-Gap            0.0603438 Eh            1.6420 eV
             Fermi-level           -0.4632371 Eh          -12.6053 eV

 SCC (total)                   0 d,  0 h,  0 min,  0.994 sec
 SCC setup                      ...        0 min,  0.010 sec (  1.028%)
 Dispersion                     ...        0 min,  0.025 sec (  2.555%)
 classical contributions        ...        0 min,  0.017 sec (  1.758%)
 integral evaluation            ...        0 min,  0.040 sec (  4.053%)
 iterations                     ...        0 min,  0.788 sec ( 79.295%)
 molecular gradient             ...        0 min,  0.112 sec ( 11.290%)
 printout                       ...        0 min,  0.000 sec (  0.019%)

         :::::::::::::::::::::::::::::::::::::::::::::::::::::
         ::                     SUMMARY                     ::
         :::::::::::::::::::::::::::::::::::::::::::::::::::::
         :: total energy             -33.057729312614 Eh    ::
         :: gradient norm              5.681679629384 Eh/a0 ::
         :: HOMO-LUMO gap              1.642037323648 eV    ::
         ::.................................................::
         :: SCC energy               -38.307912661293 Eh    ::
         :: -> isotropic ES            0.092582316552 Eh    ::
         :: -> anisotropic ES         -0.013038735947 Eh    ::
         :: -> anisotropic XC          0.021804326805 Eh    ::
         :: -> dispersion             -0.028082531001 Eh    ::
         :: repulsion energy           0.649807154998 Eh    ::
         :: add. restraining           4.599666934434 Eh    ::
         :: total charge               1.000000000000 e     ::
         :::::::::::::::::::::::::::::::::::::::::::::::::::::

      ----------------------------------------------------------- 
     |                   =====================                   |
     |                        A N C O P T                        |
     |                   =====================                   |
     |               Approximate Normal Coordinate               |
     |                Rational Function Optimizer                |
      ----------------------------------------------------------- 

          ...................................................
          :                      SETUP                      :
          :.................................................:
          :   optimization level            normal          :
          :   max. optcycles                   200          :
          :   ANC micro-cycles                  20          :
          :   degrees of freedom                87          :
          :.................................................:
          :   RF solver                   davidson          :
          :   write xtbopt.log                true          :
          :   linear?                        false          :
          :   energy convergence         0.5000000E-05 Eh   :
          :   grad. convergence          0.1000000E-02 Eh/α :
          :   maximium RF displ.         1.0000000          :
          :   Hlow (freq-cutoff)         0.1000000E-01      :
          :   Hmax (freq-cutoff)         5.0000000          :
          :   S6 in model hess.         20.0000000          :
          ...................................................

generating ANC from model Hessian ...
Using Lindh-Hessian (1995)
 Shifting diagonal of input Hessian by   0.11722909012500693     
 Lowest  eigenvalues of input Hessian
    0.010000    0.055074    0.000000    0.000000    0.000000    0.000000
    0.000000    0.000000    0.117763    0.117938    0.118887    0.118984
    0.121055    0.124058    0.124354    0.124558    0.124814    0.124833
 Highest eigenvalues
    1.853800    1.867756    2.542780    3.571252    4.242750    5.922124


........................................................................
.............................. CYCLE    1 ..............................
........................................................................
   1    -38.3079127 -0.383079E+02  0.569E-05    1.64       0.0  T
   2    -38.3079127 -0.262261E-10  0.343E-05    1.64     523.2  T
   3    -38.3079127 -0.247553E-10  0.157E-05    1.64    1146.7  T
     SCC iter.                  ...        0 min,  0.204 sec
     gradient                   ...        0 min,  0.139 sec
 * total energy  :   -33.0577293 Eh     change       -0.1488942E-09 Eh
   gradient norm :     5.6816797 Eh/α   predicted     0.0000000E+00 (-100.00%)
   displ. norm   :     0.7148059 α      lambda       -0.4026260E+01
   maximum displ.:     0.5348350 α      in ANC's #85, #87, #86, ...

........................................................................
.............................. CYCLE    2 ..............................
........................................................................
   1    -38.2476476 -0.382476E+02  0.820E-01    1.36       0.0  T
   2    -38.2480704 -0.422859E-03  0.540E-01    1.49       1.0  T
   3    -38.2474695  0.600908E-03  0.256E-01    1.38       1.0  T
   4    -38.2481386 -0.669063E-03  0.118E-01    1.47       1.0  T
   5    -38.2482340 -0.953795E-04  0.651E-02    1.45       1.0  T
   6    -38.2482738 -0.398327E-04  0.263E-02    1.45       1.0  T
   7    -38.2482764 -0.263838E-05  0.179E-02    1.45       1.0  T
   8    -38.2482772 -0.730552E-06  0.104E-02    1.45       1.7  T
   9    -38.2482776 -0.456959E-06  0.441E-03    1.45       4.1  T
  10    -38.2482776  0.147699E-07  0.243E-03    1.45       7.4  T
  11    -38.2482777 -0.467121E-07  0.823E-04    1.45      21.8  T
  12    -38.2482777 -0.202255E-08  0.269E-04    1.45      66.7  T
     SCC iter.                  ...        0 min,  0.654 sec
     gradient                   ...        0 min,  0.109 sec
 * total energy  :   -36.1117117 Eh     change       -0.3053982E+01 Eh
   gradient norm :     2.9539589 Eh/α   predicted    -0.3041735E+01 (  -0.40%)
   displ. norm   :     0.5938888 α      lambda       -0.1702494E+01
   maximum displ.:     0.4866759 α      in ANC's #85, #87, #65, ...

........................................................................
.............................. CYCLE    3 ..............................
........................................................................
   1    -38.1423643 -0.381424E+02  0.124E+00    1.11       0.0  T
   2    -38.1335664  0.879785E-02  0.142E+00    1.71       1.0  T
   3    -38.1614760 -0.279096E-01  0.585E-01    1.44       1.0  T
   4    -38.1602741  0.120193E-02  0.287E-01    1.30       1.0  T
   5    -38.1618183 -0.154420E-02  0.124E-01    1.35       1.0  T
   6    -38.1619896 -0.171331E-03  0.552E-02    1.38       1.0  T
   7    -38.1619851  0.457366E-05  0.388E-02    1.38       1.0  T
   8    -38.1619990 -0.139092E-04  0.134E-02    1.37       1.3  T
   9    -38.1620003 -0.134174E-05  0.691E-03    1.37       2.6  T
  10    -38.1620005 -0.142675E-06  0.320E-03    1.37       5.6  T
  11    -38.1620005 -0.530876E-07  0.147E-03    1.37      12.2  T
  12    -38.1620005 -0.142647E-07  0.110E-03    1.37      16.4  T
  13    -38.1620005 -0.400709E-08  0.432E-04    1.37      41.6  T
  14    -38.1620005 -0.651688E-09  0.229E-04    1.37      78.4  T
     SCC iter.                  ...        0 min,  0.723 sec
     gradient                   ...        0 min,  0.125 sec
 * total energy  :   -37.2738911 Eh     change       -0.1162179E+01 Eh
   gradient norm :     1.0672848 Eh/α   predicted    -0.1151495E+01 (  -0.92%)
   displ. norm   :     0.4097374 α      lambda       -0.3558887E+00
   maximum displ.:     0.2389821 α      in ANC's #85, #1, #65, ...

........................................................................
.............................. CYCLE    4 ..............................
........................................................................
   1    -38.1004392 -0.381004E+02  0.101E+00    1.32       0.0  T
   2    -38.0863098  0.141294E-01  0.126E+00    1.67       1.0  T
   3    -38.1167257 -0.304159E-01  0.455E-01    1.46       1.0  T
   4    -38.1159407  0.784999E-03  0.205E-01    1.40       1.0  T
   5    -38.1169340 -0.993289E-03  0.868E-02    1.44       1.0  T
   6    -38.1169688 -0.347945E-04  0.355E-02    1.44       1.0  T
   7    -38.1169698 -0.949969E-06  0.257E-02    1.44       1.0  T
   8    -38.1169757 -0.595835E-05  0.820E-03    1.44       2.2  T
   9    -38.1169763 -0.590884E-06  0.395E-03    1.44       4.6  T
  10    -38.1169764 -0.113590E-06  0.186E-03    1.44       9.6  T
  11    -38.1169765 -0.270971E-07  0.858E-04    1.44      20.9  T
  12    -38.1169765 -0.872838E-09  0.626E-04    1.44      28.7  T
     SCC iter.                  ...        0 min,  0.618 sec
     gradient                   ...        0 min,  0.088 sec
 * total energy  :   -37.4788386 Eh     change       -0.2049475E+00 Eh
   gradient norm :     0.1743456 Eh/α   predicted    -0.2078365E+00 (   1.41%)
   displ. norm   :     0.3932359 α      lambda       -0.4167725E-01
   maximum displ.:     0.1882157 α      in ANC's #25, #27, #22, ...

........................................................................
.............................. CYCLE    5 ..............................
........................................................................
   1    -38.1350586 -0.381351E+02  0.426E-01    1.38       0.0  T
   2    -38.1336374  0.142124E-02  0.452E-01    1.47       1.0  T
   3    -38.1368783 -0.324092E-02  0.190E-01    1.42       1.0  T
   4    -38.1368082  0.701196E-04  0.999E-02    1.42       1.0  T
   5    -38.1369534 -0.145171E-03  0.420E-02    1.43       1.0  T
   6    -38.1369555 -0.215333E-05  0.208E-02    1.42       1.0  T
   7    -38.1369581 -0.256132E-05  0.115E-02    1.43       1.6  T
   8    -38.1369581 -0.562814E-07  0.513E-03    1.42       3.5  T
   9    -38.1369584 -0.246266E-06  0.213E-03    1.43       8.4  T
  10    -38.1369584 -0.405818E-07  0.145E-03    1.43      12.4  T
  11    -38.1369584 -0.796194E-08  0.500E-04    1.43      35.9  T
  12    -38.1369584 -0.300192E-08  0.126E-04    1.43     143.0  T
     SCC iter.                  ...        0 min,  0.568 sec
     gradient                   ...        0 min,  0.139 sec
 * total energy  :   -37.5115472 Eh     change       -0.3270854E-01 Eh
   gradient norm :     0.1140001 Eh/α   predicted    -0.2406101E-01 ( -26.44%)
   displ. norm   :     0.7341976 α      lambda       -0.5524972E-01
   maximum displ.:     0.3660374 α      in ANC's #1, #25, #27, ...

........................................................................
.............................. CYCLE    6 ..............................
........................................................................
   1    -38.1666355 -0.381666E+02  0.929E-01    1.50       0.0  T
   2    -38.1645482  0.208724E-02  0.843E-01    1.54       1.0  T
   3    -38.1708240 -0.627578E-02  0.442E-01    1.49       1.0  T
   4    -38.1711767 -0.352669E-03  0.145E-01    1.54       1.0  T
   5    -38.1715744 -0.397690E-03  0.617E-02    1.51       1.0  T
   6    -38.1715784 -0.397975E-05  0.328E-02    1.51       1.0  T
   7    -38.1715838 -0.541125E-05  0.160E-02    1.51       1.1  T
   8    -38.1715855 -0.177732E-05  0.532E-03    1.51       3.4  T
   9    -38.1715858 -0.290957E-06  0.217E-03    1.51       8.3  T
  10    -38.1715859 -0.320221E-07  0.174E-03    1.51      10.3  T
  11    -38.1715859 -0.114063E-07  0.667E-04    1.51      26.9  T
  12    -38.1715859 -0.277740E-08  0.206E-04    1.51      87.4  T
     SCC iter.                  ...        0 min,  0.558 sec
     gradient                   ...        0 min,  0.160 sec
 * total energy  :   -37.5504782 Eh     change       -0.3893103E-01 Eh
   gradient norm :     0.2426080 Eh/α   predicted    -0.4251621E-01 (   9.21%)
   displ. norm   :     0.8198061 α      lambda       -0.7094884E-01
   maximum displ.:     0.3600674 α      in ANC's #25, #1, #57, ...

........................................................................
.............................. CYCLE    7 ..............................
........................................................................
   1    -38.1892687 -0.381893E+02  0.126E+00    1.32       0.0  T
   2    -38.1872140  0.205471E-02  0.831E-01    1.32       1.0  T
   3    -38.1893514 -0.213747E-02  0.690E-01    1.34       1.0  T
   4    -38.1960078 -0.665635E-02  0.219E-01    1.32       1.0  T
   5    -38.1964169 -0.409150E-03  0.127E-01    1.34       1.0  T
   6    -38.1964224 -0.543659E-05  0.668E-02    1.32       1.0  T
   7    -38.1964683 -0.458827E-04  0.208E-02    1.33       1.0  T
   8    -38.1964695 -0.120371E-05  0.908E-03    1.33       2.0  T
   9    -38.1964697 -0.211874E-06  0.587E-03    1.33       3.1  T
  10    -38.1964700 -0.326350E-06  0.340E-03    1.33       5.3  T
  11    -38.1964701 -0.576089E-07  0.205E-03    1.33       8.8  T
  12    -38.1964701 -0.251733E-07  0.559E-04    1.33      32.2  T
  13    -38.1964701 -0.221312E-08  0.308E-04    1.33      58.3  T
     SCC iter.                  ...        0 min,  0.584 sec
     gradient                   ...        0 min,  0.126 sec
 * total energy  :   -37.5830012 Eh     change       -0.3252297E-01 Eh
   gradient norm :     0.2575018 Eh/α   predicted    -0.5931629E-01 (  82.38%)
   displ. norm   :     0.4863660 α      lambda       -0.3545395E-01
   maximum displ.:     0.2943277 α      in ANC's #1, #2, #57, ...

........................................................................
.............................. CYCLE    8 ..............................
........................................................................
   1    -38.2241288 -0.382241E+02  0.663E-01    1.41       0.0  T
   2    -38.2240747  0.541281E-04  0.459E-01    1.34       1.0  T
   3    -38.2246951 -0.620417E-03  0.362E-01    1.39       1.0  T
   4    -38.2257193 -0.102420E-02  0.109E-01    1.39       1.0  T
   5    -38.2258586 -0.139306E-03  0.641E-02    1.36       1.0  T
   6    -38.2258910 -0.323270E-04  0.342E-02    1.38       1.0  T
   7    -38.2258934 -0.240541E-05  0.192E-02    1.37       1.0  T
   8    -38.2258944 -0.106273E-05  0.925E-03    1.38       1.9  T
   9    -38.2258949 -0.432499E-06  0.440E-03    1.38       4.1  T
  10    -38.2258950 -0.194493E-06  0.255E-03    1.38       7.0  T
  11    -38.2258951 -0.118707E-07  0.959E-04    1.38      18.7  T
  12    -38.2258951 -0.633649E-08  0.223E-04    1.38      80.6  T
     SCC iter.                  ...        0 min,  0.445 sec
     gradient                   ...        0 min,  0.013 sec
 * total energy  :   -37.6001597 Eh     change       -0.1715855E-01 Eh
   gradient norm :     0.1144740 Eh/α   predicted    -0.2192032E-01 (  27.75%)
   displ. norm   :     0.2674322 α      lambda       -0.1412919E-01
   maximum displ.:     0.1512970 α      in ANC's #2, #15, #26, ...

........................................................................
.............................. CYCLE    9 ..............................
........................................................................
   1    -38.2365783 -0.382366E+02  0.502E-01    1.41       0.0  T
   2    -38.2366905 -0.112216E-03  0.394E-01    1.38       1.0  T
   3    -38.2362070  0.483475E-03  0.206E-01    1.43       1.0  T
   4    -38.2367739 -0.566909E-03  0.987E-02    1.39       1.0  T
   5    -38.2368868 -0.112842E-03  0.406E-02    1.39       1.0  T
   6    -38.2368994 -0.125839E-04  0.214E-02    1.40       1.0  T
   7    -38.2369016 -0.227411E-05  0.858E-03    1.39       2.1  T
   8    -38.2369017 -0.106290E-06  0.538E-03    1.40       3.3  T
   9    -38.2369019 -0.178239E-06  0.312E-03    1.40       5.8  T
  10    -38.2369020 -0.440429E-07  0.180E-03    1.40      10.0  T
  11    -38.2369020 -0.735707E-08  0.696E-04    1.39      25.8  T
  12    -38.2369020 -0.168823E-08  0.187E-04    1.39      96.0  T
     SCC iter.                  ...        0 min,  0.440 sec
     gradient                   ...        0 min,  0.036 sec
 * total energy  :   -37.6087306 Eh     change       -0.8570902E-02 Eh
   gradient norm :     0.0790216 Eh/α   predicted    -0.7569943E-02 ( -11.68%)
   displ. norm   :     0.1914306 α      lambda       -0.6140069E-02
   maximum displ.:     0.0861142 α      in ANC's #15, #7, #27, ...

........................................................................
.............................. CYCLE   10 ..............................
........................................................................
   1    -38.2465345 -0.382465E+02  0.245E-01    1.42       0.0  T
   2    -38.2465730 -0.385121E-04  0.152E-01    1.38       1.0  T
   3    -38.2465280  0.449857E-04  0.102E-01    1.42       1.0  T
   4    -38.2466148 -0.867771E-04  0.191E-02    1.39       1.0  T
   5    -38.2466178 -0.304452E-05  0.120E-02    1.40       1.5  T
   6    -38.2466182 -0.405609E-06  0.538E-03    1.40       3.3  T
   7    -38.2466184 -0.162582E-06  0.348E-03    1.40       5.2  T
   8    -38.2466184 -0.631692E-07  0.204E-03    1.40       8.8  T
   9    -38.2466185 -0.523685E-07  0.569E-04    1.40      31.6  T
  10    -38.2466185 -0.883354E-09  0.321E-04    1.40      56.0  T
     SCC iter.                  ...        0 min,  0.402 sec
     gradient                   ...        0 min,  0.106 sec
 * total energy  :   -37.6128831 Eh     change       -0.4152473E-02 Eh
   gradient norm :     0.0460484 Eh/α   predicted    -0.3182546E-02 ( -23.36%)
   displ. norm   :     0.2276194 α      lambda       -0.3989574E-02
   maximum displ.:     0.1295606 α      in ANC's #15, #14, #7, ...

........................................................................
.............................. CYCLE   11 ..............................
........................................................................
   1    -38.2478666 -0.382479E+02  0.233E-01    1.41       0.0  T
   2    -38.2478480  0.186111E-04  0.206E-01    1.39       1.0  T
   3    -38.2480219 -0.173900E-03  0.112E-01    1.41       1.0  T
   4    -38.2480500 -0.280409E-04  0.259E-02    1.40       1.0  T
   5    -38.2480602 -0.102365E-04  0.153E-02    1.40       1.2  T
   6    -38.2480608 -0.600861E-06  0.594E-03    1.40       3.0  T
   7    -38.2480611 -0.299970E-06  0.299E-03    1.40       6.0  T
   8    -38.2480611 -0.332193E-08  0.144E-03    1.40      12.5  T
   9    -38.2480611 -0.210485E-07  0.673E-04    1.40      26.7  T
  10    -38.2480611 -0.203593E-08  0.364E-04    1.40      49.4  T
     SCC iter.                  ...        0 min,  0.398 sec
     gradient                   ...        0 min,  0.122 sec
 * total energy  :   -37.6160052 Eh     change       -0.3122108E-02 Eh
   gradient norm :     0.0257105 Eh/α   predicted    -0.2098149E-02 ( -32.80%)
   displ. norm   :     0.4167906 α      lambda       -0.5495538E-02
   maximum displ.:     0.2539436 α      in ANC's #15, #8, #14, ...

........................................................................
.............................. CYCLE   12 ..............................
........................................................................
   1    -38.2448151 -0.382448E+02  0.390E-01    1.42       0.0  T
   2    -38.2447896  0.255081E-04  0.369E-01    1.40       1.0  T
   3    -38.2454781 -0.688542E-03  0.205E-01    1.42       1.0  T
   4    -38.2454695  0.859891E-05  0.478E-02    1.40       1.0  T
   5    -38.2455066 -0.370122E-04  0.236E-02    1.41       1.0  T
   6    -38.2455073 -0.794461E-06  0.983E-03    1.41       1.8  T
   7    -38.2455082 -0.903857E-06  0.483E-03    1.41       3.7  T
   8    -38.2455082  0.134243E-08  0.213E-03    1.41       8.4  T
   9    -38.2455083 -0.377522E-07  0.108E-03    1.41      16.7  T
  10    -38.2455083 -0.152608E-08  0.395E-04    1.41      45.4  T
  11    -38.2455083 -0.171042E-09  0.220E-04    1.41      81.8  T
     SCC iter.                  ...        0 min,  0.456 sec
     gradient                   ...        0 min,  0.112 sec
 * total energy  :   -37.6201523 Eh     change       -0.4147115E-02 Eh
   gradient norm :     0.0374556 Eh/α   predicted    -0.3225103E-02 ( -22.23%)
   displ. norm   :     0.4724274 α      lambda       -0.4579810E-02
   maximum displ.:     0.3086029 α      in ANC's #15, #8, #6, ...

........................................................................
.............................. CYCLE   13 ..............................
........................................................................
   1    -38.2419406 -0.382419E+02  0.402E-01    1.43       0.0  T
   2    -38.2419559 -0.152737E-04  0.390E-01    1.41       1.0  T
   3    -38.2425439 -0.588064E-03  0.226E-01    1.43       1.0  T
   4    -38.2425210  0.229228E-04  0.507E-02    1.41       1.0  T
   5    -38.2425596 -0.385864E-04  0.233E-02    1.42       1.0  T
   6    -38.2425605 -0.963045E-06  0.934E-03    1.42       1.9  T
   7    -38.2425613 -0.736192E-06  0.468E-03    1.42       3.8  T
   8    -38.2425613  0.158171E-07  0.234E-03    1.42       7.7  T
   9    -38.2425613 -0.398787E-07  0.142E-03    1.42      12.7  T
  10    -38.2425613 -0.750668E-08  0.602E-04    1.42      29.8  T
  11    -38.2425613 -0.373703E-09  0.263E-04    1.42      68.3  T
     SCC iter.                  ...        0 min,  0.409 sec
     gradient                   ...        0 min,  0.017 sec
 * total energy  :   -37.6235886 Eh     change       -0.3436304E-02 Eh
   gradient norm :     0.0343994 Eh/α   predicted    -0.2801010E-02 ( -18.49%)
   displ. norm   :     0.4161686 α      lambda       -0.3633592E-02
   maximum displ.:     0.2911690 α      in ANC's #15, #8, #57, ...

........................................................................
.............................. CYCLE   14 ..............................
........................................................................
   1    -38.2430916 -0.382431E+02  0.312E-01    1.44       0.0  T
   2    -38.2431241 -0.324854E-04  0.281E-01    1.43       1.0  T
   3    -38.2432271 -0.102990E-03  0.147E-01    1.44       1.0  T
   4    -38.2432775 -0.504120E-04  0.444E-02    1.43       1.0  T
   5    -38.2432993 -0.218306E-04  0.199E-02    1.43       1.0  T
   6    -38.2433000 -0.664911E-06  0.829E-03    1.43       2.2  T
   7    -38.2433007 -0.725579E-06  0.353E-03    1.43       5.1  T
   8    -38.2433007 -0.276777E-08  0.193E-03    1.43       9.3  T
   9    -38.2433008 -0.183573E-07  0.877E-04    1.43      20.5  T
  10    -38.2433008 -0.766256E-09  0.443E-04    1.43      40.5  T
     SCC iter.                  ...        0 min,  0.380 sec
     gradient                   ...        0 min,  0.061 sec
 * total energy  :   -37.6262881 Eh     change       -0.2699462E-02 Eh
   gradient norm :     0.0228763 Eh/α   predicted    -0.2131460E-02 ( -21.04%)
   displ. norm   :     0.3860020 α      lambda       -0.3282263E-02
   maximum displ.:     0.2860637 α      in ANC's #15, #57, #8, ...

........................................................................
.............................. CYCLE   15 ..............................
........................................................................
   1    -38.2472218 -0.382472E+02  0.283E-01    1.46       0.0  T
   2    -38.2472444 -0.225864E-04  0.217E-01    1.44       1.0  T
   3    -38.2470328  0.211568E-03  0.951E-02    1.47       1.0  T
   4    -38.2472636 -0.230859E-03  0.423E-02    1.44       1.0  T
   5    -38.2472740 -0.103631E-04  0.194E-02    1.45       1.0  T
   6    -38.2472747 -0.712892E-06  0.718E-03    1.45       2.5  T
   7    -38.2472754 -0.676485E-06  0.276E-03    1.45       6.5  T
   8    -38.2472754 -0.473118E-08  0.169E-03    1.45      10.7  T
   9    -38.2472754 -0.211588E-07  0.877E-04    1.45      20.5  T
  10    -38.2472754 -0.303877E-08  0.452E-04    1.45      39.7  T
     SCC iter.                  ...        0 min,  0.378 sec
     gradient                   ...        0 min,  0.055 sec
 * total energy  :   -37.6287666 Eh     change       -0.2478535E-02 Eh
   gradient norm :     0.0237152 Eh/α   predicted    -0.1885668E-02 ( -23.92%)
   displ. norm   :     0.3902530 α      lambda       -0.3178653E-02
   maximum displ.:     0.2826654 α      in ANC's #15, #13, #57, ...

........................................................................
.............................. CYCLE   16 ..............................
........................................................................
   1    -38.2523010 -0.382523E+02  0.282E-01    1.48       0.0  T
   2    -38.2523338 -0.328499E-04  0.177E-01    1.47       1.0  T
   3    -38.2521846  0.149249E-03  0.121E-01    1.49       1.0  T
   4    -38.2523633 -0.178742E-03  0.263E-02    1.47       1.0  T
   5    -38.2523627  0.653895E-06  0.260E-02    1.47       1.0  T
   6    -38.2523668 -0.413858E-05  0.852E-03    1.48       2.1  T
   7    -38.2523675 -0.634157E-06  0.222E-03    1.47       8.1  T
   8    -38.2523675 -0.160270E-07  0.133E-03    1.47      13.5  T
   9    -38.2523675 -0.781832E-08  0.642E-04    1.47      28.0  T
  10    -38.2523675 -0.157854E-08  0.378E-04    1.47      47.5  T
     SCC iter.                  ...        0 min,  0.421 sec
     gradient                   ...        0 min,  0.021 sec
 * total energy  :   -37.6309823 Eh     change       -0.2215670E-02 Eh
   gradient norm :     0.0254304 Eh/α   predicted    -0.1831385E-02 ( -17.34%)
   displ. norm   :     0.3658811 α      lambda       -0.2200649E-02
   maximum displ.:     0.2644200 α      in ANC's #15, #13, #57, ...

........................................................................
.............................. CYCLE   17 ..............................
........................................................................
   1    -38.2528918 -0.382529E+02  0.264E-01    1.51       0.0  T
   2    -38.2529142 -0.224117E-04  0.179E-01    1.49       1.0  T
   3    -38.2528174  0.968261E-04  0.772E-02    1.52       1.0  T
   4    -38.2529289 -0.111590E-03  0.228E-02    1.49       1.0  T
   5    -38.2529300 -0.105162E-05  0.126E-02    1.50       1.4  T
   6    -38.2529305 -0.497787E-06  0.329E-03    1.50       5.5  T
   7    -38.2529306 -0.663063E-07  0.179E-03    1.50      10.0  T
   8    -38.2529306 -0.244775E-07  0.885E-04    1.50      20.3  T
   9    -38.2529306 -0.438018E-08  0.584E-04    1.50      30.7  T
     SCC iter.                  ...        0 min,  0.387 sec
     gradient                   ...        0 min,  0.058 sec
 * total energy  :   -37.6324617 Eh     change       -0.1479452E-02 Eh
   gradient norm :     0.0258273 Eh/α   predicted    -0.1247630E-02 ( -15.67%)
   displ. norm   :     0.3031819 α      lambda       -0.1999705E-02
   maximum displ.:     0.1692944 α      in ANC's #15, #13, #57, ...

........................................................................
.............................. CYCLE   18 ..............................
........................................................................
   1    -38.2587242 -0.382587E+02  0.200E-01    1.54       0.0  T
   2    -38.2587345 -0.103116E-04  0.136E-01    1.52       1.0  T
   3    -38.2586515  0.830682E-04  0.736E-02    1.54       1.0  T
   4    -38.2587478 -0.962924E-04  0.110E-02    1.53       1.6  T
   5    -38.2587479 -0.153268E-06  0.112E-02    1.53       1.6  T
   6    -38.2587488 -0.843605E-06  0.312E-03    1.53       5.7  T
   7    -38.2587488 -0.793930E-07  0.113E-03    1.53      15.9  T
   8    -38.2587488 -0.871442E-08  0.651E-04    1.53      27.6  T
   9    -38.2587488 -0.134548E-08  0.374E-04    1.53      48.0  T
     SCC iter.                  ...        0 min,  0.396 sec
     gradient                   ...        0 min,  0.014 sec
 * total energy  :   -37.6339659 Eh     change       -0.1504160E-02 Eh
   gradient norm :     0.0243842 Eh/α   predicted    -0.1091768E-02 ( -27.42%)
   displ. norm   :     0.4730374 α      lambda       -0.2856865E-02
   maximum displ.:     0.2984738 α      in ANC's #15, #13, #57, ...

........................................................................
.............................. CYCLE   19 ..............................
........................................................................
   1    -38.2573783 -0.382574E+02  0.362E-01    1.58       0.0  T
   2    -38.2574011 -0.227693E-04  0.280E-01    1.56       1.0  T
   3    -38.2570465  0.354628E-03  0.134E-01    1.60       1.0  T
   4    -38.2574446 -0.398121E-03  0.266E-02    1.57       1.0  T
   5    -38.2574516 -0.699438E-05  0.153E-02    1.57       1.2  T
   6    -38.2574517 -0.114306E-06  0.525E-03    1.57       3.4  T
   7    -38.2574521 -0.344209E-06  0.276E-03    1.57       6.5  T
   8    -38.2574521 -0.205722E-07  0.122E-03    1.57      14.8  T
   9    -38.2574521 -0.516989E-08  0.713E-04    1.57      25.2  T
  10    -38.2574521 -0.833971E-09  0.296E-04    1.57      60.7  T
     SCC iter.                  ...        0 min,  0.392 sec
     gradient                   ...        0 min,  0.111 sec
 * total energy  :   -37.6361267 Eh     change       -0.2160795E-02 Eh
   gradient norm :     0.0260209 Eh/α   predicted    -0.1748070E-02 ( -19.10%)
   displ. norm   :     0.4172067 α      lambda       -0.3245274E-02
   maximum displ.:     0.1893475 α      in ANC's #13, #15, #57, ...

........................................................................
.............................. CYCLE   20 ..............................
........................................................................
   1    -38.2647637 -0.382648E+02  0.302E-01    1.63       0.0  T
   2    -38.2647851 -0.214159E-04  0.222E-01    1.60       1.0  T
   3    -38.2645963  0.188772E-03  0.119E-01    1.64       1.0  T
   4    -38.2648095 -0.213185E-03  0.250E-02    1.61       1.0  T
   5    -38.2648144 -0.488558E-05  0.224E-02    1.61       1.0  T
   6    -38.2648166 -0.217764E-05  0.712E-03    1.61       2.5  T
   7    -38.2648172 -0.610574E-06  0.265E-03    1.61       6.8  T
   8    -38.2648172 -0.160101E-07  0.180E-03    1.61      10.0  T
   9    -38.2648172 -0.153571E-07  0.993E-04    1.61      18.1  T
  10    -38.2648172 -0.202920E-08  0.409E-04    1.61      43.9  T
     SCC iter.                  ...        0 min,  0.560 sec
     gradient                   ...        0 min,  0.004 sec
 * total energy  :   -37.6380555 Eh     change       -0.1928778E-02 Eh
   gradient norm :     0.0281538 Eh/α   predicted    -0.1905078E-02 (  -1.23%)
   displ. norm   :     0.3965859 α      lambda       -0.1587002E-02
   maximum displ.:     0.2642858 α      in ANC's #15, #13, #57, ...
 * RMSD in coord.:     0.9500052 α      energy gain  -0.4580326E+01 Eh

generating ANC from model Hessian ...
Using Lindh-Hessian (1995)
 Shifting diagonal of input Hessian by    1.1001765269250069E-002
 Lowest  eigenvalues of input Hessian
    0.010000    0.010642    0.000000    0.000000    0.000000    0.000000
    0.000000    0.000000    0.011469    0.011834    0.012051    0.012174
    0.012918    0.014572    0.015647    0.017119    0.018819    0.019035
 Highest eigenvalues
    1.734942    1.736122    1.743827    3.643224    4.316673    5.077740


........................................................................
.............................. CYCLE   21 ..............................
........................................................................
   1    -38.2581965 -0.382582E+02  0.283E-01    1.65       0.0  T
   2    -38.2582064 -0.994168E-05  0.213E-01    1.63       1.0  T
   3    -38.2578956  0.310789E-03  0.115E-01    1.66       1.0  T
   4    -38.2582364 -0.340743E-03  0.196E-02    1.64       1.0  T
   5    -38.2582381 -0.167283E-05  0.102E-02    1.64       1.8  T
   6    -38.2582382 -0.913305E-07  0.451E-03    1.64       4.0  T
   7    -38.2582383 -0.119646E-06  0.248E-03    1.64       7.2  T
   8    -38.2582383 -0.875972E-08  0.116E-03    1.64      15.5  T
   9    -38.2582383 -0.675904E-08  0.530E-04    1.64      33.9  T
  10    -38.2582383 -0.103164E-08  0.303E-04    1.64      59.2  T
     SCC iter.                  ...        0 min,  0.410 sec
     gradient                   ...        0 min,  0.017 sec
 * total energy  :   -37.6389433 Eh     change       -0.8877766E-03 Eh
   gradient norm :     0.0253702 Eh/α   predicted     0.0000000E+00 (-100.00%)
   displ. norm   :     0.3190292 α      lambda       -0.2741639E-02
   maximum displ.:     0.2002839 α      in ANC's #4, #16, #7, ...

........................................................................
.............................. CYCLE   22 ..............................
........................................................................
   1    -38.2643920 -0.382644E+02  0.213E-01    1.66       0.0  T
   2    -38.2644100 -0.180388E-04  0.129E-01    1.66       1.0  T
   3    -38.2643692  0.408377E-04  0.757E-02    1.66       1.0  T
   4    -38.2644187 -0.495119E-04  0.203E-02    1.66       1.0  T
   5    -38.2644188 -0.156469E-06  0.131E-02    1.66       1.4  T
   6    -38.2644190 -0.215915E-06  0.690E-03    1.66       2.6  T
   7    -38.2644196 -0.524862E-06  0.125E-03    1.66      14.4  T
   8    -38.2644196 -0.110285E-07  0.734E-04    1.66      24.5  T
   9    -38.2644196 -0.268990E-08  0.390E-04    1.66      46.0  T
     SCC iter.                  ...        0 min,  0.432 sec
     gradient                   ...        0 min,  0.034 sec
 * total energy  :   -37.6407110 Eh     change       -0.1767743E-02 Eh
   gradient norm :     0.0072301 Eh/α   predicted    -0.1514758E-02 ( -14.31%)
   displ. norm   :     0.4304520 α      lambda       -0.1775892E-02
   maximum displ.:     0.2833048 α      in ANC's #4, #1, #6, ...

........................................................................
.............................. CYCLE   23 ..............................
........................................................................
   1    -38.2679182 -0.382679E+02  0.293E-01    1.67       0.0  T
   2    -38.2679261 -0.788857E-05  0.204E-01    1.68       1.0  T
   3    -38.2676368  0.289274E-03  0.132E-01    1.66       1.0  T
   4    -38.2679814 -0.344581E-03  0.183E-02    1.67       1.0  T
   5    -38.2679820 -0.569915E-06  0.945E-03    1.67       1.9  T
   6    -38.2679822 -0.207720E-06  0.357E-03    1.67       5.0  T
   7    -38.2679823 -0.132259E-06  0.183E-03    1.67       9.8  T
   8    -38.2679823 -0.122075E-08  0.107E-03    1.67      16.7  T
   9    -38.2679823 -0.675079E-08  0.551E-04    1.67      32.6  T
  10    -38.2679823 -0.334836E-09  0.210E-04    1.67      85.4  T
     SCC iter.                  ...        0 min,  0.528 sec
     gradient                   ...        0 min,  0.111 sec
 * total energy  :   -37.6418999 Eh     change       -0.1188938E-02 Eh
   gradient norm :     0.0118195 Eh/α   predicted    -0.1052473E-02 ( -11.48%)
   displ. norm   :     0.4320453 α      lambda       -0.1215369E-02
   maximum displ.:     0.3410276 α      in ANC's #4, #6, #1, ...

........................................................................
.............................. CYCLE   24 ..............................
........................................................................
   1    -38.2662520 -0.382663E+02  0.239E-01    1.68       0.0  T
   2    -38.2662618 -0.988296E-05  0.164E-01    1.68       1.0  T
   3    -38.2661078  0.154068E-03  0.113E-01    1.67       1.0  T
   4    -38.2663177 -0.209910E-03  0.190E-02    1.68       1.0  T
   5    -38.2663180 -0.326713E-06  0.131E-02    1.68       1.4  T
   6    -38.2663190 -0.936396E-06  0.401E-03    1.68       4.5  T
   7    -38.2663190 -0.889520E-07  0.207E-03    1.68       8.7  T
   8    -38.2663190 -0.511147E-08  0.119E-03    1.68      15.1  T
   9    -38.2663191 -0.104755E-07  0.565E-04    1.68      31.8  T
  10    -38.2663191 -0.313513E-09  0.204E-04    1.68      88.1  T
     SCC iter.                  ...        0 min,  0.471 sec
     gradient                   ...        0 min,  0.076 sec
 * total energy  :   -37.6427812 Eh     change       -0.8813007E-03 Eh
   gradient norm :     0.0103647 Eh/α   predicted    -0.7211187E-03 ( -18.18%)
   displ. norm   :     0.3849742 α      lambda       -0.8212930E-03
   maximum displ.:     0.2901913 α      in ANC's #4, #6, #1, ...

........................................................................
.............................. CYCLE   25 ..............................
........................................................................
   1    -38.2653394 -0.382653E+02  0.236E-01    1.69       0.0  T
   2    -38.2653494 -0.999672E-05  0.145E-01    1.69       1.0  T
   3    -38.2652631  0.863067E-04  0.760E-02    1.68       1.0  T
   4    -38.2653591 -0.960329E-04  0.162E-02    1.69       1.1  T
   5    -38.2653598 -0.715125E-06  0.103E-02    1.69       1.7  T
   6    -38.2653605 -0.694253E-06  0.368E-03    1.69       4.9  T
   7    -38.2653606 -0.651579E-07  0.125E-03    1.69      14.4  T
   8    -38.2653606 -0.225480E-08  0.965E-04    1.69      18.6  T
   9    -38.2653606 -0.338392E-08  0.496E-04    1.69      36.2  T
     SCC iter.                  ...        0 min,  0.383 sec
     gradient                   ...        0 min,  0.017 sec
 * total energy  :   -37.6433673 Eh     change       -0.5860251E-03 Eh
   gradient norm :     0.0093612 Eh/α   predicted    -0.4715088E-03 ( -19.54%)
   displ. norm   :     0.3636176 α      lambda       -0.6127978E-03
   maximum displ.:     0.2745686 α      in ANC's #4, #6, #2, ...

........................................................................
.............................. CYCLE   26 ..............................
........................................................................
   1    -38.2661381 -0.382661E+02  0.212E-01    1.70       0.0  T
   2    -38.2661457 -0.759996E-05  0.130E-01    1.69       1.0  T
   3    -38.2661232  0.225387E-04  0.530E-02    1.70       1.0  T
   4    -38.2661493 -0.261563E-04  0.129E-02    1.70       1.4  T
   5    -38.2661503 -0.972032E-06  0.822E-03    1.69       2.2  T
   6    -38.2661505 -0.220955E-06  0.428E-03    1.70       4.2  T
   7    -38.2661507 -0.152655E-06  0.169E-03    1.70      10.6  T
   8    -38.2661507  0.787920E-08  0.120E-03    1.70      14.9  T
   9    -38.2661507 -0.166438E-07  0.521E-04    1.70      34.5  T
  10    -38.2661507 -0.144496E-09  0.259E-04    1.70      69.5  T
     SCC iter.                  ...        0 min,  0.225 sec
     gradient                   ...        0 min,  0.046 sec
 * total energy  :   -37.6437663 Eh     change       -0.3990482E-03 Eh
   gradient norm :     0.0084697 Eh/α   predicted    -0.3469109E-03 ( -13.07%)
   displ. norm   :     0.2721741 α      lambda       -0.4085127E-03
   maximum displ.:     0.2034009 α      in ANC's #4, #6, #2, ...

........................................................................
.............................. CYCLE   27 ..............................
........................................................................
   1    -38.2680828 -0.382681E+02  0.146E-01    1.71       0.0  T
   2    -38.2680858 -0.298472E-05  0.878E-02    1.70       1.0  T
   3    -38.2680746  0.112002E-04  0.381E-02    1.71       1.0  T
   4    -38.2680872 -0.125261E-04  0.879E-03    1.70       2.0  T
   5    -38.2680874 -0.270461E-06  0.539E-03    1.70       3.3  T
   6    -38.2680876 -0.131217E-06  0.217E-03    1.70       8.3  T
   7    -38.2680876 -0.381308E-07  0.518E-04    1.70      34.6  T
   8    -38.2680876 -0.641805E-09  0.243E-04    1.70      73.9  T
     SCC iter.                  ...        0 min,  0.317 sec
     gradient                   ...        0 min,  0.111 sec
 * total energy  :   -37.6440311 Eh     change       -0.2648150E-03 Eh
   gradient norm :     0.0086521 Eh/α   predicted    -0.2193884E-03 ( -17.15%)
   displ. norm   :     0.2333061 α      lambda       -0.3085955E-03
   maximum displ.:     0.1624806 α      in ANC's #4, #6, #2, ...

........................................................................
.............................. CYCLE   28 ..............................
........................................................................
   1    -38.2702483 -0.382702E+02  0.113E-01    1.71       0.0  T
   2    -38.2702495 -0.118094E-05  0.717E-02    1.70       1.0  T
   3    -38.2702142  0.352672E-04  0.507E-02    1.72       1.0  T
   4    -38.2702551 -0.408179E-04  0.953E-03    1.71       1.9  T
   5    -38.2702550  0.861042E-07  0.630E-03    1.71       2.8  T
   6    -38.2702552 -0.203173E-06  0.166E-03    1.71      10.8  T
   7    -38.2702552 -0.306977E-07  0.642E-04    1.71      28.0  T
   8    -38.2702552  0.105331E-09  0.511E-04    1.71      35.1  T
     SCC iter.                  ...        0 min,  0.402 sec
     gradient                   ...        0 min,  0.087 sec
 * total energy  :   -37.6442472 Eh     change       -0.2160465E-03 Eh
   gradient norm :     0.0039730 Eh/α   predicted    -0.1626985E-03 ( -24.69%)
   displ. norm   :     0.3366272 α      lambda       -0.2658952E-03
   maximum displ.:     0.2513528 α      in ANC's #4, #2, #6, ...

........................................................................
.............................. CYCLE   29 ..............................
........................................................................
   1    -38.2683283 -0.382683E+02  0.145E-01    1.72       0.0  T
   2    -38.2683318 -0.352094E-05  0.976E-02    1.71       1.0  T
   3    -38.2682880  0.438017E-04  0.457E-02    1.72       1.0  T
   4    -38.2683356 -0.475692E-04  0.118E-02    1.72       1.5  T
   5    -38.2683363 -0.760447E-06  0.648E-03    1.72       2.8  T
   6    -38.2683364 -0.590381E-07  0.240E-03    1.72       7.5  T
   7    -38.2683364 -0.530215E-07  0.117E-03    1.72      15.4  T
   8    -38.2683364 -0.564733E-08  0.567E-04    1.72      31.7  T
   9    -38.2683364 -0.209629E-08  0.238E-04    1.72      75.4  T
     SCC iter.                  ...        0 min,  0.434 sec
     gradient                   ...        0 min,  0.069 sec
 * total energy  :   -37.6443966 Eh     change       -0.1494434E-03 Eh
   gradient norm :     0.0073996 Eh/α   predicted    -0.1480152E-03 (  -0.96%)
   displ. norm   :     0.1973202 α      lambda       -0.2376629E-03
   maximum displ.:     0.0896639 α      in ANC's #7, #2, #3, ...

........................................................................
.............................. CYCLE   30 ..............................
........................................................................
   1    -38.2712466 -0.382712E+02  0.663E-02    1.73       0.0  T
   2    -38.2712510 -0.443751E-05  0.389E-02    1.72       1.0  T
   3    -38.2712479  0.317234E-05  0.278E-02    1.73       1.0  T
   4    -38.2712551 -0.725333E-05  0.725E-03    1.72       2.5  T
   5    -38.2712551 -0.387072E-07  0.543E-03    1.72       3.3  T
   6    -38.2712552 -0.750649E-07  0.209E-03    1.72       8.6  T
   7    -38.2712553 -0.462147E-07  0.101E-03    1.72      17.8  T
   8    -38.2712553 -0.336743E-08  0.690E-04    1.72      26.0  T
   9    -38.2712553 -0.339764E-08  0.190E-04    1.72      94.6  T
     SCC iter.                  ...        0 min,  0.472 sec
     gradient                   ...        0 min,  0.111 sec
 * total energy  :   -37.6445066 Eh     change       -0.1100215E-03 Eh
   gradient norm :     0.0056509 Eh/α   predicted    -0.1234607E-03 (  12.22%)
   displ. norm   :     0.2064802 α      lambda       -0.1174226E-03
   maximum displ.:     0.1319493 α      in ANC's #4, #2, #6, ...

........................................................................
.............................. CYCLE   31 ..............................
........................................................................
   1    -38.2691761 -0.382692E+02  0.905E-02    1.72       0.0  T
   2    -38.2691771 -0.105955E-05  0.582E-02    1.72       1.0  T
   3    -38.2691618  0.153748E-04  0.328E-02    1.72       1.0  T
   4    -38.2691789 -0.171811E-04  0.728E-03    1.72       2.5  T
   5    -38.2691791 -0.184281E-06  0.383E-03    1.72       4.7  T
   6    -38.2691792 -0.292431E-07  0.145E-03    1.72      12.4  T
   7    -38.2691792 -0.262391E-07  0.616E-04    1.72      29.2  T
   8    -38.2691792  0.478977E-10  0.386E-04    1.72      46.5  T
     SCC iter.                  ...        0 min,  0.357 sec
     gradient                   ...        0 min,  0.112 sec
 * total energy  :   -37.6445815 Eh     change       -0.7487252E-04 Eh
   gradient norm :     0.0043123 Eh/α   predicted    -0.6121446E-04 ( -18.24%)
   displ. norm   :     0.1794722 α      lambda       -0.9148268E-04
   maximum displ.:     0.0880129 α      in ANC's #4, #2, #3, ...

........................................................................
.............................. CYCLE   32 ..............................
........................................................................
   1    -38.2687132 -0.382687E+02  0.595E-02    1.73       0.0  T
   2    -38.2687137 -0.555846E-06  0.393E-02    1.72       1.0  T
   3    -38.2687061  0.761936E-05  0.178E-02    1.72       1.0  T
   4    -38.2687143 -0.818720E-05  0.544E-03    1.72       3.3  T
   5    -38.2687146 -0.257263E-06  0.411E-03    1.72       4.4  T
   6    -38.2687146 -0.587739E-07  0.690E-04    1.72      26.0  T
   7    -38.2687146 -0.216653E-08  0.389E-04    1.72      46.2  T
     SCC iter.                  ...        0 min,  0.255 sec
     gradient                   ...        0 min,  0.013 sec
 * total energy  :   -37.6446506 Eh     change       -0.6910532E-04 Eh
   gradient norm :     0.0043086 Eh/α   predicted    -0.4721819E-04 ( -31.67%)
   displ. norm   :     0.2384238 α      lambda       -0.1354664E-03
   maximum displ.:     0.1198608 α      in ANC's #3, #2, #5, ...

........................................................................
.............................. CYCLE   33 ..............................
........................................................................
   1    -38.2699557 -0.382700E+02  0.728E-02    1.72       0.0  T
   2    -38.2699574 -0.177150E-05  0.545E-02    1.72       1.0  T
   3    -38.2699478  0.964718E-05  0.299E-02    1.72       1.0  T
   4    -38.2699665 -0.187163E-04  0.722E-03    1.72       2.5  T
   5    -38.2699667 -0.240550E-06  0.310E-03    1.72       5.8  T
   6    -38.2699668 -0.274407E-07  0.153E-03    1.72      11.7  T
   7    -38.2699668 -0.119742E-07  0.541E-04    1.72      33.2  T
   8    -38.2699668 -0.610306E-09  0.357E-04    1.72      50.3  T
     SCC iter.                  ...        0 min,  0.297 sec
     gradient                   ...        0 min,  0.015 sec
 * total energy  :   -37.6447461 Eh     change       -0.9549350E-04 Eh
   gradient norm :     0.0054648 Eh/α   predicted    -0.7158736E-04 ( -25.03%)
   displ. norm   :     0.3406408 α      lambda       -0.1294222E-03
   maximum displ.:     0.1902632 α      in ANC's #2, #3, #5, ...

........................................................................
.............................. CYCLE   34 ..............................
........................................................................
   1    -38.2689969 -0.382690E+02  0.879E-02    1.72       0.0  T
   2    -38.2689981 -0.125297E-05  0.611E-02    1.72       1.0  T
   3    -38.2689701  0.280342E-04  0.380E-02    1.72       1.0  T
   4    -38.2690047 -0.345910E-04  0.723E-03    1.72       2.5  T
   5    -38.2690048 -0.104706E-06  0.476E-03    1.72       3.8  T
   6    -38.2690048 -0.632175E-07  0.104E-03    1.72      17.2  T
   7    -38.2690048 -0.529192E-08  0.628E-04    1.72      28.6  T
   8    -38.2690049 -0.334857E-09  0.392E-04    1.72      45.9  T
     SCC iter.                  ...        0 min,  0.336 sec
     gradient                   ...        0 min,  0.029 sec
 * total energy  :   -37.6448383 Eh     change       -0.9221903E-04 Eh
   gradient norm :     0.0065795 Eh/α   predicted    -0.7222296E-04 ( -21.68%)
   displ. norm   :     0.3786462 α      lambda       -0.2042310E-03
   maximum displ.:     0.2150654 α      in ANC's #2, #3, #5, ...

........................................................................
.............................. CYCLE   35 ..............................
........................................................................
   1    -38.2706606 -0.382707E+02  0.113E-01    1.72       0.0  T
   2    -38.2706653 -0.468872E-05  0.896E-02    1.72       1.0  T
   3    -38.2706349  0.304375E-04  0.399E-02    1.71       1.0  T
   4    -38.2706753 -0.404598E-04  0.136E-02    1.72       1.3  T
   5    -38.2706770 -0.165228E-05  0.625E-03    1.72       2.9  T
   6    -38.2706771 -0.825602E-07  0.225E-03    1.72       8.0  T
   7    -38.2706771 -0.266937E-07  0.108E-03    1.72      16.7  T
   8    -38.2706771  0.212179E-08  0.768E-04    1.72      23.4  T
   9    -38.2706771 -0.412712E-08  0.328E-04    1.72      54.8  T
     SCC iter.                  ...        0 min,  0.394 sec
     gradient                   ...        0 min,  0.116 sec
 * total energy  :   -37.6449766 Eh     change       -0.1382358E-03 Eh
   gradient norm :     0.0080102 Eh/α   predicted    -0.1167609E-03 ( -15.54%)
   displ. norm   :     0.4481117 α      lambda       -0.2280301E-03
   maximum displ.:     0.2700966 α      in ANC's #2, #3, #5, ...

........................................................................
.............................. CYCLE   36 ..............................
........................................................................
   1    -38.2690704 -0.382691E+02  0.106E-01    1.72       0.0  T
   2    -38.2690745 -0.406451E-05  0.756E-02    1.72       1.0  T
   3    -38.2690530  0.214903E-04  0.339E-02    1.71       1.0  T
   4    -38.2690782 -0.251566E-04  0.113E-02    1.72       1.6  T
   5    -38.2690795 -0.130942E-05  0.565E-03    1.72       3.2  T
   6    -38.2690795 -0.204225E-07  0.230E-03    1.72       7.8  T
   7    -38.2690795 -0.479727E-07  0.752E-04    1.72      23.9  T
   8    -38.2690795 -0.301912E-08  0.614E-04    1.72      29.3  T
     SCC iter.                  ...        0 min,  0.388 sec
     gradient                   ...        0 min,  0.031 sec
 * total energy  :   -37.6451356 Eh     change       -0.1590193E-03 Eh
   gradient norm :     0.0102173 Eh/α   predicted    -0.1369105E-03 ( -13.90%)
   displ. norm   :     0.2975077 α      lambda       -0.2855813E-03
   maximum displ.:     0.1551052 α      in ANC's #2, #9, #3, ...

........................................................................
.............................. CYCLE   37 ..............................
........................................................................
   1    -38.2736337 -0.382736E+02  0.801E-02    1.72       0.0  T
   2    -38.2736396 -0.585292E-05  0.554E-02    1.73       1.0  T
   3    -38.2736325  0.703406E-05  0.352E-02    1.72       1.0  T
   4    -38.2736436 -0.110631E-04  0.104E-02    1.72       1.7  T
   5    -38.2736456 -0.203057E-05  0.965E-03    1.72       1.9  T
   6    -38.2736460 -0.359096E-06  0.248E-03    1.72       7.2  T
   7    -38.2736460 -0.466138E-07  0.911E-04    1.72      19.7  T
   8    -38.2736460 -0.816352E-08  0.480E-04    1.72      37.4  T
     SCC iter.                  ...        0 min,  0.372 sec
     gradient                   ...        0 min,  0.021 sec
 * total energy  :   -37.6452392 Eh     change       -0.1036095E-03 Eh
   gradient norm :     0.0073405 Eh/α   predicted    -0.1554327E-03 (  50.02%)
   displ. norm   :     0.3752165 α      lambda       -0.1777206E-03
   maximum displ.:     0.2284776 α      in ANC's #2, #3, #5, ...

........................................................................
.............................. CYCLE   38 ..............................
........................................................................
   1    -38.2670685 -0.382671E+02  0.815E-02    1.72       0.0  T
   2    -38.2670707 -0.224106E-05  0.505E-02    1.72       1.0  T
   3    -38.2670552  0.155395E-04  0.329E-02    1.72       1.0  T
   4    -38.2670736 -0.183553E-04  0.903E-03    1.72       2.0  T
   5    -38.2670739 -0.337740E-06  0.558E-03    1.72       3.2  T
   6    -38.2670739 -0.133549E-07  0.135E-03    1.72      13.3  T
   7    -38.2670739 -0.195836E-07  0.674E-04    1.72      26.7  T
   8    -38.2670739 -0.452673E-08  0.474E-04    1.72      37.9  T
     SCC iter.                  ...        0 min,  0.455 sec
     gradient                   ...        0 min,  0.169 sec
 * total energy  :   -37.6452953 Eh     change       -0.5613687E-04 Eh
   gradient norm :     0.0118593 Eh/α   predicted    -0.1013711E-03 (  80.58%)
   displ. norm   :     0.1345299 α      lambda       -0.1197705E-03
   maximum displ.:     0.0774531 α      in ANC's #2, #3, #5, ...

........................................................................
.............................. CYCLE   39 ..............................
........................................................................
   1    -38.2703342 -0.382703E+02  0.513E-02    1.73       0.0  T
   2    -38.2703360 -0.183124E-05  0.353E-02    1.72       1.0  T
   3    -38.2703347  0.126028E-05  0.191E-02    1.73       1.0  T
   4    -38.2703370 -0.231574E-05  0.482E-03    1.72       3.7  T
   5    -38.2703371 -0.824401E-07  0.294E-03    1.72       6.1  T
   6    -38.2703372 -0.206172E-07  0.119E-03    1.72      15.1  T
   7    -38.2703372 -0.190688E-07  0.523E-04    1.72      34.3  T
   8    -38.2703372 -0.253780E-08  0.329E-04    1.72      54.6  T
     SCC iter.                  ...        0 min,  0.594 sec
     gradient                   ...        0 min,  0.052 sec
 * total energy  :   -37.6453497 Eh     change       -0.5438031E-04 Eh
   gradient norm :     0.0033876 Eh/α   predicted    -0.6096976E-04 (  12.12%)
   displ. norm   :     0.1171402 α      lambda       -0.4786701E-04
   maximum displ.:     0.0629209 α      in ANC's #2, #9, #3, ...

........................................................................
.............................. CYCLE   40 ..............................
........................................................................
   1    -38.2707806 -0.382708E+02  0.286E-02    1.73       0.0  T
   2    -38.2707808 -0.234723E-06  0.179E-02    1.73       1.0  T
   3    -38.2707796  0.117172E-05  0.956E-03    1.73       1.9  T
   4    -38.2707810 -0.134838E-05  0.215E-03    1.73       8.4  T
   5    -38.2707810  0.398119E-08  0.197E-03    1.73       9.1  T
   6    -38.2707810 -0.331132E-07  0.428E-04    1.73      42.0  T
   7    -38.2707810 -0.229088E-08  0.204E-04    1.73      88.2  T
     SCC iter.                  ...        0 min,  0.444 sec
     gradient                   ...        0 min,  0.040 sec
 * total energy  :   -37.6453793 Eh     change       -0.2960711E-04 Eh
   gradient norm :     0.0041642 Eh/α   predicted    -0.2426634E-04 ( -18.04%)
   displ. norm   :     0.2134133 α      lambda       -0.4294246E-04
   maximum displ.:     0.1300171 α      in ANC's #2, #9, #3, ...

........................................................................
.............................. CYCLE   41 ..............................
........................................................................
   1    -38.2702760 -0.382703E+02  0.393E-02    1.73       0.0  T
   2    -38.2702766 -0.602405E-06  0.224E-02    1.73       1.0  T
   3    -38.2702741  0.249796E-05  0.193E-02    1.73       1.0  T
   4    -38.2702785 -0.439201E-05  0.365E-03    1.73       4.9  T
   5    -38.2702785 -0.503889E-07  0.275E-03    1.73       6.5  T
   6    -38.2702786 -0.315333E-07  0.622E-04    1.73      28.9  T
   7    -38.2702786 -0.424104E-08  0.326E-04    1.73      55.1  T
     SCC iter.                  ...        0 min,  0.425 sec
     gradient                   ...        0 min,  0.114 sec
 * total energy  :   -37.6454076 Eh     change       -0.2830503E-04 Eh
   gradient norm :     0.0026158 Eh/α   predicted    -0.2244961E-04 ( -20.69%)
   displ. norm   :     0.1500820 α      lambda       -0.3524467E-04
   maximum displ.:     0.0885796 α      in ANC's #2, #5, #1, ...

........................................................................
.............................. CYCLE   42 ..............................
........................................................................
   1    -38.2707540 -0.382708E+02  0.340E-02    1.73       0.0  T
   2    -38.2707546 -0.621239E-06  0.275E-02    1.73       1.0  T
   3    -38.2707546 -0.252931E-07  0.130E-02    1.73       1.4  T
   4    -38.2707554 -0.723133E-06  0.587E-03    1.73       3.1  T
   5    -38.2707557 -0.371344E-06  0.325E-03    1.73       5.5  T
   6    -38.2707558 -0.205249E-07  0.101E-03    1.73      17.7  T
   7    -38.2707558 -0.422145E-08  0.449E-04    1.73      40.0  T
   8    -38.2707558 -0.392852E-09  0.217E-04    1.73      82.9  T
     SCC iter.                  ...        0 min,  0.600 sec
     gradient                   ...        0 min,  0.229 sec
 * total energy  :   -37.6454247 Eh     change       -0.1712270E-04 Eh
   gradient norm :     0.0036244 Eh/α   predicted    -0.1802101E-04 (   5.25%)
   displ. norm   :     0.1258357 α      lambda       -0.2924335E-04
   maximum displ.:     0.0750260 α      in ANC's #2, #1, #5, ...
 * RMSD in coord.:     0.7947110 α      energy gain  -0.7369265E-02 Eh

generating ANC from model Hessian ...
Using Lindh-Hessian (1995)
 Shifting diagonal of input Hessian by    1.0501540588309377E-002
 Lowest  eigenvalues of input Hessian
    0.010000    0.010249    0.000000    0.000000    0.000000    0.000000
    0.000000    0.000000    0.010956    0.011400    0.011636    0.011805
    0.012052    0.014965    0.015216    0.016998    0.018552    0.018682
 Highest eigenvalues
    1.733439    1.736530    1.739484    3.711878    4.325646    5.040171


........................................................................
.............................. CYCLE   43 ..............................
........................................................................
   1    -38.2708239 -0.382708E+02  0.352E-02    1.73       0.0  T
   2    -38.2708241 -0.239767E-06  0.192E-02    1.73       1.0  T
   3    -38.2708236  0.496878E-06  0.123E-02    1.73       1.5  T
   4    -38.2708243 -0.629614E-06  0.326E-03    1.73       5.5  T
   5    -38.2708242  0.241358E-07  0.262E-03    1.73       6.8  T
   6    -38.2708243 -0.335216E-07  0.610E-04    1.73      29.5  T
   7    -38.2708243 -0.657723E-08  0.312E-04    1.73      57.5  T
     SCC iter.                  ...        0 min,  0.467 sec
     gradient                   ...        0 min,  0.076 sec
 * total energy  :   -37.6454433 Eh     change       -0.1852232E-04 Eh
   gradient norm :     0.0025402 Eh/α   predicted     0.0000000E+00 (-100.00%)
   displ. norm   :     0.0368231 α      lambda       -0.1089791E-04
   maximum displ.:     0.0184138 α      in ANC's #1, #4, #3, ...

........................................................................
.............................. CYCLE   44 ..............................
........................................................................
   1    -38.2713812 -0.382714E+02  0.164E-02    1.73       0.0  T
   2    -38.2713814 -0.226452E-06  0.133E-02    1.73       1.4  T
   3    -38.2713814  0.446347E-08  0.601E-03    1.73       3.0  T
   4    -38.2713816 -0.185908E-06  0.308E-03    1.73       5.8  T
   5    -38.2713817 -0.970684E-07  0.152E-03    1.73      11.8  T
   6    -38.2713817 -0.459104E-08  0.529E-04    1.73      33.9  T
   7    -38.2713817 -0.186674E-08  0.184E-04    1.73      97.7  T
     SCC iter.                  ...        0 min,  0.453 sec
     gradient                   ...        0 min,  0.038 sec
 * total energy  :   -37.6454649 Eh     change       -0.2158976E-04 Eh
   gradient norm :     0.0010049 Eh/α   predicted    -0.1320205E-04 ( -38.85%)
   displ. norm   :     0.1934315 α      lambda       -0.5910352E-04
   maximum displ.:     0.1141637 α      in ANC's #4, #1, #3, ...

........................................................................
.............................. CYCLE   45 ..............................
........................................................................
   1    -38.2725616 -0.382726E+02  0.668E-02    1.72       0.0  T
   2    -38.2725643 -0.275648E-05  0.573E-02    1.73       1.0  T
   3    -38.2725687 -0.440767E-05  0.287E-02    1.72       1.0  T
   4    -38.2725708 -0.207724E-05  0.893E-03    1.72       2.0  T
   5    -38.2725720 -0.115641E-05  0.504E-03    1.72       3.6  T
   6    -38.2725720 -0.556374E-07  0.173E-03    1.72      10.4  T
   7    -38.2725720 -0.165883E-07  0.707E-04    1.72      25.4  T
   8    -38.2725720 -0.115271E-09  0.454E-04    1.72      39.6  T
     SCC iter.                  ...        0 min,  0.547 sec
     gradient                   ...        0 min,  0.027 sec
 * total energy  :   -37.6455202 Eh     change       -0.5538753E-04 Eh
   gradient norm :     0.0036687 Eh/α   predicted    -0.3005045E-04 ( -45.75%)
   displ. norm   :     0.1705667 α      lambda       -0.6650911E-04
   maximum displ.:     0.1033264 α      in ANC's #4, #1, #3, ...

........................................................................
.............................. CYCLE   46 ..............................
........................................................................
   1    -38.2723108 -0.382723E+02  0.615E-02    1.72       0.0  T
   2    -38.2723115 -0.738586E-06  0.439E-02    1.72       1.0  T
   3    -38.2723034  0.811527E-05  0.235E-02    1.72       1.0  T
   4    -38.2723134 -0.997810E-05  0.493E-03    1.72       3.6  T
   5    -38.2723136 -0.229283E-06  0.330E-03    1.72       5.4  T
   6    -38.2723137 -0.249013E-07  0.891E-04    1.72      20.1  T
   7    -38.2723137 -0.658237E-08  0.450E-04    1.72      40.0  T
     SCC iter.                  ...        0 min,  0.461 sec
     gradient                   ...        0 min,  0.028 sec
 * total energy  :   -37.6455764 Eh     change       -0.5612460E-04 Eh
   gradient norm :     0.0038729 Eh/α   predicted    -0.3422223E-04 ( -39.02%)
   displ. norm   :     0.4502556 α      lambda       -0.1697886E-03
   maximum displ.:     0.2771151 α      in ANC's #4, #1, #3, ...

........................................................................
.............................. CYCLE   47 ..............................
........................................................................
   1    -38.2692664 -0.382693E+02  0.130E-01    1.71       0.0  T
   2    -38.2692691 -0.267195E-05  0.867E-02    1.72       1.0  T
   3    -38.2692359  0.331232E-04  0.472E-02    1.71       1.0  T
   4    -38.2692738 -0.378260E-04  0.101E-02    1.71       1.8  T
   5    -38.2692743 -0.510710E-06  0.681E-03    1.72       2.6  T
   6    -38.2692743 -0.140512E-07  0.224E-03    1.72       8.0  T
   7    -38.2692743 -0.707592E-07  0.827E-04    1.72      21.7  T
   8    -38.2692744 -0.197852E-08  0.517E-04    1.72      34.7  T
     SCC iter.                  ...        0 min,  0.444 sec
     gradient                   ...        0 min,  0.146 sec
 * total energy  :   -37.6456933 Eh     change       -0.1168976E-03 Eh
   gradient norm :     0.0124965 Eh/α   predicted    -0.1021054E-03 ( -12.65%)
   displ. norm   :     0.1536512 α      lambda       -0.1163262E-03
   maximum displ.:     0.0927943 α      in ANC's #4, #3, #1, ...

........................................................................
.............................. CYCLE   48 ..............................
........................................................................
   1    -38.2691543 -0.382692E+02  0.437E-02    1.71       0.0  T
   2    -38.2691548 -0.428320E-06  0.314E-02    1.71       1.0  T
   3    -38.2691516  0.320085E-05  0.194E-02    1.72       1.0  T
   4    -38.2691564 -0.480306E-05  0.412E-03    1.71       4.4  T
   5    -38.2691565 -0.130345E-06  0.236E-03    1.71       7.6  T
   6    -38.2691565 -0.200222E-07  0.566E-04    1.71      31.7  T
   7    -38.2691565 -0.394919E-08  0.316E-04    1.71      56.8  T
     SCC iter.                  ...        0 min,  0.425 sec
     gradient                   ...        0 min,  0.040 sec
 * total energy  :   -37.6457948 Eh     change       -0.1015478E-03 Eh
   gradient norm :     0.0110537 Eh/α   predicted    -0.5954002E-04 ( -41.37%)
   displ. norm   :     0.3379574 α      lambda       -0.3542197E-03
   maximum displ.:     0.1915227 α      in ANC's #4, #3, #9, ...

........................................................................
.............................. CYCLE   49 ..............................
........................................................................
   1    -38.2707264 -0.382707E+02  0.112E-01    1.72       0.0  T
   2    -38.2707338 -0.738566E-05  0.101E-01    1.71       1.0  T
   3    -38.2707575 -0.237188E-04  0.549E-02    1.71       1.0  T
   4    -38.2707584 -0.864138E-06  0.146E-02    1.71       1.2  T
   5    -38.2707617 -0.335167E-05  0.748E-03    1.71       2.4  T
   6    -38.2707618 -0.507675E-07  0.217E-03    1.71       8.3  T
   7    -38.2707618 -0.579790E-07  0.792E-04    1.71      22.7  T
   8    -38.2707618 -0.259191E-08  0.403E-04    1.71      44.6  T
     SCC iter.                  ...        0 min,  0.571 sec
     gradient                   ...        0 min,  0.117 sec
 * total energy  :   -37.6460125 Eh     change       -0.2177288E-03 Eh
   gradient norm :     0.0050472 Eh/α   predicted    -0.1973385E-03 (  -9.36%)
   displ. norm   :     0.4662191 α      lambda       -0.1681927E-03
   maximum displ.:     0.2709384 α      in ANC's #4, #1, #3, ...

........................................................................
.............................. CYCLE   50 ..............................
........................................................................
   1    -38.2649885 -0.382650E+02  0.119E-01    1.71       0.0  T
   2    -38.2649928 -0.435901E-05  0.776E-02    1.71       1.0  T
   3    -38.2649615  0.313232E-04  0.398E-02    1.71       1.0  T
   4    -38.2649972 -0.356995E-04  0.154E-02    1.71       1.2  T
   5    -38.2649984 -0.116677E-05  0.981E-03    1.71       1.8  T
   6    -38.2649985 -0.172583E-06  0.257E-03    1.71       7.0  T
   7    -38.2649986 -0.860318E-07  0.648E-04    1.71      27.7  T
   8    -38.2649986 -0.214268E-08  0.484E-04    1.71      37.1  T
     SCC iter.                  ...        0 min,  0.611 sec
     gradient                   ...        0 min,  0.218 sec
 * total energy  :   -37.6459669 Eh     change        0.4565391E-04 Eh
   gradient norm :     0.0222478 Eh/α   predicted    -0.1023781E-03 (-324.25%)
   displ. norm   :     0.1455066 α      lambda       -0.3683990E-03
   maximum displ.:     0.0960264 α      in ANC's #4, #1, #3, ...

........................................................................
.............................. CYCLE   51 ..............................
........................................................................
   1    -38.2706002 -0.382706E+02  0.517E-02    1.71       0.0  T
   2    -38.2706020 -0.177173E-05  0.318E-02    1.71       1.0  T
   3    -38.2705984  0.361360E-05  0.254E-02    1.71       1.0  T
   4    -38.2706038 -0.545233E-05  0.894E-03    1.71       2.0  T
   5    -38.2706039 -0.286559E-07  0.718E-03    1.71       2.5  T
   6    -38.2706039 -0.355320E-07  0.212E-03    1.71       8.5  T
   7    -38.2706040 -0.909740E-07  0.762E-04    1.71      23.6  T
   8    -38.2706040 -0.309478E-08  0.506E-04    1.71      35.5  T
     SCC iter.                  ...        0 min,  0.705 sec
     gradient                   ...        0 min,  0.158 sec
 * total energy  :   -37.6461521 Eh     change       -0.1852015E-03 Eh
   gradient norm :     0.0044203 Eh/α   predicted    -0.1881009E-03 (   1.57%)
   displ. norm   :     0.1142329 α      lambda       -0.7052695E-04
   maximum displ.:     0.0536242 α      in ANC's #2, #1, #4, ...

........................................................................
.............................. CYCLE   52 ..............................
........................................................................
   1    -38.2713880 -0.382714E+02  0.270E-02    1.71       0.0  T
   2    -38.2713883 -0.269462E-06  0.160E-02    1.71       1.1  T
   3    -38.2713871  0.112030E-05  0.758E-03    1.71       2.4  T
   4    -38.2713885 -0.135573E-05  0.137E-03    1.71      13.1  T
   5    -38.2713885 -0.501898E-08  0.105E-03    1.71      17.1  T
   6    -38.2713885 -0.549367E-08  0.454E-04    1.71      39.6  T
   7    -38.2713885 -0.101522E-08  0.210E-04    1.71      85.6  T
     SCC iter.                  ...        0 min,  0.585 sec
     gradient                   ...        0 min,  0.165 sec
 * total energy  :   -37.6462143 Eh     change       -0.6221674E-04 Eh
   gradient norm :     0.0034190 Eh/α   predicted    -0.3572359E-04 ( -42.58%)
   displ. norm   :     0.4257122 α      lambda       -0.2220995E-03
   maximum displ.:     0.2148394 α      in ANC's #2, #1, #4, ...

........................................................................
.............................. CYCLE   53 ..............................
........................................................................
   1    -38.2707614 -0.382708E+02  0.869E-02    1.69       0.0  T
   2    -38.2707651 -0.370470E-05  0.500E-02    1.70       1.0  T
   3    -38.2707593  0.580863E-05  0.281E-02    1.69       1.0  T
   4    -38.2707676 -0.828795E-05  0.405E-03    1.70       4.4  T
   5    -38.2707677 -0.672630E-07  0.366E-03    1.70       4.9  T
   6    -38.2707677 -0.679132E-07  0.189E-03    1.70       9.5  T
   7    -38.2707678 -0.255234E-07  0.782E-04    1.70      23.0  T
   8    -38.2707678 -0.234602E-08  0.421E-04    1.70      42.7  T
     SCC iter.                  ...        0 min,  0.949 sec
     gradient                   ...        0 min,  0.263 sec
 * total energy  :   -37.6463495 Eh     change       -0.1352295E-03 Eh
   gradient norm :     0.0073411 Eh/α   predicted    -0.1311693E-03 (  -3.00%)
   displ. norm   :     0.1096737 α      lambda       -0.6387485E-04
   maximum displ.:     0.0786355 α      in ANC's #2, #1, #5, ...

........................................................................
.............................. CYCLE   54 ..............................
........................................................................
   1    -38.2720024 -0.382720E+02  0.256E-02    1.69       0.0  T
   2    -38.2720027 -0.273154E-06  0.161E-02    1.69       1.1  T
   3    -38.2720017  0.961776E-06  0.109E-02    1.69       1.7  T
   4    -38.2720033 -0.159783E-05  0.180E-03    1.69      10.0  T
   5    -38.2720034 -0.373556E-07  0.954E-04    1.69      18.8  T
   6    -38.2720034  0.270944E-09  0.486E-04    1.69      36.9  T
     SCC iter.                  ...        0 min,  0.671 sec
     gradient                   ...        0 min,  0.296 sec
 * total energy  :   -37.6463942 Eh     change       -0.4468634E-04 Eh
   gradient norm :     0.0029528 Eh/α   predicted    -0.3232237E-04 ( -27.67%)
   displ. norm   :     0.2091468 α      lambda       -0.5882426E-04
   maximum displ.:     0.1500213 α      in ANC's #2, #1, #9, ...

........................................................................
.............................. CYCLE   55 ..............................
........................................................................
   1    -38.2724199 -0.382724E+02  0.414E-02    1.69       0.0  T
   2    -38.2724205 -0.634131E-06  0.255E-02    1.69       1.0  T
   3    -38.2724183  0.218504E-05  0.119E-02    1.69       1.5  T
   4    -38.2724209 -0.261374E-05  0.353E-03    1.69       5.1  T
   5    -38.2724210 -0.713388E-07  0.207E-03    1.69       8.7  T
   6    -38.2724210 -0.780877E-08  0.951E-04    1.69      18.9  T
   7    -38.2724210 -0.552064E-08  0.454E-04    1.69      39.6  T
     SCC iter.                  ...        0 min,  0.930 sec
     gradient                   ...        0 min,  0.321 sec
 * total energy  :   -37.6464342 Eh     change       -0.3993420E-04 Eh
   gradient norm :     0.0036004 Eh/α   predicted    -0.3070549E-04 ( -23.11%)
   displ. norm   :     0.1555894 α      lambda       -0.4764209E-04
   maximum displ.:     0.1197908 α      in ANC's #2, #5, #4, ...

........................................................................
.............................. CYCLE   56 ..............................
........................................................................
   1    -38.2727593 -0.382728E+02  0.352E-02    1.68       0.0  T
   2    -38.2727599 -0.571800E-06  0.238E-02    1.68       1.0  T
   3    -38.2727584  0.142503E-05  0.885E-03    1.68       2.0  T
   4    -38.2727601 -0.167256E-05  0.327E-03    1.68       5.5  T
   5    -38.2727602 -0.809960E-07  0.234E-03    1.68       7.7  T
   6    -38.2727602 -0.797298E-08  0.578E-04    1.68      31.1  T
   7    -38.2727602 -0.409376E-08  0.325E-04    1.68      55.2  T
     SCC iter.                  ...        0 min,  0.947 sec
     gradient                   ...        0 min,  0.309 sec
 * total energy  :   -37.6464675 Eh     change       -0.3332751E-04 Eh
   gradient norm :     0.0035474 Eh/α   predicted    -0.2440056E-04 ( -26.79%)
   displ. norm   :     0.1663709 α      lambda       -0.4157514E-04
   maximum displ.:     0.1309012 α      in ANC's #2, #3, #5, ...

........................................................................
.............................. CYCLE   57 ..............................
........................................................................
   1    -38.2728957 -0.382729E+02  0.363E-02    1.68       0.0  T
   2    -38.2728962 -0.508040E-06  0.230E-02    1.68       1.0  T
   3    -38.2728943  0.196593E-05  0.112E-02    1.68       1.6  T
   4    -38.2728966 -0.234329E-05  0.266E-03    1.68       6.8  T
   5    -38.2728966 -0.222244E-07  0.179E-03    1.68      10.0  T
   6    -38.2728966 -0.223631E-08  0.490E-04    1.68      36.7  T
   7    -38.2728966 -0.332219E-08  0.321E-04    1.68      55.9  T
     SCC iter.                  ...        0 min,  0.859 sec
     gradient                   ...        0 min,  0.317 sec
 * total energy  :   -37.6465004 Eh     change       -0.3295282E-04 Eh
   gradient norm :     0.0028990 Eh/α   predicted    -0.2136369E-04 ( -35.17%)
   displ. norm   :     0.0974960 α      lambda       -0.3561968E-04
   maximum displ.:     0.0648910 α      in ANC's #2, #3, #5, ...

........................................................................
.............................. CYCLE   58 ..............................
........................................................................
   1    -38.2729542 -0.382730E+02  0.181E-02    1.68       0.0  T
   2    -38.2729543 -0.104789E-06  0.112E-02    1.68       1.6  T
   3    -38.2729537  0.558014E-06  0.630E-03    1.68       2.9  T
   4    -38.2729544 -0.656958E-06  0.116E-03    1.68      15.5  T
   5    -38.2729544 -0.674156E-09  0.870E-04    1.68      20.6  T
   6    -38.2729544 -0.197913E-08  0.275E-04    1.68      65.4  T
     SCC iter.                  ...        0 min,  0.811 sec
     gradient                   ...        0 min,  0.264 sec
 * total energy  :   -37.6465316 Eh     change       -0.3114106E-04 Eh
   gradient norm :     0.0039903 Eh/α   predicted    -0.1798041E-04 ( -42.26%)
   displ. norm   :     0.1685616 α      lambda       -0.6503421E-04
   maximum displ.:     0.1096988 α      in ANC's #3, #2, #5, ...

........................................................................
.............................. CYCLE   59 ..............................
........................................................................
   1    -38.2725547 -0.382726E+02  0.306E-02    1.68       0.0  T
   2    -38.2725548 -0.184226E-06  0.168E-02    1.68       1.1  T
   3    -38.2725531  0.178654E-05  0.162E-02    1.68       1.1  T
   4    -38.2725553 -0.225644E-05  0.367E-03    1.68       4.9  T
   5    -38.2725553  0.115130E-07  0.249E-03    1.68       7.2  T
   6    -38.2725554 -0.530703E-07  0.319E-04    1.68      56.3  T
   7    -38.2725554 -0.167710E-08  0.138E-04    1.68     130.5  T
     SCC iter.                  ...        0 min,  0.927 sec
     gradient                   ...        0 min,  0.274 sec
 * total energy  :   -37.6465838 Eh     change       -0.5218240E-04 Eh
   gradient norm :     0.0019856 Eh/α   predicted    -0.3344289E-04 ( -35.91%)
   displ. norm   :     0.3552561 α      lambda       -0.7186740E-04
   maximum displ.:     0.2394746 α      in ANC's #3, #2, #5, ...

........................................................................
.............................. CYCLE   60 ..............................
........................................................................
   1    -38.2711529 -0.382712E+02  0.589E-02    1.68       0.0  T
   2    -38.2711538 -0.906442E-06  0.326E-02    1.68       1.0  T
   3    -38.2711507  0.317201E-05  0.247E-02    1.68       1.0  T
   4    -38.2711547 -0.402032E-05  0.467E-03    1.68       3.8  T
   5    -38.2711547 -0.302277E-07  0.334E-03    1.68       5.4  T
   6    -38.2711548 -0.748769E-07  0.731E-04    1.68      24.6  T
   7    -38.2711548 -0.405966E-08  0.541E-04    1.68      33.2  T
     SCC iter.                  ...        0 min,  0.800 sec
     gradient                   ...        0 min,  0.075 sec
 * total energy  :   -37.6466521 Eh     change       -0.6832669E-04 Eh
   gradient norm :     0.0038957 Eh/α   predicted    -0.3795280E-04 ( -44.45%)
   displ. norm   :     0.1444642 α      lambda       -0.4101947E-04
   maximum displ.:     0.0984607 α      in ANC's #2, #3, #5, ...

........................................................................
.............................. CYCLE   61 ..............................
........................................................................
   1    -38.2709093 -0.382709E+02  0.294E-02    1.68       0.0  T
   2    -38.2709095 -0.197924E-06  0.165E-02    1.68       1.1  T
   3    -38.2709091  0.461932E-06  0.980E-03    1.68       1.8  T
   4    -38.2709096 -0.563530E-06  0.243E-03    1.68       7.4  T
   5    -38.2709096  0.733852E-08  0.174E-03    1.68      10.3  T
   6    -38.2709097 -0.903614E-08  0.552E-04    1.68      32.5  T
   7    -38.2709097 -0.774887E-08  0.153E-04    1.68     117.1  T
     SCC iter.                  ...        0 min,  0.877 sec
     gradient                   ...        0 min,  0.279 sec
 * total energy  :   -37.6466857 Eh     change       -0.3364021E-04 Eh
   gradient norm :     0.0032191 Eh/α   predicted    -0.2093864E-04 ( -37.76%)
   displ. norm   :     0.2731209 α      lambda       -0.7559647E-04
   maximum displ.:     0.1816782 α      in ANC's #2, #3, #5, ...

........................................................................
.............................. CYCLE   62 ..............................
........................................................................
   1    -38.2720775 -0.382721E+02  0.543E-02    1.68       0.0  T
   2    -38.2720782 -0.678860E-06  0.315E-02    1.68       1.0  T
   3    -38.2720734  0.472510E-05  0.229E-02    1.68       1.0  T
   4    -38.2720790 -0.559526E-05  0.545E-03    1.68       3.3  T
   5    -38.2720789  0.805035E-07  0.415E-03    1.68       4.3  T
   6    -38.2720791 -0.167627E-06  0.132E-03    1.68      13.6  T
   7    -38.2720791 -0.119537E-07  0.502E-04    1.68      35.8  T
   8    -38.2720791  0.439343E-09  0.466E-04    1.68      38.5  T
     SCC iter.                  ...        0 min,  1.134 sec
     gradient                   ...        0 min,  0.318 sec
 * total energy  :   -37.6467356 Eh     change       -0.4985231E-04 Eh
   gradient norm :     0.0029576 Eh/α   predicted    -0.4062144E-04 ( -18.52%)
   displ. norm   :     0.2258311 α      lambda       -0.4308728E-04
   maximum displ.:     0.1642383 α      in ANC's #2, #3, #5, ...

........................................................................
.............................. CYCLE   63 ..............................
........................................................................
   1    -38.2713602 -0.382714E+02  0.562E-02    1.68       0.0  T
   2    -38.2713608 -0.616395E-06  0.391E-02    1.68       1.0  T
   3    -38.2713534  0.739014E-05  0.159E-02    1.68       1.1  T
   4    -38.2713613 -0.786373E-05  0.629E-03    1.68       2.9  T
   5    -38.2713616 -0.281818E-06  0.260E-03    1.68       6.9  T
   6    -38.2713616 -0.503509E-08  0.885E-04    1.68      20.3  T
   7    -38.2713616 -0.112156E-07  0.334E-04    1.68      53.8  T
     SCC iter.                  ...        0 min,  0.865 sec
     gradient                   ...        0 min,  0.279 sec
 * total energy  :   -37.6467582 Eh     change       -0.2258408E-04 Eh
   gradient norm :     0.0022752 Eh/α   predicted    -0.2264415E-04 (   0.27%)
   displ. norm   :     0.0804428 α      lambda       -0.1663071E-04
   maximum displ.:     0.0625969 α      in ANC's #2, #3, #5, ...

........................................................................
.............................. CYCLE   64 ..............................
........................................................................
   1    -38.2722289 -0.382722E+02  0.184E-02    1.68       0.0  T
   2    -38.2722291 -0.147673E-06  0.140E-02    1.68       1.3  T
   3    -38.2722285  0.572483E-06  0.555E-03    1.68       3.2  T
   4    -38.2722292 -0.674156E-06  0.217E-03    1.68       8.3  T
   5    -38.2722292 -0.219313E-07  0.121E-03    1.68      14.8  T
   6    -38.2722292  0.134251E-08  0.527E-04    1.68      34.1  T
   7    -38.2722292 -0.513013E-08  0.204E-04    1.68      88.1  T
     SCC iter.                  ...        0 min,  0.862 sec
     gradient                   ...        0 min,  0.257 sec
 * total energy  :   -37.6467701 Eh     change       -0.1196119E-04 Eh
   gradient norm :     0.0019477 Eh/α   predicted    -0.8371294E-05 ( -30.01%)
   displ. norm   :     0.1293984 α      lambda       -0.1369799E-04
   maximum displ.:     0.1030069 α      in ANC's #2, #3, #5, ...

........................................................................
.............................. CYCLE   65 ..............................
........................................................................
   1    -38.2729816 -0.382730E+02  0.323E-02    1.68       0.0  T
   2    -38.2729819 -0.232400E-06  0.231E-02    1.68       1.0  T
   3    -38.2729810  0.914123E-06  0.635E-03    1.68       2.8  T
   4    -38.2729820 -0.991273E-06  0.243E-03    1.68       7.4  T
   5    -38.2729820 -0.354624E-07  0.172E-03    1.68      10.4  T
   6    -38.2729820 -0.682842E-08  0.731E-04    1.68      24.6  T
   7    -38.2729820 -0.673757E-08  0.241E-04    1.68      74.4  T
     SCC iter.                  ...        0 min,  0.855 sec
     gradient                   ...        0 min,  0.232 sec
 * total energy  :   -37.6467825 Eh     change       -0.1236181E-04 Eh
   gradient norm :     0.0017170 Eh/α   predicted    -0.6904292E-05 ( -44.15%)
   displ. norm   :     0.1013449 α      lambda       -0.7006181E-05
   maximum displ.:     0.0782755 α      in ANC's #2, #3, #5, ...

........................................................................
.............................. CYCLE   66 ..............................
........................................................................
   1    -38.2725615 -0.382726E+02  0.243E-02    1.68       0.0  T
   2    -38.2725616 -0.118690E-06  0.164E-02    1.68       1.1  T
   3    -38.2725606  0.982053E-06  0.739E-03    1.68       2.4  T
   4    -38.2725617 -0.108842E-05  0.179E-03    1.68      10.0  T
   5    -38.2725618 -0.212188E-07  0.102E-03    1.68      17.6  T
   6    -38.2725618  0.180946E-08  0.532E-04    1.68      33.8  T
   7    -38.2725618 -0.543781E-08  0.136E-04    1.68     132.3  T
     SCC iter.                  ...        0 min,  0.857 sec
     gradient                   ...        0 min,  0.370 sec
 * total energy  :   -37.6467887 Eh     change       -0.6227261E-05 Eh
   gradient norm :     0.0013876 Eh/α   predicted    -0.3521888E-05 ( -43.44%)
   displ. norm   :     0.0838593 α      lambda       -0.7176366E-05
   maximum displ.:     0.0652517 α      in ANC's #2, #3, #5, ...
 * RMSD in coord.:     0.5652218 α      energy gain  -0.1363970E-02 Eh

generating ANC from model Hessian ...
Using Lindh-Hessian (1995)
 Shifting diagonal of input Hessian by    1.0651566680519066E-002
 Lowest  eigenvalues of input Hessian
    0.010000    0.010391    0.000000    0.000000    0.000000    0.000000
    0.000000    0.000000    0.011116    0.011652    0.011762    0.011926
    0.012265    0.015229    0.015597    0.017054    0.018724    0.018803
 Highest eigenvalues
    1.734733    1.737339    1.739073    3.668484    4.328646    5.075177


........................................................................
.............................. CYCLE   67 ..............................
........................................................................
   1    -38.2727903 -0.382728E+02  0.236E-02    1.68       0.0  T
   2    -38.2727903 -0.749081E-07  0.137E-02    1.68       1.3  T
   3    -38.2727893  0.100734E-05  0.102E-02    1.68       1.8  T
   4    -38.2727905 -0.115079E-05  0.175E-03    1.68      10.3  T
   5    -38.2727905 -0.329770E-08  0.118E-03    1.68      15.2  T
   6    -38.2727905 -0.118362E-07  0.239E-04    1.68      75.2  T
   7    -38.2727905 -0.688061E-09  0.135E-04    1.68     133.3  T
     SCC iter.                  ...        0 min,  0.873 sec
     gradient                   ...        0 min,  0.295 sec
 * total energy  :   -37.6467952 Eh     change       -0.6518145E-05 Eh
   gradient norm :     0.0012726 Eh/α   predicted     0.0000000E+00 (-100.00%)
   displ. norm   :     0.0253670 α      lambda       -0.6944598E-06
   maximum displ.:     0.0137319 α      in ANC's #4, #5, #1, ...

........................................................................
.............................. CYCLE   68 ..............................
........................................................................
   1    -38.2726259 -0.382726E+02  0.151E-02    1.68       0.0  T
   2    -38.2726260 -0.744458E-07  0.921E-03    1.68       2.0  T
   3    -38.2726258  0.137258E-06  0.537E-03    1.68       3.3  T
   4    -38.2726260 -0.181916E-06  0.163E-03    1.68      11.0  T
   5    -38.2726260  0.150892E-07  0.141E-03    1.68      12.7  T
   6    -38.2726260 -0.179890E-07  0.364E-04    1.68      49.3  T
   7    -38.2726260 -0.205335E-08  0.157E-04    1.68     114.4  T
     SCC iter.                  ...        0 min,  1.035 sec
     gradient                   ...        0 min,  0.233 sec
 * total energy  :   -37.6467993 Eh     change       -0.4076164E-05 Eh
   gradient norm :     0.0006013 Eh/α   predicted    -0.2867457E-05 ( -29.65%)
   displ. norm   :     0.0391588 α      lambda       -0.5459450E-05
   maximum displ.:     0.0271083 α      in ANC's #4, #5, #7, ...

   *** GEOMETRY OPTIMIZATION CONVERGED AFTER 68 ITERATIONS ***

------------------------------------------------------------------------
 total energy gain   :        -4.5890700 Eh    -2879.6849 kcal/mol
 total RMSD          :         1.6214892 a0        0.8581 Å
 total power (kW/mol):      -177.1853180 (step) -223.2040 (real)
------------------------------------------------------------------------

 ANCopt (total)                0 d,  0 h,  0 min, 53.980 sec
 optimizer setup                ...        0 min,  0.000 sec (  0.001%)
 model hessian                  ...        0 min,  0.212 sec (  0.393%)
 ANC generation                 ...        0 min,  0.051 sec (  0.095%)
 coordinate transformation      ...        0 min,  0.001 sec (  0.002%)
 single point calculation       ...        0 min, 52.745 sec ( 97.711%)
 optimization log               ...        0 min,  0.006 sec (  0.012%)
 hessian update                 ...        0 min,  0.728 sec (  1.349%)
 rational function              ...        0 min,  0.221 sec (  0.410%)

================
 final structure:
================
31
 xtb: 6.5.1 (b24c23e)
Zr          -1.25903842203565       -0.10107048449427        0.59220031137553
C           -1.65853370891052        1.37175265553016       -1.32222708916103
C            0.24427434280612       -2.02649462329761        0.80939412058806
C            0.45620659774988       -1.49481279983092       -0.48506279457967
C           -0.73111591477669       -1.69163574804184       -1.23569915537049
C           -1.68048453610037       -2.31861555324897       -0.39910942235314
C           -1.08819522262101       -2.50750377631466        0.87818244612278
H            1.00989295321536       -2.17656234450910        1.56172686868850
H            1.41213714366049       -1.17091529650853       -0.88539770636064
H           -0.83902650271102       -1.53157313701069       -2.30222515710375
H           -2.62386995479910       -2.73946132733016       -0.72441984540712
H           -1.50936629575953       -3.09317960637900        1.68998148152893
C           -0.43379060456698        0.12307924326089        2.87905438637952
C           -1.68352649571058        0.78799180022397        2.81543428069163
C           -1.53384819450046        1.91465061789246        1.96360665758898
C           -0.19826399901801        1.93806123087561        1.49875120393164
C            0.48161396348489        0.82877325137770        2.05657236095650
H           -0.18439257891512       -0.67939057269207        3.56500850885165
H           -2.53752363047204        0.58272597903889        3.45196340877114
H           -2.26923202553730        2.69719208366988        1.81914948548634
H            0.26630194661572        2.74899313334226        0.94787019176459
H            1.55078867867864        0.65331607641822        2.00230895657363
H           -0.61337594638317        1.04224210367733       -1.08911947361411
H           -1.80306136271079        1.29849534783473       -2.39689931813382
H           -1.81018645658696        2.40686339053636       -1.01310311281567
C           -3.65263821513546       -0.06055937943783        0.53612702781057
C           -3.46613975583739        0.45359826789127       -0.79676373789759
H           -3.98821762358303        1.37524941111740       -1.04113308964141
H           -3.51498605309716       -0.27464474702351       -1.60656066839380
H           -4.15517085608059        0.61478350605469        1.22794411570286
H           -3.97231163037506       -1.10181375261156        0.61552907800993

 Bond Distances (Angstroems)
 ---------------------------
Zr1-C2=2.4482        Zr1-C3=2.4524        Zr1-C4=2.4587        Zr1-C5=2.4799        Zr1-C6=2.4653        Zr1-C7=2.4294        
Zr1-C13=2.4415       Zr1-C14=2.4317       Zr1-C15=2.4534       Zr1-C16=2.4709       Zr1-C17=2.4574       Zr1-H23=2.1333       
Zr1-C26=2.3946       Zr1-C27=2.6661       C2-Zr1=2.4482        C2-H23=1.1204        C2-H24=1.0868        C2-H25=1.0909        
C3-Zr1=2.4524        C3-C4=1.4154         C3-C7=1.4183         C3-H8=1.0838         C4-Zr1=2.4587        C4-C3=1.4154         
C4-C5=1.4184         C4-H9=1.0858         C5-Zr1=2.4799        C5-C4=1.4184         C5-C6=1.4122         C5-H10=1.0839        
C6-Zr1=2.4653        C6-C5=1.4122         C6-C7=1.4205         C6-H11=1.0830        C7-Zr1=2.4294        C7-C3=1.4183         
C7-C6=1.4205         C7-H12=1.0860        H8-C3=1.0838         H9-C4=1.0858         H10-C5=1.0839        H11-C6=1.0830        
H12-C7=1.0860        C13-Zr1=2.4415       C13-C14=1.4170       C13-C17=1.4186       C13-H18=1.0848       C14-Zr1=2.4317       
C14-C13=1.4170       C14-C15=1.4203       C14-H19=1.0847       C15-Zr1=2.4534       C15-C14=1.4203       C15-C16=1.4144       
C15-H20=1.0835       C16-Zr1=2.4709       C16-C15=1.4144       C16-C17=1.4156       C16-H21=1.0849       C17-Zr1=2.4574       
C17-C13=1.4186       C17-C16=1.4156       C17-H22=1.0848       H18-C13=1.0848       H19-C14=1.0847       H20-C15=1.0835       
H21-C16=1.0849       H22-C17=1.0848       H23-Zr1=2.1333       H23-C2=1.1204        H24-C2=1.0868        H25-C2=1.0909        
C26-Zr1=2.3946       C26-C27=1.4407       C26-H30=1.0896       C26-H31=1.0921       C27-Zr1=2.6661       C27-C26=1.4407       
C27-H28=1.0871       C27-H29=1.0902       H28-C27=1.0871       H29-C27=1.0902       H30-C26=1.0896       H31-C26=1.0921       
 C  H  Rav=1.0884 sigma=0.0084  Rmin=1.0830  Rmax=1.1204    17
 C  C  Rav=1.4192 sigma=0.0072  Rmin=1.4122  Rmax=1.4407    11
 Zr H  Rav=2.1333 sigma=0.0000  Rmin=2.1333  Rmax=2.1333     1
 Zr C  Rav=2.4654 sigma=0.0616  Rmin=2.3946  Rmax=2.6661    13

 selected bond angles (degree)
 --------------------
C3-Zr1-C2=129.91               C4-Zr1-C2= 96.44               C4-Zr1-C3= 33.50               C5-Zr1-C2= 81.04               
C5-Zr1-C3= 55.34               C5-Zr1-C4= 33.38               C6-Zr1-C2=101.47               C6-Zr1-C3= 55.54               
C6-Zr1-C4= 55.47               C6-Zr1-C5= 33.18               C7-Zr1-C2=134.38               C7-Zr1-C3= 33.77               
C7-Zr1-C4= 56.01               C7-Zr1-C5= 55.70               C7-Zr1-C6= 33.73               C13-Zr1-C2=137.08              
C13-Zr1-C3= 77.40              C13-Zr1-C4=103.10              C13-Zr1-C5=132.64              C13-Zr1-C6=121.13              
C13-Zr1-C7= 87.53              C14-Zr1-C2=117.81              C14-Zr1-C3=108.24              C14-Zr1-C4=136.85              
C14-Zr1-C5=161.00              C14-Zr1-C6=131.81              C14-Zr1-C7=105.47              C14-Zr1-C13= 33.81             
C15-Zr1-C2= 85.67              C15-Zr1-C3=131.62              C15-Zr1-C4=142.07              C15-Zr1-C5=164.33              
C15-Zr1-C6=160.84              C15-Zr1-C7=139.10              C15-Zr1-C13= 55.87             C15-Zr1-C14= 33.80             
C16-Zr1-C2= 81.98              C16-Zr1-C3=110.63              C16-Zr1-C4=109.21              C16-Zr1-C5=135.10              
C16-Zr1-C6=164.42              C16-Zr1-C7=138.08              C16-Zr1-C13= 55.63             C16-Zr1-C14= 55.79             
C16-Zr1-C15= 33.38             C17-Zr1-C2=110.73              C17-Zr1-C3= 79.05              C17-Zr1-C4= 88.94              
C17-Zr1-C5=122.08              C17-Zr1-C6=134.51              C17-Zr1-C7=104.76              C17-Zr1-C13= 33.66             
C17-Zr1-C14= 55.98             C17-Zr1-C15= 55.62             C17-Zr1-C16= 33.38             H23-Zr1-C2= 27.21              
H23-Zr1-C3=107.76              H23-Zr1-C4= 75.37              H23-Zr1-C5= 72.45              H23-Zr1-C6=102.53              
H23-Zr1-C7=127.04              H23-Zr1-C13=125.92             H23-Zr1-C14=125.27             H23-Zr1-C15= 91.96             
H23-Zr1-C16= 73.56             H23-Zr1-C17= 93.01             C26-Zr1-C2= 78.95              C26-Zr1-C3=128.91              
C26-Zr1-C4=134.16              C26-Zr1-C5=101.91              C26-Zr1-C6= 80.50              C26-Zr1-C7= 95.15              
C26-Zr1-C13=110.99             C26-Zr1-C14= 80.84             C26-Zr1-C15= 83.52             C26-Zr1-C16=115.07             
C26-Zr1-C17=135.69             C26-Zr1-H23=105.96             C27-Zr1-C2= 48.12              C27-Zr1-C3=135.80              
C27-Zr1-C4=117.85              C27-Zr1-C5= 85.74              C27-Zr1-C6= 80.57              C27-Zr1-C7=109.00              
C27-Zr1-C13=138.48             C27-Zr1-C14=104.82             C27-Zr1-C15= 91.58             C27-Zr1-C16=112.02             
C27-Zr1-C17=144.90             C27-Zr1-H23= 74.24             C27-Zr1-C26= 32.52             H23-C2-Zr1= 60.54              
H24-C2-Zr1=138.97              H24-C2-H23=108.06              H25-C2-Zr1=111.83              H25-C2-H23=110.47              
H25-C2-H24=109.01              C4-C3-Zr1= 73.49               C7-C3-Zr1= 72.22               C7-C3-C4=108.21                
H8-C3-Zr1=127.10               H8-C3-C4=125.53                H8-C3-C7=125.66                C3-C4-Zr1= 73.01               
C5-C4-Zr1= 74.13               C5-C4-C3=107.85                H9-C4-Zr1=127.35               H9-C4-C3=125.53                
H9-C4-C5=125.68                C4-C5-Zr1= 72.49               C6-C5-Zr1= 72.84               C6-C5-C4=108.11                
H10-C5-Zr1=127.55              H10-C5-C4=125.70               H10-C5-C6=125.56               C5-C6-Zr1= 73.97               
C7-C6-Zr1= 71.75               C7-C6-C5=108.14                H11-C6-Zr1=128.26              H11-C6-C5=125.46               
H11-C6-C7=125.56               C3-C7-Zr1= 74.00               C6-C7-Zr1= 74.52               C6-C7-C3=107.64                
H12-C7-Zr1=126.51              H12-C7-C3=125.70               H12-C7-C6=125.60               

 selected dihedral angles (degree)
 ---------------------------------
H23-C2-Zr1-C3=319.20          H23-C2-Zr1-C4=320.87          H23-C2-Zr1-C5=291.16          H23-C2-Zr1-C6=264.87          
H23-C2-Zr1-C7=273.45          H23-C2-Zr1-C13= 78.03         H23-C2-Zr1-C14=113.70         H23-C2-Zr1-C15=102.82         
H23-C2-Zr1-C16= 69.44         H23-C2-Zr1-C17= 52.17         H23-C2-Zr1-C26=187.06         H23-C2-Zr1-C27=198.85         
H24-C2-Zr1-C3= 43.07          H24-C2-Zr1-C4= 44.74          H24-C2-Zr1-C5= 15.03          H24-C2-Zr1-C6=348.73          
H24-C2-Zr1-C7=357.31          H24-C2-Zr1-C13=161.89         H24-C2-Zr1-C14=197.57         H24-C2-Zr1-C15=186.69         
H24-C2-Zr1-C16=153.31         H24-C2-Zr1-C17=136.04         H24-C2-Zr1-H23= 83.87         H24-C2-Zr1-C26=270.93         
H24-C2-Zr1-C27=282.72         H25-C2-Zr1-C3=217.29          H25-C2-Zr1-C4=218.96          H25-C2-Zr1-C5=189.25          
H25-C2-Zr1-C6=162.95          H25-C2-Zr1-C7=171.53          H25-C2-Zr1-C13=336.11         H25-C2-Zr1-C14= 11.79         
H25-C2-Zr1-C15=  0.91         H25-C2-Zr1-C16=327.53         H25-C2-Zr1-C17=310.26         H25-C2-Zr1-H23=258.09         
H25-C2-Zr1-C26= 85.14         H25-C2-Zr1-C27= 96.93         C4-C3-Zr1-C2=  3.00           C4-C3-Zr1-C5= 37.37           
C4-C3-Zr1-C6= 77.95           C4-C3-Zr1-C7=115.93           C4-C3-Zr1-C13=220.68          C4-C3-Zr1-C14=206.64          
C4-C3-Zr1-C15=235.29          C4-C3-Zr1-C16=266.08          C4-C3-Zr1-C17=255.05          C4-C3-Zr1-H23=344.72          
C4-C3-Zr1-C26=113.74          C4-C3-Zr1-C27= 70.15          C7-C3-Zr1-C2=247.07           C7-C3-Zr1-C4=244.07           
C7-C3-Zr1-C5=281.45           C7-C3-Zr1-C6=322.02           C7-C3-Zr1-C13=104.75          C7-C3-Zr1-C14= 90.71          
C7-C3-Zr1-C15=119.37          C7-C3-Zr1-C16=150.15          C7-C3-Zr1-C17=139.12          C7-C3-Zr1-H23=228.79          
C7-C3-Zr1-C26=357.81          C7-C3-Zr1-C27=314.22          H8-C3-Zr1-C2=125.39           H8-C3-Zr1-C4=122.39           
H8-C3-Zr1-C5=159.77           H8-C3-Zr1-C6=200.35           H8-C3-Zr1-C7=238.32           H8-C3-Zr1-C13=343.08          
H8-C3-Zr1-C14=329.03          H8-C3-Zr1-C15=357.69          H8-C3-Zr1-C16= 28.47          H8-C3-Zr1-C17= 17.44          
H8-C3-Zr1-H23=107.11          H8-C3-Zr1-C26=236.14          H8-C3-Zr1-C27=192.55          C3-C4-Zr1-C2=182.32           
C3-C4-Zr1-C5=245.16           C3-C4-Zr1-C6=281.82           C3-C4-Zr1-C7=322.92           C3-C4-Zr1-C13= 40.78          
C3-C4-Zr1-C14= 38.51          C3-C4-Zr1-C15= 91.09          C3-C4-Zr1-C16= 98.59          C3-C4-Zr1-C17= 71.57          
C3-C4-Zr1-H23=164.96          C3-C4-Zr1-C26=263.16          C3-C4-Zr1-C27=227.87          C5-C4-Zr1-C2=297.16           
C5-C4-Zr1-C3=114.84           C5-C4-Zr1-C6= 36.66           C5-C4-Zr1-C7= 77.76           C5-C4-Zr1-C13=155.62          
C5-C4-Zr1-C14=153.35          C5-C4-Zr1-C15=205.93          C5-C4-Zr1-C16=213.43          C5-C4-Zr1-C17=186.41          
C5-C4-Zr1-H23=279.80          C5-C4-Zr1-C26= 18.00          C5-C4-Zr1-C27=342.71          H9-C4-Zr1-C2= 60.23           
H9-C4-Zr1-C3=237.92           H9-C4-Zr1-C5=123.08           H9-C4-Zr1-C6=159.74           H9-C4-Zr1-C7=200.83           
H9-C4-Zr1-C13=278.70          H9-C4-Zr1-C14=276.43          H9-C4-Zr1-C15=329.00          H9-C4-Zr1-C16=336.51          
H9-C4-Zr1-C17=309.49          H9-C4-Zr1-H23= 42.88          H9-C4-Zr1-C26=141.08          H9-C4-Zr1-C27=105.79          
Zr1-C4-C3-C7= 64.36           Zr1-C4-C3-H8=235.84           C5-C4-C3-Zr1=293.50           C5-C4-C3-C7=357.86            
C5-C4-C3-H8=169.35            H9-C4-C3-Zr1=124.14           H9-C4-C3-C7=188.50            H9-C4-C3-H8=  0.00            
C4-C5-Zr1-C2=116.48           C4-C5-Zr1-C3=322.49           C4-C5-Zr1-C6=243.99           C4-C5-Zr1-C7=281.22           
C4-C5-Zr1-C13=326.87          C4-C5-Zr1-C14=289.57          C4-C5-Zr1-C15= 84.13          C4-C5-Zr1-C16= 47.48          
C4-C5-Zr1-C17=  7.58          C4-C5-Zr1-H23= 89.91          C4-C5-Zr1-C26=193.10          C4-C5-Zr1-C27=164.72          
C6-C5-Zr1-C2=232.49           C6-C5-Zr1-C3= 78.50           C6-C5-Zr1-C4=116.01           C6-C5-Zr1-C7= 37.23           
C6-C5-Zr1-C13= 82.88          C6-C5-Zr1-C14= 45.58          C6-C5-Zr1-C15=200.14          C6-C5-Zr1-C16=163.49          
C6-C5-Zr1-C17=123.59          C6-C5-Zr1-H23=205.92          C6-C5-Zr1-C26=309.11          C6-C5-Zr1-C27=280.73          
H10-C5-Zr1-C2=354.52          H10-C5-Zr1-C3=200.53          H10-C5-Zr1-C4=238.04          H10-C5-Zr1-C6=122.03          
H10-C5-Zr1-C7=159.26          H10-C5-Zr1-C13=204.91         H10-C5-Zr1-C14=167.61         H10-C5-Zr1-C15=322.17         
H10-C5-Zr1-C16=285.52         H10-C5-Zr1-C17=245.62         H10-C5-Zr1-H23=327.95         H10-C5-Zr1-C26= 71.14         
H10-C5-Zr1-C27= 42.76         Zr1-C5-C4-C3= 65.75           Zr1-C5-C4-H9=235.09           C6-C5-C4-Zr1=295.38           
C6-C5-C4-C3=  1.13            C6-C5-C4-H9=170.47            H10-C5-C4-Zr1=124.07          H10-C5-C4-C3=189.82           
H10-C5-C4-H9=359.16           C5-C6-Zr1-C2= 53.09           C5-C6-Zr1-C3=282.18           C5-C6-Zr1-C4=323.12           
C5-C6-Zr1-C7=244.16           C5-C6-Zr1-C13=238.52          C5-C6-Zr1-C14=198.17          C5-C6-Zr1-C15=163.53          
C5-C6-Zr1-C16=311.70          C5-C6-Zr1-C17=278.19          C5-C6-Zr1-H23= 25.28          C5-C6-Zr1-C26=129.66          
C5-C6-Zr1-C27= 96.68          C7-C6-Zr1-C2=168.93           C7-C6-Zr1-C3= 38.03           C7-C6-Zr1-C4= 78.96           
C7-C6-Zr1-C5=115.84           C7-C6-Zr1-C13=354.36          C7-C6-Zr1-C14=314.01          C7-C6-Zr1-C15=279.38          
C7-C6-Zr1-C16= 67.54          C7-C6-Zr1-C17= 34.03          C7-C6-Zr1-H23=141.12          C7-C6-Zr1-C26=245.50          
C7-C6-Zr1-C27=212.52          H11-C6-Zr1-C2=290.25          H11-C6-Zr1-C3=159.35          H11-C6-Zr1-C4=200.28          
H11-C6-Zr1-C5=237.16          H11-C6-Zr1-C7=121.32          H11-C6-Zr1-C13=115.68         H11-C6-Zr1-C14= 75.34         
H11-C6-Zr1-C15= 40.70         H11-C6-Zr1-C16=188.86         H11-C6-Zr1-C17=155.35         H11-C6-Zr1-H23=262.44         
H11-C6-Zr1-C26=  6.83         H11-C6-Zr1-C27=333.84         Zr1-C6-C5-C4= 64.39           Zr1-C6-C5-H10=235.72          
C7-C6-C5-Zr1=295.92           C7-C6-C5-C4=  0.30            C7-C6-C5-H10=171.63           H11-C6-C5-Zr1=125.90          
H11-C6-C5-C4=190.29           H11-C6-C5-H10=  1.62          C3-C7-Zr1-C2= 98.72           C3-C7-Zr1-C4= 36.77           
C3-C7-Zr1-C5= 77.38           C3-C7-Zr1-C6=113.98           C3-C7-Zr1-C13=289.16          C3-C7-Zr1-C14=260.19          
C3-C7-Zr1-C15=264.34          C3-C7-Zr1-C16=315.80          C3-C7-Zr1-C17=318.36          C3-C7-Zr1-H23= 63.84          
C3-C7-Zr1-C26=178.29          C3-C7-Zr1-C27=148.10          C6-C7-Zr1-C2=344.73           C6-C7-Zr1-C3=246.02           
C6-C7-Zr1-C4=282.79           C6-C7-Zr1-C5=323.40           C6-C7-Zr1-C13=175.17          C6-C7-Zr1-C14=146.21          
C6-C7-Zr1-C15=150.36          C6-C7-Zr1-C16=201.81          C6-C7-Zr1-C17=204.38          C6-C7-Zr1-H23=309.85          
C6-C7-Zr1-C26= 64.31          C6-C7-Zr1-C27= 34.12          H12-C7-Zr1-C2=221.60          H12-C7-Zr1-C3=122.89          
H12-C7-Zr1-C4=159.66          H12-C7-Zr1-C5=200.27          H12-C7-Zr1-C6=236.87          H12-C7-Zr1-C13= 52.04         
H12-C7-Zr1-C14= 23.08         H12-C7-Zr1-C15= 27.23         H12-C7-Zr1-C16= 78.68         H12-C7-Zr1-C17= 81.25         
H12-C7-Zr1-H23=186.72         H12-C7-Zr1-C26=301.18         H12-C7-Zr1-C27=270.99         Zr1-C7-C3-C4=294.81           
Zr1-C7-C3-H8=123.34           C6-C7-C3-Zr1= 67.51           C6-C7-C3-C4=  2.32            C6-C7-C3-H8=190.85            
H12-C7-C3-Zr1=236.21          H12-C7-C3-C4=171.02           H12-C7-C3-H8=359.55           Zr1-C7-C6-C5= 65.54           
Zr1-C7-C6-H11=235.55          C3-C7-C6-Zr1=292.84           C3-C7-C6-C5=358.38            C3-C7-C6-H11=168.38           
H12-C7-C6-Zr1=124.12          H12-C7-C6-C5=189.67           H12-C7-C6-H11=359.67          
           -------------------------------------------------
          |                Final Singlepoint                |
           -------------------------------------------------

          ...................................................
          :                      SETUP                      :
          :.................................................:
          :  # basis functions                  79          :
          :  # atomic orbitals                  78          :
          :  # shells                           46          :
          :  # electrons                        72          :
          :  max. iterations                   250          :
          :  Hamiltonian                  GFN2-xTB          :
          :  restarted?                      false          :
          :  GBSA solvation                  false          :
          :  PC potential                    false          :
          :  electronic temp.          300.0000000     K    :
          :  accuracy                    1.0000000          :
          :  -> integral cutoff          0.2500000E+02      :
          :  -> integral neglect         0.1000000E-07      :
          :  -> SCF convergence          0.1000000E-05 Eh   :
          :  -> wf. convergence          0.1000000E-03 e    :
          :  Broyden damping             0.4000000          :
          ...................................................

 iter      E             dE          RMSdq      gap      omega  full diag
   1    -38.2726260 -0.382726E+02  0.115E-04    1.68       0.0  T
   2    -38.2726260 -0.366782E-10  0.744E-05    1.68     241.6  T
   3    -38.2726260 -0.300844E-10  0.623E-05    1.68     288.4  T

   *** convergence criteria satisfied after 3 iterations ***

         #    Occupation            Energy/Eh            Energy/eV
      -------------------------------------------------------------
         1        2.0000           -0.8736466             -23.7731
       ...           ...                  ...                  ...
        30        2.0000           -0.5882417             -16.0069
        31        2.0000           -0.5730566             -15.5937
        32        2.0000           -0.5221726             -14.2090
        33        2.0000           -0.5219053             -14.2018
        34        2.0000           -0.5114645             -13.9177
        35        2.0000           -0.5063485             -13.7784
        36        2.0000           -0.4848836             -13.1944 (HOMO)
        37                         -0.4232349             -11.5168 (LUMO)
        38                         -0.4092954             -11.1375
        39                         -0.4036456             -10.9838
        40                         -0.4027439             -10.9592
        41                         -0.4000112             -10.8849
       ...                                ...                  ...
        78                          2.5112179              68.3337
      -------------------------------------------------------------
                  HL-Gap            0.0616487 Eh            1.6775 eV
             Fermi-level           -0.4540593 Eh          -12.3556 eV

 SCC (total)                   0 d,  0 h,  0 min,  0.848 sec
 SCC setup                      ...        0 min,  0.032 sec (  3.825%)
 Dispersion                     ...        0 min,  0.073 sec (  8.638%)
 classical contributions        ...        0 min,  0.034 sec (  4.012%)
 integral evaluation            ...        0 min,  0.061 sec (  7.234%)
 iterations                     ...        0 min,  0.461 sec ( 54.287%)
 molecular gradient             ...        0 min,  0.186 sec ( 21.975%)
 printout                       ...        0 min,  0.000 sec (  0.024%)

         :::::::::::::::::::::::::::::::::::::::::::::::::::::
         ::                     SUMMARY                     ::
         :::::::::::::::::::::::::::::::::::::::::::::::::::::
         :: total energy             -37.646799309418 Eh    ::
         :: gradient norm              0.000601443610 Eh/a0 ::
         :: HOMO-LUMO gap              1.677547189401 eV    ::
         ::.................................................::
         :: SCC energy               -38.272626022783 Eh    ::
         :: -> isotropic ES            0.087383553203 Eh    ::
         :: -> anisotropic ES         -0.012806593576 Eh    ::
         :: -> anisotropic XC          0.020206893998 Eh    ::
         :: -> dispersion             -0.027880002080 Eh    ::
         :: repulsion energy           0.624926317546 Eh    ::
         :: add. restraining           0.000226850289 Eh    ::
         :: total charge               1.000000000000 e     ::
         :::::::::::::::::::::::::::::::::::::::::::::::::::::

           -------------------------------------------------
          |                Property Printout                |
           -------------------------------------------------

    * Orbital Energies and Occupations

         #    Occupation            Energy/Eh            Energy/eV
      -------------------------------------------------------------
         1        2.0000           -0.8736466             -23.7731
       ...           ...                  ...                  ...
        24        2.0000           -0.5952757             -16.1983
        25        2.0000           -0.5935073             -16.1502
        26        2.0000           -0.5912416             -16.0885
        27        2.0000           -0.5910630             -16.0836
        28        2.0000           -0.5895348             -16.0421
        29        2.0000           -0.5892853             -16.0353
        30        2.0000           -0.5882417             -16.0069
        31        2.0000           -0.5730566             -15.5937
        32        2.0000           -0.5221726             -14.2090
        33        2.0000           -0.5219053             -14.2018
        34        2.0000           -0.5114645             -13.9177
        35        2.0000           -0.5063485             -13.7784
        36        2.0000           -0.4848836             -13.1944 (HOMO)
        37                         -0.4232349             -11.5168 (LUMO)
        38                         -0.4092954             -11.1375
        39                         -0.4036456             -10.9838
        40                         -0.4027439             -10.9592
        41                         -0.4000112             -10.8849
        42                         -0.3608791              -9.8200
        43                         -0.3072564              -8.3609
        44                         -0.3060699              -8.3286
        45                         -0.3057392              -8.3196
        46                         -0.3046145              -8.2890
        47                         -0.0677401              -1.8433
       ...                                ...                  ...
        78                          2.5112179              68.3337
      -------------------------------------------------------------
                  HL-Gap            0.0616487 Eh            1.6775 eV
             Fermi-level           -0.4540593 Eh          -12.3556 eV

     #   Z          covCN         q      C6AA      α(0)
     1  40 Zr      10.356     0.949   138.860    17.707
     2   6 C        3.830    -0.237    25.213     7.144
     3   6 C        3.762    -0.083    22.123     6.705
     4   6 C        3.756    -0.092    22.316     6.735
     5   6 C        3.749    -0.090    22.287     6.733
     6   6 C        3.756    -0.088    22.226     6.722
     7   6 C        3.766    -0.092    22.287     6.729
     8   1 H        0.925     0.086     1.916     2.164
     9   1 H        0.925     0.074     2.042     2.234
    10   1 H        0.925     0.076     2.018     2.221
    11   1 H        0.925     0.083     1.945     2.181
    12   1 H        0.925     0.083     1.944     2.180
    13   6 C        3.764    -0.086    22.187     6.714
    14   6 C        3.766    -0.087    22.210     6.717
    15   6 C        3.760    -0.090    22.268     6.727
    16   6 C        3.752    -0.088    22.248     6.726
    17   6 C        3.758    -0.088    22.239     6.723
    18   1 H        0.925     0.086     1.919     2.166
    19   1 H        0.925     0.088     1.896     2.153
    20   1 H        0.925     0.084     1.935     2.175
    21   1 H        0.925     0.073     2.056     2.242
    22   1 H        0.925     0.081     1.966     2.193
    23   1 H        1.566     0.089     1.872     2.136
    24   1 H        0.925     0.086     1.918     2.165
    25   1 H        0.925     0.083     1.949     2.183
    26   6 C        3.605    -0.227    25.701     7.328
    27   6 C        3.746    -0.065    21.827     6.664
    28   1 H        0.925     0.108     1.717     2.049
    29   1 H        0.925     0.102     1.769     2.080
    30   1 H        0.925     0.089     1.891     2.151
    31   1 H        0.926     0.093     1.852     2.128

 Mol. C6AA /au·bohr⁶  :       9433.940010
 Mol. C8AA /au·bohr⁸  :     320458.608693
 Mol. α(0) /au        :        142.877384


Wiberg/Mayer (AO) data.
largest (>0.10) Wiberg bond orders for each atom

 ---------------------------------------------------------------------------
     #   Z sym  total        # sym  WBO       # sym  WBO       # sym  WBO
 ---------------------------------------------------------------------------
     1  40 Zr   4.329 --    26 C    0.599     2 C    0.421     7 C    0.263
                            14 C    0.258    13 C    0.248    17 C    0.238
                            15 C    0.236     4 C    0.236     6 C    0.234
                             3 C    0.233    16 C    0.227     5 C    0.224
                            27 C    0.193    23 H    0.138
     2   6 C    3.923 --    24 H    0.966    25 H    0.949    23 H    0.805
                            27 C    0.538     1 Zr   0.421    26 C    0.140
     3   6 C    3.982 --     4 C    1.312     7 C    1.299     8 H    0.924
                             1 Zr   0.233
     4   6 C    3.978 --     3 C    1.312     5 C    1.296     9 H    0.923
                             1 Zr   0.236
     5   6 C    3.979 --     6 C    1.322     4 C    1.296    10 H    0.928
                             1 Zr   0.224
     6   6 C    3.980 --     5 C    1.322     7 C    1.285    11 H    0.926
                             1 Zr   0.234
     7   6 C    3.979 --     3 C    1.299     6 C    1.285    12 H    0.917
                             1 Zr   0.263
     8   1 H    0.990 --     3 C    0.924
     9   1 H    0.992 --     4 C    0.923
    10   1 H    0.992 --     5 C    0.928
    11   1 H    0.991 --     6 C    0.926
    12   1 H    0.991 --     7 C    0.917
    13   6 C    3.980 --    17 C    1.300    14 C    1.298    18 H    0.921
                             1 Zr   0.248
    14   6 C    3.981 --    13 C    1.298    15 C    1.289    19 H    0.919
                             1 Zr   0.258
    15   6 C    3.978 --    16 C    1.315    14 C    1.289    20 H    0.925
                             1 Zr   0.236
    16   6 C    3.980 --    15 C    1.315    17 C    1.306    21 H    0.927
                             1 Zr   0.227
    17   6 C    3.979 --    16 C    1.306    13 C    1.300    22 H    0.924
                             1 Zr   0.238
    18   1 H    0.990 --    13 C    0.921
    19   1 H    0.990 --    14 C    0.919
    20   1 H    0.990 --    15 C    0.925
    21   1 H    0.992 --    16 C    0.927
    22   1 H    0.991 --    17 C    0.924
    23   1 H    0.992 --     2 C    0.805     1 Zr   0.138
    24   1 H    0.991 --     2 C    0.966
    25   1 H    0.992 --     2 C    0.949
    26   6 C    3.894 --    27 C    1.251    30 H    0.918    31 H    0.888
                             1 Zr   0.599     2 C    0.140
    27   6 C    3.974 --    26 C    1.251    28 H    0.948    29 H    0.936
                             2 C    0.538     1 Zr   0.193
    28   1 H    0.987 --    27 C    0.948
    29   1 H    0.988 --    27 C    0.936
    30   1 H    0.991 --    26 C    0.918
    31   1 H    0.991 --    26 C    0.888
 ---------------------------------------------------------------------------

Topologies differ in total number of bonds
Writing topology from bond orders to xtbtopo.mol

molecular dipole:
                 x           y           z       tot (Debye)
 q only:       -2.995       0.057       0.636
   full:       -2.539       0.172       0.463       6.576
molecular quadrupole (traceless):
                xx          xy          yy          xz          yz          zz
 q only:       11.190      -0.863      -7.760      -0.663      -4.192      -3.430
  q+dip:       10.851      -0.671      -8.098      -0.227      -7.725      -2.753
   full:        9.337       0.126      -6.927      -1.244      -6.782      -2.410

           -------------------------------------------------
          |                Geometry Summary                 |
           -------------------------------------------------

      molecular mass/u    :      264.4982010
   center of mass at/Å    :       -1.2103393      -0.1541481       0.6441232
  moments of inertia/u·Å² :        0.5904529E+03   0.7195121E+03   0.9258716E+03
rotational constants/cm⁻¹ :        0.2855034E-01   0.2342925E-01   0.1820731E-01

 * 40 selected distances

     #   Z          #   Z                                           value/Å
     1  40 Zr       2   6 C                                       2.4482316
     1  40 Zr       3   6 C                                       2.4524236
     1  40 Zr       4   6 C                                       2.4586744
     3   6 C        4   6 C                                       1.4153515
     1  40 Zr       5   6 C                                       2.4798826 (max)
     4   6 C        5   6 C                                       1.4184250
     1  40 Zr       6   6 C                                       2.4653233
     5   6 C        6   6 C                                       1.4121923
     1  40 Zr       7   6 C                                       2.4293817
     3   6 C        7   6 C                                       1.4183008
     6   6 C        7   6 C                                       1.4205493
     3   6 C        8   1 H                                       1.0838344
     4   6 C        9   1 H                                       1.0858089
     5   6 C       10   1 H                                       1.0838555
     6   6 C       11   1 H                                       1.0830117 (min)
     7   6 C       12   1 H                                       1.0860107
     1  40 Zr      13   6 C                                       2.4415118
     1  40 Zr      14   6 C                                       2.4317467
    13   6 C       14   6 C                                       1.4170379
     1  40 Zr      15   6 C                                       2.4534483
    14   6 C       15   6 C                                       1.4203430
     1  40 Zr      16   6 C                                       2.4708574
    15   6 C       16   6 C                                       1.4143635
     1  40 Zr      17   6 C                                       2.4574106
    13   6 C       17   6 C                                       1.4186073
    16   6 C       17   6 C                                       1.4155983
    13   6 C       18   1 H                                       1.0847536
    14   6 C       19   1 H                                       1.0847187
    15   6 C       20   1 H                                       1.0835260
    16   6 C       21   1 H                                       1.0848512
    17   6 C       22   1 H                                       1.0848339
     2   6 C       23   1 H                                       1.1203889
     2   6 C       24   1 H                                       1.0868190
     2   6 C       25   1 H                                       1.0908761
     1  40 Zr      26   6 C                                       2.3945994
    26   6 C       27   6 C                                       1.4407421
    27   6 C       28   1 H                                       1.0870707
    27   6 C       29   1 H                                       1.0901812
    26   6 C       30   1 H                                       1.0896046
    26   6 C       31   1 H                                       1.0921111

 * 3 distinct bonds (by element types)

   Z      Z             #   av. dist./Å        max./Å        min./Å
   1 H    6 C          17     1.0883680     1.1203889     1.0830117
   6 C    6 C          11     1.4192283     1.4407421     1.4121923
   6 C   40 Zr         12     2.4486243     2.4798826     2.3945994


optimized geometry written to: xtbopt.xyz


           -------------------------------------------------
          | TOTAL ENERGY              -37.646799309418 Eh   |
          | GRADIENT NORM               0.000601443610 Eh/α |
          | HOMO-LUMO GAP               1.677547189401 eV   |
           -------------------------------------------------

------------------------------------------------------------------------
 * finished run on 2026/08/03 at 12:01:05.535     
------------------------------------------------------------------------
 total:
 * wall-time:     0 d,  0 h,  0 min, 55.982 sec
 *  cpu-time:     0 d,  0 h,  2 min, 25.219 sec
 * ratio c/w:     2.594 speedup
 SCF:
 * wall-time:     0 d,  0 h,  0 min,  0.994 sec
 *  cpu-time:     0 d,  0 h,  0 min,  3.857 sec
 * ratio c/w:     3.881 speedup
 ANC optimizer:
 * wall-time:     0 d,  0 h,  0 min, 54.856 sec
 *  cpu-time:     0 d,  0 h,  2 min, 21.030 sec
 * ratio c/w:     2.571 speedup

