31
 energy: -37.646799309418 gnorm: 0.000601443610 xtb: 6.5.1 (b24c23e)
Zr          -1.25903842203565       -0.10107048449427        0.59220031137553
C           -1.65853370891052        1.37175265553016       -1.32222708916103
C            0.24427434280612       -2.02649462329761        0.80939412058806
C            0.45620659774988       -1.49481279983092       -0.48506279457967
C           -0.73111591477669       -1.69163574804184       -1.23569915537049
C           -1.68048453610037       -2.31861555324897       -0.39910942235314
C           -1.08819522262101       -2.50750377631466        0.87818244612278
H            1.00989295321536       -2.17656234450910        1.56172686868850
H            1.41213714366049       -1.17091529650853       -0.88539770636064
H           -0.83902650271102       -1.53157313701069       -2.30222515710375
H           -2.62386995479910       -2.73946132733016       -0.72441984540712
H           -1.50936629575953       -3.09317960637900        1.68998148152893
C           -0.43379060456698        0.12307924326089        2.87905438637952
C           -1.68352649571058        0.78799180022397        2.81543428069163
C           -1.53384819450046        1.91465061789246        1.96360665758898
C           -0.19826399901801        1.93806123087561        1.49875120393164
C            0.48161396348489        0.82877325137770        2.05657236095650
H           -0.18439257891512       -0.67939057269207        3.56500850885165
H           -2.53752363047204        0.58272597903889        3.45196340877114
H           -2.26923202553730        2.69719208366988        1.81914948548634
H            0.26630194661572        2.74899313334226        0.94787019176459
H            1.55078867867864        0.65331607641822        2.00230895657363
H           -0.61337594638317        1.04224210367733       -1.08911947361411
H           -1.80306136271079        1.29849534783473       -2.39689931813382
H           -1.81018645658696        2.40686339053636       -1.01310311281567
C           -3.65263821513546       -0.06055937943783        0.53612702781057
C           -3.46613975583739        0.45359826789127       -0.79676373789759
H           -3.98821762358303        1.37524941111740       -1.04113308964141
H           -3.51498605309716       -0.27464474702351       -1.60656066839380
H           -4.15517085608059        0.61478350605469        1.22794411570286
H           -3.97231163037506       -1.10181375261156        0.61552907800993
