31
 energy: -37.687447275289 gnorm: 0.000483840040 xtb: 6.5.1 (b24c23e)
Zr          -0.54624451123703       -0.65811691355896        0.19157447492153
C           -1.71347801889403       -2.40971579696225       -0.35812342287759
C            1.73475647475714        0.02252386491650        0.84446240569899
C            1.79583984717106       -0.49862518740430       -0.47086434774366
C            1.45101935204753       -1.87584326118506       -0.41263153058866
C            1.17210845483011       -2.19735705298134        0.94379156503296
C            1.32447726380626       -1.01719457331517        1.71694684015682
H            2.08045433290419        1.00345825146866        1.15021548916659
H            2.20603860514935        0.01310156005535       -1.33608428417518
H            1.56362378371878       -2.59138237116544       -1.22048039252441
H            1.02037882089816       -3.19677010781407        1.33570930919833
H            1.32864296123514       -0.96950531032669        2.80236012953170
C           -0.68541524531066        1.73090477696120       -0.34112130292032
C           -1.02951380948811        1.59835639066259        1.02757960523912
C           -2.22947500729502        0.84711672769949        1.10920187050562
C           -2.62863335143244        0.51699760542112       -0.21204637480356
C           -1.65789179485082        1.04358879185190       -1.11065960684030
H            0.10224882771092        2.36341541624274       -0.73644744961081
H           -0.56168245773218        2.12786739453904        1.85130025599858
H           -2.83178138702308        0.71297546588973        2.00263445864856
H           -3.58285257396677        0.09132279270794       -0.49808738185115
H           -1.76060619909663        1.08796774519773       -2.19098347180579
H           -1.12558657543882       -3.30939993149251       -0.60639556961477
H           -2.54034484314002       -2.35891205901653       -1.08243577736719
C           -2.29426368281684       -2.58217405836745        1.07599647007724
H           -1.63490533610219       -2.07714808242693        1.84678996995626
H           -3.29013278198310       -2.12136289773500        1.13675033675550
C           -2.42427686860965       -4.05691121391002        1.47537401310849
H           -1.44990302753794       -4.54313129620155        1.47721933177805
H           -2.85952062693471       -4.15735541107000        2.46677517546589
H           -3.06688755538224       -4.57497507863897        0.76722007150682
