31
 energy: -37.673733686135 gnorm: 0.000788668788 xtb: 6.5.1 (b24c23e)
Zr          -0.42414685919336       -0.55083144193352        0.13379343026829
C           -1.70991665469854       -2.61117440073592       -0.24961565243287
C            1.85262292678373        0.15398372712886        0.77316312868387
C            1.91651964544131       -0.39973015903065       -0.52975830273674
C            1.56203504314551       -1.77366668010935       -0.44076763210475
C            1.27808207340253       -2.06287392938027        0.92494466584422
C            1.43807448015827       -0.86469229123166        1.67082682070320
H            2.19965260851960        1.14181422041044        1.05576686201692
H            2.33293458524021        0.09097656970486       -1.40460478093236
H            1.67603037232814       -2.51084162881973       -1.22956731430038
H            1.12990965682403       -3.05396988863715        1.34012456506634
H            1.44276241439074       -0.79136244889542        2.75521081305180
C           -0.72102668180888        1.83764409173129       -0.35003494814054
C           -1.02329635012576        1.65537676626055        1.02374984742487
C           -2.16160476714522        0.81330894109061        1.11787597948616
C           -2.56939427026932        0.48037960831490       -0.20417064645283
C           -1.66188678126483        1.09849314333941       -1.11238696280246
H            0.01113593585936        2.53207543086811       -0.74879749223925
H           -0.57238964214193        2.20026823491754        1.84734862400412
H           -2.73185303133721        0.62103664466722        2.02225436039764
H           -3.50083096095508       -0.00137650604160       -0.47795447261324
H           -1.79614012446549        1.16238842662961       -2.18872122144294
H           -1.07076934131037       -3.48165567729053       -0.45894013172249
H           -2.51922363124009       -2.59556200410422       -0.99089072214751
C           -2.30674777816272       -2.75113757650250        1.16879541849155
H           -1.55488904305476       -2.48269715489399        1.95075476365621
H           -3.17246653001467       -2.08268520893506        1.27895923632762
C           -2.78055239845777       -4.18534156687572        1.44361280451270
H           -1.94545149469467       -4.88032770704791        1.38878353520932
H           -3.22879974114251       -4.26431282024475        2.43073658101686
H           -3.52218059060282       -4.47979053440433        0.70504970390081
