31
 energy: -37.647847307118 gnorm: 0.000814213168 xtb: 6.5.1 (b24c23e)
Zr          -1.34318998911537       -0.05561247884656        0.47247557712755
C           -1.08243296357709        1.24572144532743       -1.60139787505328
C            0.27220880952677       -1.92306421292206        0.88863294237716
C            0.35080794207230       -1.54819098949463       -0.47436050823517
C           -0.88019501837169       -1.89247546483084       -1.09102848881234
C           -1.71935534440019       -2.46026598730537       -0.09916449458682
C           -1.01410657616619       -2.45460015908210        1.12937839115026
H            1.10077172559530       -1.93677733242853        1.58575539310877
H            1.24758913300139       -1.22360324338853       -0.99172909756237
H           -1.06934133506903       -1.89013539859856       -2.15764605333494
H           -2.62828362042679       -3.01605366061790       -0.29181793094397
H           -1.33174922585660       -2.95188405045771        2.03927426418583
C           -0.60294635764250        0.26364905004191        2.82706306703470
C           -1.81212611133289        0.97531225427570        2.67099251307265
C           -1.57755086968662        2.03944188458602        1.75853110331424
C           -0.22543432285532        1.96839730744095        1.34217678843732
C            0.37633523427020        0.87156420382132        2.00168996746326
H           -0.41769334222483       -0.50762059686980        3.56568525911585
H           -2.69421673385574        0.84862023939675        3.29033303236980
H           -2.23992392171935        2.87413487777379        1.56522422832840
H            0.29698700399012        2.71938857471250        0.76206272945158
H            1.43717868804369        0.64845373637934        2.00009358297005
H           -0.02429259202187        1.24285693185802       -1.89776143016781
H           -1.66039133740220        0.81158509253089       -2.42760605567003
H           -1.38884920421301        2.29261093649040       -1.49056039189957
C           -3.80022904805174       -0.50542775017237       -0.10027711288021
C           -3.74911249449432        0.79442126718333        0.22496198592318
H           -4.12009873928358        1.13927650005338        1.18699036087345
H           -3.59451740077687        1.55526974365159       -0.53955172762485
H           -4.19406405938048       -1.23800321229314        0.60411832349898
H           -3.69685828857713       -0.81745455821245       -1.13945402303021
