      -----------------------------------------------------------      
     |                   =====================                   |     
     |                           x T B                           |     
     |                   =====================                   |     
     |                         S. Grimme                         |     
     |          Mulliken Center for Theoretical Chemistry        |     
     |                    University of Bonn                     |     
      -----------------------------------------------------------      

   * xtb version 6.5.1 (b24c23e) compiled by 'conda@728c89f4b128' on 2022-07-12

   xtb is free software: you can redistribute it and/or modify it under
   the terms of the GNU Lesser General Public License as published by
   the Free Software Foundation, either version 3 of the License, or
   (at your option) any later version.
   
   xtb is distributed in the hope that it will be useful,
   but WITHOUT ANY WARRANTY; without even the implied warranty of
   MERCHANTABILITY or FITNESS FOR A PARTICULAR PURPOSE.  See the
   GNU Lesser General Public License for more details.
   
   Cite this work as:
   * C. Bannwarth, E. Caldeweyher, S. Ehlert, A. Hansen, P. Pracht,
     J. Seibert, S. Spicher, S. Grimme, WIREs Comput. Mol. Sci., 2020, 11,
     e01493. DOI: 10.1002/wcms.1493
   
   for GFN2-xTB:
   * C. Bannwarth, S. Ehlert and S. Grimme., J. Chem. Theory Comput., 2019,
     15, 1652-1671. DOI: 10.1021/acs.jctc.8b01176
   for GFN1-xTB:
   * S. Grimme, C. Bannwarth, P. Shushkov, J. Chem. Theory Comput., 2017,
     13, 1989-2009. DOI: 10.1021/acs.jctc.7b00118
   for GFN0-xTB:
   * P. Pracht, E. Caldeweyher, S. Ehlert, S. Grimme, ChemRxiv, 2019, preprint.
     DOI: 10.26434/chemrxiv.8326202.v1
   for GFN-FF:
   * S. Spicher and S. Grimme, Angew. Chem. Int. Ed., 2020, 59, 15665-15673.
     DOI: 10.1002/anie.202004239
   
   for ALPB and GBSA implicit solvation:
   * S. Ehlert, M. Stahn, S. Spicher, S. Grimme, J. Chem. Theory Comput.,
     2021, 17, 4250-4261. DOI: 10.1021/acs.jctc.1c00471
   
   for DFT-D4:
   * E. Caldeweyher, C. Bannwarth and S. Grimme, J. Chem. Phys., 2017,
     147, 034112. DOI: 10.1063/1.4993215
   * E. Caldeweyher, S. Ehlert, A. Hansen, H. Neugebauer, S. Spicher,
     C. Bannwarth and S. Grimme, J. Chem. Phys., 2019, 150, 154122.
     DOI: 10.1063/1.5090222
   * E. Caldeweyher, J.-M. Mewes, S. Ehlert and S. Grimme, Phys. Chem. Chem. Phys.
     2020, 22, 8499-8512. DOI: 10.1039/D0CP00502A
   
   for sTDA-xTB:
   * S. Grimme and C. Bannwarth, J. Chem. Phys., 2016, 145, 054103.
     DOI: 10.1063/1.4959605
   
   in the mass-spec context:
   * V. Asgeirsson, C. Bauer and S. Grimme, Chem. Sci., 2017, 8, 4879.
     DOI: 10.1039/c7sc00601b
   * J. Koopman and S. Grimme, ACS Omega 2019, 4, 12, 15120-15133.
     DOI: 10.1021/acsomega.9b02011
   
   for metadynamics refer to:
   * S. Grimme, J. Chem. Theory Comput., 2019, 155, 2847-2862
     DOI: 10.1021/acs.jctc.9b00143
   
   for SPH calculations refer to:
   * S. Spicher and S. Grimme, J. Chem. Theory Comput., 2021, 17, 1701-1714
     DOI: 10.1021/acs.jctc.0c01306
   
   with help from (in alphabetical order)
   P. Atkinson, C. Bannwarth, F. Bohle, G. Brandenburg, E. Caldeweyher
   M. Checinski, S. Dohm, S. Ehlert, S. Ehrlich, I. Gerasimov, C. Hölzer
   A. Katbashev, J. Koopman, C. Lavigne, S. Lehtola, F. März, M. Müller,
   F. Musil, H. Neugebauer, J. Pisarek, C. Plett, P. Pracht, F. Pultar,
   J. Seibert, P. Shushkov, S. Spicher, M. Stahn, M. Steiner, T. Strunk,
   J. Stückrath, T. Rose, and J. Unsleber
   
 * started run on 2026/07/21 at 14:48:37.812     

           -------------------------------------------------
          |                Calculation Setup                |
           -------------------------------------------------

          program call               : /h/332/chchoi/miniconda3/envs/el-agente/bin/xtb reactant.xyz --opt --gfn 2 -P 4 --chrg 1 --uhf 0 --input detailed_input.inp
          coordinate file            : reactant.xyz
          omp threads                :                     4

   ID    Z sym.   atoms
    1   40 Zr     1
    2    6 C      2-7, 13-17, 26, 27
    3    1 H      8-12, 18-25, 28-31
constraining bond 1 2 to    2.7000000 Å, actual value:    2.4621975 Å
constraining bond 2 27 to    2.2000000 Å, actual value:    3.2635018 Å
constraining bond 1 26 to    2.3500000 Å, actual value:    2.5626981 Å
constraining bond 1 27 to    2.6500000 Å, actual value:    2.5636468 Å
constraining bond 26 27 to    1.4000000 Å, actual value:    1.3408957 Å

           -------------------------------------------------
          |                 G F N 2 - x T B                 |
           -------------------------------------------------

        Reference                      10.1021/acs.jctc.8b01176
      * Hamiltonian:
        H0-scaling (s, p, d)           1.850000    2.230000    2.230000
        zeta-weighting                 0.500000
      * Dispersion:
        s8                             2.700000
        a1                             0.520000
        a2                             5.000000
        s9                             5.000000
      * Repulsion:
        kExp                           1.500000    1.000000
        rExp                           1.000000
      * Coulomb:
        alpha                          2.000000
        third order                    shell-resolved
        anisotropic                    true
        a3                             3.000000
        a5                             4.000000
        cn-shift                       1.200000
        cn-exp                         4.000000
        max-rad                        5.000000


          ...................................................
          :                      SETUP                      :
          :.................................................:
          :  # basis functions                  79          :
          :  # atomic orbitals                  78          :
          :  # shells                           46          :
          :  # electrons                        72          :
          :  max. iterations                   250          :
          :  Hamiltonian                  GFN2-xTB          :
          :  restarted?                      false          :
          :  GBSA solvation                  false          :
          :  PC potential                    false          :
          :  electronic temp.          300.0000000     K    :
          :  accuracy                    1.0000000          :
          :  -> integral cutoff          0.2500000E+02      :
          :  -> integral neglect         0.1000000E-07      :
          :  -> SCF convergence          0.1000000E-05 Eh   :
          :  -> wf. convergence          0.1000000E-03 e    :
          :  Broyden damping             0.4000000          :
          ...................................................

 iter      E             dE          RMSdq      gap      omega  full diag
   1    -38.1650111 -0.381650E+02  0.419E+00    1.20       0.0  T
   2    -38.2760914 -0.111080E+00  0.360E+00    1.38       1.0  T
   3    -38.2922900 -0.161987E-01  0.280E+00    1.13       1.0  T
   4    -38.2845247  0.776537E-02  0.854E-01    1.49       1.0  T
   5    -38.2915997 -0.707505E-02  0.588E-01    1.04       1.0  T
   6    -38.2934195 -0.181978E-02  0.215E-01    1.15       1.0  T
   7    -38.2933570  0.624656E-04  0.202E-01    1.13       1.0  T
   8    -38.2934841 -0.127112E-03  0.716E-02    1.17       1.0  T
   9    -38.2935078 -0.236292E-04  0.285E-02    1.18       1.0  T
  10    -38.2935103 -0.253007E-05  0.125E-02    1.19       1.4  T
  11    -38.2935113 -0.105159E-05  0.478E-03    1.18       3.8  T
  12    -38.2935114 -0.743732E-07  0.287E-03    1.18       6.3  T
  13    -38.2935115 -0.820087E-07  0.725E-04    1.19      24.8  T
  14    -38.2935115 -0.271224E-08  0.249E-04    1.19      72.0  T

   *** convergence criteria satisfied after 14 iterations ***

         #    Occupation            Energy/Eh            Energy/eV
      -------------------------------------------------------------
         1        2.0000           -0.8694221             -23.6582
       ...           ...                  ...                  ...
        30        2.0000           -0.5656092             -15.3910
        31        2.0000           -0.5642675             -15.3545
        32        2.0000           -0.5227976             -14.2260
        33        2.0000           -0.5176899             -14.0871
        34        2.0000           -0.5090540             -13.8521
        35        2.0000           -0.5033103             -13.6958
        36        2.0000           -0.4781242             -13.0104 (HOMO)
        37                         -0.4345375             -11.8244 (LUMO)
        38                         -0.4202192             -11.4347
        39                         -0.4066244             -11.0648
        40                         -0.4056308             -11.0378
        41                         -0.3915713             -10.6552
       ...                                ...                  ...
        78                          2.5329148              68.9241
      -------------------------------------------------------------
                  HL-Gap            0.0435867 Eh            1.1861 eV
             Fermi-level           -0.4563308 Eh          -12.4174 eV

 SCC (total)                   0 d,  0 h,  0 min,  0.684 sec
 SCC setup                      ...        0 min,  0.004 sec (  0.591%)
 Dispersion                     ...        0 min,  0.020 sec (  2.984%)
 classical contributions        ...        0 min,  0.009 sec (  1.389%)
 integral evaluation            ...        0 min,  0.017 sec (  2.428%)
 iterations                     ...        0 min,  0.538 sec ( 78.668%)
 molecular gradient             ...        0 min,  0.094 sec ( 13.791%)
 printout                       ...        0 min,  0.001 sec (  0.140%)

         :::::::::::::::::::::::::::::::::::::::::::::::::::::
         ::                     SUMMARY                     ::
         :::::::::::::::::::::::::::::::::::::::::::::::::::::
         :: total energy             -33.206844713167 Eh    ::
         :: gradient norm              5.373067957164 Eh/a0 ::
         :: HOMO-LUMO gap              1.186054094368 eV    ::
         ::.................................................::
         :: SCC energy               -38.293511501429 Eh    ::
         :: -> isotropic ES            0.093649084273 Eh    ::
         :: -> anisotropic ES         -0.012815333481 Eh    ::
         :: -> anisotropic XC          0.021110928825 Eh    ::
         :: -> dispersion             -0.027696244733 Eh    ::
         :: repulsion energy           0.644340237574 Eh    ::
         :: add. restraining           4.441606657399 Eh    ::
         :: total charge               1.000000000000 e     ::
         :::::::::::::::::::::::::::::::::::::::::::::::::::::

      ----------------------------------------------------------- 
     |                   =====================                   |
     |                        A N C O P T                        |
     |                   =====================                   |
     |               Approximate Normal Coordinate               |
     |                Rational Function Optimizer                |
      ----------------------------------------------------------- 

          ...................................................
          :                      SETUP                      :
          :.................................................:
          :   optimization level            normal          :
          :   max. optcycles                   200          :
          :   ANC micro-cycles                  20          :
          :   degrees of freedom                87          :
          :.................................................:
          :   RF solver                   davidson          :
          :   write xtbopt.log                true          :
          :   linear?                        false          :
          :   energy convergence         0.5000000E-05 Eh   :
          :   grad. convergence          0.1000000E-02 Eh/α :
          :   maximium RF displ.         1.0000000          :
          :   Hlow (freq-cutoff)         0.1000000E-01      :
          :   Hmax (freq-cutoff)         5.0000000          :
          :   S6 in model hess.         20.0000000          :
          ...................................................

generating ANC from model Hessian ...
Using Lindh-Hessian (1995)
 Shifting diagonal of input Hessian by    7.8825914892531171E-002
 Lowest  eigenvalues of input Hessian
    0.010000    0.000000    0.000000    0.000000    0.000000    0.000000
    0.000000    0.079323    0.079494    0.080306    0.080554    0.082348
    0.082585    0.082620    0.085366    0.086166    0.086458    0.086746
 Highest eigenvalues
    1.810929    2.261270    3.510251    4.850202    6.195577    7.264969


........................................................................
.............................. CYCLE    1 ..............................
........................................................................
   1    -38.2935115 -0.382935E+02  0.138E-04    1.19       0.0  T
   2    -38.2935115 -0.411475E-10  0.730E-05    1.19     245.9  T
   3    -38.2935115 -0.104166E-10  0.561E-05    1.19     320.1  T
     SCC iter.                  ...        0 min,  0.117 sec
     gradient                   ...        0 min,  0.108 sec
 * total energy  :   -33.2068447 Eh     change       -0.8254446E-09 Eh
   gradient norm :     5.3730680 Eh/α   predicted     0.0000000E+00 (-100.00%)
   displ. norm   :     0.7276025 α      lambda       -0.3833692E+01
   maximum displ.:     0.3885428 α      in ANC's #83, #84, #87, ...

........................................................................
.............................. CYCLE    2 ..............................
........................................................................
   1    -38.2290173 -0.382290E+02  0.978E-01    0.98       0.0  T
   2    -38.2292498 -0.232445E-03  0.740E-01    1.17       1.0  T
   3    -38.2280750  0.117472E-02  0.521E-01    1.00       1.0  T
   4    -38.2309454 -0.287040E-02  0.198E-01    1.12       1.0  T
   5    -38.2312146 -0.269187E-03  0.848E-02    1.09       1.0  T
   6    -38.2312380 -0.234159E-04  0.559E-02    1.10       1.0  T
   7    -38.2312486 -0.105830E-04  0.231E-02    1.09       1.0  T
   8    -38.2312478  0.768926E-06  0.173E-02    1.09       1.0  T
   9    -38.2312502 -0.236511E-05  0.579E-03    1.09       3.1  T
  10    -38.2312502  0.949687E-08  0.397E-03    1.09       4.5  T
  11    -38.2312503 -0.643522E-07  0.180E-03    1.09      10.0  T
  12    -38.2312503 -0.186455E-07  0.545E-04    1.09      33.0  T
  13    -38.2312503 -0.860943E-09  0.281E-04    1.09      63.8  T
     SCC iter.                  ...        0 min,  0.490 sec
     gradient                   ...        0 min,  0.097 sec
 * total energy  :   -36.0711903 Eh     change       -0.2864346E+01 Eh
   gradient norm :     2.6779214 Eh/α   predicted    -0.2931659E+01 (   2.35%)
   displ. norm   :     0.6602180 α      lambda       -0.1676514E+01
   maximum displ.:     0.4297632 α      in ANC's #83, #84, #64, ...

........................................................................
.............................. CYCLE    3 ..............................
........................................................................
   1    -38.1126331 -0.381126E+02  0.164E+00    1.04       0.0  T
   2    -38.0870880  0.255451E-01  0.192E+00    1.79       1.0  T
   3    -38.1399632 -0.528752E-01  0.854E-01    1.32       1.0  T
   4    -38.1362043  0.375895E-02  0.477E-01    1.06       1.0  T
   5    -38.1403965 -0.419223E-02  0.216E-01    1.25       1.0  T
   6    -38.1409836 -0.587102E-03  0.823E-02    1.23       1.0  T
   7    -38.1409670  0.166576E-04  0.576E-02    1.24       1.0  T
   8    -38.1410060 -0.390777E-04  0.210E-02    1.23       1.0  T
   9    -38.1410111 -0.507287E-05  0.135E-02    1.23       1.3  T
  10    -38.1410131 -0.199664E-05  0.563E-03    1.23       3.2  T
  11    -38.1410132 -0.876252E-07  0.265E-03    1.23       6.8  T
  12    -38.1410132 -0.398825E-07  0.196E-03    1.23       9.2  T
  13    -38.1410132 -0.188341E-07  0.776E-04    1.23      23.1  T
  14    -38.1410132 -0.317664E-08  0.381E-04    1.23      47.2  T
     SCC iter.                  ...        0 min,  0.435 sec
     gradient                   ...        0 min,  0.018 sec
 * total energy  :   -37.2098598 Eh     change       -0.1138669E+01 Eh
   gradient norm :     1.0654673 Eh/α   predicted    -0.1203713E+01 (   5.71%)
   displ. norm   :     0.5314756 α      lambda       -0.4508072E+00
   maximum displ.:     0.2476017 α      in ANC's #64, #59, #56, ...

........................................................................
.............................. CYCLE    4 ..............................
........................................................................
   1    -38.0721632 -0.380722E+02  0.101E+00    1.36       0.0  T
   2    -38.0607782  0.113849E-01  0.107E+00    1.64       1.0  T
   3    -38.0820684 -0.212902E-01  0.463E-01    1.40       1.0  T
   4    -38.0824882 -0.419787E-03  0.142E-01    1.46       1.0  T
   5    -38.0827013 -0.213022E-03  0.648E-02    1.43       1.0  T
   6    -38.0827062 -0.490554E-05  0.503E-02    1.44       1.0  T
   7    -38.0827212 -0.149921E-04  0.269E-02    1.43       1.0  T
   8    -38.0827307 -0.952749E-05  0.785E-03    1.43       2.3  T
   9    -38.0827310 -0.327507E-06  0.317E-03    1.43       5.7  T
  10    -38.0827311 -0.677365E-07  0.127E-03    1.43      14.1  T
  11    -38.0827311 -0.120273E-07  0.758E-04    1.43      23.7  T
  12    -38.0827311 -0.268373E-08  0.434E-04    1.43      41.4  T
     SCC iter.                  ...        0 min,  0.389 sec
     gradient                   ...        0 min,  0.013 sec
 * total energy  :   -37.4482063 Eh     change       -0.2383465E+00 Eh
   gradient norm :     0.2427832 Eh/α   predicted    -0.2890738E+00 (  21.28%)
   displ. norm   :     0.5486329 α      lambda       -0.6911630E-01
   maximum displ.:     0.3054165 α      in ANC's #24, #1, #23, ...

........................................................................
.............................. CYCLE    5 ..............................
........................................................................
   1    -38.1058590 -0.381059E+02  0.581E-01    1.41       0.0  T
   2    -38.1020506  0.380840E-02  0.718E-01    1.58       1.0  T
   3    -38.1096453 -0.759474E-02  0.323E-01    1.46       1.0  T
   4    -38.1093296  0.315715E-03  0.214E-01    1.49       1.0  T
   5    -38.1097693 -0.439712E-03  0.693E-02    1.46       1.0  T
   6    -38.1097650  0.435819E-05  0.430E-02    1.46       1.0  T
   7    -38.1097873 -0.223085E-04  0.204E-02    1.46       1.0  T
   8    -38.1097894 -0.212049E-05  0.914E-03    1.46       2.0  T
   9    -38.1097901 -0.735963E-06  0.293E-03    1.46       6.1  T
  10    -38.1097903 -0.165504E-06  0.141E-03    1.46      12.7  T
  11    -38.1097903 -0.315295E-08  0.517E-04    1.46      34.7  T
  12    -38.1097903 -0.291944E-08  0.277E-04    1.46      64.9  T
     SCC iter.                  ...        0 min,  0.388 sec
     gradient                   ...        0 min,  0.007 sec
 * total energy  :   -37.4937085 Eh     change       -0.4550215E-01 Eh
   gradient norm :     0.1684286 Eh/α   predicted    -0.4496013E-01 (  -1.19%)
   displ. norm   :     0.7268384 α      lambda       -0.6101378E-01
   maximum displ.:     0.3674197 α      in ANC's #24, #1, #23, ...

........................................................................
.............................. CYCLE    6 ..............................
........................................................................
   1    -38.1583912 -0.381584E+02  0.792E-01    1.40       0.0  T
   2    -38.1573676  0.102364E-02  0.636E-01    1.51       1.0  T
   3    -38.1568883  0.479225E-03  0.448E-01    1.35       1.0  T
   4    -38.1598218 -0.293343E-02  0.187E-01    1.48       1.0  T
   5    -38.1602303 -0.408535E-03  0.774E-02    1.44       1.0  T
   6    -38.1602380 -0.764657E-05  0.401E-02    1.44       1.0  T
   7    -38.1602538 -0.158493E-04  0.197E-02    1.43       1.0  T
   8    -38.1602550 -0.121162E-05  0.107E-02    1.44       1.7  T
   9    -38.1602557 -0.724496E-06  0.488E-03    1.44       3.7  T
  10    -38.1602558 -0.662808E-07  0.260E-03    1.44       6.9  T
  11    -38.1602558 -0.220195E-07  0.917E-04    1.44      19.6  T
  12    -38.1602558 -0.345025E-08  0.340E-04    1.44      52.9  T
     SCC iter.                  ...        0 min,  0.349 sec
     gradient                   ...        0 min,  0.024 sec
 * total energy  :   -37.5359937 Eh     change       -0.4228526E-01 Eh
   gradient norm :     0.2160471 Eh/α   predicted    -0.4662369E-01 (  10.26%)
   displ. norm   :     0.7353376 α      lambda       -0.6403326E-01
   maximum displ.:     0.3151329 α      in ANC's #24, #1, #56, ...

........................................................................
.............................. CYCLE    7 ..............................
........................................................................
   1    -38.2021570 -0.382022E+02  0.801E-01    1.36       0.0  T
   2    -38.2024576 -0.300594E-03  0.493E-01    1.39       1.0  T
   3    -38.1995120  0.294557E-02  0.399E-01    1.30       1.0  T
   4    -38.2026007 -0.308870E-02  0.168E-01    1.42       1.0  T
   5    -38.2028879 -0.287142E-03  0.737E-02    1.37       1.0  T
   6    -38.2028961 -0.828776E-05  0.393E-02    1.38       1.0  T
   7    -38.2029076 -0.114743E-04  0.210E-02    1.38       1.0  T
   8    -38.2029089 -0.125372E-05  0.120E-02    1.38       1.5  T
   9    -38.2029097 -0.806955E-06  0.637E-03    1.38       2.8  T
  10    -38.2029100 -0.292426E-06  0.300E-03    1.38       6.0  T
  11    -38.2029100 -0.170140E-07  0.119E-03    1.38      15.1  T
  12    -38.2029100 -0.560440E-08  0.328E-04    1.38      54.7  T
  13    -38.2029100 -0.877861E-09  0.144E-04    1.38     125.2  T
     SCC iter.                  ...        0 min,  0.431 sec
     gradient                   ...        0 min,  0.040 sec
 * total energy  :   -37.5723483 Eh     change       -0.3635454E-01 Eh
   gradient norm :     0.1602820 Eh/α   predicted    -0.4932887E-01 (  35.69%)
   displ. norm   :     0.4291750 α      lambda       -0.2165965E-01
   maximum displ.:     0.1585565 α      in ANC's #9, #56, #24, ...

........................................................................
.............................. CYCLE    8 ..............................
........................................................................
   1    -38.2145095 -0.382145E+02  0.656E-01    1.35       0.0  T
   2    -38.2134014  0.110816E-02  0.558E-01    1.40       1.0  T
   3    -38.2148262 -0.142485E-02  0.338E-01    1.30       1.0  T
   4    -38.2158780 -0.105176E-02  0.124E-01    1.41       1.0  T
   5    -38.2161314 -0.253358E-03  0.427E-02    1.35       1.0  T
   6    -38.2161368 -0.543116E-05  0.198E-02    1.36       1.0  T
   7    -38.2161406 -0.382387E-05  0.878E-03    1.36       2.0  T
   8    -38.2161407 -0.802842E-07  0.455E-03    1.36       3.9  T
   9    -38.2161409 -0.166719E-06  0.172E-03    1.36      10.5  T
  10    -38.2161409 -0.994048E-08  0.981E-04    1.36      18.3  T
  11    -38.2161409 -0.526261E-08  0.549E-04    1.36      32.7  T
     SCC iter.                  ...        0 min,  0.330 sec
     gradient                   ...        0 min,  0.075 sec
 * total energy  :   -37.5888023 Eh     change       -0.1645400E-01 Eh
   gradient norm :     0.1247115 Eh/α   predicted    -0.1282473E-01 ( -22.06%)
   displ. norm   :     0.4998137 α      lambda       -0.2575238E-01
   maximum displ.:     0.1817716 α      in ANC's #9, #56, #14, ...

........................................................................
.............................. CYCLE    9 ..............................
........................................................................
   1    -38.2289226 -0.382289E+02  0.767E-01    1.33       0.0  T
   2    -38.2286521  0.270505E-03  0.595E-01    1.31       1.0  T
   3    -38.2264682  0.218388E-02  0.396E-01    1.27       1.0  T
   4    -38.2294072 -0.293898E-02  0.144E-01    1.36       1.0  T
   5    -38.2298150 -0.407804E-03  0.592E-02    1.30       1.0  T
   6    -38.2298331 -0.180291E-04  0.214E-02    1.31       1.0  T
   7    -38.2298351 -0.205181E-05  0.972E-03    1.31       1.8  T
   8    -38.2298354 -0.300252E-06  0.456E-03    1.31       3.9  T
   9    -38.2298357 -0.247801E-06  0.141E-03    1.31      12.7  T
  10    -38.2298357 -0.481007E-08  0.729E-04    1.31      24.6  T
  11    -38.2298357 -0.321369E-08  0.456E-04    1.31      39.4  T
     SCC iter.                  ...        0 min,  0.262 sec
     gradient                   ...        0 min,  0.005 sec
 * total energy  :   -37.6059284 Eh     change       -0.1712608E-01 Eh
   gradient norm :     0.0900750 Eh/α   predicted    -0.1609284E-01 (  -6.03%)
   displ. norm   :     0.2437374 α      lambda       -0.6484851E-02
   maximum displ.:     0.0995924 α      in ANC's #14, #56, #1, ...

........................................................................
.............................. CYCLE   10 ..............................
........................................................................
   1    -38.2400830 -0.382401E+02  0.253E-01    1.30       0.0  T
   2    -38.2401035 -0.204773E-04  0.186E-01    1.28       1.0  T
   3    -38.2399409  0.162598E-03  0.103E-01    1.29       1.0  T
   4    -38.2401045 -0.163634E-03  0.572E-02    1.30       1.0  T
   5    -38.2401637 -0.592282E-04  0.186E-02    1.29       1.0  T
   6    -38.2401642 -0.532275E-06  0.109E-02    1.29       1.7  T
   7    -38.2401651 -0.818119E-06  0.434E-03    1.29       4.1  T
   8    -38.2401652 -0.863760E-07  0.232E-03    1.29       7.7  T
   9    -38.2401652 -0.630713E-07  0.990E-04    1.29      18.1  T
  10    -38.2401652 -0.264999E-08  0.559E-04    1.29      32.1  T
     SCC iter.                  ...        0 min,  0.264 sec
     gradient                   ...        0 min,  0.004 sec
 * total energy  :   -37.6098945 Eh     change       -0.3966150E-02 Eh
   gradient norm :     0.0572351 Eh/α   predicted    -0.3435065E-02 ( -13.39%)
   displ. norm   :     0.2312786 α      lambda       -0.4812422E-02
   maximum displ.:     0.1419302 α      in ANC's #8, #14, #1, ...

........................................................................
.............................. CYCLE   11 ..............................
........................................................................
   1    -38.2424914 -0.382425E+02  0.169E-01    1.29       0.0  T
   2    -38.2424063  0.851456E-04  0.147E-01    1.30       1.0  T
   3    -38.2426184 -0.212107E-03  0.844E-02    1.28       1.0  T
   4    -38.2426345 -0.161390E-04  0.391E-02    1.30       1.0  T
   5    -38.2426624 -0.278295E-04  0.123E-02    1.29       1.5  T
   6    -38.2426626 -0.214916E-06  0.809E-03    1.29       2.2  T
   7    -38.2426629 -0.305728E-06  0.304E-03    1.29       5.9  T
   8    -38.2426629 -0.447276E-07  0.177E-03    1.29      10.2  T
   9    -38.2426629 -0.280604E-08  0.663E-04    1.29      27.1  T
  10    -38.2426630 -0.599496E-08  0.311E-04    1.29      57.7  T
     SCC iter.                  ...        0 min,  0.269 sec
     gradient                   ...        0 min,  0.039 sec
 * total energy  :   -37.6132669 Eh     change       -0.3372381E-02 Eh
   gradient norm :     0.0369974 Eh/α   predicted    -0.2534929E-02 ( -24.83%)
   displ. norm   :     0.3948228 α      lambda       -0.5050029E-02
   maximum displ.:     0.2481444 α      in ANC's #8, #14, #5, ...

........................................................................
.............................. CYCLE   12 ..............................
........................................................................
   1    -38.2419304 -0.382419E+02  0.297E-01    1.31       0.0  T
   2    -38.2416990  0.231381E-03  0.270E-01    1.31       1.0  T
   3    -38.2423133 -0.614272E-03  0.151E-01    1.29       1.0  T
   4    -38.2423080  0.529577E-05  0.680E-02    1.32       1.0  T
   5    -38.2424028 -0.948652E-04  0.174E-02    1.30       1.0  T
   6    -38.2424036 -0.736083E-06  0.894E-03    1.30       2.0  T
   7    -38.2424043 -0.714679E-06  0.388E-03    1.30       4.6  T
   8    -38.2424043 -0.334430E-07  0.221E-03    1.30       8.1  T
   9    -38.2424043 -0.187584E-07  0.104E-03    1.30      17.3  T
  10    -38.2424043 -0.111601E-07  0.571E-04    1.30      31.4  T
  11    -38.2424043 -0.202114E-09  0.182E-04    1.30      98.7  T
     SCC iter.                  ...        0 min,  0.331 sec
     gradient                   ...        0 min,  0.067 sec
 * total energy  :   -37.6167410 Eh     change       -0.3474051E-02 Eh
   gradient norm :     0.0251740 Eh/α   predicted    -0.2918633E-02 ( -15.99%)
   displ. norm   :     0.3756032 α      lambda       -0.3382361E-02
   maximum displ.:     0.2131047 α      in ANC's #8, #14, #9, ...

........................................................................
.............................. CYCLE   13 ..............................
........................................................................
   1    -38.2421793 -0.382422E+02  0.272E-01    1.32       0.0  T
   2    -38.2419940  0.185372E-03  0.242E-01    1.33       1.0  T
   3    -38.2424435 -0.449569E-03  0.139E-01    1.31       1.0  T
   4    -38.2424845 -0.409329E-04  0.478E-02    1.33       1.0  T
   5    -38.2425372 -0.527842E-04  0.177E-02    1.31       1.0  T
   6    -38.2425384 -0.117374E-05  0.872E-03    1.31       2.1  T
   7    -38.2425387 -0.248396E-06  0.355E-03    1.31       5.1  T
   8    -38.2425387 -0.522737E-07  0.230E-03    1.31       7.8  T
   9    -38.2425387 -0.240364E-07  0.119E-03    1.31      15.0  T
  10    -38.2425387 -0.639741E-08  0.716E-04    1.31      25.1  T
  11    -38.2425387 -0.574580E-09  0.316E-04    1.31      56.8  T
     SCC iter.                  ...        0 min,  0.270 sec
     gradient                   ...        0 min,  0.078 sec
 * total energy  :   -37.6192320 Eh     change       -0.2491067E-02 Eh
   gradient norm :     0.0196274 Eh/α   predicted    -0.1929773E-02 ( -22.53%)
   displ. norm   :     0.3820631 α      lambda       -0.2836865E-02
   maximum displ.:     0.2130605 α      in ANC's #9, #8, #14, ...

........................................................................
.............................. CYCLE   14 ..............................
........................................................................
   1    -38.2440538 -0.382441E+02  0.261E-01    1.34       0.0  T
   2    -38.2439960  0.577530E-04  0.215E-01    1.34       1.0  T
   3    -38.2440216 -0.255317E-04  0.133E-01    1.32       1.0  T
   4    -38.2441765 -0.154944E-03  0.427E-02    1.34       1.0  T
   5    -38.2442161 -0.395932E-04  0.217E-02    1.33       1.0  T
   6    -38.2442181 -0.199392E-05  0.807E-03    1.33       2.2  T
   7    -38.2442183 -0.233670E-06  0.309E-03    1.33       5.8  T
   8    -38.2442183  0.309620E-08  0.208E-03    1.33       8.6  T
   9    -38.2442184 -0.349856E-07  0.107E-03    1.33      16.8  T
  10    -38.2442184 -0.353714E-08  0.654E-04    1.33      27.4  T
  11    -38.2442184 -0.461526E-09  0.273E-04    1.33      65.8  T
     SCC iter.                  ...        0 min,  0.253 sec
     gradient                   ...        0 min,  0.006 sec
 * total energy  :   -37.6213618 Eh     change       -0.2129779E-02 Eh
   gradient norm :     0.0244774 Eh/α   predicted    -0.1625489E-02 ( -23.68%)
   displ. norm   :     0.3615460 α      lambda       -0.2480221E-02
   maximum displ.:     0.2477986 α      in ANC's #9, #8, #56, ...

........................................................................
.............................. CYCLE   15 ..............................
........................................................................
   1    -38.2489311 -0.382489E+02  0.234E-01    1.36       0.0  T
   2    -38.2489407 -0.965033E-05  0.164E-01    1.35       1.0  T
   3    -38.2487409  0.199798E-03  0.861E-02    1.36       1.0  T
   4    -38.2489478 -0.206899E-03  0.365E-02    1.36       1.0  T
   5    -38.2489642 -0.163730E-04  0.212E-02    1.35       1.0  T
   6    -38.2489661 -0.188564E-05  0.662E-03    1.35       2.7  T
   7    -38.2489663 -0.218795E-06  0.232E-03    1.35       7.7  T
   8    -38.2489663  0.238389E-08  0.155E-03    1.35      11.6  T
   9    -38.2489663 -0.119367E-07  0.829E-04    1.35      21.7  T
  10    -38.2489663 -0.212789E-08  0.452E-04    1.35      39.7  T
     SCC iter.                  ...        0 min,  0.245 sec
     gradient                   ...        0 min,  0.011 sec
 * total energy  :   -37.6231635 Eh     change       -0.1801745E-02 Eh
   gradient norm :     0.0286632 Eh/α   predicted    -0.1402216E-02 ( -22.17%)
   displ. norm   :     0.3406885 α      lambda       -0.1825155E-02
   maximum displ.:     0.2442041 α      in ANC's #9, #8, #56, ...

........................................................................
.............................. CYCLE   16 ..............................
........................................................................
   1    -38.2509139 -0.382509E+02  0.212E-01    1.39       0.0  T
   2    -38.2509219 -0.801631E-05  0.156E-01    1.37       1.0  T
   3    -38.2508186  0.103263E-03  0.653E-02    1.39       1.0  T
   4    -38.2509209 -0.102327E-03  0.331E-02    1.37       1.0  T
   5    -38.2509349 -0.139242E-04  0.204E-02    1.37       1.0  T
   6    -38.2509365 -0.166863E-05  0.522E-03    1.37       3.4  T
   7    -38.2509367 -0.130159E-06  0.201E-03    1.37       8.9  T
   8    -38.2509367 -0.140717E-07  0.106E-03    1.37      16.9  T
   9    -38.2509367 -0.618353E-08  0.503E-04    1.37      35.7  T
  10    -38.2509367 -0.646850E-09  0.265E-04    1.37      67.9  T
     SCC iter.                  ...        0 min,  0.230 sec
     gradient                   ...        0 min,  0.076 sec
 * total energy  :   -37.6244754 Eh     change       -0.1311880E-02 Eh
   gradient norm :     0.0358418 Eh/α   predicted    -0.1018502E-02 ( -22.36%)
   displ. norm   :     0.2908665 α      lambda       -0.1812165E-02
   maximum displ.:     0.2049581 α      in ANC's #9, #56, #14, ...

........................................................................
.............................. CYCLE   17 ..............................
........................................................................
   1    -38.2583190 -0.382583E+02  0.184E-01    1.40       0.0  T
   2    -38.2582926  0.263783E-04  0.134E-01    1.37       1.0  T
   3    -38.2582394  0.532594E-04  0.101E-01    1.40       1.0  T
   4    -38.2583858 -0.146437E-03  0.164E-02    1.39       1.1  T
   5    -38.2583903 -0.451170E-05  0.108E-02    1.38       1.7  T
   6    -38.2583909 -0.610301E-06  0.499E-03    1.38       3.6  T
   7    -38.2583911 -0.224491E-06  0.150E-03    1.38      12.0  T
   8    -38.2583912 -0.199276E-07  0.581E-04    1.38      30.9  T
   9    -38.2583912 -0.158457E-08  0.334E-04    1.38      53.8  T
     SCC iter.                  ...        0 min,  0.219 sec
     gradient                   ...        0 min,  0.020 sec
 * total energy  :   -37.6255323 Eh     change       -0.1056835E-02 Eh
   gradient norm :     0.0245933 Eh/α   predicted    -0.9827444E-03 (  -7.01%)
   displ. norm   :     0.3309548 α      lambda       -0.1547188E-02
   maximum displ.:     0.2367540 α      in ANC's #9, #8, #1, ...

........................................................................
.............................. CYCLE   18 ..............................
........................................................................
   1    -38.2567752 -0.382568E+02  0.211E-01    1.42       0.0  T
   2    -38.2567762 -0.100775E-05  0.162E-01    1.40       1.0  T
   3    -38.2566616  0.114619E-03  0.971E-02    1.41       1.0  T
   4    -38.2567738 -0.112211E-03  0.368E-02    1.41       1.0  T
   5    -38.2568094 -0.356356E-04  0.144E-02    1.40       1.2  T
   6    -38.2568099 -0.475880E-06  0.510E-03    1.41       3.5  T
   7    -38.2568100 -0.112246E-06  0.201E-03    1.41       8.9  T
   8    -38.2568101 -0.245756E-07  0.112E-03    1.41      16.1  T
   9    -38.2568101 -0.281028E-08  0.516E-04    1.41      34.8  T
  10    -38.2568101 -0.158349E-08  0.255E-04    1.41      70.4  T
     SCC iter.                  ...        0 min,  0.101 sec
     gradient                   ...        0 min,  0.009 sec
 * total energy  :   -37.6264001 Eh     change       -0.8678736E-03 Eh
   gradient norm :     0.0507106 Eh/α   predicted    -0.8583308E-03 (  -1.10%)
   displ. norm   :     0.1557670 α      lambda       -0.1258258E-02
   maximum displ.:     0.0737662 α      in ANC's #9, #14, #41, ...

........................................................................
.............................. CYCLE   19 ..............................
........................................................................
   1    -38.2585272 -0.382585E+02  0.118E-01    1.41       0.0  T
   2    -38.2585301 -0.283705E-05  0.852E-02    1.40       1.0  T
   3    -38.2584816  0.484894E-04  0.484E-02    1.42       1.0  T
   4    -38.2585290 -0.473973E-04  0.211E-02    1.41       1.0  T
   5    -38.2585374 -0.841234E-05  0.661E-03    1.41       2.7  T
   6    -38.2585374 -0.189594E-07  0.449E-03    1.41       4.0  T
   7    -38.2585376 -0.186940E-06  0.138E-03    1.41      13.0  T
   8    -38.2585376 -0.817651E-08  0.787E-04    1.41      22.8  T
   9    -38.2585376 -0.288324E-08  0.452E-04    1.41      39.7  T
     SCC iter.                  ...        0 min,  0.036 sec
     gradient                   ...        0 min,  0.006 sec
 * total energy  :   -37.6273885 Eh     change       -0.9883434E-03 Eh
   gradient norm :     0.0361646 Eh/α   predicted    -0.6444098E-03 ( -34.80%)
   displ. norm   :     0.3139618 α      lambda       -0.1953603E-02
   maximum displ.:     0.1852124 α      in ANC's #9, #41, #5, ...

........................................................................
.............................. CYCLE   20 ..............................
........................................................................
   1    -38.2597162 -0.382597E+02  0.212E-01    1.42       0.0  T
   2    -38.2597200 -0.377882E-05  0.154E-01    1.41       1.0  T
   3    -38.2594972  0.222791E-03  0.102E-01    1.42       1.0  T
   4    -38.2597343 -0.237154E-03  0.320E-02    1.41       1.0  T
   5    -38.2597509 -0.165917E-04  0.140E-02    1.41       1.3  T
   6    -38.2597523 -0.134998E-05  0.780E-03    1.41       2.3  T
   7    -38.2597525 -0.220547E-06  0.249E-03    1.41       7.2  T
   8    -38.2597525 -0.354240E-07  0.153E-03    1.41      11.7  T
   9    -38.2597525 -0.955465E-08  0.800E-04    1.41      22.5  T
  10    -38.2597525 -0.138398E-08  0.450E-04    1.41      39.9  T
     SCC iter.                  ...        0 min,  0.046 sec
     gradient                   ...        0 min,  0.005 sec
 * total energy  :   -37.6287489 Eh     change       -0.1360388E-02 Eh
   gradient norm :     0.0244971 Eh/α   predicted    -0.1073101E-02 ( -21.12%)
   displ. norm   :     0.2711585 α      lambda       -0.1119697E-02
   maximum displ.:     0.1831847 α      in ANC's #9, #59, #41, ...
 * RMSD in coord.:     0.8864334 α      energy gain  -0.4421904E+01 Eh

generating ANC from model Hessian ...
Using Lindh-Hessian (1995)
 Shifting diagonal of input Hessian by    1.1269800511441908E-002
 Lowest  eigenvalues of input Hessian
    0.010000    0.011201    0.000000    0.000000    0.000000    0.000000
    0.000000    0.000000    0.011700    0.012325    0.012745    0.013145
    0.013824    0.014713    0.016785    0.017117    0.019069    0.019382
 Highest eigenvalues
    1.741775    2.249249    3.319913    3.991184    6.156649    7.172261


........................................................................
.............................. CYCLE   21 ..............................
........................................................................
   1    -38.2590830 -0.382591E+02  0.141E-01    1.42       0.0  T
   2    -38.2590839 -0.809971E-06  0.962E-02    1.42       1.0  T
   3    -38.2589886  0.952529E-04  0.674E-02    1.42       1.0  T
   4    -38.2590897 -0.101061E-03  0.206E-02    1.41       1.0  T
   5    -38.2590944 -0.477871E-05  0.965E-03    1.42       1.9  T
   6    -38.2590947 -0.296333E-06  0.350E-03    1.42       5.1  T
   7    -38.2590948 -0.497606E-07  0.177E-03    1.42      10.1  T
   8    -38.2590948 -0.120723E-07  0.102E-03    1.42      17.6  T
   9    -38.2590948 -0.474241E-08  0.526E-04    1.42      34.1  T
  10    -38.2590948 -0.468852E-09  0.259E-04    1.42      69.4  T
     SCC iter.                  ...        0 min,  0.257 sec
     gradient                   ...        0 min,  0.007 sec
 * total energy  :   -37.6295822 Eh     change       -0.8332959E-03 Eh
   gradient norm :     0.0208545 Eh/α   predicted     0.0000000E+00 (-100.00%)
   displ. norm   :     0.2795922 α      lambda       -0.1959734E-02
   maximum displ.:     0.1267603 α      in ANC's #6, #7, #8, ...

........................................................................
.............................. CYCLE   22 ..............................
........................................................................
   1    -38.2618742 -0.382619E+02  0.165E-01    1.43       0.0  T
   2    -38.2618784 -0.413768E-05  0.125E-01    1.44       1.0  T
   3    -38.2617625  0.115903E-03  0.697E-02    1.44       1.0  T
   4    -38.2618782 -0.115694E-03  0.271E-02    1.43       1.0  T
   5    -38.2618921 -0.139350E-04  0.149E-02    1.44       1.2  T
   6    -38.2618924 -0.314605E-06  0.331E-03    1.44       5.4  T
   7    -38.2618925 -0.993728E-07  0.188E-03    1.44       9.5  T
   8    -38.2618925 -0.208063E-07  0.852E-04    1.44      21.1  T
   9    -38.2618925 -0.119294E-08  0.343E-04    1.44      52.3  T
     SCC iter.                  ...        0 min,  0.246 sec
     gradient                   ...        0 min,  0.032 sec
 * total energy  :   -37.6309113 Eh     change       -0.1329180E-02 Eh
   gradient norm :     0.0065174 Eh/α   predicted    -0.1059553E-02 ( -20.29%)
   displ. norm   :     0.4195316 α      lambda       -0.1572709E-02
   maximum displ.:     0.1971969 α      in ANC's #6, #7, #8, ...

........................................................................
.............................. CYCLE   23 ..............................
........................................................................
   1    -38.2621652 -0.382622E+02  0.252E-01    1.45       0.0  T
   2    -38.2621452  0.199948E-04  0.177E-01    1.45       1.0  T
   3    -38.2618550  0.290198E-03  0.147E-01    1.47       1.0  T
   4    -38.2622326 -0.377611E-03  0.336E-02    1.44       1.0  T
   5    -38.2622443 -0.116213E-04  0.144E-02    1.46       1.3  T
   6    -38.2622442  0.354080E-07  0.541E-03    1.46       3.3  T
   7    -38.2622445 -0.293352E-06  0.186E-03    1.46       9.7  T
   8    -38.2622445 -0.327710E-07  0.114E-03    1.46      15.8  T
   9    -38.2622445 -0.463256E-08  0.632E-04    1.46      28.4  T
  10    -38.2622445 -0.142848E-09  0.346E-04    1.46      51.9  T
     SCC iter.                  ...        0 min,  0.273 sec
     gradient                   ...        0 min,  0.005 sec
 * total energy  :   -37.6318821 Eh     change       -0.9707651E-03 Eh
   gradient norm :     0.0151826 Eh/α   predicted    -0.9247610E-03 (  -4.74%)
   displ. norm   :     0.3558906 α      lambda       -0.8358865E-03
   maximum displ.:     0.2122299 α      in ANC's #7, #8, #6, ...

........................................................................
.............................. CYCLE   24 ..............................
........................................................................
   1    -38.2605850 -0.382606E+02  0.156E-01    1.48       0.0  T
   2    -38.2605799  0.504045E-05  0.105E-01    1.47       1.0  T
   3    -38.2604244  0.155566E-03  0.837E-02    1.48       1.0  T
   4    -38.2605988 -0.174379E-03  0.144E-02    1.47       1.2  T
   5    -38.2606002 -0.146813E-05  0.726E-03    1.47       2.5  T
   6    -38.2606006 -0.416515E-06  0.372E-03    1.47       4.8  T
   7    -38.2606007 -0.859062E-07  0.131E-03    1.47      13.7  T
   8    -38.2606007 -0.436695E-08  0.892E-04    1.47      20.1  T
   9    -38.2606007 -0.364048E-08  0.449E-04    1.47      40.0  T
     SCC iter.                  ...        0 min,  0.240 sec
     gradient                   ...        0 min,  0.005 sec
 * total energy  :   -37.6324553 Eh     change       -0.5732381E-03 Eh
   gradient norm :     0.0291535 Eh/α   predicted    -0.4708832E-03 ( -17.86%)
   displ. norm   :     0.3540923 α      lambda       -0.9310282E-03
   maximum displ.:     0.2052619 α      in ANC's #7, #8, #6, ...

........................................................................
.............................. CYCLE   25 ..............................
........................................................................
   1    -38.2607552 -0.382608E+02  0.183E-01    1.49       0.0  T
   2    -38.2607533  0.190721E-05  0.123E-01    1.47       1.0  T
   3    -38.2605795  0.173812E-03  0.895E-02    1.49       1.0  T
   4    -38.2607677 -0.188212E-03  0.216E-02    1.48       1.0  T
   5    -38.2607745 -0.685382E-05  0.802E-03    1.48       2.2  T
   6    -38.2607747 -0.135610E-06  0.510E-03    1.48       3.5  T
   7    -38.2607749 -0.236877E-06  0.173E-03    1.48      10.4  T
   8    -38.2607749 -0.627093E-08  0.122E-03    1.48      14.8  T
   9    -38.2607749 -0.547875E-08  0.622E-04    1.48      28.9  T
  10    -38.2607749 -0.432109E-09  0.281E-04    1.48      63.9  T
     SCC iter.                  ...        0 min,  0.245 sec
     gradient                   ...        0 min,  0.007 sec
 * total energy  :   -37.6331014 Eh     change       -0.6460929E-03 Eh
   gradient norm :     0.0124352 Eh/α   predicted    -0.5238851E-03 ( -18.91%)
   displ. norm   :     0.3229724 α      lambda       -0.6045309E-03
   maximum displ.:     0.2022466 α      in ANC's #7, #8, #6, ...

........................................................................
.............................. CYCLE   26 ..............................
........................................................................
   1    -38.2625531 -0.382626E+02  0.172E-01    1.49       0.0  T
   2    -38.2625579 -0.478775E-05  0.114E-01    1.48       1.0  T
   3    -38.2624993  0.585981E-04  0.608E-02    1.49       1.0  T
   4    -38.2625501 -0.508078E-04  0.246E-02    1.48       1.0  T
   5    -38.2625645 -0.144369E-04  0.691E-03    1.48       2.6  T
   6    -38.2625647 -0.143035E-06  0.410E-03    1.48       4.4  T
   7    -38.2625648 -0.956025E-07  0.131E-03    1.48      13.7  T
   8    -38.2625648 -0.404683E-08  0.950E-04    1.48      18.9  T
   9    -38.2625648 -0.419819E-08  0.537E-04    1.48      33.4  T
     SCC iter.                  ...        0 min,  0.262 sec
     gradient                   ...        0 min,  0.067 sec
 * total energy  :   -37.6335319 Eh     change       -0.4304409E-03 Eh
   gradient norm :     0.0173762 Eh/α   predicted    -0.3337966E-03 ( -22.45%)
   displ. norm   :     0.2667378 α      lambda       -0.5189069E-03
   maximum displ.:     0.1614308 α      in ANC's #7, #8, #2, ...

........................................................................
.............................. CYCLE   27 ..............................
........................................................................
   1    -38.2666938 -0.382667E+02  0.156E-01    1.49       0.0  T
   2    -38.2666977 -0.391199E-05  0.999E-02    1.47       1.0  T
   3    -38.2666556  0.421187E-04  0.548E-02    1.49       1.0  T
   4    -38.2666960 -0.404310E-04  0.195E-02    1.48       1.0  T
   5    -38.2667026 -0.664444E-05  0.666E-03    1.48       2.7  T
   6    -38.2667026  0.777030E-07  0.435E-03    1.48       4.1  T
   7    -38.2667027 -0.123982E-06  0.122E-03    1.48      14.7  T
   8    -38.2667027  0.175157E-08  0.861E-04    1.48      20.9  T
   9    -38.2667027 -0.674492E-08  0.402E-04    1.48      44.6  T
     SCC iter.                  ...        0 min,  0.278 sec
     gradient                   ...        0 min,  0.073 sec
 * total energy  :   -37.6338080 Eh     change       -0.2761400E-03 Eh
   gradient norm :     0.0112972 Eh/α   predicted    -0.2779182E-03 (   0.64%)
   displ. norm   :     0.4963767 α      lambda       -0.5441232E-03
   maximum displ.:     0.3287239 α      in ANC's #7, #8, #2, ...

........................................................................
.............................. CYCLE   28 ..............................
........................................................................
   1    -38.2624749 -0.382625E+02  0.272E-01    1.49       0.0  T
   2    -38.2624758 -0.843424E-06  0.171E-01    1.49       1.0  T
   3    -38.2622410  0.234781E-03  0.112E-01    1.48       1.0  T
   4    -38.2624884 -0.247405E-03  0.218E-02    1.49       1.0  T
   5    -38.2624903 -0.194235E-05  0.132E-02    1.49       1.4  T
   6    -38.2624913 -0.918221E-06  0.311E-03    1.49       5.8  T
   7    -38.2624913 -0.740647E-07  0.151E-03    1.49      11.9  T
   8    -38.2624913 -0.195831E-08  0.990E-04    1.49      18.1  T
   9    -38.2624913 -0.472469E-08  0.580E-04    1.49      30.9  T
     SCC iter.                  ...        0 min,  0.251 sec
     gradient                   ...        0 min,  0.009 sec
 * total energy  :   -37.6338090 Eh     change       -0.1023968E-05 Eh
   gradient norm :     0.0454962 Eh/α   predicted    -0.3390971E-03 (*******%)
   displ. norm   :     0.2006431 α      lambda       -0.6470107E-03
   maximum displ.:     0.1160735 α      in ANC's #7, #8, #4, ...

........................................................................
.............................. CYCLE   29 ..............................
........................................................................
   1    -38.2665363 -0.382665E+02  0.125E-01    1.49       0.0  T
   2    -38.2665381 -0.187178E-05  0.794E-02    1.49       1.0  T
   3    -38.2664892  0.489695E-04  0.548E-02    1.50       1.0  T
   4    -38.2665410 -0.518139E-04  0.119E-02    1.49       1.5  T
   5    -38.2665421 -0.115617E-05  0.915E-03    1.49       2.0  T
   6    -38.2665429 -0.786461E-06  0.288E-03    1.49       6.2  T
   7    -38.2665430 -0.820029E-07  0.150E-03    1.49      12.0  T
   8    -38.2665430 -0.767069E-08  0.867E-04    1.49      20.7  T
   9    -38.2665430 -0.210193E-08  0.333E-04    1.49      53.9  T
     SCC iter.                  ...        0 min,  0.219 sec
     gradient                   ...        0 min,  0.056 sec
 * total energy  :   -37.6341107 Eh     change       -0.3016838E-03 Eh
   gradient norm :     0.0057940 Eh/α   predicted    -0.3365290E-03 (  11.55%)
   displ. norm   :     0.1251112 α      lambda       -0.1159527E-03
   maximum displ.:     0.0808214 α      in ANC's #7, #2, #8, ...

........................................................................
.............................. CYCLE   30 ..............................
........................................................................
   1    -38.2665952 -0.382666E+02  0.465E-02    1.49       0.0  T
   2    -38.2665956 -0.401230E-06  0.282E-02    1.49       1.0  T
   3    -38.2665884  0.729036E-05  0.198E-02    1.49       1.0  T
   4    -38.2665962 -0.784972E-05  0.506E-03    1.49       3.6  T
   5    -38.2665966 -0.358333E-06  0.264E-03    1.49       6.8  T
   6    -38.2665966 -0.584202E-07  0.126E-03    1.49      14.3  T
   7    -38.2665966 -0.679636E-08  0.345E-04    1.49      52.0  T
   8    -38.2665966 -0.518000E-09  0.235E-04    1.49      76.3  T
     SCC iter.                  ...        0 min,  0.215 sec
     gradient                   ...        0 min,  0.015 sec
 * total energy  :   -37.6342118 Eh     change       -0.1010326E-03 Eh
   gradient norm :     0.0037787 Eh/α   predicted    -0.5888665E-04 ( -41.72%)
   displ. norm   :     0.4475931 α      lambda       -0.3247965E-03
   maximum displ.:     0.2862872 α      in ANC's #7, #2, #8, ...

........................................................................
.............................. CYCLE   31 ..............................
........................................................................
   1    -38.2643128 -0.382643E+02  0.178E-01    1.50       0.0  T
   2    -38.2643124  0.337537E-06  0.113E-01    1.50       1.0  T
   3    -38.2641506  0.161796E-03  0.894E-02    1.49       1.0  T
   4    -38.2643251 -0.174460E-03  0.169E-02    1.50       1.1  T
   5    -38.2643291 -0.396949E-05  0.923E-03    1.50       1.9  T
   6    -38.2643294 -0.299595E-06  0.376E-03    1.50       4.8  T
   7    -38.2643294 -0.578786E-07  0.132E-03    1.50      13.6  T
   8    -38.2643294 -0.102746E-07  0.798E-04    1.50      22.5  T
   9    -38.2643294 -0.355915E-08  0.272E-04    1.50      66.1  T
     SCC iter.                  ...        0 min,  0.252 sec
     gradient                   ...        0 min,  0.066 sec
 * total energy  :   -37.6343836 Eh     change       -0.1718275E-03 Eh
   gradient norm :     0.0166796 Eh/α   predicted    -0.1949454E-03 (  13.45%)
   displ. norm   :     0.1105851 α      lambda       -0.1364848E-03
   maximum displ.:     0.0753186 α      in ANC's #2, #3, #4, ...

........................................................................
.............................. CYCLE   32 ..............................
........................................................................
   1    -38.2655284 -0.382655E+02  0.417E-02    1.50       0.0  T
   2    -38.2655283  0.158163E-06  0.292E-02    1.50       1.0  T
   3    -38.2655188  0.942281E-05  0.227E-02    1.50       1.0  T
   4    -38.2655300 -0.111466E-04  0.571E-03    1.50       3.1  T
   5    -38.2655303 -0.327383E-06  0.278E-03    1.50       6.5  T
   6    -38.2655303 -0.211712E-07  0.135E-03    1.50      13.3  T
   7    -38.2655303 -0.154514E-07  0.657E-04    1.50      27.4  T
   8    -38.2655303 -0.165530E-08  0.401E-04    1.50      44.8  T
     SCC iter.                  ...        0 min,  0.196 sec
     gradient                   ...        0 min,  0.062 sec
 * total energy  :   -37.6344761 Eh     change       -0.9255241E-04 Eh
   gradient norm :     0.0083882 Eh/α   predicted    -0.6907922E-04 ( -25.36%)
   displ. norm   :     0.2770843 α      lambda       -0.1558474E-03
   maximum displ.:     0.1726532 α      in ANC's #2, #7, #3, ...

........................................................................
.............................. CYCLE   33 ..............................
........................................................................
   1    -38.2658544 -0.382659E+02  0.744E-02    1.50       0.0  T
   2    -38.2658526  0.186245E-05  0.519E-02    1.50       1.0  T
   3    -38.2658153  0.372584E-04  0.414E-02    1.51       1.0  T
   4    -38.2658586 -0.433114E-04  0.628E-03    1.50       2.9  T
   5    -38.2658590 -0.412653E-06  0.378E-03    1.50       4.8  T
   6    -38.2658591 -0.244057E-07  0.110E-03    1.50      16.4  T
   7    -38.2658591 -0.194681E-07  0.624E-04    1.50      28.8  T
   8    -38.2658591 -0.313965E-08  0.332E-04    1.50      54.2  T
     SCC iter.                  ...        0 min,  0.189 sec
     gradient                   ...        0 min,  0.062 sec
 * total energy  :   -37.6345993 Eh     change       -0.1231516E-03 Eh
   gradient norm :     0.0044962 Eh/α   predicted    -0.8389819E-04 ( -31.87%)
   displ. norm   :     0.5323289 α      lambda       -0.2267684E-03
   maximum displ.:     0.3431859 α      in ANC's #2, #7, #8, ...

........................................................................
.............................. CYCLE   34 ..............................
........................................................................
   1    -38.2635086 -0.382635E+02  0.166E-01    1.50       0.0  T
   2    -38.2635094 -0.839003E-06  0.109E-01    1.50       1.0  T
   3    -38.2634377  0.716975E-04  0.520E-02    1.51       1.0  T
   4    -38.2635101 -0.723740E-04  0.167E-02    1.50       1.1  T
   5    -38.2635135 -0.342843E-05  0.763E-03    1.50       2.4  T
   6    -38.2635136 -0.138257E-06  0.170E-03    1.50      10.5  T
   7    -38.2635137 -0.359601E-07  0.690E-04    1.50      26.0  T
   8    -38.2635137 -0.273617E-08  0.438E-04    1.50      41.0  T
     SCC iter.                  ...        0 min,  0.192 sec
     gradient                   ...        0 min,  0.012 sec
 * total energy  :   -37.6347274 Eh     change       -0.1280803E-03 Eh
   gradient norm :     0.0171539 Eh/α   predicted    -0.1454814E-03 (  13.59%)
   displ. norm   :     0.2994111 α      lambda       -0.3026736E-03
   maximum displ.:     0.1996896 α      in ANC's #2, #3, #4, ...

........................................................................
.............................. CYCLE   35 ..............................
........................................................................
   1    -38.2670198 -0.382670E+02  0.105E-01    1.50       0.0  T
   2    -38.2670135  0.633009E-05  0.744E-02    1.49       1.0  T
   3    -38.2669844  0.290894E-04  0.558E-02    1.50       1.0  T
   4    -38.2670399 -0.554837E-04  0.157E-02    1.49       1.1  T
   5    -38.2670435 -0.358313E-05  0.520E-03    1.49       3.5  T
   6    -38.2670436 -0.146562E-06  0.292E-03    1.49       6.1  T
   7    -38.2670436 -0.272374E-07  0.102E-03    1.49      17.7  T
   8    -38.2670436 -0.661371E-08  0.841E-04    1.49      21.4  T
   9    -38.2670436 -0.912337E-09  0.403E-04    1.49      44.6  T
     SCC iter.                  ...        0 min,  0.231 sec
     gradient                   ...        0 min,  0.069 sec
 * total energy  :   -37.6348481 Eh     change       -0.1207065E-03 Eh
   gradient norm :     0.0135242 Eh/α   predicted    -0.1649095E-03 (  36.62%)
   displ. norm   :     0.2789649 α      lambda       -0.1713894E-03
   maximum displ.:     0.2020867 α      in ANC's #2, #3, #8, ...

........................................................................
.............................. CYCLE   36 ..............................
........................................................................
   1    -38.2660346 -0.382660E+02  0.705E-02    1.50       0.0  T
   2    -38.2660315  0.308497E-05  0.485E-02    1.49       1.0  T
   3    -38.2660119  0.195914E-04  0.392E-02    1.50       1.0  T
   4    -38.2660428 -0.309064E-04  0.839E-03    1.49       2.1  T
   5    -38.2660437 -0.874351E-06  0.402E-03    1.50       4.5  T
   6    -38.2660437  0.482424E-08  0.211E-03    1.50       8.5  T
   7    -38.2660437 -0.441384E-07  0.738E-04    1.50      24.3  T
   8    -38.2660437 -0.324670E-08  0.524E-04    1.50      34.2  T
     SCC iter.                  ...        0 min,  0.143 sec
     gradient                   ...        0 min,  0.058 sec
 * total energy  :   -37.6349567 Eh     change       -0.1085940E-03 Eh
   gradient norm :     0.0068519 Eh/α   predicted    -0.9236780E-04 ( -14.94%)
   displ. norm   :     0.2157230 α      lambda       -0.1408668E-03
   maximum displ.:     0.1707751 α      in ANC's #2, #3, #8, ...

........................................................................
.............................. CYCLE   37 ..............................
........................................................................
   1    -38.2671887 -0.382672E+02  0.520E-02    1.50       0.0  T
   2    -38.2671890 -0.311470E-06  0.340E-02    1.50       1.0  T
   3    -38.2671766  0.124305E-04  0.298E-02    1.49       1.0  T
   4    -38.2671907 -0.141579E-04  0.675E-03    1.50       2.7  T
   5    -38.2671915 -0.766851E-06  0.448E-03    1.50       4.0  T
   6    -38.2671916 -0.742739E-07  0.161E-03    1.50      11.1  T
   7    -38.2671916 -0.369496E-07  0.546E-04    1.50      32.9  T
   8    -38.2671916 -0.301306E-08  0.354E-04    1.50      50.8  T
     SCC iter.                  ...        0 min,  0.148 sec
     gradient                   ...        0 min,  0.064 sec
 * total energy  :   -37.6350512 Eh     change       -0.9449844E-04 Eh
   gradient norm :     0.0108875 Eh/α   predicted    -0.7371295E-04 ( -22.00%)
   displ. norm   :     0.3453095 α      lambda       -0.1663350E-03
   maximum displ.:     0.2694337 α      in ANC's #2, #3, #8, ...

........................................................................
.............................. CYCLE   38 ..............................
........................................................................
   1    -38.2670121 -0.382670E+02  0.758E-02    1.50       0.0  T
   2    -38.2670143 -0.228109E-05  0.507E-02    1.50       1.0  T
   3    -38.2669994  0.149581E-04  0.293E-02    1.49       1.0  T
   4    -38.2670141 -0.147654E-04  0.109E-02    1.50       1.6  T
   5    -38.2670167 -0.254345E-05  0.514E-03    1.50       3.5  T
   6    -38.2670168 -0.934626E-07  0.210E-03    1.50       8.6  T
   7    -38.2670168 -0.397270E-07  0.847E-04    1.50      21.2  T
   8    -38.2670168 -0.931521E-08  0.424E-04    1.50      42.3  T
     SCC iter.                  ...        0 min,  0.174 sec
     gradient                   ...        0 min,  0.008 sec
 * total energy  :   -37.6351590 Eh     change       -0.1078806E-03 Eh
   gradient norm :     0.0100208 Eh/α   predicted    -0.9308991E-04 ( -13.71%)
   displ. norm   :     0.3071643 α      lambda       -0.1720929E-03
   maximum displ.:     0.2219701 α      in ANC's #2, #3, #7, ...

........................................................................
.............................. CYCLE   39 ..............................
........................................................................
   1    -38.2699198 -0.382699E+02  0.664E-02    1.50       0.0  T
   2    -38.2699211 -0.135504E-05  0.439E-02    1.50       1.0  T
   3    -38.2699045  0.166226E-04  0.319E-02    1.49       1.0  T
   4    -38.2699223 -0.178163E-04  0.116E-02    1.50       1.6  T
   5    -38.2699247 -0.238685E-05  0.515E-03    1.50       3.5  T
   6    -38.2699247 -0.300118E-07  0.153E-03    1.50      11.7  T
   7    -38.2699248 -0.636104E-07  0.527E-04    1.50      34.1  T
   8    -38.2699248 -0.579284E-09  0.304E-04    1.50      59.1  T
     SCC iter.                  ...        0 min,  0.203 sec
     gradient                   ...        0 min,  0.004 sec
 * total energy  :   -37.6352287 Eh     change       -0.6963792E-04 Eh
   gradient norm :     0.0114950 Eh/α   predicted    -0.9416702E-04 (  35.22%)
   displ. norm   :     0.5321233 α      lambda       -0.1829428E-03
   maximum displ.:     0.3973600 α      in ANC's #2, #3, #8, ...

........................................................................
.............................. CYCLE   40 ..............................
........................................................................
   1    -38.2612152 -0.382612E+02  0.110E-01    1.50       0.0  T
   2    -38.2612179 -0.273206E-05  0.662E-02    1.50       1.0  T
   3    -38.2611846  0.333030E-04  0.454E-02    1.49       1.0  T
   4    -38.2612204 -0.357672E-04  0.123E-02    1.50       1.5  T
   5    -38.2612218 -0.147924E-05  0.781E-03    1.50       2.3  T
   6    -38.2612220 -0.113617E-06  0.331E-03    1.50       5.4  T
   7    -38.2612221 -0.161970E-06  0.994E-04    1.50      18.1  T
   8    -38.2612221 -0.972282E-08  0.694E-04    1.50      25.9  T
     SCC iter.                  ...        0 min,  0.197 sec
     gradient                   ...        0 min,  0.007 sec
 * total energy  :   -37.6351538 Eh     change        0.7487096E-04 Eh
   gradient norm :     0.0186030 Eh/α   predicted    -0.1173847E-03 (-256.78%)
   displ. norm   :     0.2470949 α      lambda       -0.3603684E-03
   maximum displ.:     0.1782192 α      in ANC's #2, #3, #4, ...

........................................................................
.............................. CYCLE   41 ..............................
........................................................................
   1    -38.2676531 -0.382677E+02  0.638E-02    1.50       0.0  T
   2    -38.2676546 -0.156326E-05  0.407E-02    1.49       1.0  T
   3    -38.2676411  0.135412E-04  0.275E-02    1.50       1.0  T
   4    -38.2676556 -0.144836E-04  0.952E-03    1.50       1.9  T
   5    -38.2676568 -0.124155E-05  0.517E-03    1.50       3.5  T
   6    -38.2676567  0.571897E-07  0.282E-03    1.50       6.4  T
   7    -38.2676568 -0.729849E-07  0.792E-04    1.50      22.7  T
   8    -38.2676568 -0.635608E-08  0.557E-04    1.50      32.3  T
     SCC iter.                  ...        0 min,  0.207 sec
     gradient                   ...        0 min,  0.005 sec
 * total energy  :   -37.6353227 Eh     change       -0.1688421E-03 Eh
   gradient norm :     0.0035666 Eh/α   predicted    -0.1911862E-03 (  13.23%)
   displ. norm   :     0.1006114 α      lambda       -0.4274012E-04
   maximum displ.:     0.0650930 α      in ANC's #2, #7, #3, ...

........................................................................
.............................. CYCLE   42 ..............................
........................................................................
   1    -38.2682512 -0.382683E+02  0.276E-02    1.50       0.0  T
   2    -38.2682512 -0.326677E-08  0.189E-02    1.50       1.0  T
   3    -38.2682470  0.420876E-05  0.149E-02    1.50       1.2  T
   4    -38.2682516 -0.463876E-05  0.361E-03    1.50       5.0  T
   5    -38.2682518 -0.124298E-06  0.215E-03    1.50       8.4  T
   6    -38.2682518 -0.137500E-07  0.837E-04    1.50      21.5  T
   7    -38.2682518 -0.892345E-08  0.319E-04    1.50      56.2  T
     SCC iter.                  ...        0 min,  0.190 sec
     gradient                   ...        0 min,  0.071 sec
 * total energy  :   -37.6353470 Eh     change       -0.2429564E-04 Eh
   gradient norm :     0.0074027 Eh/α   predicted    -0.2159436E-04 ( -11.12%)
   displ. norm   :     0.1481364 α      lambda       -0.4247559E-04
   maximum displ.:     0.0927379 α      in ANC's #2, #4, #8, ...
 * RMSD in coord.:     0.7972700 α      energy gain  -0.6598090E-02 Eh

generating ANC from model Hessian ...
Using Lindh-Hessian (1995)
 Shifting diagonal of input Hessian by    1.0592566140760418E-002
 Lowest  eigenvalues of input Hessian
    0.010000    0.010165    0.000000    0.000000    0.000000    0.000000
    0.000000    0.000000    0.010742    0.011032    0.011590    0.011855
    0.012257    0.012739    0.013789    0.016701    0.017067    0.018765
 Highest eigenvalues
    1.735704    2.018533    3.194069    4.011151    6.446077    7.079950


........................................................................
.............................. CYCLE   43 ..............................
........................................................................
   1    -38.2682350 -0.382682E+02  0.305E-02    1.50       0.0  T
   2    -38.2682353 -0.338577E-06  0.178E-02    1.50       1.0  T
   3    -38.2682329  0.237469E-05  0.124E-02    1.50       1.4  T
   4    -38.2682356 -0.269622E-05  0.278E-03    1.50       6.5  T
   5    -38.2682358 -0.144504E-06  0.167E-03    1.50      10.8  T
   6    -38.2682358 -0.168501E-07  0.673E-04    1.50      26.7  T
   7    -38.2682358 -0.363406E-08  0.212E-04    1.50      84.8  T
     SCC iter.                  ...        0 min,  0.177 sec
     gradient                   ...        0 min,  0.005 sec
 * total energy  :   -37.6353770 Eh     change       -0.3006120E-04 Eh
   gradient norm :     0.0046981 Eh/α   predicted     0.0000000E+00 (-100.00%)
   displ. norm   :     0.0256255 α      lambda        0.1900885E-04
   maximum displ.:     0.0163981 α      in ANC's #1, #8, #2, ...

........................................................................
.............................. CYCLE   44 ..............................
........................................................................
   1    -38.2679146 -0.382679E+02  0.168E-02    1.50       0.0  T
   2    -38.2679146 -0.412817E-07  0.111E-02    1.50       1.6  T
   3    -38.2679143  0.253072E-06  0.389E-03    1.50       4.6  T
   4    -38.2679146 -0.227327E-06  0.173E-03    1.50      10.4  T
   5    -38.2679146 -0.509444E-07  0.819E-04    1.50      21.9  T
   6    -38.2679146 -0.410699E-08  0.302E-04    1.50      59.4  T
     SCC iter.                  ...        0 min,  0.151 sec
     gradient                   ...        0 min,  0.007 sec
 * total energy  :   -37.6353884 Eh     change       -0.1140617E-04 Eh
   gradient norm :     0.0013118 Eh/α   predicted    -0.8629200E-05 ( -24.35%)
   displ. norm   :     0.0619262 α      lambda       -0.1148043E-04
   maximum displ.:     0.0423526 α      in ANC's #8, #1, #3, ...

........................................................................
.............................. CYCLE   45 ..............................
........................................................................
   1    -38.2675532 -0.382676E+02  0.277E-02    1.50       0.0  T
   2    -38.2675533 -0.131818E-06  0.176E-02    1.50       1.0  T
   3    -38.2675528  0.556803E-06  0.636E-03    1.50       2.8  T
   4    -38.2675534 -0.634885E-06  0.157E-03    1.50      11.4  T
   5    -38.2675534  0.906238E-08  0.103E-03    1.50      17.4  T
   6    -38.2675534 -0.148174E-07  0.466E-04    1.50      38.6  T
   7    -38.2675534 -0.390973E-08  0.182E-04    1.50      98.8  T
     SCC iter.                  ...        0 min,  0.158 sec
     gradient                   ...        0 min,  0.071 sec
 * total energy  :   -37.6353983 Eh     change       -0.9847440E-05 Eh
   gradient norm :     0.0031363 Eh/α   predicted    -0.5783851E-05 ( -41.27%)
   displ. norm   :     0.0513410 α      lambda       -0.1172565E-04
   maximum displ.:     0.0301351 α      in ANC's #8, #3, #1, ...

........................................................................
.............................. CYCLE   46 ..............................
........................................................................
   1    -38.2674987 -0.382675E+02  0.260E-02    1.50       0.0  T
   2    -38.2674987 -0.470161E-07  0.166E-02    1.50       1.1  T
   3    -38.2674980  0.721538E-06  0.601E-03    1.50       3.0  T
   4    -38.2674987 -0.739619E-06  0.179E-03    1.50      10.0  T
   5    -38.2674988 -0.293967E-07  0.104E-03    1.50      17.3  T
   6    -38.2674988 -0.755653E-08  0.271E-04    1.50      66.3  T
   7    -38.2674988 -0.762157E-09  0.100E-04    1.50     178.7  T
     SCC iter.                  ...        0 min,  0.201 sec
     gradient                   ...        0 min,  0.043 sec
 * total energy  :   -37.6354070 Eh     change       -0.8745041E-05 Eh
   gradient norm :     0.0025697 Eh/α   predicted    -0.5880231E-05 ( -32.76%)
   displ. norm   :     0.0956998 α      lambda       -0.1991638E-04
   maximum displ.:     0.0591992 α      in ANC's #8, #3, #1, ...

........................................................................
.............................. CYCLE   47 ..............................
........................................................................
   1    -38.2675451 -0.382675E+02  0.371E-02    1.50       0.0  T
   2    -38.2675452 -0.705020E-07  0.234E-02    1.50       1.0  T
   3    -38.2675415  0.363113E-05  0.126E-02    1.50       1.4  T
   4    -38.2675453 -0.378037E-05  0.279E-03    1.50       6.4  T
   5    -38.2675454 -0.886878E-07  0.132E-03    1.50      13.6  T
   6    -38.2675454 -0.309556E-08  0.506E-04    1.50      35.5  T
   7    -38.2675454 -0.257408E-08  0.184E-04    1.50      97.5  T
     SCC iter.                  ...        0 min,  0.171 sec
     gradient                   ...        0 min,  0.006 sec
 * total energy  :   -37.6354242 Eh     change       -0.1714298E-04 Eh
   gradient norm :     0.0014273 Eh/α   predicted    -0.1004993E-04 ( -41.38%)
   displ. norm   :     0.2420238 α      lambda       -0.3059979E-04
   maximum displ.:     0.1451228 α      in ANC's #8, #3, #4, ...

........................................................................
.............................. CYCLE   48 ..............................
........................................................................
   1    -38.2673611 -0.382674E+02  0.806E-02    1.50       0.0  T
   2    -38.2673616 -0.500737E-06  0.507E-02    1.50       1.0  T
   3    -38.2673550  0.654777E-05  0.180E-02    1.50       1.0  T
   4    -38.2673617 -0.664524E-05  0.585E-03    1.50       3.1  T
   5    -38.2673620 -0.375191E-06  0.309E-03    1.50       5.8  T
   6    -38.2673621 -0.319088E-07  0.104E-03    1.50      17.2  T
   7    -38.2673621 -0.141553E-07  0.321E-04    1.50      56.0  T
   8    -38.2673621 -0.633051E-09  0.187E-04    1.50      95.9  T
     SCC iter.                  ...        0 min,  0.203 sec
     gradient                   ...        0 min,  0.005 sec
 * total energy  :   -37.6354606 Eh     change       -0.3644451E-04 Eh
   gradient norm :     0.0025371 Eh/α   predicted    -0.1569943E-04 ( -56.92%)
   displ. norm   :     0.2128538 α      lambda       -0.3589547E-04
   maximum displ.:     0.1213297 α      in ANC's #8, #3, #2, ...

........................................................................
.............................. CYCLE   49 ..............................
........................................................................
   1    -38.2670273 -0.382670E+02  0.627E-02    1.50       0.0  T
   2    -38.2670276 -0.239579E-06  0.399E-02    1.50       1.0  T
   3    -38.2670244  0.314172E-05  0.125E-02    1.50       1.4  T
   4    -38.2670275 -0.310464E-05  0.488E-03    1.50       3.7  T
   5    -38.2670278 -0.242900E-06  0.259E-03    1.50       6.9  T
   6    -38.2670278 -0.218006E-07  0.692E-04    1.50      26.0  T
   7    -38.2670278 -0.525137E-08  0.252E-04    1.50      71.4  T
     SCC iter.                  ...        0 min,  0.184 sec
     gradient                   ...        0 min,  0.029 sec
 * total energy  :   -37.6354925 Eh     change       -0.3190866E-04 Eh
   gradient norm :     0.0039808 Eh/α   predicted    -0.1876270E-04 ( -41.20%)
   displ. norm   :     0.3333636 α      lambda       -0.6487444E-04
   maximum displ.:     0.1974125 α      in ANC's #3, #8, #2, ...

........................................................................
.............................. CYCLE   50 ..............................
........................................................................
   1    -38.2662323 -0.382662E+02  0.855E-02    1.49       0.0  T
   2    -38.2662329 -0.594564E-06  0.545E-02    1.49       1.0  T
   3    -38.2662311  0.179639E-05  0.109E-02    1.49       1.6  T
   4    -38.2662328 -0.170378E-05  0.604E-03    1.49       3.0  T
   5    -38.2662330 -0.230929E-06  0.390E-03    1.49       4.6  T
   6    -38.2662331 -0.112863E-06  0.113E-03    1.49      15.9  T
   7    -38.2662331 -0.194075E-07  0.280E-04    1.49      64.1  T
   8    -38.2662331 -0.871673E-09  0.194E-04    1.49      92.5  T
     SCC iter.                  ...        0 min,  0.201 sec
     gradient                   ...        0 min,  0.007 sec
 * total energy  :   -37.6355436 Eh     change       -0.5104647E-04 Eh
   gradient norm :     0.0067251 Eh/α   predicted    -0.3604386E-04 ( -29.39%)
   displ. norm   :     0.2576367 α      lambda       -0.7489439E-04
   maximum displ.:     0.1613816 α      in ANC's #3, #8, #2, ...

........................................................................
.............................. CYCLE   51 ..............................
........................................................................
   1    -38.2664812 -0.382665E+02  0.558E-02    1.49       0.0  T
   2    -38.2664817 -0.479777E-06  0.362E-02    1.49       1.0  T
   3    -38.2664798  0.189757E-05  0.875E-03    1.49       2.1  T
   4    -38.2664819 -0.209553E-05  0.426E-03    1.49       4.2  T
   5    -38.2664820 -0.569281E-07  0.183E-03    1.49       9.8  T
   6    -38.2664820 -0.212973E-07  0.606E-04    1.49      29.6  T
   7    -38.2664820 -0.500856E-08  0.293E-04    1.49      61.3  T
     SCC iter.                  ...        0 min,  0.166 sec
     gradient                   ...        0 min,  0.008 sec
 * total energy  :   -37.6356053 Eh     change       -0.6172505E-04 Eh
   gradient norm :     0.0045181 Eh/α   predicted    -0.3993542E-04 ( -35.30%)
   displ. norm   :     0.3628716 α      lambda       -0.1254841E-03
   maximum displ.:     0.2298146 α      in ANC's #3, #2, #9, ...

........................................................................
.............................. CYCLE   52 ..............................
........................................................................
   1    -38.2669353 -0.382669E+02  0.788E-02    1.49       0.0  T
   2    -38.2669365 -0.120148E-05  0.509E-02    1.49       1.0  T
   3    -38.2669313  0.521341E-05  0.146E-02    1.49       1.2  T
   4    -38.2669372 -0.585452E-05  0.567E-03    1.49       3.2  T
   5    -38.2669373 -0.688202E-07  0.321E-03    1.49       5.6  T
   6    -38.2669373 -0.412952E-07  0.128E-03    1.49      14.1  T
   7    -38.2669373 -0.308504E-07  0.729E-04    1.49      24.6  T
   8    -38.2669373 -0.944390E-08  0.306E-04    1.49      58.8  T
     SCC iter.                  ...        0 min,  0.204 sec
     gradient                   ...        0 min,  0.005 sec
 * total energy  :   -37.6357134 Eh     change       -0.1081543E-03 Eh
   gradient norm :     0.0043190 Eh/α   predicted    -0.7100960E-04 ( -34.34%)
   displ. norm   :     0.5014972 α      lambda       -0.2203970E-03
   maximum displ.:     0.3145289 α      in ANC's #3, #9, #2, ...

........................................................................
.............................. CYCLE   53 ..............................
........................................................................
   1    -38.2675160 -0.382675E+02  0.125E-01    1.48       0.0  T
   2    -38.2675187 -0.266238E-05  0.797E-02    1.49       1.0  T
   3    -38.2674979  0.207484E-04  0.326E-02    1.48       1.0  T
   4    -38.2675197 -0.217457E-04  0.101E-02    1.48       1.8  T
   5    -38.2675208 -0.112978E-05  0.680E-03    1.48       2.6  T
   6    -38.2675210 -0.258554E-06  0.194E-03    1.48       9.3  T
   7    -38.2675211 -0.723539E-07  0.980E-04    1.48      18.3  T
   8    -38.2675211 -0.921772E-08  0.499E-04    1.48      36.0  T
     SCC iter.                  ...        0 min,  0.189 sec
     gradient                   ...        0 min,  0.005 sec
 * total energy  :   -37.6358807 Eh     change       -0.1672528E-03 Eh
   gradient norm :     0.0077343 Eh/α   predicted    -0.1379229E-03 ( -17.54%)
   displ. norm   :     0.6944337 α      lambda       -0.2352284E-03
   maximum displ.:     0.4274616 α      in ANC's #3, #9, #2, ...

........................................................................
.............................. CYCLE   54 ..............................
........................................................................
   1    -38.2586930 -0.382587E+02  0.162E-01    1.47       0.0  T
   2    -38.2586979 -0.485460E-05  0.104E-01    1.48       1.0  T
   3    -38.2586619  0.359519E-04  0.433E-02    1.46       1.0  T
   4    -38.2586994 -0.374825E-04  0.126E-02    1.48       1.4  T
   5    -38.2587012 -0.179599E-05  0.951E-03    1.48       1.9  T
   6    -38.2587018 -0.570361E-06  0.335E-03    1.48       5.4  T
   7    -38.2587018 -0.566929E-07  0.181E-03    1.48       9.9  T
   8    -38.2587019 -0.493874E-07  0.881E-04    1.48      20.4  T
   9    -38.2587019 -0.103138E-08  0.447E-04    1.48      40.2  T
     SCC iter.                  ...        0 min,  0.217 sec
     gradient                   ...        0 min,  0.007 sec
 * total energy  :   -37.6357568 Eh     change        0.1239055E-03 Eh
   gradient norm :     0.0336388 Eh/α   predicted    -0.1743534E-03 (-240.71%)
   displ. norm   :     0.2130022 α      lambda       -0.7457890E-03
   maximum displ.:     0.1560255 α      in ANC's #8, #4, #3, ...

........................................................................
.............................. CYCLE   55 ..............................
........................................................................
   1    -38.2679718 -0.382680E+02  0.840E-02    1.48       0.0  T
   2    -38.2679703  0.155548E-05  0.580E-02    1.47       1.0  T
   3    -38.2679259  0.443552E-04  0.462E-02    1.49       1.0  T
   4    -38.2679778 -0.519020E-04  0.975E-03    1.48       1.8  T
   5    -38.2679784 -0.542164E-06  0.514E-03    1.48       3.5  T
   6    -38.2679783  0.560394E-07  0.208E-03    1.48       8.6  T
   7    -38.2679784 -0.647442E-07  0.562E-04    1.48      32.0  T
   8    -38.2679784 -0.436616E-08  0.268E-04    1.48      67.1  T
     SCC iter.                  ...        0 min,  0.242 sec
     gradient                   ...        0 min,  0.005 sec
 * total energy  :   -37.6360575 Eh     change       -0.3006933E-03 Eh
   gradient norm :     0.0149044 Eh/α   predicted    -0.3897940E-03 (  29.63%)
   displ. norm   :     0.0551215 α      lambda       -0.1362337E-03
   maximum displ.:     0.0284294 α      in ANC's #9, #12, #8, ...

........................................................................
.............................. CYCLE   56 ..............................
........................................................................
   1    -38.2687524 -0.382688E+02  0.311E-02    1.48       0.0  T
   2    -38.2687482  0.418597E-05  0.250E-02    1.47       1.0  T
   3    -38.2687588 -0.105967E-04  0.151E-02    1.48       1.2  T
   4    -38.2687605 -0.167187E-05  0.359E-03    1.48       5.0  T
   5    -38.2687608 -0.261711E-06  0.187E-03    1.48       9.6  T
   6    -38.2687608 -0.107353E-07  0.997E-04    1.48      18.0  T
   7    -38.2687608 -0.801302E-08  0.378E-04    1.48      47.6  T
     SCC iter.                  ...        0 min,  0.182 sec
     gradient                   ...        0 min,  0.013 sec
 * total energy  :   -37.6361220 Eh     change       -0.6451803E-04 Eh
   gradient norm :     0.0052654 Eh/α   predicted    -0.6833446E-04 (   5.92%)
   displ. norm   :     0.2544026 α      lambda       -0.1025584E-03
   maximum displ.:     0.1681846 α      in ANC's #3, #9, #2, ...

........................................................................
.............................. CYCLE   57 ..............................
........................................................................
   1    -38.2671350 -0.382671E+02  0.658E-02    1.47       0.0  T
   2    -38.2671358 -0.822269E-06  0.402E-02    1.47       1.0  T
   3    -38.2671327  0.311241E-05  0.158E-02    1.47       1.1  T
   4    -38.2671364 -0.364202E-05  0.361E-03    1.47       5.0  T
   5    -38.2671362  0.122837E-06  0.339E-03    1.47       5.3  T
   6    -38.2671364 -0.150927E-06  0.864E-04    1.47      20.8  T
   7    -38.2671364 -0.130711E-07  0.461E-04    1.47      38.9  T
     SCC iter.                  ...        0 min,  0.194 sec
     gradient                   ...        0 min,  0.006 sec
 * total energy  :   -37.6362017 Eh     change       -0.7975431E-04 Eh
   gradient norm :     0.0047172 Eh/α   predicted    -0.5459660E-04 ( -31.54%)
   displ. norm   :     0.2582553 α      lambda       -0.9277330E-04
   maximum displ.:     0.1671599 α      in ANC's #3, #2, #9, ...

........................................................................
.............................. CYCLE   58 ..............................
........................................................................
   1    -38.2665691 -0.382666E+02  0.776E-02    1.47       0.0  T
   2    -38.2665704 -0.136074E-05  0.458E-02    1.47       1.0  T
   3    -38.2665654  0.506228E-05  0.231E-02    1.47       1.0  T
   4    -38.2665714 -0.601661E-05  0.437E-03    1.47       4.1  T
   5    -38.2665713  0.135140E-06  0.347E-03    1.47       5.2  T
   6    -38.2665714 -0.158473E-06  0.112E-03    1.47      16.0  T
   7    -38.2665714 -0.295033E-07  0.512E-04    1.47      35.1  T
   8    -38.2665714 -0.581238E-09  0.297E-04    1.47      60.5  T
     SCC iter.                  ...        0 min,  0.221 sec
     gradient                   ...        0 min,  0.006 sec
 * total energy  :   -37.6362641 Eh     change       -0.6238408E-04 Eh
   gradient norm :     0.0051319 Eh/α   predicted    -0.4947814E-04 ( -20.69%)
   displ. norm   :     0.1940128 α      lambda       -0.6025188E-04
   maximum displ.:     0.1331507 α      in ANC's #3, #2, #9, ...

........................................................................
.............................. CYCLE   59 ..............................
........................................................................
   1    -38.2672180 -0.382672E+02  0.499E-02    1.47       0.0  T
   2    -38.2672186 -0.548505E-06  0.307E-02    1.47       1.0  T
   3    -38.2672157  0.285184E-05  0.145E-02    1.47       1.2  T
   4    -38.2672188 -0.312249E-05  0.383E-03    1.47       4.7  T
   5    -38.2672189 -0.118395E-06  0.228E-03    1.47       7.9  T
   6    -38.2672190 -0.320210E-07  0.779E-04    1.47      23.0  T
   7    -38.2672190 -0.124745E-07  0.234E-04    1.47      76.7  T
     SCC iter.                  ...        0 min,  0.207 sec
     gradient                   ...        0 min,  0.009 sec
 * total energy  :   -37.6363067 Eh     change       -0.4253100E-04 Eh
   gradient norm :     0.0036658 Eh/α   predicted    -0.3126023E-04 ( -26.50%)
   displ. norm   :     0.1561883 α      lambda       -0.6333841E-04
   maximum displ.:     0.1125764 α      in ANC's #3, #4, #2, ...

........................................................................
.............................. CYCLE   60 ..............................
........................................................................
   1    -38.2689687 -0.382690E+02  0.362E-02    1.47       0.0  T
   2    -38.2689691 -0.420092E-06  0.205E-02    1.46       1.0  T
   3    -38.2689655  0.359764E-05  0.183E-02    1.47       1.0  T
   4    -38.2689697 -0.424164E-05  0.480E-03    1.47       3.7  T
   5    -38.2689700 -0.258100E-06  0.260E-03    1.47       6.9  T
   6    -38.2689700 -0.842664E-08  0.124E-03    1.47      14.5  T
   7    -38.2689700 -0.171657E-07  0.524E-04    1.47      34.3  T
   8    -38.2689700 -0.194444E-08  0.262E-04    1.47      68.5  T
     SCC iter.                  ...        0 min,  0.200 sec
     gradient                   ...        0 min,  0.008 sec
 * total energy  :   -37.6363372 Eh     change       -0.3050653E-04 Eh
   gradient norm :     0.0049042 Eh/α   predicted    -0.3244185E-04 (   6.34%)
   displ. norm   :     0.1824631 α      lambda       -0.5603284E-04
   maximum displ.:     0.1259617 α      in ANC's #3, #2, #4, ...

........................................................................
.............................. CYCLE   61 ..............................
........................................................................
   1    -38.2690343 -0.382690E+02  0.520E-02    1.46       0.0  T
   2    -38.2690347 -0.446820E-06  0.369E-02    1.46       1.0  T
   3    -38.2690273  0.741982E-05  0.172E-02    1.47       1.0  T
   4    -38.2690348 -0.742373E-05  0.645E-03    1.46       2.8  T
   5    -38.2690353 -0.549121E-06  0.333E-03    1.46       5.4  T
   6    -38.2690353 -0.430603E-07  0.975E-04    1.46      18.4  T
   7    -38.2690354 -0.859431E-08  0.437E-04    1.46      41.1  T
     SCC iter.                  ...        0 min,  0.200 sec
     gradient                   ...        0 min,  0.073 sec
 * total energy  :   -37.6363767 Eh     change       -0.3953561E-04 Eh
   gradient norm :     0.0060053 Eh/α   predicted    -0.2895127E-04 ( -26.77%)
   displ. norm   :     0.1507684 α      lambda       -0.5078494E-04
   maximum displ.:     0.1082318 α      in ANC's #3, #2, #4, ...

........................................................................
.............................. CYCLE   62 ..............................
........................................................................
   1    -38.2688170 -0.382688E+02  0.326E-02    1.46       0.0  T
   2    -38.2688175 -0.494993E-06  0.216E-02    1.47       1.0  T
   3    -38.2688142  0.330276E-05  0.140E-02    1.46       1.3  T
   4    -38.2688178 -0.355430E-05  0.445E-03    1.46       4.0  T
   5    -38.2688182 -0.469022E-06  0.182E-03    1.46       9.9  T
   6    -38.2688183 -0.983914E-08  0.719E-04    1.46      25.0  T
   7    -38.2688183 -0.668527E-08  0.348E-04    1.46      51.6  T
     SCC iter.                  ...        0 min,  0.177 sec
     gradient                   ...        0 min,  0.013 sec
 * total energy  :   -37.6364146 Eh     change       -0.3792872E-04 Eh
   gradient norm :     0.0046294 Eh/α   predicted    -0.2597058E-04 ( -31.53%)
   displ. norm   :     0.1801545 α      lambda       -0.5791445E-04
   maximum displ.:     0.1242875 α      in ANC's #3, #4, #2, ...

........................................................................
.............................. CYCLE   63 ..............................
........................................................................
   1    -38.2686166 -0.382686E+02  0.393E-02    1.46       0.0  T
   2    -38.2686175 -0.906683E-06  0.258E-02    1.46       1.0  T
   3    -38.2686148  0.267341E-05  0.135E-02    1.46       1.3  T
   4    -38.2686180 -0.323132E-05  0.398E-03    1.46       4.5  T
   5    -38.2686182 -0.180888E-06  0.211E-03    1.46       8.5  T
   6    -38.2686182 -0.249990E-08  0.111E-03    1.46      16.2  T
   7    -38.2686182 -0.183674E-07  0.298E-04    1.46      60.2  T
   8    -38.2686182 -0.245919E-10  0.237E-04    1.46      75.7  T
     SCC iter.                  ...        0 min,  0.203 sec
     gradient                   ...        0 min,  0.007 sec
 * total energy  :   -37.6364617 Eh     change       -0.4710268E-04 Eh
   gradient norm :     0.0036729 Eh/α   predicted    -0.2989967E-04 ( -36.52%)
   displ. norm   :     0.2595226 α      lambda       -0.6918073E-04
   maximum displ.:     0.1734208 α      in ANC's #3, #4, #2, ...

........................................................................
.............................. CYCLE   64 ..............................
........................................................................
   1    -38.2680768 -0.382681E+02  0.517E-02    1.47       0.0  T
   2    -38.2680777 -0.953415E-06  0.328E-02    1.47       1.0  T
   3    -38.2680740  0.374380E-05  0.154E-02    1.46       1.2  T
   4    -38.2680784 -0.444702E-05  0.384E-03    1.47       4.7  T
   5    -38.2680784 -0.492657E-08  0.213E-03    1.46       8.4  T
   6    -38.2680785 -0.300058E-07  0.531E-04    1.47      33.8  T
   7    -38.2680785 -0.148187E-08  0.347E-04    1.47      51.8  T
     SCC iter.                  ...        0 min,  0.200 sec
     gradient                   ...        0 min,  0.007 sec
 * total energy  :   -37.6365124 Eh     change       -0.5063582E-04 Eh
   gradient norm :     0.0022856 Eh/α   predicted    -0.3692133E-04 ( -27.08%)
   displ. norm   :     0.2500658 α      lambda       -0.4868283E-04
   maximum displ.:     0.1650005 α      in ANC's #3, #4, #2, ...

........................................................................
.............................. CYCLE   65 ..............................
........................................................................
   1    -38.2676937 -0.382677E+02  0.474E-02    1.47       0.0  T
   2    -38.2676941 -0.362268E-06  0.298E-02    1.47       1.0  T
   3    -38.2676912  0.290247E-05  0.132E-02    1.47       1.4  T
   4    -38.2676942 -0.296328E-05  0.528E-03    1.47       3.4  T
   5    -38.2676945 -0.284371E-06  0.268E-03    1.47       6.7  T
   6    -38.2676945 -0.100111E-07  0.947E-04    1.47      19.0  T
   7    -38.2676945 -0.101811E-07  0.406E-04    1.47      44.2  T
     SCC iter.                  ...        0 min,  0.200 sec
     gradient                   ...        0 min,  0.015 sec
 * total energy  :   -37.6365450 Eh     change       -0.3267116E-04 Eh
   gradient norm :     0.0043063 Eh/α   predicted    -0.2586590E-04 ( -20.83%)
   displ. norm   :     0.1578064 α      lambda       -0.3408321E-04
   maximum displ.:     0.1022023 α      in ANC's #3, #4, #2, ...

........................................................................
.............................. CYCLE   66 ..............................
........................................................................
   1    -38.2680558 -0.382681E+02  0.321E-02    1.47       0.0  T
   2    -38.2680561 -0.258502E-06  0.193E-02    1.47       1.0  T
   3    -38.2680549  0.122217E-05  0.970E-03    1.47       1.9  T
   4    -38.2680562 -0.138785E-05  0.300E-03    1.47       6.0  T
   5    -38.2680563 -0.277128E-07  0.180E-03    1.47      10.0  T
   6    -38.2680563 -0.538710E-08  0.945E-04    1.47      19.0  T
   7    -38.2680563 -0.140756E-07  0.216E-04    1.47      83.3  T
     SCC iter.                  ...        0 min,  0.190 sec
     gradient                   ...        0 min,  0.021 sec
 * total energy  :   -37.6365672 Eh     change       -0.2218450E-04 Eh
   gradient norm :     0.0037030 Eh/α   predicted    -0.1746843E-04 ( -21.26%)
   displ. norm   :     0.1455317 α      lambda       -0.2269827E-04
   maximum displ.:     0.0942187 α      in ANC's #3, #4, #2, ...
 * RMSD in coord.:     0.7392712 α      energy gain  -0.1220275E-02 Eh

generating ANC from model Hessian ...
Using Lindh-Hessian (1995)
 Shifting diagonal of input Hessian by    1.2141138583079653E-002
 Lowest  eigenvalues of input Hessian
    0.010000    0.011468    0.000000    0.000000    0.000000    0.000000
    0.000000    0.000000    0.012190    0.012593    0.013214    0.013348
    0.013787    0.014555    0.015628    0.017946    0.018321    0.020343
 Highest eigenvalues
    1.734183    2.097433    3.240123    3.994194    6.367801    7.101970


........................................................................
.............................. CYCLE   67 ..............................
........................................................................
   1    -38.2681221 -0.382681E+02  0.368E-02    1.47       0.0  T
   2    -38.2681222 -0.137899E-06  0.245E-02    1.47       1.0  T
   3    -38.2681155  0.671306E-05  0.179E-02    1.47       1.0  T
   4    -38.2681228 -0.728178E-05  0.486E-03    1.47       3.7  T
   5    -38.2681231 -0.359098E-06  0.172E-03    1.47      10.4  T
   6    -38.2681231 -0.167456E-08  0.677E-04    1.47      26.5  T
   7    -38.2681232 -0.792797E-08  0.254E-04    1.47      70.6  T
     SCC iter.                  ...        0 min,  0.190 sec
     gradient                   ...        0 min,  0.021 sec
 * total energy  :   -37.6365817 Eh     change       -0.1446219E-04 Eh
   gradient norm :     0.0037684 Eh/α   predicted     0.0000000E+00 (-100.00%)
   displ. norm   :     0.0230900 α      lambda        0.1932710E-04
   maximum displ.:     0.0167525 α      in ANC's #8, #2, #10, ...

........................................................................
.............................. CYCLE   68 ..............................
........................................................................
   1    -38.2685661 -0.382686E+02  0.146E-02    1.47       0.0  T
   2    -38.2685662 -0.763099E-07  0.100E-02    1.47       1.8  T
   3    -38.2685658  0.458117E-06  0.527E-03    1.47       3.4  T
   4    -38.2685662 -0.444018E-06  0.224E-03    1.47       8.0  T
   5    -38.2685663 -0.886163E-07  0.104E-03    1.47      17.2  T
   6    -38.2685663 -0.358432E-08  0.511E-04    1.47      35.1  T
   7    -38.2685663 -0.261851E-08  0.193E-04    1.47      92.9  T
     SCC iter.                  ...        0 min,  0.196 sec
     gradient                   ...        0 min,  0.008 sec
 * total energy  :   -37.6365915 Eh     change       -0.9825569E-05 Eh
   gradient norm :     0.0010928 Eh/α   predicted    -0.7136640E-05 ( -27.37%)
   displ. norm   :     0.0601748 α      lambda       -0.1100711E-04
   maximum displ.:     0.0464229 α      in ANC's #8, #2, #7, ...

........................................................................
.............................. CYCLE   69 ..............................
........................................................................
   1    -38.2690268 -0.382690E+02  0.314E-02    1.47       0.0  T
   2    -38.2690271 -0.303415E-06  0.205E-02    1.47       1.0  T
   3    -38.2690260  0.109754E-05  0.894E-03    1.47       2.0  T
   4    -38.2690273 -0.127064E-05  0.189E-03    1.47       9.5  T
   5    -38.2690273 -0.530795E-08  0.144E-03    1.47      12.5  T
   6    -38.2690273 -0.889751E-08  0.662E-04    1.47      27.1  T
   7    -38.2690273 -0.906704E-08  0.253E-04    1.47      70.9  T
     SCC iter.                  ...        0 min,  0.194 sec
     gradient                   ...        0 min,  0.011 sec
 * total energy  :   -37.6366007 Eh     change       -0.9220726E-05 Eh
   gradient norm :     0.0017450 Eh/α   predicted    -0.5552808E-05 ( -39.78%)
   displ. norm   :     0.0326434 α      lambda       -0.4695339E-05
   maximum displ.:     0.0249122 α      in ANC's #8, #5, #4, ...

........................................................................
.............................. CYCLE   70 ..............................
........................................................................
   1    -38.2687583 -0.382688E+02  0.166E-02    1.47       0.0  T
   2    -38.2687583 -0.110079E-07  0.106E-02    1.47       1.7  T
   3    -38.2687571  0.124599E-05  0.750E-03    1.47       2.4  T
   4    -38.2687584 -0.132351E-05  0.162E-03    1.47      11.1  T
   5    -38.2687584 -0.300670E-07  0.741E-04    1.47      24.2  T
   6    -38.2687584 -0.968825E-09  0.218E-04    1.47      82.5  T
     SCC iter.                  ...        0 min,  0.163 sec
     gradient                   ...        0 min,  0.014 sec
 * total energy  :   -37.6366060 Eh     change       -0.5306071E-05 Eh
   gradient norm :     0.0008250 Eh/α   predicted    -0.2350093E-05 ( -55.71%)
   displ. norm   :     0.0523817 α      lambda       -0.5483040E-05
   maximum displ.:     0.0349467 α      in ANC's #8, #5, #4, ...

........................................................................
.............................. CYCLE   71 ..............................
........................................................................
   1    -38.2683856 -0.382684E+02  0.266E-02    1.47       0.0  T
   2    -38.2683856 -0.309304E-07  0.180E-02    1.47       1.0  T
   3    -38.2683827  0.295497E-05  0.114E-02    1.46       1.6  T
   4    -38.2683858 -0.309381E-05  0.287E-03    1.47       6.3  T
   5    -38.2683859 -0.107040E-06  0.147E-03    1.47      12.2  T
   6    -38.2683859 -0.366376E-08  0.531E-04    1.47      33.8  T
   7    -38.2683859 -0.182023E-08  0.264E-04    1.47      68.1  T
     SCC iter.                  ...        0 min,  0.194 sec
     gradient                   ...        0 min,  0.005 sec
 * total energy  :   -37.6366102 Eh     change       -0.4191269E-05 Eh
   gradient norm :     0.0009114 Eh/α   predicted    -0.2746465E-05 ( -34.47%)
   displ. norm   :     0.0429320 α      lambda       -0.3535558E-05
   maximum displ.:     0.0266311 α      in ANC's #8, #5, #3, ...

   *** GEOMETRY OPTIMIZATION CONVERGED AFTER 71 ITERATIONS ***

------------------------------------------------------------------------
 total energy gain   :        -4.4297655 Eh    -2779.7198 kcal/mol
 total RMSD          :         1.5870676 a0        0.8398 Å
 total power (kW/mol):      -163.8077153 (step) -600.5768 (real)
------------------------------------------------------------------------

 ANCopt (total)                0 d,  0 h,  0 min, 19.365 sec
 optimizer setup                ...        0 min,  0.001 sec (  0.004%)
 model hessian                  ...        0 min,  0.076 sec (  0.392%)
 ANC generation                 ...        0 min,  0.012 sec (  0.060%)
 coordinate transformation      ...        0 min,  0.001 sec (  0.005%)
 single point calculation       ...        0 min, 19.005 sec ( 98.140%)
 optimization log               ...        0 min,  0.010 sec (  0.053%)
 hessian update                 ...        0 min,  0.175 sec (  0.906%)
 rational function              ...        0 min,  0.081 sec (  0.417%)

================
 final structure:
================
31
 xtb: 6.5.1 (b24c23e)
Zr          -1.32846494758974       -0.18319197898684        0.64126192067177
C           -1.06994800515956        1.32633806426786       -1.57548958890177
C            0.37791212897270       -1.94463609070506        0.62193272332127
C            0.07748962825462       -1.65505636639629       -0.73125223539432
C           -1.27015626305002       -2.01977802703343       -0.96945798935733
C           -1.80685162422023       -2.53410453634535        0.24110740746834
C           -0.78647749826414       -2.48919655345911        1.22365905747392
H            1.36588247124704       -1.91176495187539        1.06865481412874
H            0.79953616468471       -1.37204109470359       -1.48983699336453
H           -1.75808013659283       -2.04537350238258       -1.93675270612304
H           -2.75882292995505       -3.04314471478886        0.34708383169214
H           -0.83933554327614       -2.94754524957859        2.20558515079052
C           -0.33165482096748        0.10624780695556        2.85698657602925
C           -1.71754892939425        0.37943476443667        2.97612426633061
C           -1.98831164587835        1.56565940512516        2.24251085116628
C           -0.78269017153915        1.99867251245831        1.64431095609080
C            0.24231636944121        1.08864473636792        2.01143759311435
H            0.21790137909254       -0.63232176477347        3.42932822628234
H           -2.40262739319622       -0.11167640195864        3.66070651208427
H           -2.91073584828734        2.13265209579074        2.27696720415699
H           -0.63668842020160        2.94502289026422        1.13612979306554
H            1.30493661042398        1.22770426767755        1.83578079664111
H           -0.13685297773493        1.19680462680614       -0.98178182300274
H           -1.05672709783330        0.71157211533743       -2.47070993583560
H           -1.19636974116330        2.36886448600203       -1.83516031392273
C           -3.57044050704668        0.03454273898817       -0.01357925745469
C           -3.12548509262636        1.07696174909263       -0.84557887612245
H           -3.21134368727499        2.09283933954688       -0.45789434436094
H           -3.39589209282537        1.01574034869111       -1.89699314191164
H           -4.07462295455160        0.31593916209353        0.91707054298846
H           -4.01492678349050       -0.82427492690241       -0.51906669769412

 Bond Distances (Angstroems)
 ---------------------------
Zr1-C2=2.6943        Zr1-C3=2.4525        Zr1-C4=2.4550        Zr1-C5=2.4435        Zr1-C6=2.4322        Zr1-C7=2.4394        
Zr1-C13=2.4468       Zr1-C14=2.4330       Zr1-C15=2.4613       Zr1-C16=2.4626       Zr1-C17=2.4418       Zr1-H23=2.4410       
Zr1-C26=2.3458       Zr1-C27=2.6510       C2-Zr1=2.6943        C2-H23=1.1135        C2-H24=1.0861        C2-H25=1.0818        
C3-Zr1=2.4525        C3-C4=1.4161         C3-C7=1.4193         C3-H8=1.0848         C4-Zr1=2.4550        C4-C3=1.4161         
C4-C5=1.4163         C4-H9=1.0849         C5-Zr1=2.4435        C5-C4=1.4163         C5-C6=1.4206         C5-H10=1.0837        
C6-Zr1=2.4322        C6-C5=1.4206         C6-C7=1.4172         C6-H11=1.0847        C7-Zr1=2.4394        C7-C3=1.4193         
C7-C6=1.4172         C7-H12=1.0849        H8-C3=1.0848         H9-C4=1.0849         H10-C5=1.0837        H11-C6=1.0847        
H12-C7=1.0849        C13-Zr1=2.4468       C13-C14=1.4176       C13-C17=1.4176       C13-H18=1.0840       C14-Zr1=2.4330       
C14-C13=1.4176       C14-C15=1.4208       C14-H19=1.0859       C15-Zr1=2.4613       C15-C14=1.4208       C15-C16=1.4138       
C15-H20=1.0833       C16-Zr1=2.4626       C16-C15=1.4138       C16-C17=1.4190       C16-H21=1.0840       C17-Zr1=2.4418       
C17-C13=1.4176       C17-C16=1.4190       C17-H22=1.0860       H18-C13=1.0840       H19-C14=1.0859       H20-C15=1.0833       
H21-C16=1.0840       H22-C17=1.0860       H23-Zr1=2.4410       H23-C2=1.1135        H24-C2=1.0861        H25-C2=1.0818        
C26-Zr1=2.3458       C26-C27=1.4060       C26-H30=1.0952       C26-H31=1.0912       C27-Zr1=2.6510       C27-C26=1.4060       
C27-H28=1.0907       C27-H29=1.0874       H28-C27=1.0907       H29-C27=1.0874       H30-C26=1.0952       H31-C26=1.0912       
 C  H  Rav=1.0878 sigma=0.0072  Rmin=1.0818  Rmax=1.1135    17
 C  C  Rav=1.4167 sigma=0.0039  Rmin=1.4060  Rmax=1.4208    11
 Zr H  Rav=2.4410 sigma=0.0000  Rmin=2.4410  Rmax=2.4410     1
 Zr C  Rav=2.4738 sigma=0.0898  Rmin=2.3458  Rmax=2.6943    13

 selected bond angles (degree)
 --------------------
C3-Zr1-C2=109.22               C4-Zr1-C2= 79.69               C4-Zr1-C3= 33.54               C5-Zr1-C2= 82.90               
C5-Zr1-C3= 55.83               C5-Zr1-C4= 33.61               C6-Zr1-C2=115.15               C6-Zr1-C3= 56.04               
C6-Zr1-C4= 56.02               C6-Zr1-C5= 33.88               C7-Zr1-C2=134.81               C7-Zr1-C3= 33.73               
C7-Zr1-C4= 55.91               C7-Zr1-C5= 56.05               C7-Zr1-C6= 33.83               C13-Zr1-C2=129.77              
C13-Zr1-C3= 78.97              C13-Zr1-C4=110.11              C13-Zr1-C5=132.54              C13-Zr1-C6=110.09              
C13-Zr1-C7= 78.76              C14-Zr1-C2=132.48              C14-Zr1-C3=106.55              C14-Zr1-C4=140.06              
C14-Zr1-C5=144.12              C14-Zr1-C6=110.48              C14-Zr1-C7= 91.43              C14-Zr1-C13= 33.77             
C15-Zr1-C2= 99.37              C15-Zr1-C3=134.59              C15-Zr1-C4=160.61              C15-Zr1-C5=165.77              
C15-Zr1-C6=137.82              C15-Zr1-C7=125.17              C15-Zr1-C13= 55.67             C15-Zr1-C14= 33.74             
C16-Zr1-C2= 79.48              C16-Zr1-C3=119.04              C16-Zr1-C4=129.20              C16-Zr1-C5=158.30              
C16-Zr1-C6=165.23              C16-Zr1-C7=133.71              C16-Zr1-C13= 55.67             C16-Zr1-C14= 55.92             
C16-Zr1-C15= 33.37             C17-Zr1-C2= 96.21              C17-Zr1-C3= 86.04              C17-Zr1-C4=104.93              
C17-Zr1-C5=138.25              C17-Zr1-C6=136.24              C17-Zr1-C7=102.44              C17-Zr1-C13= 33.71             
C17-Zr1-C14= 56.22             C17-Zr1-C15= 55.76             C17-Zr1-C16= 33.63             H23-Zr1-C2= 24.41              
H23-Zr1-C3= 93.51              H23-Zr1-C4= 71.80              H23-Zr1-C5= 88.57              H23-Zr1-C6=122.21              
H23-Zr1-C7=125.78              H23-Zr1-C13=109.66             H23-Zr1-C14=125.83             H23-Zr1-C15= 99.31             
H23-Zr1-C16= 70.23             H23-Zr1-C17= 76.39             C26-Zr1-C2= 79.05              C26-Zr1-C3=136.84              
C26-Zr1-C4=116.55              C26-Zr1-C5= 84.75              C26-Zr1-C6= 81.71              C26-Zr1-C7=111.51              
C26-Zr1-C13=129.14             C26-Zr1-C14= 95.37             C26-Zr1-C15= 81.92             C26-Zr1-C16=104.08             
C26-Zr1-C17=136.31             C26-Zr1-H23=103.21             C27-Zr1-C2= 48.49              C27-Zr1-C3=143.96              
C27-Zr1-C4=111.08              C27-Zr1-C5= 90.21              C27-Zr1-C6=103.52              C27-Zr1-C7=137.21              
C27-Zr1-C13=136.70             C27-Zr1-C14=108.66             C27-Zr1-C15= 81.11             C27-Zr1-C16= 87.57             
C27-Zr1-C17=120.21             C27-Zr1-H23= 71.90             C27-Zr1-C26= 31.95             H23-C2-Zr1= 64.95              
H24-C2-Zr1=111.24              H24-C2-H23=111.31              H25-C2-Zr1=136.57              H25-C2-H23=109.76              
H25-C2-H24=110.43              C4-C3-Zr1= 73.32               C7-C3-Zr1= 72.63               C7-C3-C4=108.03                
H8-C3-Zr1=127.49               H8-C3-C4=125.49                H8-C3-C7=125.75                C3-C4-Zr1= 73.13               
C5-C4-Zr1= 72.75               C5-C4-C3=108.05                H9-C4-Zr1=128.00               H9-C4-C3=125.48                
H9-C4-C5=125.65                C4-C5-Zr1= 73.64               C6-C5-Zr1= 72.63               C6-C5-C4=108.02                
H10-C5-Zr1=126.54              H10-C5-C4=125.78               H10-C5-C6=125.59               C5-C6-Zr1= 73.50               
C7-C6-Zr1= 73.36               C7-C6-C5=107.90                H11-C6-Zr1=127.60              H11-C6-C5=125.78               
H11-C6-C7=125.38               C3-C7-Zr1= 73.64               C6-C7-Zr1= 72.81               C6-C7-C3=107.99                
H12-C7-Zr1=127.20              H12-C7-C3=125.86               H12-C7-C6=125.38               

 selected dihedral angles (degree)
 ---------------------------------
H23-C2-Zr1-C3=307.69          H23-C2-Zr1-C4=291.55          H23-C2-Zr1-C5=257.69          H23-C2-Zr1-C6=247.03          
H23-C2-Zr1-C7=281.22          H23-C2-Zr1-C13= 39.20         H23-C2-Zr1-C14= 84.43         H23-C2-Zr1-C15= 91.89         
H23-C2-Zr1-C16= 64.95         H23-C2-Zr1-C17= 35.65         H23-C2-Zr1-C26=171.69         H23-C2-Zr1-C27=161.07         
H24-C2-Zr1-C3= 52.09          H24-C2-Zr1-C4= 35.95          H24-C2-Zr1-C5=  2.09          H24-C2-Zr1-C6=351.43          
H24-C2-Zr1-C7= 25.62          H24-C2-Zr1-C13=143.61         H24-C2-Zr1-C14=188.84         H24-C2-Zr1-C15=196.29         
H24-C2-Zr1-C16=169.36         H24-C2-Zr1-C17=140.05         H24-C2-Zr1-H23=104.41         H24-C2-Zr1-C26=276.09         
H24-C2-Zr1-C27=265.48         H25-C2-Zr1-C3=214.88          H25-C2-Zr1-C4=198.74          H25-C2-Zr1-C5=164.88          
H25-C2-Zr1-C6=154.22          H25-C2-Zr1-C7=188.41          H25-C2-Zr1-C13=306.40         H25-C2-Zr1-C14=351.63         
H25-C2-Zr1-C15=359.08         H25-C2-Zr1-C16=332.14         H25-C2-Zr1-C17=302.84         H25-C2-Zr1-H23=267.19         
H25-C2-Zr1-C26= 78.88         H25-C2-Zr1-C27= 68.26         C4-C3-Zr1-C2=330.33           C4-C3-Zr1-C5= 37.08           
C4-C3-Zr1-C6= 78.27           C4-C3-Zr1-C7=115.61           C4-C3-Zr1-C13=201.85          C4-C3-Zr1-C14=182.15          
C4-C3-Zr1-C15=204.47          C4-C3-Zr1-C16=241.91          C4-C3-Zr1-C17=235.13          C4-C3-Zr1-H23=311.21          
C4-C3-Zr1-C26= 64.78          C4-C3-Zr1-C27= 14.79          C7-C3-Zr1-C2=214.72           C7-C3-Zr1-C4=244.39           
C7-C3-Zr1-C5=281.47           C7-C3-Zr1-C6=322.65           C7-C3-Zr1-C13= 86.24          C7-C3-Zr1-C14= 66.54          
C7-C3-Zr1-C15= 88.86          C7-C3-Zr1-C16=126.30          C7-C3-Zr1-C17=119.52          C7-C3-Zr1-H23=195.59          
C7-C3-Zr1-C26=309.17          C7-C3-Zr1-C27=259.17          H8-C3-Zr1-C2= 92.61           H8-C3-Zr1-C4=122.28           
H8-C3-Zr1-C5=159.36           H8-C3-Zr1-C6=200.54           H8-C3-Zr1-C7=237.89           H8-C3-Zr1-C13=324.13          
H8-C3-Zr1-C14=304.43          H8-C3-Zr1-C15=326.75          H8-C3-Zr1-C16=  4.19          H8-C3-Zr1-C17=357.41          
H8-C3-Zr1-H23= 73.48          H8-C3-Zr1-C26=187.06          H8-C3-Zr1-C27=137.06          C3-C4-Zr1-C2=151.64           
C3-C4-Zr1-C5=244.33           C3-C4-Zr1-C6=281.69           C3-C4-Zr1-C7=322.80           C3-C4-Zr1-C13= 22.90          
C3-C4-Zr1-C14=  3.21          C3-C4-Zr1-C15= 62.68          C3-C4-Zr1-C16= 84.45          C3-C4-Zr1-C17= 57.89          
C3-C4-Zr1-H23=127.77          C3-C4-Zr1-C26=223.77          C3-C4-Zr1-C27=189.26          C5-C4-Zr1-C2=267.31           
C5-C4-Zr1-C3=115.67           C5-C4-Zr1-C6= 37.37           C5-C4-Zr1-C7= 78.47           C5-C4-Zr1-C13=138.57          
C5-C4-Zr1-C14=118.88          C5-C4-Zr1-C15=178.36          C5-C4-Zr1-C16=200.13          C5-C4-Zr1-C17=173.57          
C5-C4-Zr1-H23=243.44          C5-C4-Zr1-C26=339.44          C5-C4-Zr1-C27=304.93          H9-C4-Zr1-C2= 29.45           
H9-C4-Zr1-C3=237.81           H9-C4-Zr1-C5=122.14           H9-C4-Zr1-C6=159.51           H9-C4-Zr1-C7=200.61           
H9-C4-Zr1-C13=260.71          H9-C4-Zr1-C14=241.02          H9-C4-Zr1-C15=300.49          H9-C4-Zr1-C16=322.26          
H9-C4-Zr1-C17=295.71          H9-C4-Zr1-H23=  5.58          H9-C4-Zr1-C26=101.58          H9-C4-Zr1-C27= 67.07          
Zr1-C4-C3-C7= 64.83           Zr1-C4-C3-H8=235.47           C5-C4-C3-Zr1=295.13           C5-C4-C3-C7=359.96            
C5-C4-C3-H8=170.61            H9-C4-C3-Zr1=125.03           H9-C4-C3-C7=189.86            H9-C4-C3-H8=  0.50            
C4-C5-Zr1-C2= 82.03           C4-C5-Zr1-C3=322.99           C4-C5-Zr1-C6=244.55           C4-C5-Zr1-C7=282.00           
C4-C5-Zr1-C13=302.51          C4-C5-Zr1-C14=253.53          C4-C5-Zr1-C15=182.22          C4-C5-Zr1-C16= 46.15          
C4-C5-Zr1-C17=350.65          C4-C5-Zr1-H23= 58.21          C4-C5-Zr1-C26=161.61          C4-C5-Zr1-C27=130.10          
C6-C5-Zr1-C2=197.48           C6-C5-Zr1-C3= 78.45           C6-C5-Zr1-C4=115.45           C6-C5-Zr1-C7= 37.45           
C6-C5-Zr1-C13= 57.96          C6-C5-Zr1-C14=  8.98          C6-C5-Zr1-C15=297.67          C6-C5-Zr1-C16=161.60          
C6-C5-Zr1-C17=106.10          C6-C5-Zr1-H23=173.66          C6-C5-Zr1-C26=277.07          C6-C5-Zr1-C27=245.55          
H10-C5-Zr1-C2=319.29          H10-C5-Zr1-C3=200.26          H10-C5-Zr1-C4=237.26          H10-C5-Zr1-C6=121.81          
H10-C5-Zr1-C7=159.26          H10-C5-Zr1-C13=179.77         H10-C5-Zr1-C14=130.79         H10-C5-Zr1-C15= 59.48         
H10-C5-Zr1-C16=283.41         H10-C5-Zr1-C17=227.91         H10-C5-Zr1-H23=295.47         H10-C5-Zr1-C26= 38.88         
H10-C5-Zr1-C27=  7.36         Zr1-C5-C4-C3= 65.12           Zr1-C5-C4-H9=235.20           C6-C5-C4-Zr1=295.01           
C6-C5-C4-C3=  0.13            C6-C5-C4-H9=170.21            H10-C5-C4-Zr1=123.59          H10-C5-C4-C3=188.71           
H10-C5-C4-H9=358.79           C5-C6-Zr1-C2= 19.23           C5-C6-Zr1-C3=282.21           C5-C6-Zr1-C4=322.93           
C5-C6-Zr1-C7=244.97           C5-C6-Zr1-C13=221.68          C5-C6-Zr1-C14=185.60          C5-C6-Zr1-C15=161.07          
C5-C6-Zr1-C16=207.25          C5-C6-Zr1-C17=247.69          C5-C6-Zr1-H23=352.51          C5-C6-Zr1-C26= 92.94          
C5-C6-Zr1-C27= 69.43          C7-C6-Zr1-C2=134.26           C7-C6-Zr1-C3= 37.24           C7-C6-Zr1-C4= 77.96           
C7-C6-Zr1-C5=115.03           C7-C6-Zr1-C13=336.71          C7-C6-Zr1-C14=300.63          C7-C6-Zr1-C15=276.10          
C7-C6-Zr1-C16=322.28          C7-C6-Zr1-C17=  2.72          C7-C6-Zr1-H23=107.53          C7-C6-Zr1-C26=207.96          
C7-C6-Zr1-C27=184.46          H11-C6-Zr1-C2=256.44          H11-C6-Zr1-C3=159.42          H11-C6-Zr1-C4=200.14          
H11-C6-Zr1-C5=237.21          H11-C6-Zr1-C7=122.18          H11-C6-Zr1-C13= 98.89         H11-C6-Zr1-C14= 62.81         
H11-C6-Zr1-C15= 38.28         H11-C6-Zr1-C16= 84.46         H11-C6-Zr1-C17=124.90         H11-C6-Zr1-H23=229.71         
H11-C6-Zr1-C26=330.15         H11-C6-Zr1-C27=306.64         Zr1-C6-C5-C4= 65.66           Zr1-C6-C5-H10=237.10          
C7-C6-C5-Zr1=294.17           C7-C6-C5-C4=359.83            C7-C6-C5-H10=171.27           H11-C6-C5-Zr1=124.81          
H11-C6-C5-C4=190.47           H11-C6-C5-H10=  1.91          C3-C7-Zr1-C2= 49.29           C3-C7-Zr1-C4= 36.99           
C3-C7-Zr1-C5= 77.82           C3-C7-Zr1-C6=115.33           C3-C7-Zr1-C13=273.08          C3-C7-Zr1-C14=241.59          
C3-C7-Zr1-C15=240.58          C3-C7-Zr1-C16=282.87          C3-C7-Zr1-C17=297.25          C3-C7-Zr1-H23= 19.31          
C3-C7-Zr1-C26=145.25          C3-C7-Zr1-C27=121.71          C6-C7-Zr1-C2=293.96           C6-C7-Zr1-C3=244.67           
C6-C7-Zr1-C4=281.66           C6-C7-Zr1-C5=322.49           C6-C7-Zr1-C13=157.75          C6-C7-Zr1-C14=126.26          
C6-C7-Zr1-C15=125.25          C6-C7-Zr1-C16=167.54          C6-C7-Zr1-C17=181.92          C6-C7-Zr1-H23=263.99          
C6-C7-Zr1-C26= 29.92          C6-C7-Zr1-C27=  6.39          H12-C7-Zr1-C2=172.22          H12-C7-Zr1-C3=122.93          
H12-C7-Zr1-C4=159.92          H12-C7-Zr1-C5=200.75          H12-C7-Zr1-C6=238.26          H12-C7-Zr1-C13= 36.01         
H12-C7-Zr1-C14=  4.52         H12-C7-Zr1-C15=  3.51         H12-C7-Zr1-C16= 45.80         H12-C7-Zr1-C17= 60.18         
H12-C7-Zr1-H23=142.24         H12-C7-Zr1-C26=268.18         H12-C7-Zr1-C27=244.65         Zr1-C7-C3-C4=294.71           
Zr1-C7-C3-H8=124.10           C6-C7-C3-Zr1= 65.22           C6-C7-C3-C4=359.93            C6-C7-C3-H8=189.32            
H12-C7-C3-Zr1=235.57          H12-C7-C3-C4=170.28           H12-C7-C3-H8=359.67           Zr1-C7-C6-C5= 65.92           
Zr1-C7-C6-H11=235.33          C3-C7-C6-Zr1=294.23           C3-C7-C6-C5=  0.15            C3-C7-C6-H11=169.56           
H12-C7-C6-Zr1=123.82          H12-C7-C6-C5=189.74           H12-C7-C6-H11=359.15          
           -------------------------------------------------
          |                Final Singlepoint                |
           -------------------------------------------------

          ...................................................
          :                      SETUP                      :
          :.................................................:
          :  # basis functions                  79          :
          :  # atomic orbitals                  78          :
          :  # shells                           46          :
          :  # electrons                        72          :
          :  max. iterations                   250          :
          :  Hamiltonian                  GFN2-xTB          :
          :  restarted?                      false          :
          :  GBSA solvation                  false          :
          :  PC potential                    false          :
          :  electronic temp.          300.0000000     K    :
          :  accuracy                    1.0000000          :
          :  -> integral cutoff          0.2500000E+02      :
          :  -> integral neglect         0.1000000E-07      :
          :  -> SCF convergence          0.1000000E-05 Eh   :
          :  -> wf. convergence          0.1000000E-03 e    :
          :  Broyden damping             0.4000000          :
          ...................................................

 iter      E             dE          RMSdq      gap      omega  full diag
   1    -38.2683859 -0.382684E+02  0.179E-04    1.47       0.0  T
   2    -38.2683859 -0.389520E-10  0.123E-04    1.47     146.2  T
   3    -38.2683859 -0.147189E-09  0.106E-04    1.47     168.7  T

   *** convergence criteria satisfied after 3 iterations ***

         #    Occupation            Energy/Eh            Energy/eV
      -------------------------------------------------------------
         1        2.0000           -0.8729733             -23.7548
       ...           ...                  ...                  ...
        30        2.0000           -0.5838503             -15.8874
        31        2.0000           -0.5725130             -15.5789
        32        2.0000           -0.5242546             -14.2657
        33        2.0000           -0.5233851             -14.2420
        34        2.0000           -0.5138322             -13.9821
        35        2.0000           -0.5087583             -13.8440
        36        2.0000           -0.4812442             -13.0953 (HOMO)
        37                         -0.4273457             -11.6287 (LUMO)
        38                         -0.4119902             -11.2108
        39                         -0.4104302             -11.1684
        40                         -0.4041659             -10.9979
        41                         -0.4027637             -10.9598
       ...                                ...                  ...
        78                          2.5149201              68.4345
      -------------------------------------------------------------
                  HL-Gap            0.0538985 Eh            1.4667 eV
             Fermi-level           -0.4542950 Eh          -12.3620 eV

 SCC (total)                   0 d,  0 h,  0 min,  0.160 sec
 SCC setup                      ...        0 min,  0.001 sec (  0.583%)
 Dispersion                     ...        0 min,  0.000 sec (  0.256%)
 classical contributions        ...        0 min,  0.001 sec (  0.390%)
 integral evaluation            ...        0 min,  0.001 sec (  0.838%)
 iterations                     ...        0 min,  0.079 sec ( 49.239%)
 molecular gradient             ...        0 min,  0.078 sec ( 48.573%)
 printout                       ...        0 min,  0.000 sec (  0.108%)

         :::::::::::::::::::::::::::::::::::::::::::::::::::::
         ::                     SUMMARY                     ::
         :::::::::::::::::::::::::::::::::::::::::::::::::::::
         :: total energy             -37.636610235025 Eh    ::
         :: gradient norm              0.000913312838 Eh/a0 ::
         :: HOMO-LUMO gap              1.466652934962 eV    ::
         ::.................................................::
         :: SCC energy               -38.268385898812 Eh    ::
         :: -> isotropic ES            0.086989918216 Eh    ::
         :: -> anisotropic ES         -0.012979751060 Eh    ::
         :: -> anisotropic XC          0.020605157744 Eh    ::
         :: -> dispersion             -0.027748308730 Eh    ::
         :: repulsion energy           0.630705898269 Eh    ::
         :: add. restraining           0.000382807794 Eh    ::
         :: total charge               1.000000000000 e     ::
         :::::::::::::::::::::::::::::::::::::::::::::::::::::

           -------------------------------------------------
          |                Property Printout                |
           -------------------------------------------------

    * Orbital Energies and Occupations

         #    Occupation            Energy/Eh            Energy/eV
      -------------------------------------------------------------
         1        2.0000           -0.8729733             -23.7548
       ...           ...                  ...                  ...
        24        2.0000           -0.5969579             -16.2441
        25        2.0000           -0.5953721             -16.2009
        26        2.0000           -0.5933772             -16.1466
        27        2.0000           -0.5930612             -16.1380
        28        2.0000           -0.5917366             -16.1020
        29        2.0000           -0.5912554             -16.0889
        30        2.0000           -0.5838503             -15.8874
        31        2.0000           -0.5725130             -15.5789
        32        2.0000           -0.5242546             -14.2657
        33        2.0000           -0.5233851             -14.2420
        34        2.0000           -0.5138322             -13.9821
        35        2.0000           -0.5087583             -13.8440
        36        2.0000           -0.4812442             -13.0953 (HOMO)
        37                         -0.4273457             -11.6287 (LUMO)
        38                         -0.4119902             -11.2108
        39                         -0.4104302             -11.1684
        40                         -0.4041659             -10.9979
        41                         -0.4027637             -10.9598
        42                         -0.3634616              -9.8903
        43                         -0.3097391              -8.4284
        44                         -0.3085098              -8.3950
        45                         -0.3079870              -8.3808
        46                         -0.3069605              -8.3528
        47                         -0.0578232              -1.5734
       ...                                ...                  ...
        78                          2.5149201              68.4345
      -------------------------------------------------------------
                  HL-Gap            0.0538985 Eh            1.4667 eV
             Fermi-level           -0.4542950 Eh          -12.3620 eV

     #   Z          covCN         q      C6AA      α(0)
     1  40 Zr       9.794     0.953   138.761    17.700
     2   6 C        3.505    -0.229    26.939     7.688
     3   6 C        3.759    -0.086    22.199     6.717
     4   6 C        3.756    -0.088    22.225     6.722
     5   6 C        3.763    -0.089    22.242     6.723
     6   6 C        3.765    -0.087    22.208     6.717
     7   6 C        3.763    -0.087    22.200     6.716
     8   1 H        0.925     0.084     1.939     2.177
     9   1 H        0.925     0.079     1.988     2.205
    10   1 H        0.925     0.087     1.905     2.159
    11   1 H        0.925     0.086     1.920     2.167
    12   1 H        0.925     0.085     1.924     2.169
    13   6 C        3.763    -0.082    22.115     6.703
    14   6 C        3.763    -0.091    22.279     6.728
    15   6 C        3.757    -0.088    22.225     6.721
    16   6 C        3.754    -0.089    22.253     6.727
    17   6 C        3.761    -0.091    22.286     6.730
    18   1 H        0.925     0.087     1.908     2.160
    19   1 H        0.925     0.082     1.963     2.191
    20   1 H        0.925     0.082     1.954     2.186
    21   1 H        0.925     0.082     1.962     2.191
    22   1 H        0.925     0.079     1.992     2.207
    23   1 H        1.116     0.070     2.071     2.247
    24   1 H        0.925     0.070     2.085     2.258
    25   1 H        0.925     0.074     2.039     2.233
    26   6 C        3.616    -0.220    25.449     7.278
    27   6 C        3.605    -0.071    22.446     6.848
    28   1 H        0.924     0.101     1.777     2.084
    29   1 H        0.925     0.109     1.706     2.043
    30   1 H        0.930     0.095     1.830     2.116
    31   1 H        0.925     0.092     1.859     2.132

 Mol. C6AA /au·bohr⁶  :       9486.423792
 Mol. C8AA /au·bohr⁸  :     321896.270588
 Mol. α(0) /au        :        143.642121


Wiberg/Mayer (AO) data.
largest (>0.10) Wiberg bond orders for each atom

 ---------------------------------------------------------------------------
     #   Z sym  total        # sym  WBO       # sym  WBO       # sym  WBO
 ---------------------------------------------------------------------------
     1  40 Zr   4.326 --    26 C    0.561     2 C    0.433    14 C    0.257
                             6 C    0.254     7 C    0.249    17 C    0.244
                             5 C    0.242     3 C    0.242    13 C    0.236
                             4 C    0.236    15 C    0.234    16 C    0.232
                            27 C    0.208    23 H    0.118
     2   6 C    3.931 --    25 H    0.975    24 H    0.958    23 H    0.838
                            27 C    0.480     1 Zr   0.433    26 C    0.155
     3   6 C    3.980 --     4 C    1.305     7 C    1.297     8 H    0.923
                             1 Zr   0.242
     4   6 C    3.981 --     5 C    1.306     3 C    1.305     9 H    0.923
                             1 Zr   0.236
     5   6 C    3.979 --     4 C    1.306     6 C    1.289    10 H    0.924
                             1 Zr   0.242
     6   6 C    3.981 --     7 C    1.298     5 C    1.289    11 H    0.921
                             1 Zr   0.254
     7   6 C    3.980 --     6 C    1.298     3 C    1.297    12 H    0.921
                             1 Zr   0.249
     8   1 H    0.990 --     3 C    0.923
     9   1 H    0.992 --     4 C    0.923
    10   1 H    0.989 --     5 C    0.924
    11   1 H    0.991 --     6 C    0.921
    12   1 H    0.990 --     7 C    0.921
    13   6 C    3.981 --    17 C    1.304    14 C    1.302    18 H    0.924
                             1 Zr   0.236
    14   6 C    3.979 --    13 C    1.302    15 C    1.286    19 H    0.919
                             1 Zr   0.257
    15   6 C    3.980 --    16 C    1.316    14 C    1.286    20 H    0.927
                             1 Zr   0.234
    16   6 C    3.979 --    15 C    1.316    17 C    1.295    21 H    0.926
                             1 Zr   0.232
    17   6 C    3.978 --    13 C    1.304    16 C    1.295    22 H    0.921
                             1 Zr   0.244
    18   1 H    0.990 --    13 C    0.924
    19   1 H    0.991 --    14 C    0.919
    20   1 H    0.991 --    15 C    0.927
    21   1 H    0.991 --    16 C    0.926
    22   1 H    0.992 --    17 C    0.921
    23   1 H    0.995 --     2 C    0.838     1 Zr   0.118
    24   1 H    0.993 --     2 C    0.958
    25   1 H    0.993 --     2 C    0.975
    26   6 C    3.909 --    27 C    1.300    31 H    0.914    30 H    0.880
                             1 Zr   0.561     2 C    0.155
    27   6 C    3.981 --    26 C    1.300    29 H    0.946    28 H    0.933
                             2 C    0.480     1 Zr   0.208
    28   1 H    0.988 --    27 C    0.933
    29   1 H    0.987 --    27 C    0.946
    30   1 H    0.990 --    26 C    0.880
    31   1 H    0.990 --    26 C    0.914
 ---------------------------------------------------------------------------

Topologies differ in total number of bonds
Writing topology from bond orders to xtbtopo.mol

molecular dipole:
                 x           y           z       tot (Debye)
 q only:       -2.991      -0.029       0.799
   full:       -2.634      -0.020       0.889       7.067
molecular quadrupole (traceless):
                xx          xy          yy          xz          yz          zz
 q only:       10.512      -0.993      -6.724      -1.806      -4.305      -3.789
  q+dip:       10.516       0.164      -8.285      -2.596      -7.780      -2.231
   full:       10.002       0.714      -7.453      -3.876      -6.310      -2.549

           -------------------------------------------------
          |                Geometry Summary                 |
           -------------------------------------------------

      molecular mass/u    :      264.4982010
   center of mass at/Å    :       -1.2676066      -0.1981553       0.6810098
  moments of inertia/u·Å² :        0.6042577E+03   0.7238320E+03   0.9292964E+03
rotational constants/cm⁻¹ :        0.2789809E-01   0.2328943E-01   0.1814021E-01

 * 39 selected distances

     #   Z          #   Z                                           value/Å
     1  40 Zr       3   6 C                                       2.4525054
     1  40 Zr       4   6 C                                       2.4549724
     3   6 C        4   6 C                                       1.4160579
     1  40 Zr       5   6 C                                       2.4435360
     4   6 C        5   6 C                                       1.4163028
     1  40 Zr       6   6 C                                       2.4322353
     5   6 C        6   6 C                                       1.4205783
     1  40 Zr       7   6 C                                       2.4393841
     3   6 C        7   6 C                                       1.4193041
     6   6 C        7   6 C                                       1.4172467
     3   6 C        8   1 H                                       1.0847704
     4   6 C        9   1 H                                       1.0848502
     5   6 C       10   1 H                                       1.0836900
     6   6 C       11   1 H                                       1.0847131
     7   6 C       12   1 H                                       1.0849224
     1  40 Zr      13   6 C                                       2.4468025
     1  40 Zr      14   6 C                                       2.4330061
    13   6 C       14   6 C                                       1.4175781
     1  40 Zr      15   6 C                                       2.4612757
    14   6 C       15   6 C                                       1.4207851
     1  40 Zr      16   6 C                                       2.4626228 (max)
    15   6 C       16   6 C                                       1.4138129
     1  40 Zr      17   6 C                                       2.4417832
    13   6 C       17   6 C                                       1.4175684
    16   6 C       17   6 C                                       1.4190036
    13   6 C       18   1 H                                       1.0840075
    14   6 C       19   1 H                                       1.0858986
    15   6 C       20   1 H                                       1.0832980
    16   6 C       21   1 H                                       1.0840405
    17   6 C       22   1 H                                       1.0859811
     2   6 C       23   1 H                                       1.1135234
     2   6 C       24   1 H                                       1.0860625
     2   6 C       25   1 H                                       1.0817915 (min)
     1  40 Zr      26   6 C                                       2.3457794
    26   6 C       27   6 C                                       1.4060037
    27   6 C       28   1 H                                       1.0907238
    27   6 C       29   1 H                                       1.0873547
    26   6 C       30   1 H                                       1.0952138
    26   6 C       31   1 H                                       1.0911708

 * 3 distinct bonds (by element types)

   Z      Z             #   av. dist./Å        max./Å        min./Å
   1 H    6 C          17     1.0877654     1.1135234     1.0817915
   6 C    6 C          11     1.4167492     1.4207851     1.4060037
   6 C   40 Zr         11     2.4376275     2.4626228     2.3457794


optimized geometry written to: xtbopt.xyz


           -------------------------------------------------
          | TOTAL ENERGY              -37.636610235025 Eh   |
          | GRADIENT NORM               0.000913312838 Eh/α |
          | HOMO-LUMO GAP               1.466652934962 eV   |
           -------------------------------------------------

------------------------------------------------------------------------
 * finished run on 2026/07/21 at 14:48:58.141     
------------------------------------------------------------------------
 total:
 * wall-time:     0 d,  0 h,  0 min, 20.328 sec
 *  cpu-time:     0 d,  0 h,  2 min, 36.568 sec
 * ratio c/w:     7.702 speedup
 SCF:
 * wall-time:     0 d,  0 h,  0 min,  0.687 sec
 *  cpu-time:     0 d,  0 h,  0 min,  5.212 sec
 * ratio c/w:     7.585 speedup
 ANC optimizer:
 * wall-time:     0 d,  0 h,  0 min, 19.536 sec
 *  cpu-time:     0 d,  0 h,  2 min, 30.585 sec
 * ratio c/w:     7.708 speedup

