26
 energy: -36.044554714194 gnorm: 0.000343361528 xtb: 6.5.1 (b24c23e)
C           -1.99729074495195        0.22139665063752       -0.09274734726573
C            0.17414255839131       -2.01973279750996        0.10871813275384
C           -0.54812099928592        0.38379069667439        0.00325625295699
C            0.38157730830915       -0.57494588384119        0.03592152349603
C           -2.57957984146449       -0.76536144052323       -0.88805567409772
C           -0.84032565163604       -2.58280550117450        0.88270420170260
C           -2.83163703734712        1.11180844779162        0.58241372052469
C            1.04774537907488       -2.87120817090026       -0.56699532945590
C           -3.95371715178890       -0.87313395925112       -0.97911375335947
C           -0.99090492549971       -3.95416466290125        0.95241435369386
C           -4.20621760250796        0.99602024153511        0.49706503707739
C            0.88917437622590       -4.24268453749951       -0.50314950177772
C           -4.77241680189298        0.00108825246718       -0.28201301064239
C           -0.13272158667328       -4.78921615046607        0.25478014300243
H           -0.21637857749678        1.41538023598122        0.03672855938333
H            1.42308162207580       -0.27424759985724        0.02164878907240
H           -1.94658500769752       -1.44050020994402       -1.44431103241492
H           -1.50333978719325       -1.93738939553662        1.43927415412562
H           -2.39279731506089        1.89080619146623        1.19045537431006
H            1.84770918984578       -2.44777281350578       -1.15854627647138
H           -4.39024569718007       -1.64185789041655       -1.60022263011396
H           -1.78069839379859       -4.37577214631400        1.55716202765961
H           -4.83844270728866        1.68747267496746        1.03542822845038
H            1.56820851733127       -4.88805155553872       -1.04174528473079
H           -5.84653846092477       -0.08764850577684       -0.35243408566069
H           -0.25492913156496       -5.86101535056377        0.30842146778140
