26
 energy: -36.044346702684 gnorm: 0.000504700742 xtb: 6.5.1 (b24c23e)
C           -2.00031193486475        0.21980005583789       -0.10881142463902
C            0.17214075227324       -2.02290087842345        0.12464255073851
C           -0.54927006755117        0.38014552759047       -0.02924462679419
C            0.37733468507057       -0.57647502888975        0.06861768819738
C           -2.59484569569557       -0.77390293962860       -0.88557750622633
C           -0.84912469482683       -2.59791633781280        0.88012606035158
C           -2.82314324485376        1.12271723719943        0.56372007965310
C            1.05846027400179       -2.86320911814649       -0.54845442731260
C           -3.97065464851078       -0.87512363297001       -0.96217713608556
C           -0.99286681006654       -3.97093971172014        0.93543926137273
C           -4.19902560578747        1.01222137624621        0.49463810186946
C            0.90531906177323       -4.23592740690995       -0.50102680408539
C           -4.77787078803026        0.01152097788869       -0.26783737174675
C           -0.12227704716112       -4.79482814467247        0.24033324906911
H           -0.21682216202319        1.41192278243808       -0.00962127570583
H            1.41884880637753       -0.27518702504544        0.06842822796557
H           -1.97087185690346       -1.45930945331648       -1.43944952999947
H           -1.52254266315696       -1.96123323867225        1.43428986313077
H           -2.37391559145002        1.90745803619411        1.15661910585931
H            1.86409534724157       -2.42978733108420       -1.12421910766808
H           -4.41746415479564       -1.64795697914343       -1.57075404799982
H           -1.78669388722783       -4.40265680101309        1.52797914368887
H           -4.82222933927998        1.71344829491943        1.03103718175663
H            1.59409809498153       -4.87256955432623       -1.03742783109596
H           -5.85312092452031       -0.07125064435021       -0.32775526343168
H           -0.23849437501359       -5.86780524218923        0.28354387913759
