26
 energy: -36.008115311677 gnorm: 0.000373996024 xtb: 6.5.1 (b24c23e)
C           -1.97992340071115        0.21679825934642       -0.05329627265991
C            1.04107064353246       -1.14396184597870       -1.25159719295362
C           -0.54294827504669        0.40788373131551       -0.03967788920404
C            0.43256111472121       -0.53506417756210       -0.08535030806656
C           -2.54754395859957       -1.00147515833943       -0.44651975066277
C            0.44405621368155       -1.05208834170449       -2.51507148195611
C           -2.83240140007369        1.23741337173990        0.37692326341224
C            2.27159002137960       -1.79836374860998       -1.14596648916908
C           -3.90974277772155       -1.20272235169369       -0.36258732504885
C            1.08043620085858       -1.55203120420921       -3.63231247160372
C           -4.19538284943000        1.03268382769820        0.45342873397546
C            2.90149000010457       -2.30186609777729       -2.26633820554030
C           -4.74064447265386       -0.18749802660390        0.08657653028689
C            2.31113263107313       -2.18004153807240       -3.51432397507730
H           -0.32269095634629        1.18639702315496        0.69949174942564
H            1.23431248370662       -0.32676437087123        0.63238070328283
H           -1.90139807293401       -1.79558298499230       -0.79132581190716
H           -0.51193347048506       -0.55799041219064       -2.61001621167267
H           -2.41394520050700        2.19255681163672        0.66217137084357
H            2.73662827425271       -1.89894024161126       -0.17516007197298
H           -4.33048363593697       -2.15477632407299       -0.65273864979787
H            0.61441380599220       -1.45768732865290       -4.60262440860151
H           -4.83922270524872        1.82913028326173        0.79803767319199
H            3.85730831488930       -2.79615598527783       -2.16799801457052
H           -5.80699099167560       -0.34640200855086        0.14984391095787
H            2.80644310317817       -2.57316266138218       -4.38971804491149
