      -----------------------------------------------------------      
     |                   =====================                   |     
     |                           x T B                           |     
     |                   =====================                   |     
     |                         S. Grimme                         |     
     |          Mulliken Center for Theoretical Chemistry        |     
     |                    University of Bonn                     |     
      -----------------------------------------------------------      

   * xtb version 6.5.1 (b24c23e) compiled by 'conda@728c89f4b128' on 2022-07-12

   xtb is free software: you can redistribute it and/or modify it under
   the terms of the GNU Lesser General Public License as published by
   the Free Software Foundation, either version 3 of the License, or
   (at your option) any later version.
   
   xtb is distributed in the hope that it will be useful,
   but WITHOUT ANY WARRANTY; without even the implied warranty of
   MERCHANTABILITY or FITNESS FOR A PARTICULAR PURPOSE.  See the
   GNU Lesser General Public License for more details.
   
   Cite this work as:
   * C. Bannwarth, E. Caldeweyher, S. Ehlert, A. Hansen, P. Pracht,
     J. Seibert, S. Spicher, S. Grimme, WIREs Comput. Mol. Sci., 2020, 11,
     e01493. DOI: 10.1002/wcms.1493
   
   for GFN2-xTB:
   * C. Bannwarth, S. Ehlert and S. Grimme., J. Chem. Theory Comput., 2019,
     15, 1652-1671. DOI: 10.1021/acs.jctc.8b01176
   for GFN1-xTB:
   * S. Grimme, C. Bannwarth, P. Shushkov, J. Chem. Theory Comput., 2017,
     13, 1989-2009. DOI: 10.1021/acs.jctc.7b00118
   for GFN0-xTB:
   * P. Pracht, E. Caldeweyher, S. Ehlert, S. Grimme, ChemRxiv, 2019, preprint.
     DOI: 10.26434/chemrxiv.8326202.v1
   for GFN-FF:
   * S. Spicher and S. Grimme, Angew. Chem. Int. Ed., 2020, 59, 15665-15673.
     DOI: 10.1002/anie.202004239
   
   for ALPB and GBSA implicit solvation:
   * S. Ehlert, M. Stahn, S. Spicher, S. Grimme, J. Chem. Theory Comput.,
     2021, 17, 4250-4261. DOI: 10.1021/acs.jctc.1c00471
   
   for DFT-D4:
   * E. Caldeweyher, C. Bannwarth and S. Grimme, J. Chem. Phys., 2017,
     147, 034112. DOI: 10.1063/1.4993215
   * E. Caldeweyher, S. Ehlert, A. Hansen, H. Neugebauer, S. Spicher,
     C. Bannwarth and S. Grimme, J. Chem. Phys., 2019, 150, 154122.
     DOI: 10.1063/1.5090222
   * E. Caldeweyher, J.-M. Mewes, S. Ehlert and S. Grimme, Phys. Chem. Chem. Phys.
     2020, 22, 8499-8512. DOI: 10.1039/D0CP00502A
   
   for sTDA-xTB:
   * S. Grimme and C. Bannwarth, J. Chem. Phys., 2016, 145, 054103.
     DOI: 10.1063/1.4959605
   
   in the mass-spec context:
   * V. Asgeirsson, C. Bauer and S. Grimme, Chem. Sci., 2017, 8, 4879.
     DOI: 10.1039/c7sc00601b
   * J. Koopman and S. Grimme, ACS Omega 2019, 4, 12, 15120-15133.
     DOI: 10.1021/acsomega.9b02011
   
   for metadynamics refer to:
   * S. Grimme, J. Chem. Theory Comput., 2019, 155, 2847-2862
     DOI: 10.1021/acs.jctc.9b00143
   
   for SPH calculations refer to:
   * S. Spicher and S. Grimme, J. Chem. Theory Comput., 2021, 17, 1701-1714
     DOI: 10.1021/acs.jctc.0c01306
   
   with help from (in alphabetical order)
   P. Atkinson, C. Bannwarth, F. Bohle, G. Brandenburg, E. Caldeweyher
   M. Checinski, S. Dohm, S. Ehlert, S. Ehrlich, I. Gerasimov, C. Hölzer
   A. Katbashev, J. Koopman, C. Lavigne, S. Lehtola, F. März, M. Müller,
   F. Musil, H. Neugebauer, J. Pisarek, C. Plett, P. Pracht, F. Pultar,
   J. Seibert, P. Shushkov, S. Spicher, M. Stahn, M. Steiner, T. Strunk,
   J. Stückrath, T. Rose, and J. Unsleber
   
 * started run on 2026/07/30 at 13:25:15.256     

           -------------------------------------------------
          |                Calculation Setup                |
           -------------------------------------------------

          program call               : /h/332/chchoi/miniconda3/envs/el-agente/bin/xtb stilbene_cis_constrained.xyz --opt --gfn 2 -P 4 --chrg 0 --uhf 0
          coordinate file            : stilbene_cis_constrained.xyz
          omp threads                :                     4

   ID    Z sym.   atoms
    1    6 C      1-14
    2    1 H      15-26

           -------------------------------------------------
          |                 G F N 2 - x T B                 |
           -------------------------------------------------

        Reference                      10.1021/acs.jctc.8b01176
      * Hamiltonian:
        H0-scaling (s, p, d)           1.850000    2.230000    2.230000
        zeta-weighting                 0.500000
      * Dispersion:
        s8                             2.700000
        a1                             0.520000
        a2                             5.000000
        s9                             5.000000
      * Repulsion:
        kExp                           1.500000    1.000000
        rExp                           1.000000
      * Coulomb:
        alpha                          2.000000
        third order                    shell-resolved
        anisotropic                    true
        a3                             3.000000
        a5                             4.000000
        cn-shift                       1.200000
        cn-exp                         4.000000
        max-rad                        5.000000


          ...................................................
          :                      SETUP                      :
          :.................................................:
          :  # basis functions                  68          :
          :  # atomic orbitals                  68          :
          :  # shells                           40          :
          :  # electrons                        68          :
          :  max. iterations                   250          :
          :  Hamiltonian                  GFN2-xTB          :
          :  restarted?                      false          :
          :  GBSA solvation                  false          :
          :  PC potential                    false          :
          :  electronic temp.          300.0000000     K    :
          :  accuracy                    1.0000000          :
          :  -> integral cutoff          0.2500000E+02      :
          :  -> integral neglect         0.1000000E-07      :
          :  -> SCF convergence          0.1000000E-05 Eh   :
          :  -> wf. convergence          0.1000000E-03 e    :
          :  Broyden damping             0.4000000          :
          ...................................................

 iter      E             dE          RMSdq      gap      omega  full diag
   1    -36.7350962 -0.367351E+02  0.424E+00    3.25       0.0  T
   2    -36.7586220 -0.235258E-01  0.251E+00    3.23       1.0  T
   3    -36.7574867  0.113526E-02  0.534E-01    3.21       1.0  T
   4    -36.7586267 -0.113994E-02  0.265E-01    3.21       1.0  T
   5    -36.7605829 -0.195626E-02  0.380E-02    3.22       1.0  T
   6    -36.7605854 -0.252009E-05  0.212E-02    3.22       1.0  T
   7    -36.7605883 -0.287063E-05  0.543E-03    3.22       3.6  T
   8    -36.7605889 -0.640216E-06  0.106E-03    3.22      18.5  T
   9    -36.7605890 -0.622993E-08  0.540E-04    3.22      36.3  T
  10    -36.7605890 -0.233722E-08  0.148E-04    3.22     132.8  T

   *** convergence criteria satisfied after 10 iterations ***

         #    Occupation            Energy/Eh            Energy/eV
      -------------------------------------------------------------
         1        2.0000           -0.6436899             -17.5157
       ...           ...                  ...                  ...
        28        2.0000           -0.4213192             -11.4647
        29        2.0000           -0.4207565             -11.4494
        30        2.0000           -0.4124752             -11.2240
        31        2.0000           -0.4038986             -10.9906
        32        2.0000           -0.4001621             -10.8890
        33        2.0000           -0.3992572             -10.8643
        34        2.0000           -0.3734713             -10.1627 (HOMO)
        35                         -0.2552076              -6.9446 (LUMO)
        36                         -0.2222230              -6.0470
        37                         -0.2168544              -5.9009
        38                         -0.2137100              -5.8153
        39                         -0.1695434              -4.6135
       ...                                ...                  ...
        68                          0.6938048              18.8794
      -------------------------------------------------------------
                  HL-Gap            0.1182637 Eh            3.2181 eV
             Fermi-level           -0.3143394 Eh           -8.5536 eV

 SCC (total)                   0 d,  0 h,  0 min,  0.391 sec
 SCC setup                      ...        0 min,  0.013 sec (  3.433%)
 Dispersion                     ...        0 min,  0.022 sec (  5.515%)
 classical contributions        ...        0 min,  0.002 sec (  0.454%)
 integral evaluation            ...        0 min,  0.023 sec (  6.000%)
 iterations                     ...        0 min,  0.262 sec ( 66.864%)
 molecular gradient             ...        0 min,  0.069 sec ( 17.693%)
 printout                       ...        0 min,  0.000 sec (  0.035%)

         :::::::::::::::::::::::::::::::::::::::::::::::::::::
         ::                     SUMMARY                     ::
         :::::::::::::::::::::::::::::::::::::::::::::::::::::
         :: total energy             -36.044352734013 Eh    ::
         :: gradient norm              0.005763034977 Eh/a0 ::
         :: HOMO-LUMO gap              3.218119217430 eV    ::
         ::.................................................::
         :: SCC energy               -36.760588952683 Eh    ::
         :: -> isotropic ES            0.001617731973 Eh    ::
         :: -> anisotropic ES          0.004634639641 Eh    ::
         :: -> anisotropic XC          0.026022403512 Eh    ::
         :: -> dispersion             -0.026368210228 Eh    ::
         :: repulsion energy           0.716061090326 Eh    ::
         :: add. restraining           0.000000000000 Eh    ::
         :: total charge              -0.000000000000 e     ::
         :::::::::::::::::::::::::::::::::::::::::::::::::::::

      ----------------------------------------------------------- 
     |                   =====================                   |
     |                        A N C O P T                        |
     |                   =====================                   |
     |               Approximate Normal Coordinate               |
     |                Rational Function Optimizer                |
      ----------------------------------------------------------- 

          ...................................................
          :                      SETUP                      :
          :.................................................:
          :   optimization level            normal          :
          :   max. optcycles                   200          :
          :   ANC micro-cycles                  20          :
          :   degrees of freedom                72          :
          :.................................................:
          :   RF solver                   davidson          :
          :   write xtbopt.log                true          :
          :   linear?                        false          :
          :   energy convergence         0.5000000E-05 Eh   :
          :   grad. convergence          0.1000000E-02 Eh/α :
          :   maximium RF displ.         1.0000000          :
          :   Hlow (freq-cutoff)         0.1000000E-01      :
          :   Hmax (freq-cutoff)         5.0000000          :
          :   S6 in model hess.         20.0000000          :
          ...................................................

generating ANC from model Hessian ...
Using Lindh-Hessian (1995)
 Shifting diagonal of input Hessian by    9.1437463258630149E-003
 Lowest  eigenvalues of input Hessian
    0.000000    0.000000    0.000000    0.000000    0.000000    0.000000
    0.010000    0.010272    0.010377    0.014484    0.015488    0.021478
    0.021820    0.024805    0.024997    0.029549    0.031345    0.032606
 Highest eigenvalues
    1.897601    1.927099    2.001227    2.004526    2.045663    2.097502


........................................................................
.............................. CYCLE    1 ..............................
........................................................................
   1    -36.7605890 -0.367606E+02  0.702E-05    3.22       0.0  T
   2    -36.7605890 -0.538591E-11  0.576E-05    3.22     340.3  T
   3    -36.7605890 -0.571916E-10  0.251E-05    3.22     782.8  T
     SCC iter.                  ...        0 min,  0.088 sec
     gradient                   ...        0 min,  0.011 sec
 * total energy  :   -36.0443527 Eh     change       -0.2040679E-09 Eh
   gradient norm :     0.0057631 Eh/α   predicted     0.0000000E+00 (-100.00%)
   displ. norm   :     0.0527934 α      lambda       -0.1685380E-03
   maximum displ.:     0.0318320 α      in ANC's #1, #7, #40, ...

........................................................................
.............................. CYCLE    2 ..............................
........................................................................
   1    -36.7606960 -0.367607E+02  0.399E-02    3.21       0.0  T
   2    -36.7606960 -0.471467E-07  0.237E-02    3.21       1.0  T
   3    -36.7606960  0.542601E-07  0.160E-03    3.21      12.3  T
   4    -36.7606960 -0.804204E-07  0.433E-04    3.21      45.3  T
   5    -36.7606960 -0.144148E-09  0.161E-04    3.21     122.0  T
     SCC iter.                  ...        0 min,  0.140 sec
     gradient                   ...        0 min,  0.005 sec
 * total energy  :   -36.0444695 Eh     change       -0.1167422E-03 Eh
   gradient norm :     0.0019246 Eh/α   predicted    -0.8492970E-04 ( -27.25%)
   displ. norm   :     0.1054350 α      lambda       -0.7014054E-04
   maximum displ.:     0.0622381 α      in ANC's #1, #7, #5, ...

........................................................................
.............................. CYCLE    3 ..............................
........................................................................
   1    -36.7605167 -0.367605E+02  0.630E-02    3.17       0.0  T
   2    -36.7605169 -0.196510E-06  0.371E-02    3.17       1.0  T
   3    -36.7605163  0.608485E-06  0.475E-03    3.17       4.1  T
   4    -36.7605170 -0.735639E-06  0.565E-04    3.17      34.7  T
   5    -36.7605170 -0.203194E-09  0.290E-04    3.17      67.7  T
     SCC iter.                  ...        0 min,  0.142 sec
     gradient                   ...        0 min,  0.019 sec
 * total energy  :   -36.0445168 Eh     change       -0.4729768E-04 Eh
   gradient norm :     0.0021313 Eh/α   predicted    -0.3525328E-04 ( -25.47%)
   displ. norm   :     0.0282150 α      lambda       -0.1690473E-04
   maximum displ.:     0.0197790 α      in ANC's #5, #1, #7, ...

........................................................................
.............................. CYCLE    4 ..............................
........................................................................
   1    -36.7606290 -0.367606E+02  0.132E-02    3.17       0.0  T
   2    -36.7606291 -0.133456E-07  0.779E-03    3.17       2.5  T
   3    -36.7606290  0.272177E-07  0.103E-03    3.17      19.1  T
   4    -36.7606291 -0.338376E-07  0.174E-04    3.17     112.4  T
   5    -36.7606291 -0.161108E-09  0.102E-04    3.17     192.6  T
     SCC iter.                  ...        0 min,  0.138 sec
     gradient                   ...        0 min,  0.005 sec
 * total energy  :   -36.0445307 Eh     change       -0.1391930E-04 Eh
   gradient norm :     0.0012888 Eh/α   predicted    -0.8460307E-05 ( -39.22%)
   displ. norm   :     0.1017737 α      lambda       -0.2408785E-04
   maximum displ.:     0.0676167 α      in ANC's #5, #1, #2, ...

........................................................................
.............................. CYCLE    5 ..............................
........................................................................
   1    -36.7606694 -0.367607E+02  0.442E-02    3.16       0.0  T
   2    -36.7606695 -0.100683E-06  0.260E-02    3.16       1.0  T
   3    -36.7606693  0.198846E-06  0.280E-03    3.16       7.0  T
   4    -36.7606695 -0.257716E-06  0.515E-04    3.16      38.1  T
   5    -36.7606695 -0.320021E-09  0.278E-04    3.16      70.5  T
     SCC iter.                  ...        0 min,  0.118 sec
     gradient                   ...        0 min,  0.005 sec
 * total energy  :   -36.0445446 Eh     change       -0.1388235E-04 Eh
   gradient norm :     0.0011059 Eh/α   predicted    -0.1209961E-04 ( -12.84%)
   displ. norm   :     0.0171084 α      lambda       -0.4447837E-05
   maximum displ.:     0.0122204 α      in ANC's #1, #2, #5, ...

........................................................................
.............................. CYCLE    6 ..............................
........................................................................
   1    -36.7607095 -0.367607E+02  0.104E-02    3.16       0.0  T
   2    -36.7607095 -0.494365E-08  0.613E-03    3.16       3.2  T
   3    -36.7607095  0.882689E-08  0.578E-04    3.16      33.9  T
   4    -36.7607095 -0.109537E-07  0.118E-04    3.16     165.9  T
     SCC iter.                  ...        0 min,  0.095 sec
     gradient                   ...        0 min,  0.011 sec
 * total energy  :   -36.0445498 Eh     change       -0.5181358E-05 Eh
   gradient norm :     0.0004387 Eh/α   predicted    -0.2230141E-05 ( -56.96%)
   displ. norm   :     0.0353110 α      lambda       -0.4496952E-05
   maximum displ.:     0.0260473 α      in ANC's #1, #2, #7, ...

........................................................................
.............................. CYCLE    7 ..............................
........................................................................
   1    -36.7607436 -0.367607E+02  0.194E-02    3.17       0.0  T
   2    -36.7607436 -0.105645E-07  0.114E-02    3.17       1.7  T
   3    -36.7607436  0.762969E-08  0.758E-04    3.17      25.9  T
   4    -36.7607436 -0.130949E-07  0.185E-04    3.17     106.1  T
     SCC iter.                  ...        0 min,  0.114 sec
     gradient                   ...        0 min,  0.021 sec
 * total energy  :   -36.0445547 Eh     change       -0.4957027E-05 Eh
   gradient norm :     0.0003433 Eh/α   predicted    -0.2249993E-05 ( -54.61%)
   displ. norm   :     0.0372986 α      lambda       -0.3002285E-05
   maximum displ.:     0.0297625 α      in ANC's #1, #2, #7, ...

   *** GEOMETRY OPTIMIZATION CONVERGED AFTER 7 ITERATIONS ***

------------------------------------------------------------------------
 total energy gain   :        -0.0002020 Eh       -0.1267 kcal/mol
 total RMSD          :         0.0570551 a0        0.0302 Å
 total power (kW/mol):        -0.0757570 (step)   -0.5186 (real)
------------------------------------------------------------------------

 ANCopt (total)                0 d,  0 h,  0 min,  1.023 sec
 optimizer setup                ...        0 min,  0.000 sec (  0.033%)
 model hessian                  ...        0 min,  0.005 sec (  0.443%)
 ANC generation                 ...        0 min,  0.001 sec (  0.083%)
 coordinate transformation      ...        0 min,  0.000 sec (  0.006%)
 single point calculation       ...        0 min,  1.009 sec ( 98.633%)
 optimization log               ...        0 min,  0.001 sec (  0.053%)
 hessian update                 ...        0 min,  0.007 sec (  0.658%)
 rational function              ...        0 min,  0.001 sec (  0.054%)

================
 final structure:
================
26
 xtb: 6.5.1 (b24c23e)
C           -1.99729074495195        0.22139665063752       -0.09274734726573
C            0.17414255839131       -2.01973279750996        0.10871813275384
C           -0.54812099928592        0.38379069667439        0.00325625295699
C            0.38157730830915       -0.57494588384119        0.03592152349603
C           -2.57957984146449       -0.76536144052323       -0.88805567409772
C           -0.84032565163604       -2.58280550117450        0.88270420170260
C           -2.83163703734712        1.11180844779162        0.58241372052469
C            1.04774537907488       -2.87120817090026       -0.56699532945590
C           -3.95371715178890       -0.87313395925112       -0.97911375335947
C           -0.99090492549971       -3.95416466290125        0.95241435369386
C           -4.20621760250796        0.99602024153511        0.49706503707739
C            0.88917437622590       -4.24268453749951       -0.50314950177772
C           -4.77241680189298        0.00108825246718       -0.28201301064239
C           -0.13272158667328       -4.78921615046607        0.25478014300243
H           -0.21637857749678        1.41538023598122        0.03672855938333
H            1.42308162207580       -0.27424759985724        0.02164878907240
H           -1.94658500769752       -1.44050020994402       -1.44431103241492
H           -1.50333978719325       -1.93738939553662        1.43927415412562
H           -2.39279731506089        1.89080619146623        1.19045537431006
H            1.84770918984578       -2.44777281350578       -1.15854627647138
H           -4.39024569718007       -1.64185789041655       -1.60022263011396
H           -1.78069839379859       -4.37577214631400        1.55716202765961
H           -4.83844270728866        1.68747267496746        1.03542822845038
H            1.56820851733127       -4.88805155553872       -1.04174528473079
H           -5.84653846092477       -0.08764850577684       -0.35243408566069
H           -0.25492913156496       -5.86101535056377        0.30842146778140

 Bond Distances (Angstroems)
 ---------------------------
C1-C3=1.4614         C1-C5=1.3947         C1-C7=1.3946         C2-C4=1.4614         C2-C6=1.3947         C2-C8=1.3946         
C3-C1=1.4614         C3-C4=1.3359         C3-H15=1.0841        C4-C2=1.4614         C4-C3=1.3359         C4-H16=1.0841        
C5-C1=1.3947         C5-C9=1.3814         C5-H17=1.0798        C6-C2=1.3947         C6-C10=1.3814        C6-H18=1.0798        
C7-C1=1.3946         C7-C11=1.3821        C7-H19=1.0813        C8-C2=1.3946         C8-C12=1.3821        C8-H20=1.0813        
C9-C5=1.3814         C9-C13=1.3858        C9-H21=1.0804        C10-C6=1.3814        C10-C14=1.3858       C10-H22=1.0804       
C11-C7=1.3821        C11-C13=1.3847       C11-H23=1.0806       C12-C8=1.3821        C12-C14=1.3847       C12-H24=1.0806       
C13-C9=1.3858        C13-C11=1.3847       C13-H25=1.0801       C14-C10=1.3858       C14-C12=1.3847       C14-H26=1.0801       
H15-C3=1.0841        H16-C4=1.0841        H17-C5=1.0798        H18-C6=1.0798        H19-C7=1.0813        H20-C8=1.0813        
H21-C9=1.0804        H22-C10=1.0804       H23-C11=1.0806       H24-C12=1.0806       H25-C13=1.0801       H26-C14=1.0801       
 C  H  Rav=1.0810 sigma=0.0015  Rmin=1.0798  Rmax=1.0841    12
 C  C  Rav=1.3937 sigma=0.0299  Rmin=1.3359  Rmax=1.4614    15

 selected bond angles (degree)
 --------------------
C5-C1-C3=122.01                C7-C1-C3=119.38                C7-C1-C5=118.56                C6-C2-C4=122.01                
C8-C2-C4=119.38                C8-C2-C6=118.56                C4-C3-C1=127.73                H15-C3-C1=114.28               
H15-C3-C4=117.98               C3-C4-C2=127.73                H16-C4-C2=114.28               H16-C4-C3=117.98               
C9-C5-C1=120.54                H17-C5-C1=119.43               H17-C5-C9=120.03               C10-C6-C2=120.54               
H18-C6-C2=119.43               H18-C6-C10=120.03              C11-C7-C1=120.77               H19-C7-C1=119.30               
H19-C7-C11=119.92              C12-C8-C2=120.77               H20-C8-C2=119.30               H20-C8-C12=119.92              
C13-C9-C5=120.35               H21-C9-C5=119.69               H21-C9-C13=119.96              C14-C10-C6=120.35              
H22-C10-C6=119.69              H22-C10-C14=119.96             

 selected dihedral angles (degree)
 ---------------------------------
C4-C3-C1-C5=321.89            C4-C3-C1-C7=144.71            H15-C3-C1-C5=140.99           H15-C3-C1-C7=323.81           
C3-C4-C2-C6=321.82            C3-C4-C2-C8=144.65            H16-C4-C2-C6=140.93           H16-C4-C2-C8=323.75           
C2-C4-C3-C1=353.80            C2-C4-C3-H15=174.72           H16-C4-C3-C1=174.72           H16-C4-C3-H15=355.65          
C9-C5-C1-C3=181.41            C9-C5-C1-C7=358.61            H17-C5-C1-C3=  0.68           H17-C5-C1-C7=177.88           
C10-C6-C2-C4=181.41           C10-C6-C2-C8=358.61           H18-C6-C2-C4=  0.69           H18-C6-C2-C8=177.88           
C11-C7-C1-C3=179.12           C11-C7-C1-C5=  1.85           H19-C7-C1-C3=358.19           H19-C7-C1-C5=180.91           
C12-C8-C2-C4=179.12           C12-C8-C2-C6=  1.85           H20-C8-C2-C4=358.19           H20-C8-C2-C6=180.91           
C13-C9-C5-C1=  0.12           C13-C9-C5-H17=180.86          H21-C9-C5-C1=179.92           H21-C9-C5-H17=  0.66          
C14-C10-C6-C2=  0.12          C14-C10-C6-H18=180.85         H22-C10-C6-C2=179.92          H22-C10-C6-H18=  0.66         
           -------------------------------------------------
          |                Final Singlepoint                |
           -------------------------------------------------

          ...................................................
          :                      SETUP                      :
          :.................................................:
          :  # basis functions                  68          :
          :  # atomic orbitals                  68          :
          :  # shells                           40          :
          :  # electrons                        68          :
          :  max. iterations                   250          :
          :  Hamiltonian                  GFN2-xTB          :
          :  restarted?                      false          :
          :  GBSA solvation                  false          :
          :  PC potential                    false          :
          :  electronic temp.          300.0000000     K    :
          :  accuracy                    1.0000000          :
          :  -> integral cutoff          0.2500000E+02      :
          :  -> integral neglect         0.1000000E-07      :
          :  -> SCF convergence          0.1000000E-05 Eh   :
          :  -> wf. convergence          0.1000000E-03 e    :
          :  Broyden damping             0.4000000          :
          ...................................................

 iter      E             dE          RMSdq      gap      omega  full diag
   1    -36.7607436 -0.367607E+02  0.859E-05    3.17       0.0  T
   2    -36.7607436 -0.311147E-10  0.571E-05    3.17     343.2  T
   3    -36.7607436 -0.284288E-10  0.336E-05    3.17     583.3  T

   *** convergence criteria satisfied after 3 iterations ***

         #    Occupation            Energy/Eh            Energy/eV
      -------------------------------------------------------------
         1        2.0000           -0.6436887             -17.5157
       ...           ...                  ...                  ...
        28        2.0000           -0.4214528             -11.4683
        29        2.0000           -0.4206869             -11.4475
        30        2.0000           -0.4130167             -11.2388
        31        2.0000           -0.4039629             -10.9924
        32        2.0000           -0.4001235             -10.8879
        33        2.0000           -0.3996504             -10.8750
        34        2.0000           -0.3727002             -10.1417 (HOMO)
        35                         -0.2562117              -6.9719 (LUMO)
        36                         -0.2221956              -6.0462
        37                         -0.2167416              -5.8978
        38                         -0.2133032              -5.8043
        39                         -0.1690148              -4.5991
       ...                                ...                  ...
        68                          0.6945272              18.8990
      -------------------------------------------------------------
                  HL-Gap            0.1164885 Eh            3.1698 eV
             Fermi-level           -0.3144560 Eh           -8.5568 eV

 SCC (total)                   0 d,  0 h,  0 min,  0.218 sec
 SCC setup                      ...        0 min,  0.007 sec (  3.089%)
 Dispersion                     ...        0 min,  0.027 sec ( 12.231%)
 classical contributions        ...        0 min,  0.004 sec (  1.727%)
 integral evaluation            ...        0 min,  0.020 sec (  9.256%)
 iterations                     ...        0 min,  0.132 sec ( 60.702%)
 molecular gradient             ...        0 min,  0.016 sec (  7.250%)
 printout                       ...        0 min,  0.012 sec (  5.733%)

         :::::::::::::::::::::::::::::::::::::::::::::::::::::
         ::                     SUMMARY                     ::
         :::::::::::::::::::::::::::::::::::::::::::::::::::::
         :: total energy             -36.044554714194 Eh    ::
         :: gradient norm              0.000343361528 Eh/a0 ::
         :: HOMO-LUMO gap              3.169813299177 eV    ::
         ::.................................................::
         :: SCC energy               -36.760743568489 Eh    ::
         :: -> isotropic ES            0.001618400109 Eh    ::
         :: -> anisotropic ES          0.004635313089 Eh    ::
         :: -> anisotropic XC          0.026015639350 Eh    ::
         :: -> dispersion             -0.026394292964 Eh    ::
         :: repulsion energy           0.716010423750 Eh    ::
         :: add. restraining           0.000000000000 Eh    ::
         :: total charge               0.000000000000 e     ::
         :::::::::::::::::::::::::::::::::::::::::::::::::::::

           -------------------------------------------------
          |                Property Printout                |
           -------------------------------------------------

    * Orbital Energies and Occupations

         #    Occupation            Energy/Eh            Energy/eV
      -------------------------------------------------------------
         1        2.0000           -0.6436887             -17.5157
       ...           ...                  ...                  ...
        22        2.0000           -0.4738785             -12.8949
        23        2.0000           -0.4714461             -12.8287
        24        2.0000           -0.4642764             -12.6336
        25        2.0000           -0.4523116             -12.3080
        26        2.0000           -0.4330741             -11.7845
        27        2.0000           -0.4253756             -11.5751
        28        2.0000           -0.4214528             -11.4683
        29        2.0000           -0.4206869             -11.4475
        30        2.0000           -0.4130167             -11.2388
        31        2.0000           -0.4039629             -10.9924
        32        2.0000           -0.4001235             -10.8879
        33        2.0000           -0.3996504             -10.8750
        34        2.0000           -0.3727002             -10.1417 (HOMO)
        35                         -0.2562117              -6.9719 (LUMO)
        36                         -0.2221956              -6.0462
        37                         -0.2167416              -5.8978
        38                         -0.2133032              -5.8043
        39                         -0.1690148              -4.5991
        40                         -0.0865149              -2.3542
        41                         -0.0779128              -2.1201
        42                          0.1052036               2.8627
        43                          0.1060699               2.8863
        44                          0.1292116               3.5160
        45                          0.1327112               3.6113
       ...                                ...                  ...
        68                          0.6945272              18.8990
      -------------------------------------------------------------
                  HL-Gap            0.1164885 Eh            3.1698 eV
             Fermi-level           -0.3144560 Eh           -8.5568 eV

     #   Z          covCN         q      C6AA      α(0)
     1   6 C        2.971     0.018    27.603     8.618
     2   6 C        2.971     0.018    27.603     8.618
     3   6 C        2.899    -0.039    28.956     8.823
     4   6 C        2.899    -0.039    28.956     8.823
     5   6 C        2.924    -0.031    28.774     8.797
     6   6 C        2.924    -0.031    28.774     8.797
     7   6 C        2.927    -0.036    28.891     8.815
     8   6 C        2.927    -0.036    28.891     8.815
     9   6 C        2.918    -0.030    28.741     8.791
    10   6 C        2.918    -0.030    28.741     8.791
    11   6 C        2.918    -0.030    28.753     8.793
    12   6 C        2.918    -0.030    28.753     8.793
    13   6 C        2.920    -0.031    28.785     8.798
    14   6 C        2.920    -0.031    28.785     8.798
    15   1 H        0.925     0.034     2.536     2.490
    16   1 H        0.925     0.034     2.536     2.490
    17   1 H        0.926     0.032     2.564     2.504
    18   1 H        0.926     0.032     2.564     2.504
    19   1 H        0.925     0.028     2.613     2.528
    20   1 H        0.925     0.028     2.613     2.528
    21   1 H        0.926     0.029     2.607     2.525
    22   1 H        0.926     0.029     2.607     2.525
    23   1 H        0.926     0.028     2.610     2.526
    24   1 H        0.926     0.028     2.610     2.526
    25   1 H        0.926     0.028     2.610     2.526
    26   1 H        0.926     0.028     2.610     2.526

 Mol. C6AA /au·bohr⁶  :       8876.643737
 Mol. C8AA /au·bohr⁸  :     220904.168771
 Mol. α(0) /au        :        153.068589


Wiberg/Mayer (AO) data.
largest (>0.10) Wiberg bond orders for each atom

 ---------------------------------------------------------------------------
     #   Z sym  total        # sym  WBO       # sym  WBO       # sym  WBO
 ---------------------------------------------------------------------------
     1   6 C    3.990 --     7 C    1.382     5 C    1.377     3 C    1.075
                            13 C    0.104
     2   6 C    3.990 --     8 C    1.382     6 C    1.377     4 C    1.075
                            14 C    0.104
     3   6 C    3.990 --     4 C    1.820     1 C    1.075    15 H    0.960
     4   6 C    3.990 --     3 C    1.820     2 C    1.075    16 H    0.960
     5   6 C    3.992 --     9 C    1.458     1 C    1.377    17 H    0.969
                            11 C    0.107
     6   6 C    3.992 --    10 C    1.458     2 C    1.377    18 H    0.969
                            12 C    0.107
     7   6 C    3.987 --    11 C    1.453     1 C    1.382    19 H    0.970
                             9 C    0.106
     8   6 C    3.987 --    12 C    1.453     2 C    1.382    20 H    0.970
                            10 C    0.106
     9   6 C    3.992 --     5 C    1.458    13 C    1.429    21 H    0.971
                             7 C    0.106
    10   6 C    3.992 --     6 C    1.458    14 C    1.429    22 H    0.971
                             8 C    0.106
    11   6 C    3.992 --     7 C    1.453    13 C    1.435    23 H    0.971
                             5 C    0.107
    12   6 C    3.992 --     8 C    1.453    14 C    1.435    24 H    0.971
                             6 C    0.107
    13   6 C    3.989 --    11 C    1.435     9 C    1.429    25 H    0.972
                             1 C    0.104
    14   6 C    3.989 --    12 C    1.435    10 C    1.429    26 H    0.972
                             2 C    0.104
    15   1 H    0.998 --     3 C    0.960
    16   1 H    0.998 --     4 C    0.960
    17   1 H    0.999 --     5 C    0.969
    18   1 H    0.999 --     6 C    0.969
    19   1 H    0.999 --     7 C    0.970
    20   1 H    0.999 --     8 C    0.970
    21   1 H    0.999 --     9 C    0.971
    22   1 H    0.999 --    10 C    0.971
    23   1 H    0.999 --    11 C    0.971
    24   1 H    0.999 --    12 C    0.971
    25   1 H    0.999 --    13 C    0.972
    26   1 H    0.999 --    14 C    0.972
 ---------------------------------------------------------------------------

Topologies differ in total number of bonds
Writing topology from bond orders to xtbtopo.mol

molecular dipole:
                 x           y           z       tot (Debye)
 q only:        0.036       0.035       0.001
   full:        0.043       0.042       0.001       0.153
molecular quadrupole (traceless):
                xx          xy          yy          xz          yz          zz
 q only:        0.592       0.186       0.557      -0.782       0.837      -1.148
  q+dip:        2.873       0.118       2.764      -3.630       3.869      -5.637
   full:        1.325       0.215       1.261      -1.756       1.873      -2.586

           -------------------------------------------------
          |                Geometry Summary                 |
           -------------------------------------------------

      molecular mass/u    :      180.2455916
   center of mass at/Å    :       -1.4592237      -1.4304223       0.0003009
  moments of inertia/u·Å² :        0.3302030E+03   0.1165721E+04   0.1353117E+04
rotational constants/cm⁻¹ :        0.5105234E-01   0.1446113E-01   0.1245837E-01

 * 25 selected distances

     #   Z          #   Z                                           value/Å
     3   6 C        4   6 C                                       1.3358825
     1   6 C        5   6 C                                       1.3947286 (max)
     2   6 C        6   6 C                                       1.3947227
     1   6 C        7   6 C                                       1.3945644
     2   6 C        8   6 C                                       1.3945541
     5   6 C        9   6 C                                       1.3813617
     6   6 C       10   6 C                                       1.3813616
     7   6 C       11   6 C                                       1.3820866
     8   6 C       12   6 C                                       1.3820886
     9   6 C       13   6 C                                       1.3858151
    11   6 C       13   6 C                                       1.3847145
    10   6 C       14   6 C                                       1.3858151
    12   6 C       14   6 C                                       1.3847115
     3   6 C       15   1 H                                       1.0841359
     4   6 C       16   1 H                                       1.0841377
     5   6 C       17   1 H                                       1.0797755 (min)
     6   6 C       18   1 H                                       1.0797778
     7   6 C       19   1 H                                       1.0812644
     8   6 C       20   1 H                                       1.0812827
     9   6 C       21   1 H                                       1.0804028
    10   6 C       22   1 H                                       1.0803919
    11   6 C       23   1 H                                       1.0805786
    12   6 C       24   1 H                                       1.0805885
    13   6 C       25   1 H                                       1.0800791
    14   6 C       26   1 H                                       1.0800768

 * 2 distinct bonds (by element types)

   Z      Z             #   av. dist./Å        max./Å        min./Å
   1 H    6 C          12     1.0810410     1.0841377     1.0797755
   6 C    6 C          13     1.3832621     1.3947286     1.3358825


optimized geometry written to: xtbopt.xyz


           -------------------------------------------------
          | TOTAL ENERGY              -36.044554714194 Eh   |
          | GRADIENT NORM               0.000343361528 Eh/α |
          | HOMO-LUMO GAP               3.169813299177 eV   |
           -------------------------------------------------

------------------------------------------------------------------------
 * finished run on 2026/07/30 at 13:25:17.029     
------------------------------------------------------------------------
 total:
 * wall-time:     0 d,  0 h,  0 min,  1.774 sec
 *  cpu-time:     0 d,  0 h,  0 min, 11.804 sec
 * ratio c/w:     6.655 speedup
 SCF:
 * wall-time:     0 d,  0 h,  0 min,  0.391 sec
 *  cpu-time:     0 d,  0 h,  0 min,  2.691 sec
 * ratio c/w:     6.877 speedup
 ANC optimizer:
 * wall-time:     0 d,  0 h,  0 min,  1.256 sec
 *  cpu-time:     0 d,  0 h,  0 min,  8.675 sec
 * ratio c/w:     6.907 speedup

