      -----------------------------------------------------------      
     |                   =====================                   |     
     |                           x T B                           |     
     |                   =====================                   |     
     |                         S. Grimme                         |     
     |          Mulliken Center for Theoretical Chemistry        |     
     |                    University of Bonn                     |     
      -----------------------------------------------------------      

   * xtb version 6.5.1 (b24c23e) compiled by 'conda@728c89f4b128' on 2022-07-12

   xtb is free software: you can redistribute it and/or modify it under
   the terms of the GNU Lesser General Public License as published by
   the Free Software Foundation, either version 3 of the License, or
   (at your option) any later version.
   
   xtb is distributed in the hope that it will be useful,
   but WITHOUT ANY WARRANTY; without even the implied warranty of
   MERCHANTABILITY or FITNESS FOR A PARTICULAR PURPOSE.  See the
   GNU Lesser General Public License for more details.
   
   Cite this work as:
   * C. Bannwarth, E. Caldeweyher, S. Ehlert, A. Hansen, P. Pracht,
     J. Seibert, S. Spicher, S. Grimme, WIREs Comput. Mol. Sci., 2020, 11,
     e01493. DOI: 10.1002/wcms.1493
   
   for GFN2-xTB:
   * C. Bannwarth, S. Ehlert and S. Grimme., J. Chem. Theory Comput., 2019,
     15, 1652-1671. DOI: 10.1021/acs.jctc.8b01176
   for GFN1-xTB:
   * S. Grimme, C. Bannwarth, P. Shushkov, J. Chem. Theory Comput., 2017,
     13, 1989-2009. DOI: 10.1021/acs.jctc.7b00118
   for GFN0-xTB:
   * P. Pracht, E. Caldeweyher, S. Ehlert, S. Grimme, ChemRxiv, 2019, preprint.
     DOI: 10.26434/chemrxiv.8326202.v1
   for GFN-FF:
   * S. Spicher and S. Grimme, Angew. Chem. Int. Ed., 2020, 59, 15665-15673.
     DOI: 10.1002/anie.202004239
   
   for ALPB and GBSA implicit solvation:
   * S. Ehlert, M. Stahn, S. Spicher, S. Grimme, J. Chem. Theory Comput.,
     2021, 17, 4250-4261. DOI: 10.1021/acs.jctc.1c00471
   
   for DFT-D4:
   * E. Caldeweyher, C. Bannwarth and S. Grimme, J. Chem. Phys., 2017,
     147, 034112. DOI: 10.1063/1.4993215
   * E. Caldeweyher, S. Ehlert, A. Hansen, H. Neugebauer, S. Spicher,
     C. Bannwarth and S. Grimme, J. Chem. Phys., 2019, 150, 154122.
     DOI: 10.1063/1.5090222
   * E. Caldeweyher, J.-M. Mewes, S. Ehlert and S. Grimme, Phys. Chem. Chem. Phys.
     2020, 22, 8499-8512. DOI: 10.1039/D0CP00502A
   
   for sTDA-xTB:
   * S. Grimme and C. Bannwarth, J. Chem. Phys., 2016, 145, 054103.
     DOI: 10.1063/1.4959605
   
   in the mass-spec context:
   * V. Asgeirsson, C. Bauer and S. Grimme, Chem. Sci., 2017, 8, 4879.
     DOI: 10.1039/c7sc00601b
   * J. Koopman and S. Grimme, ACS Omega 2019, 4, 12, 15120-15133.
     DOI: 10.1021/acsomega.9b02011
   
   for metadynamics refer to:
   * S. Grimme, J. Chem. Theory Comput., 2019, 155, 2847-2862
     DOI: 10.1021/acs.jctc.9b00143
   
   for SPH calculations refer to:
   * S. Spicher and S. Grimme, J. Chem. Theory Comput., 2021, 17, 1701-1714
     DOI: 10.1021/acs.jctc.0c01306
   
   with help from (in alphabetical order)
   P. Atkinson, C. Bannwarth, F. Bohle, G. Brandenburg, E. Caldeweyher
   M. Checinski, S. Dohm, S. Ehlert, S. Ehrlich, I. Gerasimov, C. Hölzer
   A. Katbashev, J. Koopman, C. Lavigne, S. Lehtola, F. März, M. Müller,
   F. Musil, H. Neugebauer, J. Pisarek, C. Plett, P. Pracht, F. Pultar,
   J. Seibert, P. Shushkov, S. Spicher, M. Stahn, M. Steiner, T. Strunk,
   J. Stückrath, T. Rose, and J. Unsleber
   
 * started run on 2026/07/20 at 17:13:11.696     

           -------------------------------------------------
          |                Calculation Setup                |
           -------------------------------------------------

          program call               : /h/332/chchoi/miniconda3/envs/el-agente/bin/xtb product_initial.xyz --opt --gfn 2 -P 4 --chrg 1 --uhf 0 --input detailed_input.inp
          coordinate file            : product_initial.xyz
          omp threads                :                     4

   ID    Z sym.   atoms
    1   40 Zr     1
    2    6 C      2-7, 13-17, 25, 28
    3    1 H      8-12, 18-24, 26, 27, 29-31
constraining bond 1 23 to    2.1800000 Å, actual value:    3.0060284 Å
constraining bond 1 24 to    3.0000000 Å, actual value:    3.0059511 Å

           -------------------------------------------------
          |                 G F N 2 - x T B                 |
           -------------------------------------------------

        Reference                      10.1021/acs.jctc.8b01176
      * Hamiltonian:
        H0-scaling (s, p, d)           1.850000    2.230000    2.230000
        zeta-weighting                 0.500000
      * Dispersion:
        s8                             2.700000
        a1                             0.520000
        a2                             5.000000
        s9                             5.000000
      * Repulsion:
        kExp                           1.500000    1.000000
        rExp                           1.000000
      * Coulomb:
        alpha                          2.000000
        third order                    shell-resolved
        anisotropic                    true
        a3                             3.000000
        a5                             4.000000
        cn-shift                       1.200000
        cn-exp                         4.000000
        max-rad                        5.000000


          ...................................................
          :                      SETUP                      :
          :.................................................:
          :  # basis functions                  79          :
          :  # atomic orbitals                  78          :
          :  # shells                           46          :
          :  # electrons                        72          :
          :  max. iterations                   250          :
          :  Hamiltonian                  GFN2-xTB          :
          :  restarted?                      false          :
          :  GBSA solvation                  false          :
          :  PC potential                    false          :
          :  electronic temp.          300.0000000     K    :
          :  accuracy                    1.0000000          :
          :  -> integral cutoff          0.2500000E+02      :
          :  -> integral neglect         0.1000000E-07      :
          :  -> SCF convergence          0.1000000E-05 Eh   :
          :  -> wf. convergence          0.1000000E-03 e    :
          :  Broyden damping             0.4000000          :
          ...................................................

 iter      E             dE          RMSdq      gap      omega  full diag
   1    -37.8040350 -0.378040E+02  0.138E+01    0.31       0.0  T
   2    -37.9680515 -0.164016E+00  0.607E+00    2.60       1.0  T
   3    -37.6874105  0.280641E+00  0.884E+00    0.34       1.0  T
   4    -38.0986470 -0.411236E+00  0.195E+00    1.96       1.0  T
   5    -38.1186027 -0.199557E-01  0.121E+00    1.60       1.0  T
   6    -38.1233916 -0.478895E-02  0.918E-01    1.55       1.0  T
   7    -38.1279412 -0.454960E-02  0.130E-01    1.37       1.0  T
   8    -38.1284215 -0.480227E-03  0.605E-02    1.35       1.0  T
   9    -38.1284435 -0.219954E-04  0.315E-02    1.36       1.0  T
  10    -38.1284455 -0.200333E-05  0.176E-02    1.36       1.0  T
  11    -38.1284481 -0.264805E-05  0.688E-03    1.36       2.6  T
  12    -38.1284482 -0.136699E-06  0.287E-03    1.36       6.3  T
  13    -38.1284482 -0.902092E-08  0.146E-03    1.36      12.3  T
  14    -38.1284483 -0.223341E-07  0.732E-04    1.36      24.5  T
  15    -38.1284483  0.311609E-09  0.572E-04    1.36      31.4  T

   *** convergence criteria satisfied after 15 iterations ***

         #    Occupation            Energy/Eh            Energy/eV
      -------------------------------------------------------------
         1        2.0000           -0.8369216             -22.7738
       ...           ...                  ...                  ...
        30        2.0000           -0.5540994             -15.0778
        31        2.0000           -0.5483991             -14.9227
        32        2.0000           -0.5175890             -14.0843
        33        2.0000           -0.5152997             -14.0220
        34        2.0000           -0.5060292             -13.7698
        35        2.0000           -0.5021925             -13.6654
        36        2.0000           -0.5013468             -13.6423 (HOMO)
        37                         -0.4513822             -12.2827 (LUMO)
        38                         -0.4508992             -12.2696
        39                         -0.4502714             -12.2525
        40                         -0.4443230             -12.0906
        41                         -0.4373875             -11.9019
       ...                                ...                  ...
        78                          1.3350047              36.3273
      -------------------------------------------------------------
                  HL-Gap            0.0499647 Eh            1.3596 eV
             Fermi-level           -0.4765053 Eh          -12.9664 eV

 SCC (total)                   0 d,  0 h,  0 min,  0.499 sec
 SCC setup                      ...        0 min,  0.009 sec (  1.893%)
 Dispersion                     ...        0 min,  0.015 sec (  3.041%)
 classical contributions        ...        0 min,  0.009 sec (  1.799%)
 integral evaluation            ...        0 min,  0.002 sec (  0.386%)
 iterations                     ...        0 min,  0.458 sec ( 91.695%)
 molecular gradient             ...        0 min,  0.006 sec (  1.149%)
 printout                       ...        0 min,  0.000 sec (  0.032%)

         :::::::::::::::::::::::::::::::::::::::::::::::::::::
         ::                     SUMMARY                     ::
         :::::::::::::::::::::::::::::::::::::::::::::::::::::
         :: total energy             -35.147991473360 Eh    ::
         :: gradient norm              4.414405199768 Eh/a0 ::
         :: HOMO-LUMO gap              1.359607479213 eV    ::
         ::.................................................::
         :: SCC energy               -38.128448270140 Eh    ::
         :: -> isotropic ES            0.087464463803 Eh    ::
         :: -> anisotropic ES         -0.003262609774 Eh    ::
         :: -> anisotropic XC          0.015445901534 Eh    ::
         :: -> dispersion             -0.024096968683 Eh    ::
         :: repulsion energy           0.543221170669 Eh    ::
         :: add. restraining           2.436745303508 Eh    ::
         :: total charge               0.999999999996 e     ::
         :::::::::::::::::::::::::::::::::::::::::::::::::::::

      ----------------------------------------------------------- 
     |                   =====================                   |
     |                        A N C O P T                        |
     |                   =====================                   |
     |               Approximate Normal Coordinate               |
     |                Rational Function Optimizer                |
      ----------------------------------------------------------- 

          ...................................................
          :                      SETUP                      :
          :.................................................:
          :   optimization level            normal          :
          :   max. optcycles                   200          :
          :   ANC micro-cycles                  20          :
          :   degrees of freedom                87          :
          :.................................................:
          :   RF solver                   davidson          :
          :   write xtbopt.log                true          :
          :   linear?                        false          :
          :   energy convergence         0.5000000E-05 Eh   :
          :   grad. convergence          0.1000000E-02 Eh/α :
          :   maximium RF displ.         1.0000000          :
          :   Hlow (freq-cutoff)         0.1000000E-01      :
          :   Hmax (freq-cutoff)         5.0000000          :
          :   S6 in model hess.         20.0000000          :
          ...................................................

generating ANC from model Hessian ...
Using Lindh-Hessian (1995)
 Shifting diagonal of input Hessian by    1.1802918126837293E-002
 Lowest  eigenvalues of input Hessian
    0.010000    0.010712    0.011757    0.000000    0.000000    0.000000
    0.000000    0.000000    0.000000    0.011992    0.012092    0.012246
    0.012309    0.012350    0.012435    0.012830    0.013223    0.014006
 Highest eigenvalues
    1.492944    1.492987    1.493035    1.493054    2.739408    5.808960


........................................................................
.............................. CYCLE    1 ..............................
........................................................................
   1    -38.1284483 -0.381284E+02  0.221E-04    1.36       0.0  T
   2    -38.1284483 -0.545128E-10  0.135E-04    1.36     133.3  T
   3    -38.1284483 -0.151708E-09  0.893E-05    1.36     201.1  T
     SCC iter.                  ...        0 min,  0.085 sec
     gradient                   ...        0 min,  0.006 sec
 * total energy  :   -35.1479915 Eh     change       -0.1419906E-08 Eh
   gradient norm :     4.4144067 Eh/α   predicted     0.0000000E+00 (-100.00%)
   displ. norm   :     0.6562540 α      lambda       -0.2837755E+01
   maximum displ.:     0.4686980 α      in ANC's #87, #86, #64, ...

........................................................................
.............................. CYCLE    2 ..............................
........................................................................
   1    -38.1302371 -0.381302E+02  0.134E+00    1.12       0.0  T
   2    -38.1307838 -0.546626E-03  0.870E-01    0.90       1.0  T
   3    -38.1287937  0.199006E-02  0.479E-01    1.18       1.0  T
   4    -38.1313277 -0.253396E-02  0.147E-01    0.95       1.0  T
   5    -38.1314581 -0.130392E-03  0.733E-02    0.98       1.0  T
   6    -38.1314638 -0.572470E-05  0.356E-02    0.98       1.0  T
   7    -38.1314648 -0.982854E-06  0.220E-02    0.99       1.0  T
   8    -38.1314668 -0.205823E-05  0.115E-02    0.99       1.6  T
   9    -38.1314672 -0.356228E-06  0.682E-03    0.99       2.6  T
  10    -38.1314672 -0.365425E-07  0.323E-03    0.99       5.6  T
  11    -38.1314672 -0.337248E-07  0.102E-03    0.99      17.6  T
  12    -38.1314673 -0.107728E-07  0.251E-04    0.99      71.6  T
  13    -38.1314673 -0.702229E-10  0.106E-04    0.99     169.3  T
     SCC iter.                  ...        0 min,  0.372 sec
     gradient                   ...        0 min,  0.016 sec
 * total energy  :   -37.0915832 Eh     change       -0.1943592E+01 Eh
   gradient norm :     1.6282604 Eh/α   predicted    -0.2029963E+01 (   4.44%)
   displ. norm   :     0.5037515 α      lambda       -0.7327114E+00
   maximum displ.:     0.3550179 α      in ANC's #86, #64, #75, ...

........................................................................
.............................. CYCLE    3 ..............................
........................................................................
   1    -38.1307224 -0.381307E+02  0.112E+00    0.92       0.0  T
   2    -38.1309270 -0.204547E-03  0.664E-01    0.78       1.0  T
   3    -38.1293094  0.161757E-02  0.420E-01    1.01       1.0  T
   4    -38.1311573 -0.184788E-02  0.129E-01    0.81       1.0  T
   5    -38.1312640 -0.106738E-03  0.439E-02    0.84       1.0  T
   6    -38.1312611  0.291521E-05  0.411E-02    0.83       1.0  T
   7    -38.1312679 -0.683219E-05  0.211E-02    0.84       1.0  T
   8    -38.1312688 -0.890622E-06  0.117E-02    0.84       1.5  T
   9    -38.1312694 -0.569479E-06  0.727E-03    0.84       2.5  T
  10    -38.1312694 -0.429173E-07  0.442E-03    0.84       4.1  T
  11    -38.1312695 -0.545018E-07  0.183E-03    0.84       9.8  T
  12    -38.1312695 -0.276821E-07  0.372E-04    0.85      48.3  T
  13    -38.1312695 -0.400448E-09  0.158E-04    0.85     113.6  T
     SCC iter.                  ...        0 min,  0.314 sec
     gradient                   ...        0 min,  0.007 sec
 * total energy  :   -37.5420089 Eh     change       -0.4504257E+00 Eh
   gradient norm :     0.3399028 Eh/α   predicted    -0.4596607E+00 (   2.05%)
   displ. norm   :     0.6044763 α      lambda       -0.9116909E-01
   maximum displ.:     0.3304188 α      in ANC's #19, #3, #18, ...

........................................................................
.............................. CYCLE    4 ..............................
........................................................................
   1    -38.1898790 -0.381899E+02  0.724E-01    1.09       0.0  T
   2    -38.1900611 -0.182118E-03  0.388E-01    1.08       1.0  T
   3    -38.1894646  0.596489E-03  0.335E-01    1.13       1.0  T
   4    -38.1902906 -0.825989E-03  0.408E-02    1.09       1.0  T
   5    -38.1902944 -0.381462E-05  0.347E-02    1.11       1.0  T
   6    -38.1902992 -0.474945E-05  0.161E-02    1.09       1.1  T
   7    -38.1903007 -0.158938E-05  0.898E-03    1.10       2.0  T
   8    -38.1903012 -0.492981E-06  0.609E-03    1.10       3.0  T
   9    -38.1903013 -0.376174E-07  0.381E-03    1.10       4.7  T
  10    -38.1903013 -0.299033E-07  0.194E-03    1.10       9.3  T
  11    -38.1903013 -0.164003E-07  0.632E-04    1.10      28.4  T
  12    -38.1903013 -0.112827E-08  0.179E-04    1.10     100.4  T
     SCC iter.                  ...        0 min,  0.135 sec
     gradient                   ...        0 min,  0.005 sec
 * total energy  :   -37.6034730 Eh     change       -0.6146403E-01 Eh
   gradient norm :     0.0642311 Eh/α   predicted    -0.6224077E-01 (   1.26%)
   displ. norm   :     0.7784821 α      lambda       -0.3957502E-01
   maximum displ.:     0.5350927 α      in ANC's #3, #19, #2, ...

........................................................................
.............................. CYCLE    5 ..............................
........................................................................
   1    -38.2293568 -0.382294E+02  0.114E+00    1.48       0.0  T
   2    -38.2302205 -0.863667E-03  0.633E-01    1.42       1.0  T
   3    -38.2298826  0.337819E-03  0.494E-01    1.52       1.0  T
   4    -38.2304507 -0.568060E-03  0.119E-01    1.42       1.0  T
   5    -38.2305840 -0.133263E-03  0.579E-02    1.46       1.0  T
   6    -38.2305998 -0.158119E-04  0.276E-02    1.45       1.0  T
   7    -38.2306006 -0.856902E-06  0.108E-02    1.45       1.7  T
   8    -38.2306008 -0.223406E-06  0.596E-03    1.46       3.0  T
   9    -38.2306010 -0.145049E-06  0.349E-03    1.46       5.1  T
  10    -38.2306010 -0.137119E-07  0.149E-03    1.46      12.0  T
  11    -38.2306010 -0.904641E-08  0.733E-04    1.46      24.5  T
  12    -38.2306010 -0.134910E-08  0.145E-04    1.46     123.5  T
     SCC iter.                  ...        0 min,  0.045 sec
     gradient                   ...        0 min,  0.008 sec
 * total energy  :   -37.6343785 Eh     change       -0.3090552E-01 Eh
   gradient norm :     0.0638697 Eh/α   predicted    -0.3177980E-01 (   2.83%)
   displ. norm   :     0.7590763 α      lambda       -0.2420418E-01
   maximum displ.:     0.6543719 α      in ANC's #3, #2, #9, ...

........................................................................
.............................. CYCLE    6 ..............................
........................................................................
   1    -38.2646706 -0.382647E+02  0.934E-01    1.47       0.0  T
   2    -38.2650100 -0.339390E-03  0.585E-01    1.39       1.0  T
   3    -38.2647730  0.237041E-03  0.301E-01    1.47       1.0  T
   4    -38.2650480 -0.275028E-03  0.130E-01    1.37       1.0  T
   5    -38.2651264 -0.783737E-04  0.534E-02    1.41       1.0  T
   6    -38.2651311 -0.465496E-05  0.305E-02    1.41       1.0  T
   7    -38.2651342 -0.312146E-05  0.974E-03    1.41       1.8  T
   8    -38.2651344 -0.270145E-06  0.512E-03    1.41       3.5  T
   9    -38.2651345 -0.102495E-06  0.267E-03    1.41       6.7  T
  10    -38.2651346 -0.161795E-07  0.116E-03    1.41      15.4  T
  11    -38.2651346 -0.551430E-08  0.304E-04    1.41      59.0  T
  12    -38.2651346 -0.436849E-09  0.117E-04    1.41     153.2  T
     SCC iter.                  ...        0 min,  0.042 sec
     gradient                   ...        0 min,  0.008 sec
 * total energy  :   -37.6501740 Eh     change       -0.1579553E-01 Eh
   gradient norm :     0.0313457 Eh/α   predicted    -0.1907529E-01 (  20.76%)
   displ. norm   :     0.6079591 α      lambda       -0.8024871E-02
   maximum displ.:     0.5283847 α      in ANC's #3, #18, #7, ...

........................................................................
.............................. CYCLE    7 ..............................
........................................................................
   1    -38.2755237 -0.382755E+02  0.631E-01    1.52       0.0  T
   2    -38.2756206 -0.968911E-04  0.371E-01    1.45       1.0  T
   3    -38.2753359  0.284676E-03  0.265E-01    1.55       1.0  T
   4    -38.2757178 -0.381901E-03  0.348E-02    1.48       1.0  T
   5    -38.2757268 -0.898811E-05  0.216E-02    1.48       1.0  T
   6    -38.2757283 -0.144823E-05  0.139E-02    1.48       1.3  T
   7    -38.2757287 -0.460030E-06  0.566E-03    1.48       3.2  T
   8    -38.2757288 -0.684981E-07  0.265E-03    1.48       6.8  T
   9    -38.2757288 -0.239863E-07  0.102E-03    1.49      17.6  T
  10    -38.2757288 -0.534570E-08  0.431E-04    1.49      41.7  T
  11    -38.2757288 -0.336740E-09  0.218E-04    1.49      82.4  T
     SCC iter.                  ...        0 min,  0.044 sec
     gradient                   ...        0 min,  0.005 sec
 * total energy  :   -37.6558191 Eh     change       -0.5645116E-02 Eh
   gradient norm :     0.0254429 Eh/α   predicted    -0.5495496E-02 (  -2.65%)
   displ. norm   :     0.5744467 α      lambda       -0.5233387E-02
   maximum displ.:     0.4079049 α      in ANC's #3, #18, #7, ...

........................................................................
.............................. CYCLE    8 ..............................
........................................................................
   1    -38.2855083 -0.382855E+02  0.286E-01    1.50       0.0  T
   2    -38.2855470 -0.386515E-04  0.188E-01    1.51       1.0  T
   3    -38.2854992  0.477110E-04  0.766E-02    1.50       1.0  T
   4    -38.2855605 -0.612601E-04  0.272E-02    1.52       1.0  T
   5    -38.2855643 -0.382388E-05  0.166E-02    1.51       1.1  T
   6    -38.2855649 -0.525356E-06  0.737E-03    1.51       2.4  T
   7    -38.2855650 -0.121461E-06  0.332E-03    1.51       5.4  T
   8    -38.2855650 -0.436397E-07  0.140E-03    1.51      12.9  T
   9    -38.2855650 -0.649163E-08  0.748E-04    1.51      24.0  T
  10    -38.2855650 -0.205691E-08  0.288E-04    1.51      62.3  T
     SCC iter.                  ...        0 min,  0.041 sec
     gradient                   ...        0 min,  0.007 sec
 * total energy  :   -37.6592891 Eh     change       -0.3469952E-02 Eh
   gradient norm :     0.0283887 Eh/α   predicted    -0.3480173E-02 (   0.29%)
   displ. norm   :     0.6375260 α      lambda       -0.5103449E-02
   maximum displ.:     0.3793232 α      in ANC's #3, #2, #7, ...

........................................................................
.............................. CYCLE    9 ..............................
........................................................................
   1    -38.2834947 -0.382835E+02  0.585E-01    1.45       0.0  T
   2    -38.2836067 -0.111993E-03  0.442E-01    1.42       1.0  T
   3    -38.2835091  0.976157E-04  0.173E-01    1.48       1.0  T
   4    -38.2836378 -0.128715E-03  0.709E-02    1.42       1.0  T
   5    -38.2836513 -0.134985E-04  0.389E-02    1.44       1.0  T
   6    -38.2836532 -0.186460E-05  0.155E-02    1.44       1.2  T
   7    -38.2836546 -0.136700E-05  0.815E-03    1.44       2.2  T
   8    -38.2836546 -0.519550E-07  0.322E-03    1.44       5.6  T
   9    -38.2836547 -0.617404E-07  0.135E-03    1.44      13.3  T
  10    -38.2836547 -0.384925E-08  0.614E-04    1.44      29.3  T
  11    -38.2836547 -0.285778E-08  0.174E-04    1.44     103.0  T
     SCC iter.                  ...        0 min,  0.044 sec
     gradient                   ...        0 min,  0.008 sec
 * total energy  :   -37.6601397 Eh     change       -0.8506317E-03 Eh
   gradient norm :     0.0376692 Eh/α   predicted    -0.3588847E-02 ( 321.90%)
   displ. norm   :     0.3139330 α      lambda       -0.4587116E-02
   maximum displ.:     0.1448469 α      in ANC's #10, #1, #18, ...

........................................................................
.............................. CYCLE   10 ..............................
........................................................................
   1    -38.2839602 -0.382840E+02  0.319E-01    1.53       0.0  T
   2    -38.2840324 -0.722023E-04  0.262E-01    1.55       1.0  T
   3    -38.2839557  0.766546E-04  0.121E-01    1.53       1.0  T
   4    -38.2840421 -0.863839E-04  0.532E-02    1.56       1.0  T
   5    -38.2840652 -0.231073E-04  0.272E-02    1.54       1.0  T
   6    -38.2840668 -0.158995E-05  0.121E-02    1.55       1.5  T
   7    -38.2840674 -0.585798E-06  0.534E-03    1.54       3.4  T
   8    -38.2840674 -0.370496E-07  0.176E-03    1.54      10.2  T
   9    -38.2840675 -0.190596E-07  0.721E-04    1.54      24.9  T
  10    -38.2840675 -0.317628E-08  0.454E-04    1.54      39.5  T
     SCC iter.                  ...        0 min,  0.046 sec
     gradient                   ...        0 min,  0.005 sec
 * total energy  :   -37.6620675 Eh     change       -0.1927813E-02 Eh
   gradient norm :     0.0157909 Eh/α   predicted    -0.2519599E-02 (  30.70%)
   displ. norm   :     0.2507078 α      lambda       -0.1671598E-02
   maximum displ.:     0.1202760 α      in ANC's #10, #13, #12, ...

........................................................................
.............................. CYCLE   11 ..............................
........................................................................
   1    -38.2900452 -0.382900E+02  0.169E-01    1.57       0.0  T
   2    -38.2900765 -0.313196E-04  0.867E-02    1.54       1.0  T
   3    -38.2900805 -0.405541E-05  0.649E-02    1.56       1.0  T
   4    -38.2900929 -0.123162E-04  0.118E-02    1.55       1.5  T
   5    -38.2900930 -0.175989E-06  0.761E-03    1.55       2.4  T
   6    -38.2900933 -0.222535E-06  0.493E-03    1.55       3.6  T
   7    -38.2900934 -0.135898E-06  0.190E-03    1.55       9.4  T
   8    -38.2900934  0.887177E-09  0.110E-03    1.55      16.4  T
   9    -38.2900934 -0.697896E-08  0.693E-04    1.55      25.9  T
  10    -38.2900934 -0.183194E-08  0.283E-04    1.55      63.5  T
     SCC iter.                  ...        0 min,  0.041 sec
     gradient                   ...        0 min,  0.005 sec
 * total energy  :   -37.6627771 Eh     change       -0.7095737E-03 Eh
   gradient norm :     0.0175183 Eh/α   predicted    -0.8883426E-03 (  25.19%)
   displ. norm   :     0.2854375 α      lambda       -0.1020221E-02
   maximum displ.:     0.1553701 α      in ANC's #10, #12, #7, ...

........................................................................
.............................. CYCLE   12 ..............................
........................................................................
   1    -38.2887271 -0.382887E+02  0.131E-01    1.53       0.0  T
   2    -38.2887351 -0.805412E-05  0.898E-02    1.53       1.0  T
   3    -38.2887143  0.208223E-04  0.429E-02    1.52       1.0  T
   4    -38.2887396 -0.252688E-04  0.890E-03    1.53       2.0  T
   5    -38.2887398 -0.224624E-06  0.822E-03    1.53       2.2  T
   6    -38.2887401 -0.302256E-06  0.344E-03    1.53       5.2  T
   7    -38.2887401 -0.306212E-07  0.143E-03    1.53      12.6  T
   8    -38.2887401 -0.428495E-08  0.728E-04    1.53      24.7  T
   9    -38.2887401 -0.336616E-08  0.384E-04    1.53      46.8  T
     SCC iter.                  ...        0 min,  0.233 sec
     gradient                   ...        0 min,  0.016 sec
 * total energy  :   -37.6635358 Eh     change       -0.7586445E-03 Eh
   gradient norm :     0.0112804 Eh/α   predicted    -0.5516727E-03 ( -27.28%)
   displ. norm   :     0.5043618 α      lambda       -0.1237705E-02
   maximum displ.:     0.2611682 α      in ANC's #10, #12, #2, ...

........................................................................
.............................. CYCLE   13 ..............................
........................................................................
   1    -38.2896305 -0.382896E+02  0.245E-01    1.54       0.0  T
   2    -38.2896484 -0.179328E-04  0.162E-01    1.53       1.0  T
   3    -38.2895927  0.557152E-04  0.708E-02    1.54       1.0  T
   4    -38.2896579 -0.652169E-04  0.140E-02    1.54       1.3  T
   5    -38.2896596 -0.170576E-05  0.102E-02    1.53       1.8  T
   6    -38.2896601 -0.455913E-06  0.380E-03    1.54       4.7  T
   7    -38.2896601 -0.252021E-07  0.168E-03    1.54      10.7  T
   8    -38.2896601 -0.998965E-08  0.867E-04    1.54      20.7  T
   9    -38.2896601 -0.195779E-08  0.389E-04    1.54      46.1  T
     SCC iter.                  ...        0 min,  0.300 sec
     gradient                   ...        0 min,  0.008 sec
 * total energy  :   -37.6643905 Eh     change       -0.8547426E-03 Eh
   gradient norm :     0.0129852 Eh/α   predicted    -0.7762787E-03 (  -9.18%)
   displ. norm   :     0.4883716 α      lambda       -0.9373074E-03
   maximum displ.:     0.2657947 α      in ANC's #12, #10, #11, ...

........................................................................
.............................. CYCLE   14 ..............................
........................................................................
   1    -38.2886326 -0.382886E+02  0.215E-01    1.55       0.0  T
   2    -38.2886425 -0.996852E-05  0.143E-01    1.55       1.0  T
   3    -38.2886167  0.258099E-04  0.364E-02    1.55       1.0  T
   4    -38.2886460 -0.293034E-04  0.990E-03    1.56       1.8  T
   5    -38.2886465 -0.433985E-06  0.745E-03    1.55       2.4  T
   6    -38.2886467 -0.258049E-06  0.251E-03    1.55       7.2  T
   7    -38.2886467 -0.214638E-07  0.148E-03    1.55      12.2  T
   8    -38.2886467 -0.501866E-08  0.916E-04    1.55      19.6  T
   9    -38.2886467 -0.189474E-08  0.458E-04    1.55      39.2  T
     SCC iter.                  ...        0 min,  0.339 sec
     gradient                   ...        0 min,  0.028 sec
 * total energy  :   -37.6650346 Eh     change       -0.6440888E-03 Eh
   gradient norm :     0.0134785 Eh/α   predicted    -0.5804337E-03 (  -9.88%)
   displ. norm   :     0.4201936 α      lambda       -0.8427370E-03
   maximum displ.:     0.2334439 α      in ANC's #12, #10, #11, ...

........................................................................
.............................. CYCLE   15 ..............................
........................................................................
   1    -38.2899552 -0.382900E+02  0.183E-01    1.58       0.0  T
   2    -38.2899606 -0.543279E-05  0.117E-01    1.57       1.0  T
   3    -38.2899448  0.157838E-04  0.424E-02    1.58       1.0  T
   4    -38.2899637 -0.188327E-04  0.105E-02    1.57       1.7  T
   5    -38.2899637 -0.414477E-07  0.583E-03    1.57       3.1  T
   6    -38.2899639 -0.194813E-06  0.276E-03    1.57       6.5  T
   7    -38.2899639 -0.585723E-07  0.142E-03    1.57      12.7  T
   8    -38.2899640 -0.131415E-08  0.949E-04    1.57      18.9  T
   9    -38.2899640 -0.389382E-08  0.579E-04    1.57      31.0  T
     SCC iter.                  ...        0 min,  0.364 sec
     gradient                   ...        0 min,  0.021 sec
 * total energy  :   -37.6656528 Eh     change       -0.6181958E-03 Eh
   gradient norm :     0.0109159 Eh/α   predicted    -0.4957718E-03 ( -19.80%)
   displ. norm   :     0.4169735 α      lambda       -0.8088017E-03
   maximum displ.:     0.2394196 α      in ANC's #12, #4, #11, ...

........................................................................
.............................. CYCLE   16 ..............................
........................................................................
   1    -38.2940568 -0.382941E+02  0.208E-01    1.59       0.0  T
   2    -38.2940652 -0.834089E-05  0.136E-01    1.59       1.0  T
   3    -38.2940192  0.460113E-04  0.443E-02    1.59       1.0  T
   4    -38.2940709 -0.517427E-04  0.121E-02    1.59       1.5  T
   5    -38.2940715 -0.597569E-06  0.644E-03    1.59       2.8  T
   6    -38.2940716 -0.847569E-07  0.257E-03    1.59       7.0  T
   7    -38.2940716 -0.521129E-07  0.126E-03    1.59      14.2  T
   8    -38.2940716  0.690505E-10  0.885E-04    1.59      20.3  T
   9    -38.2940716 -0.365384E-08  0.561E-04    1.59      32.0  T
     SCC iter.                  ...        0 min,  0.219 sec
     gradient                   ...        0 min,  0.009 sec
 * total energy  :   -37.6661823 Eh     change       -0.5295150E-03 Eh
   gradient norm :     0.0086300 Eh/α   predicted    -0.4747141E-03 ( -10.35%)
   displ. norm   :     0.4778757 α      lambda       -0.6064889E-03
   maximum displ.:     0.2834286 α      in ANC's #12, #11, #4, ...

........................................................................
.............................. CYCLE   17 ..............................
........................................................................
   1    -38.2911053 -0.382911E+02  0.192E-01    1.60       0.0  T
   2    -38.2911116 -0.632525E-05  0.119E-01    1.60       1.0  T
   3    -38.2910801  0.314944E-04  0.408E-02    1.60       1.0  T
   4    -38.2911156 -0.354935E-04  0.118E-02    1.60       1.5  T
   5    -38.2911164 -0.759216E-06  0.679E-03    1.60       2.6  T
   6    -38.2911164 -0.571157E-07  0.296E-03    1.60       6.1  T
   7    -38.2911165 -0.385006E-07  0.133E-03    1.60      13.5  T
   8    -38.2911165 -0.222681E-08  0.826E-04    1.60      21.7  T
   9    -38.2911165 -0.925219E-09  0.463E-04    1.60      38.8  T
     SCC iter.                  ...        0 min,  0.252 sec
     gradient                   ...        0 min,  0.031 sec
 * total energy  :   -37.6665335 Eh     change       -0.3512523E-03 Eh
   gradient norm :     0.0110762 Eh/α   predicted    -0.3725000E-03 (   6.05%)
   displ. norm   :     0.2661827 α      lambda       -0.4055137E-03
   maximum displ.:     0.1613550 α      in ANC's #4, #11, #12, ...

........................................................................
.............................. CYCLE   18 ..............................
........................................................................
   1    -38.2945985 -0.382946E+02  0.981E-02    1.61       0.0  T
   2    -38.2946031 -0.459905E-05  0.576E-02    1.60       1.0  T
   3    -38.2945899  0.131957E-04  0.356E-02    1.61       1.0  T
   4    -38.2946067 -0.167486E-04  0.803E-03    1.60       2.2  T
   5    -38.2946068 -0.105401E-06  0.497E-03    1.61       3.6  T
   6    -38.2946068 -0.489089E-07  0.152E-03    1.60      11.8  T
   7    -38.2946069 -0.177887E-07  0.624E-04    1.60      28.8  T
   8    -38.2946069 -0.766477E-09  0.346E-04    1.60      52.0  T
     SCC iter.                  ...        0 min,  0.218 sec
     gradient                   ...        0 min,  0.007 sec
 * total energy  :   -37.6667663 Eh     change       -0.2327922E-03 Eh
   gradient norm :     0.0156551 Eh/α   predicted    -0.2171260E-03 (  -6.73%)
   displ. norm   :     0.4624791 α      lambda       -0.4480848E-03
   maximum displ.:     0.2593566 α      in ANC's #12, #4, #11, ...

........................................................................
.............................. CYCLE   19 ..............................
........................................................................
   1    -38.2919721 -0.382920E+02  0.192E-01    1.60       0.0  T
   2    -38.2919794 -0.733293E-05  0.127E-01    1.61       1.0  T
   3    -38.2919405  0.389490E-04  0.398E-02    1.60       1.0  T
   4    -38.2919839 -0.434033E-04  0.807E-03    1.60       2.2  T
   5    -38.2919840 -0.121291E-06  0.519E-03    1.60       3.5  T
   6    -38.2919841 -0.120497E-06  0.189E-03    1.60       9.5  T
   7    -38.2919841 -0.362950E-07  0.746E-04    1.60      24.1  T
   8    -38.2919841 -0.728669E-09  0.390E-04    1.60      46.0  T
     SCC iter.                  ...        0 min,  0.171 sec
     gradient                   ...        0 min,  0.010 sec
 * total energy  :   -37.6669618 Eh     change       -0.1954170E-03 Eh
   gradient norm :     0.0123032 Eh/α   predicted    -0.2719686E-03 (  39.17%)
   displ. norm   :     0.1901730 α      lambda       -0.3406190E-03
   maximum displ.:     0.1419975 α      in ANC's #4, #9, #17, ...

........................................................................
.............................. CYCLE   20 ..............................
........................................................................
   1    -38.2941663 -0.382942E+02  0.620E-02    1.60       0.0  T
   2    -38.2941700 -0.369955E-05  0.342E-02    1.59       1.0  T
   3    -38.2941671  0.291793E-05  0.227E-02    1.59       1.0  T
   4    -38.2941721 -0.500630E-05  0.563E-03    1.60       3.2  T
   5    -38.2941723 -0.240666E-06  0.356E-03    1.59       5.0  T
   6    -38.2941724 -0.157317E-07  0.111E-03    1.60      16.2  T
   7    -38.2941724 -0.537360E-08  0.501E-04    1.59      35.8  T
   8    -38.2941724  0.596785E-10  0.323E-04    1.59      55.6  T
     SCC iter.                  ...        0 min,  0.187 sec
     gradient                   ...        0 min,  0.006 sec
 * total energy  :   -37.6672010 Eh     change       -0.2392639E-03 Eh
   gradient norm :     0.0079148 Eh/α   predicted    -0.1764711E-03 ( -26.24%)
   displ. norm   :     0.3201472 α      lambda       -0.4016496E-03
   maximum displ.:     0.2415638 α      in ANC's #4, #17, #12, ...
 * RMSD in coord.:     1.0273309 α      energy gain  -0.2519210E+01 Eh

generating ANC from model Hessian ...
Using Lindh-Hessian (1995)
 Shifting diagonal of input Hessian by    9.7326851798678112E-003
 Lowest  eigenvalues of input Hessian
    0.000000    0.000000    0.000000    0.000000    0.000000    0.000000
    0.010000    0.010125    0.010257    0.010798    0.010814    0.011414
    0.012955    0.013217    0.017198    0.017712    0.018130    0.018495
 Highest eigenvalues
    1.714971    1.722423    1.725069    1.728430    2.668794    5.811950


........................................................................
.............................. CYCLE   21 ..............................
........................................................................
   1    -38.2957453 -0.382957E+02  0.101E-01    1.59       0.0  T
   2    -38.2957504 -0.509379E-05  0.582E-02    1.59       1.0  T
   3    -38.2957378  0.125498E-04  0.348E-02    1.59       1.0  T
   4    -38.2957543 -0.164645E-04  0.705E-03    1.60       2.5  T
   5    -38.2957544 -0.149593E-06  0.430E-03    1.59       4.2  T
   6    -38.2957545 -0.461318E-07  0.132E-03    1.60      13.6  T
   7    -38.2957545 -0.481553E-08  0.708E-04    1.59      25.4  T
   8    -38.2957545 -0.524494E-09  0.426E-04    1.60      42.1  T
     SCC iter.                  ...        0 min,  0.175 sec
     gradient                   ...        0 min,  0.006 sec
 * total energy  :   -37.6674894 Eh     change       -0.2884006E-03 Eh
   gradient norm :     0.0135282 Eh/α   predicted     0.0000000E+00 (-100.00%)
   displ. norm   :     0.1681801 α      lambda       -0.5370136E-03
   maximum displ.:     0.0802428 α      in ANC's #8, #5, #2, ...

........................................................................
.............................. CYCLE   22 ..............................
........................................................................
   1    -38.2967966 -0.382968E+02  0.149E-01    1.59       0.0  T
   2    -38.2968005 -0.398183E-05  0.965E-02    1.60       1.0  T
   3    -38.2967915  0.907509E-05  0.310E-02    1.59       1.0  T
   4    -38.2968028 -0.112937E-04  0.113E-02    1.60       1.6  T
   5    -38.2968033 -0.523818E-06  0.590E-03    1.60       3.0  T
   6    -38.2968034 -0.105073E-06  0.263E-03    1.60       6.8  T
   7    -38.2968034 -0.357990E-07  0.155E-03    1.60      11.6  T
   8    -38.2968034 -0.216986E-09  0.937E-04    1.60      19.2  T
   9    -38.2968034 -0.433164E-08  0.428E-04    1.60      42.0  T
     SCC iter.                  ...        0 min,  0.223 sec
     gradient                   ...        0 min,  0.007 sec
 * total energy  :   -37.6678732 Eh     change       -0.3837823E-03 Eh
   gradient norm :     0.0075150 Eh/α   predicted    -0.2762707E-03 ( -28.01%)
   displ. norm   :     0.2608198 α      lambda       -0.4302599E-03
   maximum displ.:     0.1295006 α      in ANC's #2, #5, #6, ...

........................................................................
.............................. CYCLE   23 ..............................
........................................................................
   1    -38.2968141 -0.382968E+02  0.161E-01    1.58       0.0  T
   2    -38.2968220 -0.789064E-05  0.107E-01    1.60       1.0  T
   3    -38.2968053  0.167030E-04  0.506E-02    1.58       1.0  T
   4    -38.2968270 -0.217524E-04  0.945E-03    1.59       1.9  T
   5    -38.2968273 -0.247245E-06  0.589E-03    1.59       3.0  T
   6    -38.2968274 -0.149675E-06  0.251E-03    1.59       7.2  T
   7    -38.2968275 -0.735110E-07  0.118E-03    1.59      15.2  T
   8    -38.2968275  0.109814E-08  0.802E-04    1.59      22.4  T
   9    -38.2968275 -0.304621E-08  0.336E-04    1.59      53.4  T
     SCC iter.                  ...        0 min,  0.222 sec
     gradient                   ...        0 min,  0.036 sec
 * total energy  :   -37.6681669 Eh     change       -0.2937036E-03 Eh
   gradient norm :     0.0226124 Eh/α   predicted    -0.2299618E-03 ( -21.70%)
   displ. norm   :     0.2559080 α      lambda       -0.3412194E-03
   maximum displ.:     0.1503569 α      in ANC's #2, #3, #5, ...

........................................................................
.............................. CYCLE   24 ..............................
........................................................................
   1    -38.2966865 -0.382967E+02  0.112E-01    1.59       0.0  T
   2    -38.2966904 -0.381620E-05  0.774E-02    1.60       1.0  T
   3    -38.2966793  0.110507E-04  0.320E-02    1.58       1.0  T
   4    -38.2966926 -0.132966E-04  0.605E-03    1.59       3.0  T
   5    -38.2966927 -0.939834E-07  0.348E-03    1.59       5.2  T
   6    -38.2966927 -0.468579E-07  0.118E-03    1.59      15.2  T
   7    -38.2966928 -0.302543E-07  0.333E-04    1.59      53.9  T
   8    -38.2966928 -0.541391E-09  0.185E-04    1.59      96.8  T
     SCC iter.                  ...        0 min,  0.196 sec
     gradient                   ...        0 min,  0.061 sec
 * total energy  :   -37.6684489 Eh     change       -0.2820239E-03 Eh
   gradient norm :     0.0178171 Eh/α   predicted    -0.1817827E-03 ( -35.54%)
   displ. norm   :     0.3777208 α      lambda       -0.5095971E-03
   maximum displ.:     0.2362021 α      in ANC's #2, #3, #1, ...

........................................................................
.............................. CYCLE   25 ..............................
........................................................................
   1    -38.2963860 -0.382964E+02  0.140E-01    1.59       0.0  T
   2    -38.2963905 -0.446513E-05  0.987E-02    1.60       1.0  T
   3    -38.2963671  0.233939E-04  0.357E-02    1.58       1.0  T
   4    -38.2963933 -0.262167E-04  0.812E-03    1.59       2.2  T
   5    -38.2963934 -0.855170E-07  0.476E-03    1.59       3.8  T
   6    -38.2963935 -0.145584E-06  0.130E-03    1.59      13.8  T
   7    -38.2963935 -0.232469E-07  0.671E-04    1.59      26.8  T
   8    -38.2963935 -0.181918E-08  0.406E-04    1.59      44.2  T
     SCC iter.                  ...        0 min,  0.179 sec
     gradient                   ...        0 min,  0.065 sec
 * total energy  :   -37.6688708 Eh     change       -0.4218268E-03 Eh
   gradient norm :     0.0061019 Eh/α   predicted    -0.2911531E-03 ( -30.98%)
   displ. norm   :     0.5163041 α      lambda       -0.5566538E-03
   maximum displ.:     0.3239214 α      in ANC's #2, #3, #1, ...

........................................................................
.............................. CYCLE   26 ..............................
........................................................................
   1    -38.2950466 -0.382950E+02  0.188E-01    1.58       0.0  T
   2    -38.2950521 -0.551044E-05  0.133E-01    1.59       1.0  T
   3    -38.2950039  0.482045E-04  0.526E-02    1.57       1.0  T
   4    -38.2950571 -0.531719E-04  0.994E-03    1.59       1.8  T
   5    -38.2950571  0.281860E-07  0.645E-03    1.59       2.8  T
   6    -38.2950574 -0.376396E-06  0.121E-03    1.59      14.8  T
   7    -38.2950575 -0.171504E-07  0.547E-04    1.59      32.8  T
   8    -38.2950575 -0.140410E-08  0.284E-04    1.59      63.2  T
     SCC iter.                  ...        0 min,  0.212 sec
     gradient                   ...        0 min,  0.013 sec
 * total energy  :   -37.6693161 Eh     change       -0.4453161E-03 Eh
   gradient norm :     0.0163943 Eh/α   predicted    -0.3525198E-03 ( -20.84%)
   displ. norm   :     0.5038202 α      lambda       -0.6818371E-03
   maximum displ.:     0.3362119 α      in ANC's #2, #3, #1, ...

........................................................................
.............................. CYCLE   27 ..............................
........................................................................
   1    -38.2958975 -0.382959E+02  0.190E-01    1.59       0.0  T
   2    -38.2959027 -0.521297E-05  0.125E-01    1.58       1.0  T
   3    -38.2958801  0.226260E-04  0.321E-02    1.58       1.0  T
   4    -38.2959057 -0.256353E-04  0.111E-02    1.58       1.6  T
   5    -38.2959061 -0.375959E-06  0.694E-03    1.58       2.6  T
   6    -38.2959064 -0.270069E-06  0.207E-03    1.58       8.7  T
   7    -38.2959064 -0.985347E-08  0.134E-03    1.58      13.4  T
   8    -38.2959064  0.932793E-09  0.811E-04    1.58      22.2  T
   9    -38.2959064 -0.403030E-08  0.374E-04    1.58      48.1  T
     SCC iter.                  ...        0 min,  0.239 sec
     gradient                   ...        0 min,  0.024 sec
 * total energy  :   -37.6697713 Eh     change       -0.4552598E-03 Eh
   gradient norm :     0.0206279 Eh/α   predicted    -0.4274609E-03 (  -6.11%)
   displ. norm   :     0.5990825 α      lambda       -0.5963516E-03
   maximum displ.:     0.3810513 α      in ANC's #2, #3, #1, ...

........................................................................
.............................. CYCLE   28 ..............................
........................................................................
   1    -38.2943465 -0.382943E+02  0.210E-01    1.57       0.0  T
   2    -38.2943513 -0.484634E-05  0.145E-01    1.58       1.0  T
   3    -38.2943024  0.488967E-04  0.534E-02    1.56       1.0  T
   4    -38.2943560 -0.535514E-04  0.114E-02    1.58       1.6  T
   5    -38.2943561 -0.115356E-06  0.639E-03    1.58       2.8  T
   6    -38.2943564 -0.296573E-06  0.143E-03    1.58      12.6  T
   7    -38.2943564 -0.156130E-07  0.594E-04    1.58      30.2  T
   8    -38.2943564  0.156817E-10  0.375E-04    1.58      47.8  T
     SCC iter.                  ...        0 min,  0.201 sec
     gradient                   ...        0 min,  0.011 sec
 * total energy  :   -37.6702072 Eh     change       -0.4358424E-03 Eh
   gradient norm :     0.0140265 Eh/α   predicted    -0.4051905E-03 (  -7.03%)
   displ. norm   :     0.6001004 α      lambda        0.2382378E-04
   maximum displ.:     0.3817089 α      in ANC's #2, #3, #1, ...

........................................................................
.............................. CYCLE   29 ..............................
........................................................................
   1    -38.2884101 -0.382884E+02  0.210E-01    1.56       0.0  T
   2    -38.2884169 -0.674369E-05  0.146E-01    1.58       1.0  T
   3    -38.2883649  0.519864E-04  0.646E-02    1.55       1.0  T
   4    -38.2884238 -0.589001E-04  0.117E-02    1.58       1.5  T
   5    -38.2884240 -0.218861E-06  0.704E-03    1.57       2.6  T
   6    -38.2884244 -0.341554E-06  0.160E-03    1.57      11.3  T
   7    -38.2884244 -0.299422E-07  0.621E-04    1.57      28.9  T
   8    -38.2884244 -0.639083E-09  0.396E-04    1.57      45.3  T
     SCC iter.                  ...        0 min,  0.218 sec
     gradient                   ...        0 min,  0.005 sec
 * total energy  :   -37.6699005 Eh     change        0.3066450E-03 Eh
   gradient norm :     0.0658286 Eh/α   predicted     0.1620125E-04 ( -94.72%)
   displ. norm   :     0.1562844 α      lambda       -0.1362691E-02
   maximum displ.:     0.0785923 α      in ANC's #13, #5, #6, ...

........................................................................
.............................. CYCLE   30 ..............................
........................................................................
   1    -38.2979889 -0.382980E+02  0.859E-02    1.58       0.0  T
   2    -38.2979967 -0.782223E-05  0.555E-02    1.56       1.0  T
   3    -38.2979991 -0.239764E-05  0.358E-02    1.58       1.0  T
   4    -38.2980035 -0.437896E-05  0.648E-03    1.57       2.8  T
   5    -38.2980036 -0.749688E-07  0.512E-03    1.57       3.5  T
   6    -38.2980038 -0.197063E-06  0.127E-03    1.57      14.2  T
   7    -38.2980038 -0.918163E-08  0.704E-04    1.57      25.5  T
   8    -38.2980038 -0.667470E-09  0.355E-04    1.57      50.6  T
     SCC iter.                  ...        0 min,  0.210 sec
     gradient                   ...        0 min,  0.008 sec
 * total energy  :   -37.6707017 Eh     change       -0.8011483E-03 Eh
   gradient norm :     0.0103763 Eh/α   predicted    -0.6979896E-03 ( -12.88%)
   displ. norm   :     0.3059828 α      lambda       -0.3257095E-03
   maximum displ.:     0.1943601 α      in ANC's #3, #2, #1, ...

........................................................................
.............................. CYCLE   31 ..............................
........................................................................
   1    -38.3003755 -0.383004E+02  0.102E-01    1.57       0.0  T
   2    -38.3003785 -0.292884E-05  0.639E-02    1.57       1.0  T
   3    -38.3003724  0.602883E-05  0.245E-02    1.57       1.0  T
   4    -38.3003803 -0.785729E-05  0.816E-03    1.57       2.2  T
   5    -38.3003804 -0.900997E-07  0.431E-03    1.57       4.2  T
   6    -38.3003804 -0.614837E-07  0.151E-03    1.57      11.9  T
   7    -38.3003805 -0.183293E-07  0.829E-04    1.57      21.7  T
   8    -38.3003805  0.958558E-09  0.418E-04    1.57      43.0  T
     SCC iter.                  ...        0 min,  0.184 sec
     gradient                   ...        0 min,  0.070 sec
 * total energy  :   -37.6709581 Eh     change       -0.2564129E-03 Eh
   gradient norm :     0.0078237 Eh/α   predicted    -0.1781047E-03 ( -30.54%)
   displ. norm   :     0.4805671 α      lambda       -0.3610452E-03
   maximum displ.:     0.3016413 α      in ANC's #3, #2, #1, ...

........................................................................
.............................. CYCLE   32 ..............................
........................................................................
   1    -38.3011910 -0.383012E+02  0.150E-01    1.57       0.0  T
   2    -38.3011963 -0.535521E-05  0.978E-02    1.57       1.0  T
   3    -38.3011835  0.128584E-04  0.316E-02    1.57       1.0  T
   4    -38.3011995 -0.159668E-04  0.127E-02    1.57       1.4  T
   5    -38.3011999 -0.483306E-06  0.608E-03    1.57       3.0  T
   6    -38.3012001 -0.117954E-06  0.201E-03    1.57       8.9  T
   7    -38.3012001 -0.464117E-07  0.109E-03    1.57      16.4  T
   8    -38.3012001  0.277488E-09  0.545E-04    1.57      33.0  T
   9    -38.3012001 -0.177032E-08  0.316E-04    1.57      56.9  T
     SCC iter.                  ...        0 min,  0.253 sec
     gradient                   ...        0 min,  0.058 sec
 * total energy  :   -37.6712308 Eh     change       -0.2726817E-03 Eh
   gradient norm :     0.0082799 Eh/α   predicted    -0.2222136E-03 ( -18.51%)
   displ. norm   :     0.4400556 α      lambda       -0.2284038E-03
   maximum displ.:     0.2785373 α      in ANC's #2, #3, #1, ...

........................................................................
.............................. CYCLE   33 ..............................
........................................................................
   1    -38.2998120 -0.382998E+02  0.127E-01    1.56       0.0  T
   2    -38.2998159 -0.387688E-05  0.878E-02    1.57       1.0  T
   3    -38.2998078  0.807397E-05  0.305E-02    1.56       1.0  T
   4    -38.2998182 -0.104430E-04  0.119E-02    1.57       1.5  T
   5    -38.2998184 -0.164519E-06  0.568E-03    1.57       3.2  T
   6    -38.2998185 -0.130589E-06  0.194E-03    1.57       9.3  T
   7    -38.2998186 -0.610716E-07  0.987E-04    1.57      18.2  T
   8    -38.2998186 -0.184501E-08  0.451E-04    1.57      39.8  T
     SCC iter.                  ...        0 min,  0.056 sec
     gradient                   ...        0 min,  0.011 sec
 * total energy  :   -37.6713780 Eh     change       -0.1472553E-03 Eh
   gradient norm :     0.0068093 Eh/α   predicted    -0.1363225E-03 (  -7.42%)
   displ. norm   :     0.2686437 α      lambda       -0.1473901E-03
   maximum displ.:     0.1637084 α      in ANC's #2, #3, #1, ...

........................................................................
.............................. CYCLE   34 ..............................
........................................................................
   1    -38.3022128 -0.383022E+02  0.928E-02    1.57       0.0  T
   2    -38.3022140 -0.119316E-05  0.604E-02    1.57       1.0  T
   3    -38.3022091  0.493076E-05  0.159E-02    1.57       1.1  T
   4    -38.3022146 -0.548268E-05  0.507E-03    1.57       3.5  T
   5    -38.3022146 -0.557698E-07  0.304E-03    1.57       5.9  T
   6    -38.3022147 -0.522741E-07  0.932E-04    1.57      19.3  T
   7    -38.3022147 -0.725101E-08  0.316E-04    1.57      56.9  T
     SCC iter.                  ...        0 min,  0.060 sec
     gradient                   ...        0 min,  0.006 sec
 * total energy  :   -37.6714127 Eh     change       -0.3464740E-04 Eh
   gradient norm :     0.0129355 Eh/α   predicted    -0.7901565E-04 ( 128.06%)
   displ. norm   :     0.1072142 α      lambda       -0.1376605E-03
   maximum displ.:     0.0518334 α      in ANC's #2, #8, #13, ...

........................................................................
.............................. CYCLE   35 ..............................
........................................................................
   1    -38.3031462 -0.383031E+02  0.453E-02    1.56       0.0  T
   2    -38.3031470 -0.739795E-06  0.276E-02    1.57       1.0  T
   3    -38.3031456  0.141784E-05  0.143E-02    1.56       1.3  T
   4    -38.3031474 -0.187477E-05  0.342E-03    1.57       5.3  T
   5    -38.3031474 -0.944105E-08  0.236E-03    1.57       7.6  T
   6    -38.3031474 -0.393217E-08  0.110E-03    1.57      16.3  T
   7    -38.3031475 -0.139899E-07  0.481E-04    1.57      37.4  T
   8    -38.3031475 -0.743377E-09  0.195E-04    1.57      92.0  T
     SCC iter.                  ...        0 min,  0.207 sec
     gradient                   ...        0 min,  0.068 sec
 * total energy  :   -37.6714923 Eh     change       -0.7965794E-04 Eh
   gradient norm :     0.0050465 Eh/α   predicted    -0.6962581E-04 ( -12.59%)
   displ. norm   :     0.1543641 α      lambda       -0.6667325E-04
   maximum displ.:     0.0983839 α      in ANC's #2, #3, #1, ...

........................................................................
.............................. CYCLE   36 ..............................
........................................................................
   1    -38.2999296 -0.382999E+02  0.395E-02    1.56       0.0  T
   2    -38.2999306 -0.997335E-06  0.275E-02    1.57       1.0  T
   3    -38.2999285  0.204135E-05  0.122E-02    1.56       1.5  T
   4    -38.2999312 -0.264429E-05  0.333E-03    1.57       5.4  T
   5    -38.2999312 -0.397658E-07  0.219E-03    1.57       8.2  T
   6    -38.2999312 -0.156993E-07  0.711E-04    1.57      25.3  T
   7    -38.2999312 -0.546208E-08  0.284E-04    1.57      63.2  T
     SCC iter.                  ...        0 min,  0.199 sec
     gradient                   ...        0 min,  0.036 sec
 * total energy  :   -37.6715270 Eh     change       -0.3464354E-04 Eh
   gradient norm :     0.0051511 Eh/α   predicted    -0.3413444E-04 (  -1.47%)
   displ. norm   :     0.0887551 α      lambda       -0.5690800E-04
   maximum displ.:     0.0481903 α      in ANC's #4, #8, #13, ...

........................................................................
.............................. CYCLE   37 ..............................
........................................................................
   1    -38.3019225 -0.383019E+02  0.368E-02    1.57       0.0  T
   2    -38.3019234 -0.926919E-06  0.242E-02    1.57       1.0  T
   3    -38.3019225  0.919659E-06  0.119E-02    1.57       1.5  T
   4    -38.3019240 -0.148171E-05  0.411E-03    1.57       4.4  T
   5    -38.3019240 -0.490933E-07  0.263E-03    1.57       6.8  T
   6    -38.3019240 -0.248637E-07  0.731E-04    1.57      24.6  T
   7    -38.3019240 -0.466927E-08  0.369E-04    1.57      48.7  T
     SCC iter.                  ...        0 min,  0.208 sec
     gradient                   ...        0 min,  0.008 sec
 * total energy  :   -37.6715619 Eh     change       -0.3489829E-04 Eh
   gradient norm :     0.0041361 Eh/α   predicted    -0.2868231E-04 ( -17.81%)
   displ. norm   :     0.0892465 α      lambda       -0.2038844E-04
   maximum displ.:     0.0465985 α      in ANC's #2, #4, #7, ...

........................................................................
.............................. CYCLE   38 ..............................
........................................................................
   1    -38.3021289 -0.383021E+02  0.298E-02    1.57       0.0  T
   2    -38.3021291 -0.205625E-06  0.196E-02    1.57       1.0  T
   3    -38.3021288  0.311932E-06  0.579E-03    1.57       3.1  T
   4    -38.3021292 -0.427694E-06  0.249E-03    1.57       7.2  T
   5    -38.3021292 -0.523262E-08  0.151E-03    1.57      11.9  T
   6    -38.3021292 -0.100569E-07  0.435E-04    1.57      41.3  T
   7    -38.3021292 -0.125166E-08  0.256E-04    1.57      70.1  T
     SCC iter.                  ...        0 min,  0.211 sec
     gradient                   ...        0 min,  0.111 sec
 * total energy  :   -37.6715746 Eh     change       -0.1271125E-04 Eh
   gradient norm :     0.0014876 Eh/α   predicted    -0.1027820E-04 ( -19.14%)
   displ. norm   :     0.0649948 α      lambda       -0.9552527E-05
   maximum displ.:     0.0337574 α      in ANC's #4, #7, #2, ...

........................................................................
.............................. CYCLE   39 ..............................
........................................................................
   1    -38.3021785 -0.383022E+02  0.384E-02    1.57       0.0  T
   2    -38.3021790 -0.454732E-06  0.248E-02    1.57       1.0  T
   3    -38.3021783  0.669520E-06  0.928E-03    1.57       1.9  T
   4    -38.3021793 -0.950663E-06  0.316E-03    1.57       5.7  T
   5    -38.3021793  0.201037E-08  0.164E-03    1.57      10.9  T
   6    -38.3021793 -0.116737E-07  0.557E-04    1.57      32.3  T
   7    -38.3021793 -0.116128E-08  0.322E-04    1.57      55.8  T
     SCC iter.                  ...        0 min,  0.189 sec
     gradient                   ...        0 min,  0.005 sec
 * total energy  :   -37.6715796 Eh     change       -0.5052314E-05 Eh
   gradient norm :     0.0035377 Eh/α   predicted    -0.4786251E-05 (  -5.27%)
   displ. norm   :     0.0200923 α      lambda       -0.6485937E-05
   maximum displ.:     0.0102612 α      in ANC's #7, #8, #2, ...

........................................................................
.............................. CYCLE   40 ..............................
........................................................................
   1    -38.3022580 -0.383023E+02  0.969E-03    1.57       0.0  T
   2    -38.3022581 -0.956887E-07  0.610E-03    1.57       2.9  T
   3    -38.3022581  0.406546E-07  0.324E-03    1.57       5.5  T
   4    -38.3022582 -0.749478E-07  0.716E-04    1.57      25.1  T
   5    -38.3022582 -0.354623E-08  0.477E-04    1.57      37.6  T
     SCC iter.                  ...        0 min,  0.145 sec
     gradient                   ...        0 min,  0.008 sec
 * total energy  :   -37.6715839 Eh     change       -0.4277389E-05 Eh
   gradient norm :     0.0024748 Eh/α   predicted    -0.3247151E-05 ( -24.09%)
   displ. norm   :     0.0165995 α      lambda       -0.4160752E-05
   maximum displ.:     0.0089809 α      in ANC's #2, #7, #5, ...

........................................................................
.............................. CYCLE   41 ..............................
........................................................................
   1    -38.3020920 -0.383021E+02  0.875E-03    1.57       0.0  T
   2    -38.3020920 -0.351176E-07  0.578E-03    1.57       3.1  T
   3    -38.3020919  0.585464E-07  0.242E-03    1.57       7.4  T
   4    -38.3020920 -0.751679E-07  0.663E-04    1.57      27.1  T
   5    -38.3020920 -0.114418E-08  0.452E-04    1.57      39.8  T
     SCC iter.                  ...        0 min,  0.139 sec
     gradient                   ...        0 min,  0.022 sec
 * total energy  :   -37.6715867 Eh     change       -0.2830481E-05 Eh
   gradient norm :     0.0007959 Eh/α   predicted    -0.2084606E-05 ( -26.35%)
   displ. norm   :     0.0289578 α      lambda       -0.2789513E-05
   maximum displ.:     0.0145365 α      in ANC's #5, #7, #2, ...

   *** GEOMETRY OPTIMIZATION CONVERGED AFTER 41 ITERATIONS ***

------------------------------------------------------------------------
 total energy gain   :        -2.5235953 Eh    -1583.5799 kcal/mol
 total RMSD          :         1.6325368 a0        0.8639 Å
 total power (kW/mol):      -161.6024020 (step) -738.2083 (real)
------------------------------------------------------------------------

 ANCopt (total)                0 d,  0 h,  0 min,  8.975 sec
 optimizer setup                ...        0 min,  0.001 sec (  0.007%)
 model hessian                  ...        0 min,  0.017 sec (  0.192%)
 ANC generation                 ...        0 min,  0.003 sec (  0.039%)
 coordinate transformation      ...        0 min,  0.001 sec (  0.006%)
 single point calculation       ...        0 min,  8.815 sec ( 98.217%)
 optimization log               ...        0 min,  0.004 sec (  0.045%)
 hessian update                 ...        0 min,  0.071 sec (  0.787%)
 rational function              ...        0 min,  0.061 sec (  0.677%)

================
 final structure:
================
31
 xtb: 6.5.1 (b24c23e)
Zr          -0.58893199776250       -0.68596481003906        0.13006482988966
C           -1.94886876349801       -2.24780811930783       -0.27105783433541
C            1.71615686721477        0.01266755133810        0.84028831447574
C            1.80494350279953       -0.54054729053233       -0.45700419645369
C            1.45380142808259       -1.91580573241533       -0.37104296547121
C            1.12695183740483       -2.19748506089132        0.98139438967869
C            1.25420591842377       -0.99315812300556        1.72442801687772
H            2.05672662451347        0.99929981601153        1.13036907792625
H            2.24783082147632       -0.05729160516800       -1.32221857241010
H            1.59452901991604       -2.65299990806574       -1.15573071471730
H            0.95987362920293       -3.18377411799060        1.40115558275952
H            1.22256879517471       -0.91605118515582        2.80797322239721
C           -0.62806295244768        1.71016794607191       -0.35187396005401
C           -0.99626277863187        1.56617598736798        1.01036690310282
C           -2.22785484768021        0.86402331912446        1.06169887831271
C           -2.62771664547047        0.58549273985564       -0.27210151723633
C           -1.62217873482275        1.08355482062165       -1.14764468187417
H            0.18765448141426        2.32065429548354       -0.72487058218988
H           -0.51743476113072        2.05865849384545        1.85085963547686
H           -2.84731661813927        0.73413796031719        1.94388464186945
H           -3.59559179196020        0.20472397124928       -0.57454934363624
H           -1.71134916364716        1.15937289516882       -2.22762579650390
H           -0.98667558559948       -2.73686143838005       -0.51282449108739
H           -2.71769551142671       -2.46511429044704       -1.01212279698829
C           -2.37772557521073       -2.62818546394313        1.15469432178579
H           -1.71281533516538       -2.12281043735368        1.91311299641523
H           -3.40565759344219       -2.28666587681791        1.32903760751340
C           -2.32075327821799       -4.14275645269843        1.40014616986754
H           -1.31312161760460       -4.52315630381832        1.23305988397971
H           -2.61692070593389       -4.38654682267779        2.41706925773011
H           -2.99611559781680       -4.65223057765517        0.71660458288907

 Bond Distances (Angstroems)
 ---------------------------
Zr1-C2=2.1094        Zr1-C3=2.5112        Zr1-C4=2.4691        Zr1-C5=2.4365        Zr1-C6=2.4400        Zr1-C7=2.4563        
Zr1-C13=2.4444       Zr1-C14=2.4521       Zr1-C15=2.4406       Zr1-C16=2.4362       Zr1-C17=2.4148       Zr1-H23=2.1858       
Zr1-C25=2.8323       C2-Zr1=2.1094        C2-H23=1.1061        C2-H24=1.0897        C2-C25=1.5367        C3-Zr1=2.5112        
C3-C4=1.4131         C3-C7=1.4166         C3-H8=1.0833         C4-Zr1=2.4691        C4-C3=1.4131         C4-C5=1.4220         
C4-H9=1.0855         C5-Zr1=2.4365        C5-C4=1.4220         C5-C6=1.4196         C5-H10=1.0858        C6-Zr1=2.4400        
C6-C5=1.4196         C6-C7=1.4208         C6-H11=1.0848        C7-Zr1=2.4563        C7-C3=1.4166         C7-C6=1.4208         
C7-H12=1.0867        H8-C3=1.0833         H9-C4=1.0855         H10-C5=1.0858        H11-C6=1.0848        H12-C7=1.0867        
C13-Zr1=2.4444       C13-C14=1.4185       C13-C17=1.4192       C13-H18=1.0850       C14-Zr1=2.4521       C14-C13=1.4185       
C14-C15=1.4186       C14-H19=1.0855       C15-Zr1=2.4406       C15-C14=1.4186       C15-C16=1.4200       C15-H20=1.0858       
C16-Zr1=2.4362       C16-C15=1.4200       C16-C17=1.4233       C16-H21=1.0832       C17-Zr1=2.4148       C17-C13=1.4192       
C17-C16=1.4233       C17-H22=1.0863       H18-C13=1.0850       H19-C14=1.0855       H20-C15=1.0858       H21-C16=1.0832       
H22-C17=1.0863       H23-Zr1=2.1858       H23-C2=1.1061        H24-C2=1.0897        C25-Zr1=2.8323       C25-C2=1.5367        
C25-H26=1.1281       C25-H27=1.0971       C25-C28=1.5354       H26-C25=1.1281       H27-C25=1.0971       C28-C25=1.5354       
C28-H29=1.0899       C28-H30=1.0869       C28-H31=1.0876       H29-C28=1.0899       H30-C28=1.0869       H31-C28=1.0876       
 C  H  Rav=1.0904 sigma=0.0109  Rmin=1.0832  Rmax=1.1281    17
 C  C  Rav=1.4386 sigma=0.0436  Rmin=1.4131  Rmax=1.5367    12
 Zr H  Rav=2.1858 sigma=0.0000  Rmin=2.1858  Rmax=2.1858     1
 Zr C  Rav=2.4536 sigma=0.1494  Rmin=2.1094  Rmax=2.8323    12

 selected bond angles (degree)
 --------------------
C3-Zr1-C2=148.38               C4-Zr1-C2=128.57               C4-Zr1-C3= 32.95               C5-Zr1-C2= 97.33               
C5-Zr1-C3= 55.18               C5-Zr1-C4= 33.69               C6-Zr1-C2= 93.50               C6-Zr1-C3= 55.12               
C6-Zr1-C4= 55.78               C6-Zr1-C5= 33.85               C7-Zr1-C2=120.97               C7-Zr1-C3= 33.12               
C7-Zr1-C4= 55.54               C7-Zr1-C5= 56.03               C7-Zr1-C6= 33.74               C13-Zr1-C2=132.69              
C13-Zr1-C3= 78.33              C13-Zr1-C4= 84.89              C13-Zr1-C5=117.88              C13-Zr1-C6=133.41              
C13-Zr1-C7=105.22              C14-Zr1-C2=129.88              C14-Zr1-C3= 78.20              C14-Zr1-C4=101.09              
C14-Zr1-C5=132.59              C14-Zr1-C6=124.09              C14-Zr1-C7= 90.37              C14-Zr1-C13= 33.68             
C15-Zr1-C2= 96.31              C15-Zr1-C3=109.38              C15-Zr1-C4=134.78              C15-Zr1-C5=164.17              
C15-Zr1-C6=137.09              C15-Zr1-C7=109.61              C15-Zr1-C13= 56.08             C15-Zr1-C14= 33.71             
C16-Zr1-C2= 79.37              C16-Zr1-C3=132.04              C16-Zr1-C4=137.85              C16-Zr1-C5=158.61              
C16-Zr1-C6=165.79              C16-Zr1-C7=143.17              C16-Zr1-C13= 56.11             C16-Zr1-C14= 56.01             
C16-Zr1-C15= 33.86             C17-Zr1-C2= 99.56              C17-Zr1-C3=109.79              C17-Zr1-C4=104.23              
C17-Zr1-C5=128.30              C17-Zr1-C6=159.96              C17-Zr1-C7=139.13              C17-Zr1-C13= 33.96             
C17-Zr1-C14= 56.35             C17-Zr1-C15= 56.58             C17-Zr1-C16= 34.12             H23-Zr1-C2= 29.78              
H23-Zr1-C3=120.75              H23-Zr1-C4= 99.31              H23-Zr1-C5= 67.57              H23-Zr1-C6= 69.47              
H23-Zr1-C7=102.13              H23-Zr1-C13=149.19             H23-Zr1-C14=159.57             H23-Zr1-C15=125.87             
H23-Zr1-C16=106.79             H23-Zr1-C17=117.01             C25-Zr1-C2= 32.21              C25-Zr1-C3=131.93              
C25-Zr1-C4=137.62              C25-Zr1-C5=104.94              C25-Zr1-C6= 83.86              C25-Zr1-C7= 98.82              
C25-Zr1-C13=137.17             C25-Zr1-C14=113.27             C25-Zr1-C15= 82.72             C25-Zr1-C16= 83.63             
C25-Zr1-C17=115.07             C25-Zr1-H23= 49.31             H23-C2-Zr1= 78.94              H24-C2-Zr1=137.04              
H24-C2-H23=112.14              C25-C2-Zr1=100.76              C25-C2-H23=109.64              C25-C2-H24=112.63              
C4-C3-Zr1= 71.89               C7-C3-Zr1= 71.32               C7-C3-C4=108.39                H8-C3-Zr1=128.15               
H8-C3-C4=125.63                H8-C3-C7=125.59                C3-C4-Zr1= 75.16               C5-C4-Zr1= 71.90               
C5-C4-C3=107.92                H9-C4-Zr1=127.68               H9-C4-C3=125.67                H9-C4-C5=125.42                
C4-C5-Zr1= 74.41               C6-C5-Zr1= 73.21               C6-C5-C4=107.84                H10-C5-Zr1=126.87              
H10-C5-C4=125.52               H10-C5-C6=125.70               C5-C6-Zr1= 72.94               C7-C6-Zr1= 73.76               
C7-C6-C5=108.02                H11-C6-Zr1=126.15              H11-C6-C5=125.77               H11-C6-C7=125.60               
C3-C7-Zr1= 75.57               C6-C7-Zr1= 72.50               C6-C7-C3=107.74                H12-C7-Zr1=128.06              
H12-C7-C3=125.55               H12-C7-C6=125.38               

 selected dihedral angles (degree)
 ---------------------------------
H23-C2-Zr1-C3=331.06          H23-C2-Zr1-C4= 12.31          H23-C2-Zr1-C5=358.31          H23-C2-Zr1-C6=324.52          
H23-C2-Zr1-C7=303.74          H23-C2-Zr1-C13=137.79         H23-C2-Zr1-C14=182.99         H23-C2-Zr1-C15=186.35         
H23-C2-Zr1-C16=156.91         H23-C2-Zr1-C17=129.26         H23-C2-Zr1-C25=251.85         H24-C2-Zr1-C3=220.36          
H24-C2-Zr1-C4=261.60          H24-C2-Zr1-C5=247.60          H24-C2-Zr1-C6=213.81          H24-C2-Zr1-C7=193.04          
H24-C2-Zr1-C13= 27.08         H24-C2-Zr1-C14= 72.28         H24-C2-Zr1-C15= 75.64         H24-C2-Zr1-C16= 46.20         
H24-C2-Zr1-C17= 18.55         H24-C2-Zr1-H23=249.29         H24-C2-Zr1-C25=141.15         C25-C2-Zr1-C3= 79.21          
C25-C2-Zr1-C4=120.45          C25-C2-Zr1-C5=106.46          C25-C2-Zr1-C6= 72.66          C25-C2-Zr1-C7= 51.89          
C25-C2-Zr1-C13=245.93         C25-C2-Zr1-C14=291.14         C25-C2-Zr1-C15=294.50         C25-C2-Zr1-C16=265.05         
C25-C2-Zr1-C17=237.40         C25-C2-Zr1-H23=108.15         C4-C3-Zr1-C2= 71.37           C4-C3-Zr1-C5= 37.79           
C4-C3-Zr1-C6= 79.34           C4-C3-Zr1-C7=117.45           C4-C3-Zr1-C13=261.29          C4-C3-Zr1-C14=226.88          
C4-C3-Zr1-C15=213.88          C4-C3-Zr1-C16=243.63          C4-C3-Zr1-C17=274.28          C4-C3-Zr1-H23= 55.13          
C4-C3-Zr1-C25=116.10          C7-C3-Zr1-C2=313.92           C7-C3-Zr1-C4=242.55           C7-C3-Zr1-C5=280.34           
C7-C3-Zr1-C6=321.89           C7-C3-Zr1-C13=143.84          C7-C3-Zr1-C14=109.42          C7-C3-Zr1-C15= 96.42          
C7-C3-Zr1-C16=126.17          C7-C3-Zr1-C17=156.83          C7-C3-Zr1-H23=297.68          C7-C3-Zr1-C25=358.65          
H8-C3-Zr1-C2=192.87           H8-C3-Zr1-C4=121.50           H8-C3-Zr1-C5=159.29           H8-C3-Zr1-C6=200.85           
H8-C3-Zr1-C7=238.96           H8-C3-Zr1-C13= 22.80          H8-C3-Zr1-C14=348.38          H8-C3-Zr1-C15=335.38          
H8-C3-Zr1-C16=  5.13          H8-C3-Zr1-C17= 35.78          H8-C3-Zr1-H23=176.64          H8-C3-Zr1-C25=237.60          
C3-C4-Zr1-C2=219.45           C3-C4-Zr1-C5=245.07           C3-C4-Zr1-C6=282.84           C3-C4-Zr1-C7=323.99           
C3-C4-Zr1-C13= 76.39          C3-C4-Zr1-C14= 46.72          C3-C4-Zr1-C15= 47.80          C3-C4-Zr1-C16= 97.49          
C3-C4-Zr1-C17=104.52          C3-C4-Zr1-H23=225.61          C3-C4-Zr1-C25=262.43          C5-C4-Zr1-C2=334.37           
C5-C4-Zr1-C3=114.93           C5-C4-Zr1-C6= 37.77           C5-C4-Zr1-C7= 78.91           C5-C4-Zr1-C13=191.31          
C5-C4-Zr1-C14=161.65          C5-C4-Zr1-C15=162.73          C5-C4-Zr1-C16=212.41          C5-C4-Zr1-C17=219.45          
C5-C4-Zr1-H23=340.53          C5-C4-Zr1-C25= 17.35          H9-C4-Zr1-C2= 95.56           H9-C4-Zr1-C3=236.11           
H9-C4-Zr1-C5=121.19           H9-C4-Zr1-C6=158.96           H9-C4-Zr1-C7=200.10           H9-C4-Zr1-C13=312.50          
H9-C4-Zr1-C14=282.84          H9-C4-Zr1-C15=283.92          H9-C4-Zr1-C16=333.60          H9-C4-Zr1-C17=340.64          
H9-C4-Zr1-H23=101.72          H9-C4-Zr1-C25=138.54          Zr1-C4-C3-C7= 62.36           Zr1-C4-C3-H8=235.59           
C5-C4-C3-Zr1=295.06           C5-C4-C3-C7=357.41            C5-C4-C3-H8=170.64            H9-C4-C3-Zr1=126.03           
H9-C4-C3-C7=188.39            H9-C4-C3-H8=  1.62            C4-C5-Zr1-C2=160.07           C4-C5-Zr1-C3=323.07           
C4-C5-Zr1-C6=245.39           C4-C5-Zr1-C7=282.67           C4-C5-Zr1-C13= 12.77          C4-C5-Zr1-C14=335.19          
C4-C5-Zr1-C15=309.41          C4-C5-Zr1-C16= 80.52          C4-C5-Zr1-C17= 51.70          C4-C5-Zr1-H23=159.16          
C4-C5-Zr1-C25=192.01          C6-C5-Zr1-C2=274.67           C6-C5-Zr1-C3= 77.67           C6-C5-Zr1-C4=114.61           
C6-C5-Zr1-C7= 37.28           C6-C5-Zr1-C13=127.38          C6-C5-Zr1-C14= 89.79          C6-C5-Zr1-C15= 64.02          
C6-C5-Zr1-C16=195.12          C6-C5-Zr1-C17=166.31          C6-C5-Zr1-H23=273.76          C6-C5-Zr1-C25=306.61          
H10-C5-Zr1-C2= 37.06          H10-C5-Zr1-C3=200.07          H10-C5-Zr1-C4=237.00          H10-C5-Zr1-C6=122.39          
H10-C5-Zr1-C7=159.67          H10-C5-Zr1-C13=249.77         H10-C5-Zr1-C14=212.18         H10-C5-Zr1-C15=186.41         
H10-C5-Zr1-C16=317.52         H10-C5-Zr1-C17=288.70         H10-C5-Zr1-H23= 36.16         H10-C5-Zr1-C25= 69.01         
Zr1-C5-C4-C3= 67.11           Zr1-C5-C4-H9=236.17           C6-C5-C4-Zr1=293.88           C6-C5-C4-C3=  0.99            
C6-C5-C4-H9=170.05            H10-C5-C4-Zr1=124.48          H10-C5-C4-C3=191.60           H10-C5-C4-H9=  0.66           
C5-C6-Zr1-C2= 97.96           C5-C6-Zr1-C3=282.14           C5-C6-Zr1-C4=322.41           C5-C6-Zr1-C7=244.75           
C5-C6-Zr1-C13=284.77          C5-C6-Zr1-C14=242.75          C5-C6-Zr1-C15=201.11          C5-C6-Zr1-C16=157.19          
C5-C6-Zr1-C17=327.18          C5-C6-Zr1-H23= 80.03          C5-C6-Zr1-C25=128.74          C7-C6-Zr1-C2=213.20           
C7-C6-Zr1-C3= 37.38           C7-C6-Zr1-C4= 77.66           C7-C6-Zr1-C5=115.25           C7-C6-Zr1-C13= 40.01          
C7-C6-Zr1-C14=358.00          C7-C6-Zr1-C15=316.35          C7-C6-Zr1-C16=272.44          C7-C6-Zr1-C17= 82.42          
C7-C6-Zr1-H23=195.27          C7-C6-Zr1-C25=243.98          H11-C6-Zr1-C2=335.75          H11-C6-Zr1-C3=159.93          
H11-C6-Zr1-C4=200.21          H11-C6-Zr1-C5=237.79          H11-C6-Zr1-C7=122.55          H11-C6-Zr1-C13=162.56         
H11-C6-Zr1-C14=120.55         H11-C6-Zr1-C15= 78.90         H11-C6-Zr1-C16= 34.99         H11-C6-Zr1-C17=204.97         
H11-C6-Zr1-H23=317.82         H11-C6-Zr1-C25=  6.53         Zr1-C6-C5-C4= 66.93           Zr1-C6-C5-H10=236.29          
C7-C6-C5-Zr1=294.05           C7-C6-C5-C4=  0.97            C7-C6-C5-H10=170.34           H11-C6-C5-Zr1=122.64          
H11-C6-C5-C4=189.57           H11-C6-C5-H10=358.93          C3-C7-Zr1-C2=153.87           C3-C7-Zr1-C4= 35.83           
C3-C7-Zr1-C5= 76.86           C3-C7-Zr1-C6=114.26           C3-C7-Zr1-C13=323.21          C3-C7-Zr1-C14=292.61          
C3-C7-Zr1-C15=264.34          C3-C7-Zr1-C16=270.12          C3-C7-Zr1-C17=325.54          C3-C7-Zr1-H23=128.88          
C3-C7-Zr1-C25=178.98          C6-C7-Zr1-C2= 39.60           C6-C7-Zr1-C3=245.74           C6-C7-Zr1-C4=281.57           
C6-C7-Zr1-C5=322.59           C6-C7-Zr1-C13=208.95          C6-C7-Zr1-C14=178.34          C6-C7-Zr1-C15=150.08          
C6-C7-Zr1-C16=155.86          C6-C7-Zr1-C17=211.28          C6-C7-Zr1-H23= 14.62          C6-C7-Zr1-C25= 64.72          
H12-C7-Zr1-C2=277.99          H12-C7-Zr1-C3=124.12          H12-C7-Zr1-C4=159.96          H12-C7-Zr1-C5=200.98          
H12-C7-Zr1-C6=238.39          H12-C7-Zr1-C13= 87.34         H12-C7-Zr1-C14= 56.73         H12-C7-Zr1-C15= 28.47         
H12-C7-Zr1-C16= 34.24         H12-C7-Zr1-C17= 89.66         H12-C7-Zr1-H23=253.00         H12-C7-Zr1-C25=303.10         
Zr1-C7-C3-C4=297.28           Zr1-C7-C3-H8=124.04           C6-C7-C3-Zr1= 65.91           C6-C7-C3-C4=  3.18            
C6-C7-C3-H8=189.95            H12-C7-C3-Zr1=233.24          H12-C7-C3-C4=170.52           H12-C7-C3-H8=357.28           
Zr1-C7-C6-C5= 65.41           Zr1-C7-C6-H11=236.83          C3-C7-C6-Zr1=292.04           C3-C7-C6-C5=357.44            
C3-C7-C6-H11=168.87           H12-C7-C6-Zr1=124.67          H12-C7-C6-C5=190.08           H12-C7-C6-H11=  1.50          
           -------------------------------------------------
          |                Final Singlepoint                |
           -------------------------------------------------

          ...................................................
          :                      SETUP                      :
          :.................................................:
          :  # basis functions                  79          :
          :  # atomic orbitals                  78          :
          :  # shells                           46          :
          :  # electrons                        72          :
          :  max. iterations                   250          :
          :  Hamiltonian                  GFN2-xTB          :
          :  restarted?                      false          :
          :  GBSA solvation                  false          :
          :  PC potential                    false          :
          :  electronic temp.          300.0000000     K    :
          :  accuracy                    1.0000000          :
          :  -> integral cutoff          0.2500000E+02      :
          :  -> integral neglect         0.1000000E-07      :
          :  -> SCF convergence          0.1000000E-05 Eh   :
          :  -> wf. convergence          0.1000000E-03 e    :
          :  Broyden damping             0.4000000          :
          ...................................................

 iter      E             dE          RMSdq      gap      omega  full diag
   1    -38.3020920 -0.383021E+02  0.175E-04    1.57       0.0  T
   2    -38.3020920 -0.571418E-10  0.134E-04    1.57     134.2  T
   3    -38.3020920 -0.545484E-10  0.928E-05    1.57     193.6  T

   *** convergence criteria satisfied after 3 iterations ***

         #    Occupation            Energy/Eh            Energy/eV
      -------------------------------------------------------------
         1        2.0000           -0.8752954             -23.8180
       ...           ...                  ...                  ...
        30        2.0000           -0.5668109             -15.4237
        31        2.0000           -0.5603831             -15.2488
        32        2.0000           -0.5310883             -14.4516
        33        2.0000           -0.5277346             -14.3604
        34        2.0000           -0.5168464             -14.0641
        35        2.0000           -0.5132559             -13.9664
        36        2.0000           -0.4865210             -13.2389 (HOMO)
        37                         -0.4288289             -11.6690 (LUMO)
        38                         -0.4256019             -11.5812
        39                         -0.4121820             -11.2160
        40                         -0.4072209             -11.0810
        41                         -0.3807849             -10.3617
       ...                                ...                  ...
        78                          2.5704161              69.9446
      -------------------------------------------------------------
                  HL-Gap            0.0576921 Eh            1.5699 eV
             Fermi-level           -0.4576750 Eh          -12.4540 eV

 SCC (total)                   0 d,  0 h,  0 min,  0.096 sec
 SCC setup                      ...        0 min,  0.000 sec (  0.132%)
 Dispersion                     ...        0 min,  0.000 sec (  0.112%)
 classical contributions        ...        0 min,  0.000 sec (  0.031%)
 integral evaluation            ...        0 min,  0.004 sec (  4.668%)
 iterations                     ...        0 min,  0.084 sec ( 87.762%)
 molecular gradient             ...        0 min,  0.007 sec (  7.099%)
 printout                       ...        0 min,  0.000 sec (  0.171%)

         :::::::::::::::::::::::::::::::::::::::::::::::::::::
         ::                     SUMMARY                     ::
         :::::::::::::::::::::::::::::::::::::::::::::::::::::
         :: total energy             -37.671586747662 Eh    ::
         :: gradient norm              0.000797010459 Eh/a0 ::
         :: HOMO-LUMO gap              1.569882061014 eV    ::
         ::.................................................::
         :: SCC energy               -38.302092009135 Eh    ::
         :: -> isotropic ES            0.087553032040 Eh    ::
         :: -> anisotropic ES         -0.010959215698 Eh    ::
         :: -> anisotropic XC          0.016194636869 Eh    ::
         :: -> dispersion             -0.026430454831 Eh    ::
         :: repulsion energy           0.629863245300 Eh    ::
         :: add. restraining           0.000120033300 Eh    ::
         :: total charge               1.000000000000 e     ::
         :::::::::::::::::::::::::::::::::::::::::::::::::::::

           -------------------------------------------------
          |                Property Printout                |
           -------------------------------------------------

    * Orbital Energies and Occupations

         #    Occupation            Energy/Eh            Energy/eV
      -------------------------------------------------------------
         1        2.0000           -0.8752954             -23.8180
       ...           ...                  ...                  ...
        24        2.0000           -0.5982254             -16.2785
        25        2.0000           -0.5966700             -16.2362
        26        2.0000           -0.5963374             -16.2272
        27        2.0000           -0.5943443             -16.1729
        28        2.0000           -0.5929931             -16.1362
        29        2.0000           -0.5863242             -15.9547
        30        2.0000           -0.5668109             -15.4237
        31        2.0000           -0.5603831             -15.2488
        32        2.0000           -0.5310883             -14.4516
        33        2.0000           -0.5277346             -14.3604
        34        2.0000           -0.5168464             -14.0641
        35        2.0000           -0.5132559             -13.9664
        36        2.0000           -0.4865210             -13.2389 (HOMO)
        37                         -0.4288289             -11.6690 (LUMO)
        38                         -0.4256019             -11.5812
        39                         -0.4121820             -11.2160
        40                         -0.4072209             -11.0810
        41                         -0.3807849             -10.3617
        42                         -0.3142146              -8.5502
        43                         -0.3131533              -8.5213
        44                         -0.3122530              -8.4968
        45                         -0.3087715              -8.4021
        46                         -0.0829843              -2.2581
        47                         -0.0361500              -0.9837
       ...                                ...                  ...
        78                          2.5704161              69.9446
      -------------------------------------------------------------
                  HL-Gap            0.0576921 Eh            1.5699 eV
             Fermi-level           -0.4576750 Eh          -12.4540 eV

     #   Z          covCN         q      C6AA      α(0)
     1  40 Zr       9.476     0.945   138.967    17.713
     2   6 C        3.632    -0.291    27.006     7.481
     3   6 C        3.734    -0.079    22.093     6.709
     4   6 C        3.749    -0.086    22.206     6.721
     5   6 C        3.763    -0.087    22.203     6.717
     6   6 C        3.763    -0.087    22.200     6.716
     7   6 C        3.753    -0.091    22.291     6.732
     8   1 H        0.925     0.089     1.890     2.150
     9   1 H        0.925     0.081     1.973     2.196
    10   1 H        0.925     0.076     2.024     2.225
    11   1 H        0.925     0.083     1.945     2.181
    12   1 H        0.925     0.078     1.997     2.210
    13   6 C        3.759    -0.082    22.112     6.704
    14   6 C        3.755    -0.085    22.173     6.714
    15   6 C        3.757    -0.090    22.269     6.728
    16   6 C        3.763    -0.078    22.028     6.690
    17   6 C        3.765    -0.089    22.248     6.723
    18   1 H        0.925     0.094     1.837     2.120
    19   1 H        0.925     0.090     1.879     2.144
    20   1 H        0.925     0.090     1.879     2.144
    21   1 H        0.925     0.108     1.716     2.049
    22   1 H        0.925     0.089     1.891     2.151
    23   1 H        1.497     0.084     1.924     2.165
    24   1 H        0.925     0.087     1.905     2.158
    25   6 C        4.221    -0.050    21.376     6.566
    26   1 H        1.007     0.057     2.228     2.332
    27   1 H        0.924     0.081     1.971     2.196
    28   6 C        3.750    -0.115    22.772     6.806
    29   1 H        0.925     0.051     2.308     2.376
    30   1 H        0.925     0.057     2.231     2.336
    31   1 H        0.925     0.069     2.097     2.265

 Mol. C6AA /au·bohr⁶  :       9463.579656
 Mol. C8AA /au·bohr⁸  :     320609.038430
 Mol. α(0) /au        :        143.115569


Wiberg/Mayer (AO) data.
largest (>0.10) Wiberg bond orders for each atom

 ---------------------------------------------------------------------------
     #   Z sym  total        # sym  WBO       # sym  WBO       # sym  WBO
 ---------------------------------------------------------------------------
     1  40 Zr   4.287 --     2 C    0.866    17 C    0.288    15 C    0.270
                            16 C    0.267     7 C    0.255     5 C    0.253
                            14 C    0.252    13 C    0.247     4 C    0.241
                             6 C    0.234     3 C    0.199    25 C    0.147
                            23 H    0.134    26 H    0.112
     2   6 C    3.782 --    25 C    0.987    24 H    0.920     1 Zr   0.866
                            23 H    0.823
     3   6 C    3.978 --     4 C    1.327     7 C    1.310     8 H    0.926
                             1 Zr   0.199
     4   6 C    3.979 --     3 C    1.327     5 C    1.281     9 H    0.920
                             1 Zr   0.241
     5   6 C    3.980 --     6 C    1.298     4 C    1.281    10 H    0.922
                             1 Zr   0.253
     6   6 C    3.978 --     5 C    1.298     7 C    1.288    11 H    0.922
                             1 Zr   0.234
     7   6 C    3.979 --     3 C    1.310     6 C    1.288    12 H    0.916
                             1 Zr   0.255
     8   1 H    0.990 --     3 C    0.926
     9   1 H    0.991 --     4 C    0.920
    10   1 H    0.991 --     5 C    0.922
    11   1 H    0.990 --     6 C    0.922
    12   1 H    0.993 --     7 C    0.916
    13   6 C    3.980 --    14 C    1.305    17 C    1.294    18 H    0.920
                             1 Zr   0.247
    14   6 C    3.980 --    13 C    1.305    15 C    1.295    19 H    0.918
                             1 Zr   0.252
    15   6 C    3.979 --    14 C    1.295    16 C    1.290    20 H    0.916
                             1 Zr   0.270
    16   6 C    3.981 --    15 C    1.290    17 C    1.275    21 H    0.920
                             1 Zr   0.267
    17   6 C    3.980 --    13 C    1.294    16 C    1.275    22 H    0.914
                             1 Zr   0.288
    18   1 H    0.989 --    13 C    0.920
    19   1 H    0.991 --    14 C    0.918
    20   1 H    0.990 --    15 C    0.916
    21   1 H    0.985 --    16 C    0.920
    22   1 H    0.990 --    17 C    0.914
    23   1 H    0.992 --     2 C    0.823     1 Zr   0.134
    24   1 H    0.990 --     2 C    0.920
    25   6 C    3.986 --    28 C    0.998     2 C    0.987    27 H    0.952
                            26 H    0.846     1 Zr   0.147
    26   1 H    0.996 --    25 C    0.846     1 Zr   0.112
    27   1 H    0.992 --    25 C    0.952
    28   6 C    3.988 --    25 C    0.998    30 H    0.983    31 H    0.981
                            29 H    0.974
    29   1 H    0.996 --    28 C    0.974
    30   1 H    0.996 --    28 C    0.983
    31   1 H    0.995 --    28 C    0.981
 ---------------------------------------------------------------------------

Topologies differ in total number of bonds
Writing topology from bond orders to xtbtopo.mol

molecular dipole:
                 x           y           z       tot (Debye)
 q only:       -1.561      -1.505       0.585
   full:       -1.213      -1.685       0.453       5.401
molecular quadrupole (traceless):
                xx          xy          yy          xz          yz          zz
 q only:       -0.521       8.510       3.098      -3.401      -3.494      -2.578
  q+dip:       -3.702      11.767       3.366      -3.889      -2.448       0.336
   full:       -5.315       9.328       2.124      -4.540      -2.486       3.191

           -------------------------------------------------
          |                Geometry Summary                 |
           -------------------------------------------------

      molecular mass/u    :      264.4982010
   center of mass at/Å    :       -0.6003974      -0.7239388       0.3207423
  moments of inertia/u·Å² :        0.6522056E+03   0.7454901E+03   0.1120715E+04
rotational constants/cm⁻¹ :        0.2584712E-01   0.2261282E-01   0.1504186E-01

 * 40 selected distances

     #   Z          #   Z                                           value/Å
     1  40 Zr       2   6 C                                       2.1094271
     1  40 Zr       3   6 C                                       2.5111632 (max)
     1  40 Zr       4   6 C                                       2.4690965
     3   6 C        4   6 C                                       1.4131164
     1  40 Zr       5   6 C                                       2.4364685
     4   6 C        5   6 C                                       1.4219797
     1  40 Zr       6   6 C                                       2.4400233
     5   6 C        6   6 C                                       1.4195989
     1  40 Zr       7   6 C                                       2.4563225
     3   6 C        7   6 C                                       1.4166112
     6   6 C        7   6 C                                       1.4208083
     3   6 C        8   1 H                                       1.0833181
     4   6 C        9   1 H                                       1.0854867
     5   6 C       10   1 H                                       1.0858152
     6   6 C       11   1 H                                       1.0848414
     7   6 C       12   1 H                                       1.0867460
     1  40 Zr      13   6 C                                       2.4444324
     1  40 Zr      14   6 C                                       2.4521398
    13   6 C       14   6 C                                       1.4184517
     1  40 Zr      15   6 C                                       2.4405889
    14   6 C       15   6 C                                       1.4186165
     1  40 Zr      16   6 C                                       2.4361827
    15   6 C       16   6 C                                       1.4200326
     1  40 Zr      17   6 C                                       2.4148170
    13   6 C       17   6 C                                       1.4192116
    16   6 C       17   6 C                                       1.4232879
    13   6 C       18   1 H                                       1.0849955
    14   6 C       19   1 H                                       1.0854693
    15   6 C       20   1 H                                       1.0857509
    16   6 C       21   1 H                                       1.0831630 (min)
    17   6 C       22   1 H                                       1.0863053
     2   6 C       23   1 H                                       1.1060923
     2   6 C       24   1 H                                       1.0897220
     2   6 C       25   6 C                                       1.5366765
    25   6 C       26   1 H                                       1.1281439
    25   6 C       27   1 H                                       1.0971215
    25   6 C       28   6 C                                       1.5353886
    28   6 C       29   1 H                                       1.0899283
    28   6 C       30   1 H                                       1.0868678
    28   6 C       31   1 H                                       1.0876155

 * 3 distinct bonds (by element types)

   Z      Z             #   av. dist./Å        max./Å        min./Å
   1 H    6 C          17     1.0904343     1.1281439     1.0831630
   6 C    6 C          12     1.4386483     1.5366765     1.4131164
   6 C   40 Zr         11     2.4191511     2.5111632     2.1094271


optimized geometry written to: xtbopt.xyz


           -------------------------------------------------
          | TOTAL ENERGY              -37.671586747662 Eh   |
          | GRADIENT NORM               0.000797010459 Eh/α |
          | HOMO-LUMO GAP               1.569882061014 eV   |
           -------------------------------------------------

------------------------------------------------------------------------
 * finished run on 2026/07/20 at 17:13:21.392     
------------------------------------------------------------------------
 total:
 * wall-time:     0 d,  0 h,  0 min,  9.696 sec
 *  cpu-time:     0 d,  0 h,  1 min, 13.513 sec
 * ratio c/w:     7.582 speedup
 SCF:
 * wall-time:     0 d,  0 h,  0 min,  0.500 sec
 *  cpu-time:     0 d,  0 h,  0 min,  3.788 sec
 * ratio c/w:     7.582 speedup
 ANC optimizer:
 * wall-time:     0 d,  0 h,  0 min,  9.078 sec
 *  cpu-time:     0 d,  0 h,  1 min,  8.851 sec
 * ratio c/w:     7.584 speedup

