      -----------------------------------------------------------      
     |                   =====================                   |     
     |                           x T B                           |     
     |                   =====================                   |     
     |                         S. Grimme                         |     
     |          Mulliken Center for Theoretical Chemistry        |     
     |                    University of Bonn                     |     
      -----------------------------------------------------------      

   * xtb version 6.5.1 (b24c23e) compiled by 'conda@728c89f4b128' on 2022-07-12

   xtb is free software: you can redistribute it and/or modify it under
   the terms of the GNU Lesser General Public License as published by
   the Free Software Foundation, either version 3 of the License, or
   (at your option) any later version.
   
   xtb is distributed in the hope that it will be useful,
   but WITHOUT ANY WARRANTY; without even the implied warranty of
   MERCHANTABILITY or FITNESS FOR A PARTICULAR PURPOSE.  See the
   GNU Lesser General Public License for more details.
   
   Cite this work as:
   * C. Bannwarth, E. Caldeweyher, S. Ehlert, A. Hansen, P. Pracht,
     J. Seibert, S. Spicher, S. Grimme, WIREs Comput. Mol. Sci., 2020, 11,
     e01493. DOI: 10.1002/wcms.1493
   
   for GFN2-xTB:
   * C. Bannwarth, S. Ehlert and S. Grimme., J. Chem. Theory Comput., 2019,
     15, 1652-1671. DOI: 10.1021/acs.jctc.8b01176
   for GFN1-xTB:
   * S. Grimme, C. Bannwarth, P. Shushkov, J. Chem. Theory Comput., 2017,
     13, 1989-2009. DOI: 10.1021/acs.jctc.7b00118
   for GFN0-xTB:
   * P. Pracht, E. Caldeweyher, S. Ehlert, S. Grimme, ChemRxiv, 2019, preprint.
     DOI: 10.26434/chemrxiv.8326202.v1
   for GFN-FF:
   * S. Spicher and S. Grimme, Angew. Chem. Int. Ed., 2020, 59, 15665-15673.
     DOI: 10.1002/anie.202004239
   
   for ALPB and GBSA implicit solvation:
   * S. Ehlert, M. Stahn, S. Spicher, S. Grimme, J. Chem. Theory Comput.,
     2021, 17, 4250-4261. DOI: 10.1021/acs.jctc.1c00471
   
   for DFT-D4:
   * E. Caldeweyher, C. Bannwarth and S. Grimme, J. Chem. Phys., 2017,
     147, 034112. DOI: 10.1063/1.4993215
   * E. Caldeweyher, S. Ehlert, A. Hansen, H. Neugebauer, S. Spicher,
     C. Bannwarth and S. Grimme, J. Chem. Phys., 2019, 150, 154122.
     DOI: 10.1063/1.5090222
   * E. Caldeweyher, J.-M. Mewes, S. Ehlert and S. Grimme, Phys. Chem. Chem. Phys.
     2020, 22, 8499-8512. DOI: 10.1039/D0CP00502A
   
   for sTDA-xTB:
   * S. Grimme and C. Bannwarth, J. Chem. Phys., 2016, 145, 054103.
     DOI: 10.1063/1.4959605
   
   in the mass-spec context:
   * V. Asgeirsson, C. Bauer and S. Grimme, Chem. Sci., 2017, 8, 4879.
     DOI: 10.1039/c7sc00601b
   * J. Koopman and S. Grimme, ACS Omega 2019, 4, 12, 15120-15133.
     DOI: 10.1021/acsomega.9b02011
   
   for metadynamics refer to:
   * S. Grimme, J. Chem. Theory Comput., 2019, 155, 2847-2862
     DOI: 10.1021/acs.jctc.9b00143
   
   for SPH calculations refer to:
   * S. Spicher and S. Grimme, J. Chem. Theory Comput., 2021, 17, 1701-1714
     DOI: 10.1021/acs.jctc.0c01306
   
   with help from (in alphabetical order)
   P. Atkinson, C. Bannwarth, F. Bohle, G. Brandenburg, E. Caldeweyher
   M. Checinski, S. Dohm, S. Ehlert, S. Ehrlich, I. Gerasimov, C. Hölzer
   A. Katbashev, J. Koopman, C. Lavigne, S. Lehtola, F. März, M. Müller,
   F. Musil, H. Neugebauer, J. Pisarek, C. Plett, P. Pracht, F. Pultar,
   J. Seibert, P. Shushkov, S. Spicher, M. Stahn, M. Steiner, T. Strunk,
   J. Stückrath, T. Rose, and J. Unsleber
   
 * started run on 2026/07/20 at 17:12:50.802     

           -------------------------------------------------
          |                Calculation Setup                |
           -------------------------------------------------

          program call               : /h/332/chchoi/miniconda3/envs/el-agente/bin/xtb product.xyz --opt --gfn 2 -P 4 --chrg 1 --uhf 0 --input detailed_input.inp
          coordinate file            : product.xyz
          omp threads                :                     4

   ID    Z sym.   atoms
    1   40 Zr     1
    2    6 C      2-7, 13-17, 25, 28
    3    1 H      8-12, 18-24, 26, 27, 29-31
constraining bond 1 2 to    2.2500000 Å, actual value:    2.1754773 Å
constraining bond 1 25 to    3.2000000 Å, actual value:    2.7458643 Å

           -------------------------------------------------
          |                 G F N 2 - x T B                 |
           -------------------------------------------------

        Reference                      10.1021/acs.jctc.8b01176
      * Hamiltonian:
        H0-scaling (s, p, d)           1.850000    2.230000    2.230000
        zeta-weighting                 0.500000
      * Dispersion:
        s8                             2.700000
        a1                             0.520000
        a2                             5.000000
        s9                             5.000000
      * Repulsion:
        kExp                           1.500000    1.000000
        rExp                           1.000000
      * Coulomb:
        alpha                          2.000000
        third order                    shell-resolved
        anisotropic                    true
        a3                             3.000000
        a5                             4.000000
        cn-shift                       1.200000
        cn-exp                         4.000000
        max-rad                        5.000000


          ...................................................
          :                      SETUP                      :
          :.................................................:
          :  # basis functions                  79          :
          :  # atomic orbitals                  78          :
          :  # shells                           46          :
          :  # electrons                        72          :
          :  max. iterations                   250          :
          :  Hamiltonian                  GFN2-xTB          :
          :  restarted?                      false          :
          :  GBSA solvation                  false          :
          :  PC potential                    false          :
          :  electronic temp.          300.0000000     K    :
          :  accuracy                    1.0000000          :
          :  -> integral cutoff          0.2500000E+02      :
          :  -> integral neglect         0.1000000E-07      :
          :  -> SCF convergence          0.1000000E-05 Eh   :
          :  -> wf. convergence          0.1000000E-03 e    :
          :  Broyden damping             0.4000000          :
          ...................................................

 iter      E             dE          RMSdq      gap      omega  full diag
   1    -38.1906268 -0.381906E+02  0.832E+00    1.16       0.0  T
   2    -38.2889784 -0.983515E-01  0.479E+00    2.15       1.0  T
   3    -38.2744938  0.144845E-01  0.318E+00    1.19       1.0  T
   4    -38.3079371 -0.334433E-01  0.564E-01    1.93       1.0  T
   5    -38.3110233 -0.308623E-02  0.320E-01    1.72       1.0  T
   6    -38.3112441 -0.220748E-03  0.203E-01    1.76       1.0  T
   7    -38.3112091  0.349591E-04  0.132E-01    1.77       1.0  T
   8    -38.3113210 -0.111860E-03  0.295E-02    1.80       1.0  T
   9    -38.3113211 -0.872140E-07  0.210E-02    1.80       1.0  T
  10    -38.3113222 -0.111333E-05  0.696E-03    1.80       2.6  T
  11    -38.3113223 -0.137604E-06  0.446E-03    1.81       4.0  T
  12    -38.3113224 -0.431117E-07  0.178E-03    1.81      10.1  T
  13    -38.3113224 -0.113786E-07  0.925E-04    1.81      19.4  T
  14    -38.3113224 -0.309198E-08  0.414E-04    1.81      43.4  T

   *** convergence criteria satisfied after 14 iterations ***

         #    Occupation            Energy/Eh            Energy/eV
      -------------------------------------------------------------
         1        2.0000           -0.8733544             -23.7652
       ...           ...                  ...                  ...
        30        2.0000           -0.5664785             -15.4147
        31        2.0000           -0.5578184             -15.1790
        32        2.0000           -0.5326237             -14.4934
        33        2.0000           -0.5272389             -14.3469
        34        2.0000           -0.5178602             -14.0917
        35        2.0000           -0.5123638             -13.9421
        36        2.0000           -0.4943980             -13.4533 (HOMO)
        37                         -0.4280519             -11.6479 (LUMO)
        38                         -0.4224888             -11.4965
        39                         -0.4128493             -11.2342
        40                         -0.4047380             -11.0135
        41                         -0.3796014             -10.3295
       ...                                ...                  ...
        78                          2.5222780              68.6347
      -------------------------------------------------------------
                  HL-Gap            0.0663461 Eh            1.8054 eV
             Fermi-level           -0.4612249 Eh          -12.5506 eV

 SCC (total)                   0 d,  0 h,  0 min,  0.564 sec
 SCC setup                      ...        0 min,  0.007 sec (  1.175%)
 Dispersion                     ...        0 min,  0.021 sec (  3.638%)
 classical contributions        ...        0 min,  0.011 sec (  1.881%)
 integral evaluation            ...        0 min,  0.007 sec (  1.182%)
 iterations                     ...        0 min,  0.507 sec ( 89.772%)
 molecular gradient             ...        0 min,  0.013 sec (  2.298%)
 printout                       ...        0 min,  0.000 sec (  0.046%)

         :::::::::::::::::::::::::::::::::::::::::::::::::::::
         ::                     SUMMARY                     ::
         :::::::::::::::::::::::::::::::::::::::::::::::::::::
         :: total energy             -37.309284259607 Eh    ::
         :: gradient norm              1.308374552990 Eh/a0 ::
         :: HOMO-LUMO gap              1.805369193059 eV    ::
         ::.................................................::
         :: SCC energy               -38.311322389859 Eh    ::
         :: -> isotropic ES            0.086478050715 Eh    ::
         :: -> anisotropic ES         -0.011044614990 Eh    ::
         :: -> anisotropic XC          0.016491138298 Eh    ::
         :: -> dispersion             -0.026353009183 Eh    ::
         :: repulsion energy           0.623342303971 Eh    ::
         :: add. restraining           0.378163015341 Eh    ::
         :: total charge               1.000000000000 e     ::
         :::::::::::::::::::::::::::::::::::::::::::::::::::::

      ----------------------------------------------------------- 
     |                   =====================                   |
     |                        A N C O P T                        |
     |                   =====================                   |
     |               Approximate Normal Coordinate               |
     |                Rational Function Optimizer                |
      ----------------------------------------------------------- 

          ...................................................
          :                      SETUP                      :
          :.................................................:
          :   optimization level            normal          :
          :   max. optcycles                   200          :
          :   ANC micro-cycles                  20          :
          :   degrees of freedom                87          :
          :.................................................:
          :   RF solver                   davidson          :
          :   write xtbopt.log                true          :
          :   linear?                        false          :
          :   energy convergence         0.5000000E-05 Eh   :
          :   grad. convergence          0.1000000E-02 Eh/α :
          :   maximium RF displ.         1.0000000          :
          :   Hlow (freq-cutoff)         0.1000000E-01      :
          :   Hmax (freq-cutoff)         5.0000000          :
          :   S6 in model hess.         20.0000000          :
          ...................................................

generating ANC from model Hessian ...
Using Lindh-Hessian (1995)
 Shifting diagonal of input Hessian by   0.17850863176629855     
 Lowest  eigenvalues of input Hessian
    0.010000    0.055665    0.175361    0.000000    0.000000    0.000000
    0.000000    0.000000    0.000000    0.178925    0.178974    0.179632
    0.180171    0.182467    0.186137    0.186706    0.187028    0.187302
 Highest eigenvalues
    1.888424    1.888848    1.894934    1.895676    1.988264    3.367795


........................................................................
.............................. CYCLE    1 ..............................
........................................................................
   1    -38.3113224 -0.383113E+02  0.571E-05    1.81       0.0  T
   2    -38.3113224 -0.530491E-10  0.463E-05    1.81     388.0  T
   3    -38.3113224 -0.943601E-11  0.312E-05    1.81     575.7  T
     SCC iter.                  ...        0 min,  0.105 sec
     gradient                   ...        0 min,  0.021 sec
 * total energy  :   -37.3092843 Eh     change       -0.3471570E-09 Eh
   gradient norm :     1.3083742 Eh/α   predicted     0.0000000E+00 (-100.00%)
   displ. norm   :     0.4288857 α      lambda       -0.5144244E+00
   maximum displ.:     0.3067410 α      in ANC's #87, #86, #66, ...

........................................................................
.............................. CYCLE    2 ..............................
........................................................................
   1    -38.3004439 -0.383004E+02  0.791E-01    1.73       0.0  T
   2    -38.3009141 -0.470204E-03  0.549E-01    1.67       1.0  T
   3    -38.3002507  0.663459E-03  0.270E-01    1.67       1.0  T
   4    -38.3011476 -0.896979E-03  0.935E-02    1.67       1.0  T
   5    -38.3012372 -0.896154E-04  0.663E-02    1.65       1.0  T
   6    -38.3012450 -0.774128E-05  0.296E-02    1.68       1.0  T
   7    -38.3012487 -0.369312E-05  0.120E-02    1.67       1.5  T
   8    -38.3012488 -0.166395E-06  0.458E-03    1.67       3.9  T
   9    -38.3012492 -0.312557E-06  0.254E-03    1.67       7.1  T
  10    -38.3012492 -0.294141E-07  0.168E-03    1.67      10.7  T
  11    -38.3012492 -0.284194E-08  0.690E-04    1.67      26.0  T
  12    -38.3012492 -0.222156E-08  0.353E-04    1.67      50.9  T
     SCC iter.                  ...        0 min,  0.418 sec
     gradient                   ...        0 min,  0.014 sec
 * total energy  :   -37.6296538 Eh     change       -0.3203696E+00 Eh
   gradient norm :     0.2957332 Eh/α   predicted    -0.3045246E+00 (  -4.95%)
   displ. norm   :     0.4336045 α      lambda       -0.6250685E-01
   maximum displ.:     0.3544225 α      in ANC's #1, #57, #86, ...

........................................................................
.............................. CYCLE    3 ..............................
........................................................................
   1    -38.2904190 -0.382904E+02  0.102E+00    1.61       0.0  T
   2    -38.2907641 -0.345109E-03  0.686E-01    1.64       1.0  T
   3    -38.2890901  0.167404E-02  0.299E-01    1.55       1.0  T
   4    -38.2910557 -0.196560E-02  0.115E-01    1.62       1.0  T
   5    -38.2910703 -0.146199E-04  0.632E-02    1.60       1.0  T
   6    -38.2910811 -0.107800E-04  0.240E-02    1.61       1.0  T
   7    -38.2910880 -0.695142E-05  0.789E-03    1.61       2.3  T
   8    -38.2910883 -0.208468E-06  0.330E-03    1.61       5.4  T
   9    -38.2910883 -0.357483E-07  0.194E-03    1.61       9.2  T
  10    -38.2910883 -0.200552E-07  0.109E-03    1.61      16.5  T
  11    -38.2910883 -0.500572E-08  0.453E-04    1.61      39.6  T
  12    -38.2910883 -0.759158E-09  0.311E-04    1.61      57.7  T
     SCC iter.                  ...        0 min,  0.373 sec
     gradient                   ...        0 min,  0.007 sec
 * total energy  :   -37.6620787 Eh     change       -0.3242483E-01 Eh
   gradient norm :     0.0960404 Eh/α   predicted    -0.3712948E-01 (  14.51%)
   displ. norm   :     0.4866265 α      lambda       -0.1346135E-01
   maximum displ.:     0.4386410 α      in ANC's #1, #13, #57, ...

........................................................................
.............................. CYCLE    4 ..............................
........................................................................
   1    -38.2864346 -0.382864E+02  0.698E-01    1.83       0.0  T
   2    -38.2868956 -0.461002E-03  0.495E-01    1.70       1.0  T
   3    -38.2869501 -0.544451E-04  0.292E-01    1.79       1.0  T
   4    -38.2871586 -0.208568E-03  0.875E-02    1.74       1.0  T
   5    -38.2872007 -0.420485E-04  0.513E-02    1.75       1.0  T
   6    -38.2872008 -0.889180E-07  0.160E-02    1.75       1.1  T
   7    -38.2872051 -0.431017E-05  0.744E-03    1.76       2.4  T
   8    -38.2872052 -0.149372E-06  0.594E-03    1.75       3.0  T
   9    -38.2872055 -0.274892E-06  0.207E-03    1.75       8.7  T
  10    -38.2872055 -0.505744E-08  0.871E-04    1.75      20.6  T
  11    -38.2872055 -0.375058E-08  0.340E-04    1.75      52.9  T
     SCC iter.                  ...        0 min,  0.332 sec
     gradient                   ...        0 min,  0.005 sec
 * total energy  :   -37.6628541 Eh     change       -0.7754006E-03 Eh
   gradient norm :     0.0938688 Eh/α   predicted    -0.8324537E-02 ( 973.58%)
   displ. norm   :     0.3389778 α      lambda       -0.1439033E-01
   maximum displ.:     0.2949263 α      in ANC's #1, #13, #25, ...

........................................................................
.............................. CYCLE    5 ..............................
........................................................................
   1    -38.2935956 -0.382936E+02  0.668E-01    1.71       0.0  T
   2    -38.2938203 -0.224706E-03  0.471E-01    1.77       1.0  T
   3    -38.2936324  0.187876E-03  0.211E-01    1.70       1.0  T
   4    -38.2939392 -0.306755E-03  0.729E-02    1.75       1.0  T
   5    -38.2939500 -0.108583E-04  0.431E-02    1.74       1.0  T
   6    -38.2939590 -0.895461E-05  0.151E-02    1.74       1.2  T
   7    -38.2939603 -0.128619E-05  0.701E-03    1.74       2.6  T
   8    -38.2939604 -0.123306E-06  0.514E-03    1.74       3.5  T
   9    -38.2939606 -0.218146E-06  0.236E-03    1.74       7.6  T
  10    -38.2939606 -0.876680E-08  0.110E-03    1.74      16.3  T
  11    -38.2939606 -0.197262E-08  0.472E-04    1.74      38.1  T
  12    -38.2939606 -0.468589E-09  0.255E-04    1.74      70.5  T
     SCC iter.                  ...        0 min,  0.334 sec
     gradient                   ...        0 min,  0.040 sec
 * total energy  :   -37.6714908 Eh     change       -0.8636762E-02 Eh
   gradient norm :     0.0506419 Eh/α   predicted    -0.8021937E-02 (  -7.12%)
   displ. norm   :     0.2601076 α      lambda       -0.5637936E-02
   maximum displ.:     0.1419464 α      in ANC's #2, #1, #13, ...

........................................................................
.............................. CYCLE    6 ..............................
........................................................................
   1    -38.2935279 -0.382935E+02  0.469E-01    1.60       0.0  T
   2    -38.2936970 -0.169092E-03  0.322E-01    1.69       1.0  T
   3    -38.2937032 -0.623500E-05  0.200E-01    1.62       1.0  T
   4    -38.2937880 -0.847897E-04  0.557E-02    1.66       1.0  T
   5    -38.2937929 -0.487923E-05  0.354E-02    1.65       1.0  T
   6    -38.2937999 -0.700665E-05  0.176E-02    1.65       1.0  T
   7    -38.2938023 -0.243843E-05  0.652E-03    1.65       2.8  T
   8    -38.2938024 -0.310513E-07  0.382E-03    1.65       4.7  T
   9    -38.2938025 -0.865833E-07  0.220E-03    1.65       8.2  T
  10    -38.2938025 -0.521307E-08  0.108E-03    1.65      16.7  T
  11    -38.2938025 -0.223660E-08  0.449E-04    1.65      40.0  T
  12    -38.2938025 -0.785896E-09  0.252E-04    1.65      71.3  T
     SCC iter.                  ...        0 min,  0.309 sec
     gradient                   ...        0 min,  0.011 sec
 * total energy  :   -37.6734876 Eh     change       -0.1996803E-02 Eh
   gradient norm :     0.0315806 Eh/α   predicted    -0.3009698E-02 (  50.73%)
   displ. norm   :     0.2021521 α      lambda       -0.4018603E-02
   maximum displ.:     0.1246631 α      in ANC's #13, #2, #14, ...

........................................................................
.............................. CYCLE    7 ..............................
........................................................................
   1    -38.2958762 -0.382959E+02  0.176E-01    1.65       0.0  T
   2    -38.2959205 -0.442598E-04  0.132E-01    1.66       1.0  T
   3    -38.2959248 -0.433808E-05  0.889E-02    1.65       1.0  T
   4    -38.2959372 -0.124157E-04  0.350E-02    1.66       1.0  T
   5    -38.2959449 -0.770514E-05  0.212E-02    1.66       1.0  T
   6    -38.2959460 -0.103286E-05  0.768E-03    1.66       2.3  T
   7    -38.2959464 -0.425241E-06  0.284E-03    1.66       6.3  T
   8    -38.2959464 -0.978329E-08  0.170E-03    1.66      10.6  T
   9    -38.2959464 -0.232681E-07  0.978E-04    1.66      18.4  T
  10    -38.2959464 -0.125393E-08  0.430E-04    1.66      41.8  T
     SCC iter.                  ...        0 min,  0.245 sec
     gradient                   ...        0 min,  0.007 sec
 * total energy  :   -37.6760028 Eh     change       -0.2515147E-02 Eh
   gradient norm :     0.0248391 Eh/α   predicted    -0.2091414E-02 ( -16.85%)
   displ. norm   :     0.2148178 α      lambda       -0.2525186E-02
   maximum displ.:     0.1453145 α      in ANC's #13, #1, #14, ...

........................................................................
.............................. CYCLE    8 ..............................
........................................................................
   1    -38.2979034 -0.382979E+02  0.151E-01    1.67       0.0  T
   2    -38.2979348 -0.314228E-04  0.983E-02    1.66       1.0  T
   3    -38.2979143  0.204930E-04  0.701E-02    1.67       1.0  T
   4    -38.2979636 -0.492657E-04  0.208E-02    1.66       1.0  T
   5    -38.2979647 -0.112101E-05  0.115E-02    1.67       1.6  T
   6    -38.2979652 -0.460629E-06  0.550E-03    1.67       3.3  T
   7    -38.2979654 -0.250960E-06  0.160E-03    1.67      11.2  T
   8    -38.2979654 -0.521208E-08  0.761E-04    1.67      23.6  T
   9    -38.2979655 -0.279097E-08  0.424E-04    1.67      42.3  T
     SCC iter.                  ...        0 min,  0.234 sec
     gradient                   ...        0 min,  0.007 sec
 * total energy  :   -37.6779316 Eh     change       -0.1928868E-02 Eh
   gradient norm :     0.0215544 Eh/α   predicted    -0.1320863E-02 ( -31.52%)
   displ. norm   :     0.3333336 α      lambda       -0.2875480E-02
   maximum displ.:     0.2517464 α      in ANC's #13, #14, #1, ...

........................................................................
.............................. CYCLE    9 ..............................
........................................................................
   1    -38.2993794 -0.382994E+02  0.203E-01    1.65       0.0  T
   2    -38.2994355 -0.560835E-04  0.104E-01    1.66       1.0  T
   3    -38.2993945  0.410071E-04  0.920E-02    1.66       1.0  T
   4    -38.2994821 -0.876306E-04  0.212E-02    1.65       1.0  T
   5    -38.2994834 -0.122600E-05  0.114E-02    1.66       1.6  T
   6    -38.2994834 -0.226267E-07  0.514E-03    1.66       3.5  T
   7    -38.2994835 -0.124973E-06  0.173E-03    1.66      10.4  T
   8    -38.2994835 -0.101064E-07  0.976E-04    1.66      18.4  T
   9    -38.2994835 -0.765331E-08  0.623E-04    1.66      28.8  T
     SCC iter.                  ...        0 min,  0.213 sec
     gradient                   ...        0 min,  0.005 sec
 * total energy  :   -37.6799035 Eh     change       -0.1971893E-02 Eh
   gradient norm :     0.0173051 Eh/α   predicted    -0.1597504E-02 ( -18.99%)
   displ. norm   :     0.2136616 α      lambda       -0.1236994E-02
   maximum displ.:     0.1708645 α      in ANC's #13, #14, #21, ...

........................................................................
.............................. CYCLE   10 ..............................
........................................................................
   1    -38.2997814 -0.382998E+02  0.122E-01    1.65       0.0  T
   2    -38.2997962 -0.148199E-04  0.661E-02    1.65       1.0  T
   3    -38.2997755  0.207152E-04  0.506E-02    1.66       1.0  T
   4    -38.2998092 -0.337545E-04  0.134E-02    1.65       1.3  T
   5    -38.2998095 -0.297339E-06  0.716E-03    1.66       2.5  T
   6    -38.2998096 -0.593724E-07  0.263E-03    1.65       6.8  T
   7    -38.2998096 -0.266366E-07  0.123E-03    1.65      14.6  T
   8    -38.2998096 -0.349276E-08  0.837E-04    1.65      21.4  T
   9    -38.2998096 -0.342924E-08  0.477E-04    1.65      37.7  T
     SCC iter.                  ...        0 min,  0.225 sec
     gradient                   ...        0 min,  0.005 sec
 * total energy  :   -37.6807474 Eh     change       -0.8438687E-03 Eh
   gradient norm :     0.0124768 Eh/α   predicted    -0.6467386E-03 ( -23.36%)
   displ. norm   :     0.1291381 α      lambda       -0.6030172E-03
   maximum displ.:     0.1045106 α      in ANC's #13, #14, #8, ...

........................................................................
.............................. CYCLE   11 ..............................
........................................................................
   1    -38.2999590 -0.383000E+02  0.682E-02    1.66       0.0  T
   2    -38.2999617 -0.264255E-05  0.439E-02    1.65       1.0  T
   3    -38.2999517  0.994642E-05  0.231E-02    1.66       1.0  T
   4    -38.2999638 -0.120877E-04  0.671E-03    1.65       2.7  T
   5    -38.2999640 -0.156063E-06  0.356E-03    1.65       5.0  T
   6    -38.2999640 -0.458895E-07  0.161E-03    1.65      11.2  T
   7    -38.2999640 -0.740133E-08  0.528E-04    1.65      34.0  T
   8    -38.2999640 -0.464738E-09  0.348E-04    1.65      51.6  T
     SCC iter.                  ...        0 min,  0.202 sec
     gradient                   ...        0 min,  0.007 sec
 * total energy  :   -37.6811695 Eh     change       -0.4220996E-03 Eh
   gradient norm :     0.0072268 Eh/α   predicted    -0.3065546E-03 ( -27.37%)
   displ. norm   :     0.0936614 α      lambda       -0.3742128E-03
   maximum displ.:     0.0647863 α      in ANC's #13, #8, #1, ...

........................................................................
.............................. CYCLE   12 ..............................
........................................................................
   1    -38.3003040 -0.383003E+02  0.564E-02    1.66       0.0  T
   2    -38.3003071 -0.311797E-05  0.380E-02    1.66       1.0  T
   3    -38.3003050  0.216132E-05  0.241E-02    1.66       1.0  T
   4    -38.3003095 -0.458695E-05  0.416E-03    1.66       4.3  T
   5    -38.3003097 -0.105953E-06  0.300E-03    1.66       6.0  T
   6    -38.3003097 -0.304852E-07  0.129E-03    1.66      13.9  T
   7    -38.3003097 -0.166912E-07  0.383E-04    1.66      46.9  T
   8    -38.3003097 -0.432998E-09  0.256E-04    1.66      70.0  T
     SCC iter.                  ...        0 min,  0.196 sec
     gradient                   ...        0 min,  0.007 sec
 * total energy  :   -37.6814318 Eh     change       -0.2623558E-03 Eh
   gradient norm :     0.0067947 Eh/α   predicted    -0.1887501E-03 ( -28.06%)
   displ. norm   :     0.0780898 α      lambda       -0.2472173E-03
   maximum displ.:     0.0393767 α      in ANC's #13, #27, #1, ...

........................................................................
.............................. CYCLE   13 ..............................
........................................................................
   1    -38.3006609 -0.383007E+02  0.566E-02    1.67       0.0  T
   2    -38.3006638 -0.294174E-05  0.351E-02    1.66       1.0  T
   3    -38.3006617  0.216345E-05  0.253E-02    1.67       1.0  T
   4    -38.3006666 -0.489606E-05  0.426E-03    1.67       4.2  T
   5    -38.3006666 -0.304465E-07  0.340E-03    1.67       5.3  T
   6    -38.3006666 -0.407085E-07  0.151E-03    1.67      11.9  T
   7    -38.3006667 -0.260259E-07  0.499E-04    1.67      36.0  T
   8    -38.3006667 -0.340329E-09  0.325E-04    1.67      55.3  T
     SCC iter.                  ...        0 min,  0.195 sec
     gradient                   ...        0 min,  0.005 sec
 * total energy  :   -37.6816069 Eh     change       -0.1750142E-03 Eh
   gradient norm :     0.0076015 Eh/α   predicted    -0.1243665E-03 ( -28.94%)
   displ. norm   :     0.0684172 α      lambda       -0.1748780E-03
   maximum displ.:     0.0260144 α      in ANC's #13, #21, #27, ...

........................................................................
.............................. CYCLE   14 ..............................
........................................................................
   1    -38.3008497 -0.383008E+02  0.498E-02    1.68       0.0  T
   2    -38.3008513 -0.161148E-05  0.295E-02    1.67       1.0  T
   3    -38.3008478  0.350235E-05  0.220E-02    1.68       1.0  T
   4    -38.3008531 -0.533359E-05  0.464E-03    1.67       3.9  T
   5    -38.3008531 -0.137963E-07  0.341E-03    1.67       5.3  T
   6    -38.3008532 -0.461574E-07  0.991E-04    1.67      18.1  T
   7    -38.3008532 -0.140722E-07  0.450E-04    1.67      39.9  T
     SCC iter.                  ...        0 min,  0.181 sec
     gradient                   ...        0 min,  0.005 sec
 * total energy  :   -37.6817291 Eh     change       -0.1222573E-03 Eh
   gradient norm :     0.0060569 Eh/α   predicted    -0.8785167E-04 ( -28.14%)
   displ. norm   :     0.0543630 α      lambda       -0.1139960E-03
   maximum displ.:     0.0215106 α      in ANC's #7, #21, #13, ...

........................................................................
.............................. CYCLE   15 ..............................
........................................................................
   1    -38.3008486 -0.383008E+02  0.352E-02    1.68       0.0  T
   2    -38.3008493 -0.752001E-06  0.204E-02    1.68       1.0  T
   3    -38.3008469  0.242880E-05  0.138E-02    1.68       1.3  T
   4    -38.3008501 -0.323636E-05  0.333E-03    1.68       5.4  T
   5    -38.3008501 -0.883226E-08  0.274E-03    1.68       6.5  T
   6    -38.3008501 -0.110276E-07  0.903E-04    1.68      19.9  T
   7    -38.3008502 -0.713580E-08  0.369E-04    1.68      48.7  T
     SCC iter.                  ...        0 min,  0.179 sec
     gradient                   ...        0 min,  0.019 sec
 * total energy  :   -37.6818102 Eh     change       -0.8109199E-04 Eh
   gradient norm :     0.0037750 Eh/α   predicted    -0.5716810E-04 ( -29.50%)
   displ. norm   :     0.0511677 α      lambda       -0.8872987E-04
   maximum displ.:     0.0233945 α      in ANC's #7, #21, #6, ...

........................................................................
.............................. CYCLE   16 ..............................
........................................................................
   1    -38.3007406 -0.383007E+02  0.300E-02    1.68       0.0  T
   2    -38.3007414 -0.854035E-06  0.165E-02    1.68       1.1  T
   3    -38.3007402  0.124131E-05  0.108E-02    1.69       1.7  T
   4    -38.3007421 -0.191071E-05  0.276E-03    1.68       6.5  T
   5    -38.3007421 -0.469562E-07  0.224E-03    1.69       8.0  T
   6    -38.3007421 -0.614098E-08  0.106E-03    1.68      17.0  T
   7    -38.3007421 -0.293405E-08  0.401E-04    1.68      44.7  T
   8    -38.3007421 -0.382094E-09  0.182E-04    1.68      98.8  T
     SCC iter.                  ...        0 min,  0.281 sec
     gradient                   ...        0 min,  0.005 sec
 * total energy  :   -37.6818750 Eh     change       -0.6477423E-04 Eh
   gradient norm :     0.0037065 Eh/α   predicted    -0.4448254E-04 ( -31.33%)
   displ. norm   :     0.0604007 α      lambda       -0.8685893E-04
   maximum displ.:     0.0295282 α      in ANC's #7, #6, #12, ...

........................................................................
.............................. CYCLE   17 ..............................
........................................................................
   1    -38.3005721 -0.383006E+02  0.322E-02    1.69       0.0  T
   2    -38.3005733 -0.117307E-05  0.168E-02    1.69       1.1  T
   3    -38.3005718  0.146196E-05  0.125E-02    1.69       1.4  T
   4    -38.3005744 -0.255556E-05  0.292E-03    1.69       6.1  T
   5    -38.3005744 -0.320748E-07  0.187E-03    1.69       9.6  T
   6    -38.3005744 -0.596290E-08  0.939E-04    1.69      19.1  T
   7    -38.3005744 -0.988706E-09  0.476E-04    1.69      37.7  T
     SCC iter.                  ...        0 min,  0.202 sec
     gradient                   ...        0 min,  0.007 sec
 * total energy  :   -37.6819393 Eh     change       -0.6426787E-04 Eh
   gradient norm :     0.0049670 Eh/α   predicted    -0.4359031E-04 ( -32.17%)
   displ. norm   :     0.0763746 α      lambda       -0.9451738E-04
   maximum displ.:     0.0386810 α      in ANC's #7, #6, #12, ...

........................................................................
.............................. CYCLE   18 ..............................
........................................................................
   1    -38.3004176 -0.383004E+02  0.360E-02    1.69       0.0  T
   2    -38.3004189 -0.134271E-05  0.197E-02    1.69       1.0  T
   3    -38.3004167  0.226868E-05  0.152E-02    1.69       1.2  T
   4    -38.3004206 -0.386920E-05  0.315E-03    1.69       5.7  T
   5    -38.3004206 -0.288934E-07  0.179E-03    1.69      10.0  T
   6    -38.3004206 -0.545274E-08  0.780E-04    1.69      23.0  T
   7    -38.3004206 -0.100670E-08  0.503E-04    1.69      35.7  T
     SCC iter.                  ...        0 min,  0.189 sec
     gradient                   ...        0 min,  0.013 sec
 * total energy  :   -37.6820087 Eh     change       -0.6943979E-04 Eh
   gradient norm :     0.0052798 Eh/α   predicted    -0.4753653E-04 ( -31.54%)
   displ. norm   :     0.0860957 α      lambda       -0.9568646E-04
   maximum displ.:     0.0445386 α      in ANC's #7, #6, #20, ...

........................................................................
.............................. CYCLE   19 ..............................
........................................................................
   1    -38.3004242 -0.383004E+02  0.380E-02    1.69       0.0  T
   2    -38.3004252 -0.106466E-05  0.237E-02    1.69       1.0  T
   3    -38.3004230  0.225433E-05  0.163E-02    1.69       1.1  T
   4    -38.3004267 -0.373947E-05  0.300E-03    1.69       6.0  T
   5    -38.3004267 -0.387477E-08  0.190E-03    1.69       9.5  T
   6    -38.3004267 -0.220485E-07  0.704E-04    1.69      25.5  T
   7    -38.3004267 -0.230413E-08  0.456E-04    1.69      39.4  T
     SCC iter.                  ...        0 min,  0.160 sec
     gradient                   ...        0 min,  0.013 sec
 * total energy  :   -37.6820782 Eh     change       -0.6952907E-04 Eh
   gradient norm :     0.0042546 Eh/α   predicted    -0.4820003E-04 ( -30.68%)
   displ. norm   :     0.0833628 α      lambda       -0.8733148E-04
   maximum displ.:     0.0429440 α      in ANC's #7, #6, #20, ...

........................................................................
.............................. CYCLE   20 ..............................
........................................................................
   1    -38.3007107 -0.383007E+02  0.396E-02    1.69       0.0  T
   2    -38.3007114 -0.723870E-06  0.264E-02    1.69       1.0  T
   3    -38.3007100  0.142814E-05  0.158E-02    1.69       1.1  T
   4    -38.3007122 -0.218234E-05  0.384E-03    1.69       4.7  T
   5    -38.3007123 -0.976244E-07  0.223E-03    1.69       8.0  T
   6    -38.3007123 -0.500314E-08  0.786E-04    1.69      22.9  T
   7    -38.3007123 -0.659683E-08  0.386E-04    1.69      46.5  T
     SCC iter.                  ...        0 min,  0.193 sec
     gradient                   ...        0 min,  0.053 sec
 * total energy  :   -37.6821413 Eh     change       -0.6303985E-04 Eh
   gradient norm :     0.0033573 Eh/α   predicted    -0.4397566E-04 ( -30.24%)
   displ. norm   :     0.0751151 α      lambda       -0.7603675E-04
   maximum displ.:     0.0384171 α      in ANC's #6, #7, #20, ...
 * RMSD in coord.:     0.3521519 α      energy gain  -0.3728570E+00 Eh

generating ANC from model Hessian ...
Using Lindh-Hessian (1995)
 Shifting diagonal of input Hessian by    9.8389300700532489E-003
 Lowest  eigenvalues of input Hessian
    0.000000    0.000000    0.000000    0.000000    0.000000    0.000000
    0.010000    0.010205    0.010238    0.010652    0.010890    0.011274
    0.011564    0.017143    0.017867    0.018285    0.018621    0.018771
 Highest eigenvalues
    1.714182    1.714875    1.722691    1.724889    1.823974    3.192056


........................................................................
.............................. CYCLE   21 ..............................
........................................................................
   1    -38.3012297 -0.383012E+02  0.403E-02    1.69       0.0  T
   2    -38.3012303 -0.659281E-06  0.260E-02    1.69       1.0  T
   3    -38.3012295  0.846654E-06  0.143E-02    1.69       1.3  T
   4    -38.3012307 -0.120278E-05  0.417E-03    1.69       4.3  T
   5    -38.3012308 -0.103947E-06  0.235E-03    1.69       7.6  T
   6    -38.3012308 -0.787897E-08  0.927E-04    1.69      19.4  T
   7    -38.3012308 -0.797221E-08  0.340E-04    1.69      52.8  T
     SCC iter.                  ...        0 min,  0.108 sec
     gradient                   ...        0 min,  0.020 sec
 * total energy  :   -37.6821965 Eh     change       -0.5519763E-04 Eh
   gradient norm :     0.0038216 Eh/α   predicted     0.0000000E+00 (-100.00%)
   displ. norm   :     0.0919887 α      lambda       -0.1556319E-03
   maximum displ.:     0.0470415 α      in ANC's #4, #6, #5, ...

........................................................................
.............................. CYCLE   22 ..............................
........................................................................
   1    -38.3015432 -0.383015E+02  0.545E-02    1.68       0.0  T
   2    -38.3015441 -0.918243E-06  0.354E-02    1.69       1.0  T
   3    -38.3015381  0.597829E-05  0.200E-02    1.68       1.0  T
   4    -38.3015452 -0.702528E-05  0.412E-03    1.68       4.4  T
   5    -38.3015451  0.193150E-07  0.266E-03    1.68       6.8  T
   6    -38.3015452 -0.412884E-07  0.751E-04    1.68      23.9  T
   7    -38.3015452 -0.338520E-08  0.489E-04    1.68      36.8  T
     SCC iter.                  ...        0 min,  0.304 sec
     gradient                   ...        0 min,  0.112 sec
 * total energy  :   -37.6823160 Eh     change       -0.1194948E-03 Eh
   gradient norm :     0.0018735 Eh/α   predicted    -0.7858522E-04 ( -34.24%)
   displ. norm   :     0.2684114 α      lambda       -0.1672792E-03
   maximum displ.:     0.1456282 α      in ANC's #4, #5, #6, ...

........................................................................
.............................. CYCLE   23 ..............................
........................................................................
   1    -38.3010943 -0.383011E+02  0.105E-01    1.68       0.0  T
   2    -38.3010993 -0.493098E-05  0.688E-02    1.68       1.0  T
   3    -38.3010734  0.258823E-04  0.402E-02    1.67       1.0  T
   4    -38.3011048 -0.313981E-04  0.938E-03    1.68       1.9  T
   5    -38.3011047  0.579132E-07  0.713E-03    1.68       2.5  T
   6    -38.3011050 -0.231660E-06  0.170E-03    1.68      10.5  T
   7    -38.3011050 -0.705823E-08  0.101E-03    1.68      17.8  T
   8    -38.3011050  0.159977E-08  0.540E-04    1.68      33.2  T
   9    -38.3011050 -0.342325E-08  0.268E-04    1.68      67.0  T
     SCC iter.                  ...        0 min,  0.355 sec
     gradient                   ...        0 min,  0.005 sec
 * total energy  :   -37.6824518 Eh     change       -0.1358696E-03 Eh
   gradient norm :     0.0030331 Eh/α   predicted    -0.8632221E-04 ( -36.47%)
   displ. norm   :     0.1079397 α      lambda       -0.7671826E-04
   maximum displ.:     0.0591459 α      in ANC's #5, #4, #1, ...

........................................................................
.............................. CYCLE   24 ..............................
........................................................................
   1    -38.3011691 -0.383012E+02  0.285E-02    1.68       0.0  T
   2    -38.3011693 -0.252545E-06  0.201E-02    1.68       1.0  T
   3    -38.3011691  0.265910E-06  0.571E-03    1.68       3.1  T
   4    -38.3011695 -0.445098E-06  0.339E-03    1.68       5.3  T
   5    -38.3011695 -0.752340E-08  0.109E-03    1.68      16.4  T
   6    -38.3011696 -0.189370E-07  0.505E-04    1.68      35.6  T
   7    -38.3011696 -0.629171E-09  0.271E-04    1.68      66.2  T
     SCC iter.                  ...        0 min,  0.179 sec
     gradient                   ...        0 min,  0.007 sec
 * total energy  :   -37.6825239 Eh     change       -0.7209825E-04 Eh
   gradient norm :     0.0026470 Eh/α   predicted    -0.3880955E-04 ( -46.17%)
   displ. norm   :     0.4151666 α      lambda       -0.2974165E-03
   maximum displ.:     0.2200751 α      in ANC's #5, #4, #7, ...

........................................................................
.............................. CYCLE   25 ..............................
........................................................................
   1    -38.3006575 -0.383007E+02  0.987E-02    1.69       0.0  T
   2    -38.3006605 -0.301525E-05  0.702E-02    1.68       1.0  T
   3    -38.3006551  0.544960E-05  0.235E-02    1.69       1.0  T
   4    -38.3006627 -0.760218E-05  0.127E-02    1.68       1.4  T
   5    -38.3006628 -0.118967E-06  0.492E-03    1.68       3.7  T
   6    -38.3006632 -0.352071E-06  0.173E-03    1.68      10.4  T
   7    -38.3006632 -0.959341E-08  0.101E-03    1.68      17.8  T
   8    -38.3006632 -0.254676E-08  0.591E-04    1.68      30.4  T
   9    -38.3006632 -0.486068E-09  0.312E-04    1.68      57.6  T
     SCC iter.                  ...        0 min,  0.286 sec
     gradient                   ...        0 min,  0.013 sec
 * total energy  :   -37.6827582 Eh     change       -0.2342842E-03 Eh
   gradient norm :     0.0035274 Eh/α   predicted    -0.1743402E-03 ( -25.59%)
   displ. norm   :     0.4512215 α      lambda       -0.2169056E-03
   maximum displ.:     0.2446295 α      in ANC's #5, #4, #7, ...

........................................................................
.............................. CYCLE   26 ..............................
........................................................................
   1    -38.2991352 -0.382991E+02  0.108E-01    1.69       0.0  T
   2    -38.2991382 -0.297837E-05  0.725E-02    1.69       1.0  T
   3    -38.2991294  0.877413E-05  0.221E-02    1.69       1.0  T
   4    -38.2991403 -0.109276E-04  0.129E-02    1.69       1.4  T
   5    -38.2991409 -0.552338E-06  0.441E-03    1.69       4.1  T
   6    -38.2991410 -0.116047E-06  0.158E-03    1.69      11.4  T
   7    -38.2991410 -0.115808E-08  0.104E-03    1.69      17.3  T
   8    -38.2991410 -0.351821E-08  0.474E-04    1.69      37.9  T
   9    -38.2991410 -0.690086E-09  0.262E-04    1.69      68.7  T
     SCC iter.                  ...        0 min,  0.426 sec
     gradient                   ...        0 min,  0.071 sec
 * total energy  :   -37.6828984 Eh     change       -0.1402416E-03 Eh
   gradient norm :     0.0061692 Eh/α   predicted    -0.1305369E-03 (  -6.92%)
   displ. norm   :     0.2264195 α      lambda       -0.1385280E-03
   maximum displ.:     0.1255056 α      in ANC's #5, #1, #4, ...

........................................................................
.............................. CYCLE   27 ..............................
........................................................................
   1    -38.3004297 -0.383004E+02  0.568E-02    1.69       0.0  T
   2    -38.3004311 -0.132954E-05  0.377E-02    1.69       1.0  T
   3    -38.3004248  0.622340E-05  0.170E-02    1.70       1.1  T
   4    -38.3004323 -0.749807E-05  0.630E-03    1.69       2.9  T
   5    -38.3004324 -0.584650E-07  0.323E-03    1.69       5.6  T
   6    -38.3004324 -0.305314E-07  0.894E-04    1.69      20.1  T
   7    -38.3004324 -0.558845E-08  0.439E-04    1.69      40.9  T
     SCC iter.                  ...        0 min,  0.351 sec
     gradient                   ...        0 min,  0.084 sec
 * total energy  :   -37.6830094 Eh     change       -0.1109966E-03 Eh
   gradient norm :     0.0042828 Eh/α   predicted    -0.7282335E-04 ( -34.39%)
   displ. norm   :     0.3343068 α      lambda       -0.1910134E-03
   maximum displ.:     0.1959317 α      in ANC's #5, #2, #7, ...

........................................................................
.............................. CYCLE   28 ..............................
........................................................................
   1    -38.3020102 -0.383020E+02  0.804E-02    1.69       0.0  T
   2    -38.3020119 -0.172362E-05  0.512E-02    1.69       1.0  T
   3    -38.3020043  0.761914E-05  0.181E-02    1.70       1.0  T
   4    -38.3020132 -0.892500E-05  0.788E-03    1.69       2.3  T
   5    -38.3020134 -0.166597E-06  0.416E-03    1.69       4.3  T
   6    -38.3020134 -0.406845E-07  0.116E-03    1.69      15.5  T
   7    -38.3020134 -0.346219E-08  0.479E-04    1.69      37.5  T
   8    -38.3020134 -0.534982E-09  0.240E-04    1.69      74.8  T
     SCC iter.                  ...        0 min,  0.218 sec
     gradient                   ...        0 min,  0.012 sec
 * total energy  :   -37.6831585 Eh     change       -0.1490096E-03 Eh
   gradient norm :     0.0026303 Eh/α   predicted    -0.1061810E-03 ( -28.74%)
   displ. norm   :     0.4330771 α      lambda       -0.1756214E-03
   maximum displ.:     0.2662904 α      in ANC's #5, #2, #7, ...

........................................................................
.............................. CYCLE   29 ..............................
........................................................................
   1    -38.3016301 -0.383016E+02  0.928E-02    1.69       0.0  T
   2    -38.3016316 -0.149108E-05  0.587E-02    1.69       1.0  T
   3    -38.3016284  0.321003E-05  0.146E-02    1.69       1.2  T
   4    -38.3016323 -0.393277E-05  0.833E-03    1.69       2.2  T
   5    -38.3016325 -0.194457E-06  0.399E-03    1.69       4.5  T
   6    -38.3016326 -0.104328E-06  0.129E-03    1.69      13.9  T
   7    -38.3016326 -0.400983E-08  0.548E-04    1.69      32.8  T
   8    -38.3016326 -0.615593E-09  0.223E-04    1.69      80.6  T
     SCC iter.                  ...        0 min,  0.263 sec
     gradient                   ...        0 min,  0.007 sec
 * total energy  :   -37.6832922 Eh     change       -0.1337352E-03 Eh
   gradient norm :     0.0040417 Eh/α   predicted    -0.1042842E-03 ( -22.02%)
   displ. norm   :     0.3915597 α      lambda       -0.2301920E-03
   maximum displ.:     0.2311203 α      in ANC's #5, #2, #1, ...

........................................................................
.............................. CYCLE   30 ..............................
........................................................................
   1    -38.3050297 -0.383050E+02  0.844E-02    1.69       0.0  T
   2    -38.3050313 -0.164538E-05  0.524E-02    1.69       1.0  T
   3    -38.3050308  0.582898E-06  0.985E-03    1.69       1.8  T
   4    -38.3050316 -0.859691E-06  0.621E-03    1.69       2.9  T
   5    -38.3050317 -0.113446E-06  0.283E-03    1.69       6.4  T
   6    -38.3050317 -0.149594E-07  0.840E-04    1.69      21.4  T
   7    -38.3050318 -0.372339E-08  0.529E-04    1.69      33.9  T
     SCC iter.                  ...        0 min,  0.097 sec
     gradient                   ...        0 min,  0.008 sec
 * total energy  :   -37.6834023 Eh     change       -0.1100701E-03 Eh
   gradient norm :     0.0056687 Eh/α   predicted    -0.1327433E-03 (  20.60%)
   displ. norm   :     0.5350092 α      lambda       -0.1983304E-03
   maximum displ.:     0.3371760 α      in ANC's #5, #2, #7, ...

........................................................................
.............................. CYCLE   31 ..............................
........................................................................
   1    -38.3003874 -0.383004E+02  0.112E-01    1.69       0.0  T
   2    -38.3003895 -0.210674E-05  0.682E-02    1.70       1.0  T
   3    -38.3003879  0.154665E-05  0.183E-02    1.69       1.0  T
   4    -38.3003902 -0.223893E-05  0.721E-03    1.69       2.5  T
   5    -38.3003901  0.854194E-07  0.437E-03    1.69       4.1  T
   6    -38.3003902 -0.791155E-07  0.124E-03    1.69      14.5  T
   7    -38.3003902 -0.339053E-07  0.545E-04    1.69      33.0  T
   8    -38.3003902 -0.945811E-09  0.238E-04    1.69      75.4  T
     SCC iter.                  ...        0 min,  0.185 sec
     gradient                   ...        0 min,  0.009 sec
 * total energy  :   -37.6834615 Eh     change       -0.5922901E-04 Eh
   gradient norm :     0.0074310 Eh/α   predicted    -0.1275552E-03 ( 115.36%)
   displ. norm   :     0.1440524 α      lambda       -0.1404403E-03
   maximum displ.:     0.0881363 α      in ANC's #5, #7, #4, ...

........................................................................
.............................. CYCLE   32 ..............................
........................................................................
   1    -38.3027465 -0.383027E+02  0.480E-02    1.69       0.0  T
   2    -38.3027475 -0.992766E-06  0.298E-02    1.69       1.0  T
   3    -38.3027460  0.147827E-05  0.142E-02    1.70       1.3  T
   4    -38.3027479 -0.190552E-05  0.555E-03    1.69       3.2  T
   5    -38.3027479  0.747817E-07  0.316E-03    1.69       5.7  T
   6    -38.3027480 -0.105605E-06  0.143E-03    1.69      12.6  T
   7    -38.3027480 -0.809028E-08  0.299E-04    1.69      60.0  T
   8    -38.3027480 -0.820179E-10  0.130E-04    1.69     138.1  T
     SCC iter.                  ...        0 min,  0.107 sec
     gradient                   ...        0 min,  0.010 sec
 * total energy  :   -37.6835380 Eh     change       -0.7646827E-04 Eh
   gradient norm :     0.0021224 Eh/α   predicted    -0.7167883E-04 (  -6.26%)
   displ. norm   :     0.1691060 α      lambda       -0.5187987E-04
   maximum displ.:     0.0940523 α      in ANC's #5, #2, #1, ...

........................................................................
.............................. CYCLE   33 ..............................
........................................................................
   1    -38.3029779 -0.383030E+02  0.442E-02    1.70       0.0  T
   2    -38.3029783 -0.412572E-06  0.274E-02    1.69       1.0  T
   3    -38.3029766  0.171748E-05  0.106E-02    1.69       1.7  T
   4    -38.3029786 -0.201216E-05  0.373E-03    1.69       4.8  T
   5    -38.3029786 -0.595178E-08  0.241E-03    1.69       7.4  T
   6    -38.3029786 -0.186123E-07  0.654E-04    1.69      27.5  T
   7    -38.3029786 -0.177530E-08  0.327E-04    1.69      54.9  T
     SCC iter.                  ...        0 min,  0.100 sec
     gradient                   ...        0 min,  0.009 sec
 * total energy  :   -37.6835767 Eh     change       -0.3874967E-04 Eh
   gradient norm :     0.0008690 Eh/α   predicted    -0.2668397E-04 ( -31.14%)
   displ. norm   :     0.3778939 α      lambda       -0.3854417E-04
   maximum displ.:     0.2174622 α      in ANC's #5, #2, #1, ...

........................................................................
.............................. CYCLE   34 ..............................
........................................................................
   1    -38.3020292 -0.383020E+02  0.803E-02    1.69       0.0  T
   2    -38.3020301 -0.870404E-06  0.496E-02    1.69       1.0  T
   3    -38.3020270  0.314672E-05  0.130E-02    1.69       1.4  T
   4    -38.3020307 -0.375574E-05  0.552E-03    1.69       3.3  T
   5    -38.3020307 -0.307020E-07  0.335E-03    1.69       5.4  T
   6    -38.3020308 -0.312570E-07  0.116E-03    1.69      15.5  T
   7    -38.3020308 -0.476188E-08  0.606E-04    1.69      29.6  T
   8    -38.3020308 -0.750937E-09  0.270E-04    1.69      66.6  T
     SCC iter.                  ...        0 min,  0.144 sec
     gradient                   ...        0 min,  0.007 sec
 * total energy  :   -37.6835952 Eh     change       -0.1854058E-04 Eh
   gradient norm :     0.0021662 Eh/α   predicted    -0.2049618E-04 (  10.55%)
   displ. norm   :     0.0573258 α      lambda       -0.1584142E-04
   maximum displ.:     0.0359190 α      in ANC's #5, #2, #7, ...

........................................................................
.............................. CYCLE   35 ..............................
........................................................................
   1    -38.3030291 -0.383030E+02  0.164E-02    1.69       0.0  T
   2    -38.3030292 -0.827449E-07  0.104E-02    1.69       1.7  T
   3    -38.3030289  0.276341E-06  0.416E-03    1.69       4.3  T
   4    -38.3030292 -0.321211E-06  0.126E-03    1.69      14.3  T
   5    -38.3030292 -0.745928E-10  0.814E-04    1.69      22.1  T
   6    -38.3030292 -0.176443E-08  0.274E-04    1.69      65.6  T
     SCC iter.                  ...        0 min,  0.137 sec
     gradient                   ...        0 min,  0.025 sec
 * total energy  :   -37.6836051 Eh     change       -0.9821101E-05 Eh
   gradient norm :     0.0010147 Eh/α   predicted    -0.7947580E-05 ( -19.08%)
   displ. norm   :     0.0316476 α      lambda       -0.5617626E-05
   maximum displ.:     0.0218331 α      in ANC's #2, #4, #1, ...

........................................................................
.............................. CYCLE   36 ..............................
........................................................................
   1    -38.3034782 -0.383035E+02  0.180E-02    1.69       0.0  T
   2    -38.3034783 -0.168162E-06  0.114E-02    1.69       1.6  T
   3    -38.3034778  0.574076E-06  0.640E-03    1.69       2.8  T
   4    -38.3034785 -0.708198E-06  0.133E-03    1.69      13.5  T
   5    -38.3034785 -0.159115E-07  0.749E-04    1.69      24.0  T
   6    -38.3034785 -0.545796E-09  0.245E-04    1.69      73.2  T
     SCC iter.                  ...        0 min,  0.131 sec
     gradient                   ...        0 min,  0.035 sec
 * total energy  :   -37.6836103 Eh     change       -0.5257874E-05 Eh
   gradient norm :     0.0005600 Eh/α   predicted    -0.2810676E-05 ( -46.54%)
   displ. norm   :     0.0539535 α      lambda       -0.4485590E-05
   maximum displ.:     0.0299595 α      in ANC's #1, #5, #7, ...

........................................................................
.............................. CYCLE   37 ..............................
........................................................................
   1    -38.3034185 -0.383034E+02  0.202E-02    1.69       0.0  T
   2    -38.3034187 -0.146870E-06  0.128E-02    1.69       1.4  T
   3    -38.3034181  0.617848E-06  0.614E-03    1.69       2.9  T
   4    -38.3034188 -0.735152E-06  0.161E-03    1.69      11.1  T
   5    -38.3034188 -0.917338E-08  0.102E-03    1.69      17.6  T
   6    -38.3034188 -0.147071E-08  0.213E-04    1.69      84.2  T
   7    -38.3034188 -0.347754E-09  0.157E-04    1.69     114.1  T
     SCC iter.                  ...        0 min,  0.152 sec
     gradient                   ...        0 min,  0.016 sec
 * total energy  :   -37.6836149 Eh     change       -0.4607674E-05 Eh
   gradient norm :     0.0007140 Eh/α   predicted    -0.2247639E-05 ( -51.22%)
   displ. norm   :     0.0967703 α      lambda       -0.6389023E-05
   maximum displ.:     0.0548272 α      in ANC's #1, #5, #7, ...

   *** GEOMETRY OPTIMIZATION CONVERGED AFTER 37 ITERATIONS ***

------------------------------------------------------------------------
 total energy gain   :        -0.3743307 Eh     -234.8960 kcal/mol
 total RMSD          :         0.7295845 a0        0.3861 Å
 total power (kW/mol):       -26.5622987 (step) -102.8716 (real)
------------------------------------------------------------------------

 ANCopt (total)                0 d,  0 h,  0 min,  9.554 sec
 optimizer setup                ...        0 min,  0.001 sec (  0.009%)
 model hessian                  ...        0 min,  0.029 sec (  0.299%)
 ANC generation                 ...        0 min,  0.005 sec (  0.051%)
 coordinate transformation      ...        0 min,  0.001 sec (  0.006%)
 single point calculation       ...        0 min,  9.408 sec ( 98.479%)
 optimization log               ...        0 min,  0.005 sec (  0.051%)
 hessian update                 ...        0 min,  0.067 sec (  0.699%)
 rational function              ...        0 min,  0.036 sec (  0.372%)

================
 final structure:
================
31
 xtb: 6.5.1 (b24c23e)
Zr          -0.40886802869426       -0.58656872811840        0.14603658266586
C           -1.58913760153598       -2.49251886499005       -0.00512367628736
C            1.87381701002080        0.23589115721245        0.67218579495898
C            1.91761367860807       -0.41221282829972       -0.58620019645150
C            1.60950912880484       -1.78420544507833       -0.38321486797804
C            1.36452272560619       -1.97538804361652        1.00765913161005
C            1.50917306309594       -0.71875779125921        1.65442469872677
H            2.19622882227881        1.25187180665550        0.86948007344031
H            2.29953199532297        0.02060956879403       -1.50620092869529
H            1.72499712058481       -2.57616639070879       -1.11679433812935
H            1.25551963321926       -2.93406625730051        1.50341341522348
H            1.53470075633667       -0.56254406043537        2.72936774902116
C           -0.72456177362266        1.79706281576806       -0.38581865748262
C           -1.00574196734025        1.64446823160359        0.99447449851463
C           -2.13900674437982        0.80045215088880        1.12416547368540
C           -2.56925028422661        0.44583821739301       -0.18534081893453
C           -1.67581366616190        1.04197715471490       -1.11885125895529
H           -0.00174287781511        2.48559198103630       -0.81078954333353
H           -0.54155458315733        2.20406333792310        1.80052821776793
H           -2.69511923011417        0.62322707629854        2.04022313553169
H           -3.50306452802259       -0.04597920640345       -0.43145185181230
H           -1.82630186745575        1.08490215411393       -2.19406854430597
H           -0.92780375574665       -3.35644619533396       -0.20814841182037
H           -2.32479782513093       -2.47063555302912       -0.83379995839975
C           -2.36926662514356       -2.83211962893806        1.29586144581894
H           -1.69463887152817       -2.75117167109075        2.16986151527527
H           -3.19773461533711       -2.12360794828044        1.43212313403927
C           -2.94734682281952       -4.24818564401800        1.25195849399744
H           -2.15256040515382       -4.98469357052954        1.15471188777108
H           -3.50346386065714       -4.46397737611642        2.16000068485049
H           -3.62164492987818       -4.35299426881334        0.40486797971090

 Bond Distances (Angstroems)
 ---------------------------
Zr1-C2=2.2469        Zr1-C3=2.4827        Zr1-C4=2.4452        Zr1-C5=2.4059        Zr1-C6=2.4117        Zr1-C7=2.4437        
Zr1-C13=2.4626       Zr1-C14=2.4604       Zr1-C15=2.4236       Zr1-C16=2.4172       Zr1-C17=2.4202       C2-Zr1=2.2469        
C2-H23=1.1068        C2-H24=1.1083        C2-C25=1.5545        C3-Zr1=2.4827        C3-C4=1.4162         C3-C7=1.4174         
C3-H8=1.0840         C4-Zr1=2.4452        C4-C3=1.4162         C4-C5=1.4207         C4-H9=1.0861         C5-Zr1=2.4059        
C5-C4=1.4207         C5-C6=1.4252         C5-H10=1.0857        C6-Zr1=2.4117        C6-C5=1.4252         C6-C7=1.4207         
C6-H11=1.0848        C7-Zr1=2.4437        C7-C3=1.4174         C7-C6=1.4207         C7-H12=1.0865        H8-C3=1.0840         
H9-C4=1.0861         H10-C5=1.0857        H11-C6=1.0848        H12-C7=1.0865        C13-Zr1=2.4626       C13-C14=1.4169       
C13-C17=1.4186       C13-H18=1.0850       C14-Zr1=2.4604       C14-C13=1.4169       C14-C15=1.4190       C14-H19=1.0855       
C15-Zr1=2.4236       C15-C14=1.4190       C15-C16=1.4233       C15-H20=1.0862       C16-Zr1=2.4172       C16-C15=1.4233       
C16-C17=1.4230       C16-H21=1.0837       C17-Zr1=2.4202       C17-C13=1.4186       C17-C16=1.4230       C17-H22=1.0865       
H18-C13=1.0850       H19-C14=1.0855       H20-C15=1.0862       H21-C16=1.0837       H22-C17=1.0865       H23-C2=1.1068        
H24-C2=1.1083        C25-C2=1.5545        C25-H26=1.1070       C25-H27=1.0986       C25-C28=1.5301       H26-C25=1.1070       
H27-C25=1.0986       C28-C25=1.5301       C28-H29=1.0879       C28-H30=1.0864       C28-H31=1.0878       H29-C28=1.0879       
H30-C28=1.0864       H31-C28=1.0878       
 C  H  Rav=1.0904 sigma=0.0085  Rmin=1.0837  Rmax=1.1083    17
 C  C  Rav=1.4405 sigma=0.0459  Rmin=1.4162  Rmax=1.5545    12
 Zr C  Rav=2.4200 sigma=0.0594  Rmin=2.2469  Rmax=2.4827    11

 selected bond angles (degree)
 --------------------
C3-Zr1-C2=141.10               C4-Zr1-C2=122.69               C4-Zr1-C3= 33.39               C5-Zr1-C2= 90.21               
C5-Zr1-C3= 55.96               C5-Zr1-C4= 34.05               C6-Zr1-C2= 85.52               C6-Zr1-C3= 55.87               
C6-Zr1-C4= 56.52               C6-Zr1-C5= 34.41               C7-Zr1-C2=114.08               C7-Zr1-C3= 33.43               
C7-Zr1-C4= 56.08               C7-Zr1-C5= 56.66               C7-Zr1-C6= 34.02               C13-Zr1-C2=137.66              
C13-Zr1-C3= 80.97              C13-Zr1-C4= 89.33              C13-Zr1-C5=122.81              C13-Zr1-C6=136.79              
C13-Zr1-C7=106.64              C14-Zr1-C2=131.68              C14-Zr1-C3= 81.35              C14-Zr1-C4=105.63              
C14-Zr1-C5=136.95              C14-Zr1-C6=125.27              C14-Zr1-C7= 91.52              C14-Zr1-C13= 33.45             
C15-Zr1-C2= 97.91              C15-Zr1-C3=112.41              C15-Zr1-C4=139.40              C15-Zr1-C5=166.54              
C15-Zr1-C6=135.26              C15-Zr1-C7=110.01              C15-Zr1-C13= 56.06             C15-Zr1-C14= 33.77             
C16-Zr1-C2= 83.32              C16-Zr1-C3=135.18              C16-Zr1-C4=141.15              C16-Zr1-C5=158.79              
C16-Zr1-C6=162.20              C16-Zr1-C7=144.02              C16-Zr1-C13= 56.11             C16-Zr1-C14= 56.16             
C16-Zr1-C15= 34.20             C17-Zr1-C2=105.11              C17-Zr1-C3=111.66              C17-Zr1-C4=107.07              
C17-Zr1-C5=131.24              C17-Zr1-C6=163.57              C17-Zr1-C7=140.34              C17-Zr1-C13= 33.77             
C17-Zr1-C14= 56.16             C17-Zr1-C15= 56.78             C17-Zr1-C16= 34.22             H23-C2-Zr1=111.14              
H24-C2-Zr1=112.47              H24-C2-H23=105.95              C25-C2-Zr1=113.12              C25-C2-H23=106.43              
C25-C2-H24=107.27              C4-C3-Zr1= 71.85               C7-C3-Zr1= 71.77               C7-C3-C4=108.39                
H8-C3-Zr1=128.50               H8-C3-C4=125.55                H8-C3-C7=125.57                C3-C4-Zr1= 74.76               
C5-C4-Zr1= 71.46               C5-C4-C3=107.96                H9-C4-Zr1=128.07               H9-C4-C3=125.53                
H9-C4-C5=125.60                C4-C5-Zr1= 74.49               C6-C5-Zr1= 73.01               C6-C5-C4=107.83                
H10-C5-Zr1=126.94              H10-C5-C4=125.79               H10-C5-C6=125.44               C5-C6-Zr1= 72.57               
C7-C6-Zr1= 74.23               C7-C6-C5=107.95                H11-C6-Zr1=126.75              H11-C6-C5=125.58               
H11-C6-C7=125.72               C3-C7-Zr1= 74.80               C6-C7-Zr1= 71.76               C6-C7-C3=107.85                
H12-C7-Zr1=128.41              H12-C7-C3=125.64               H12-C7-C6=125.45               

 selected dihedral angles (degree)
 ---------------------------------
H23-C2-Zr1-C3=335.40          H23-C2-Zr1-C4= 13.72          H23-C2-Zr1-C5=  2.90          H23-C2-Zr1-C6=328.78          
H23-C2-Zr1-C7=309.80          H23-C2-Zr1-C13=146.86         H23-C2-Zr1-C14=193.90         H23-C2-Zr1-C15=193.67         
H23-C2-Zr1-C16=162.66         H23-C2-Zr1-C17=136.04         H24-C2-Zr1-C3=216.79          H24-C2-Zr1-C4=255.11          
H24-C2-Zr1-C5=244.29          H24-C2-Zr1-C6=210.17          H24-C2-Zr1-C7=191.19          H24-C2-Zr1-C13= 28.25         
H24-C2-Zr1-C14= 75.29         H24-C2-Zr1-C15= 75.06         H24-C2-Zr1-C16= 44.05         H24-C2-Zr1-C17= 17.43         
C25-C2-Zr1-C3= 95.05          C25-C2-Zr1-C4=133.38          C25-C2-Zr1-C5=122.56          C25-C2-Zr1-C6= 88.43          
C25-C2-Zr1-C7= 69.46          C25-C2-Zr1-C13=266.52         C25-C2-Zr1-C14=313.56         C25-C2-Zr1-C15=313.32         
C25-C2-Zr1-C16=282.31         C25-C2-Zr1-C17=255.70         C4-C3-Zr1-C2= 71.50           C4-C3-Zr1-C5= 37.63           
C4-C3-Zr1-C6= 79.48           C4-C3-Zr1-C7=117.23           C4-C3-Zr1-C13=257.31          C4-C3-Zr1-C14=223.45          
C4-C3-Zr1-C15=209.93          C4-C3-Zr1-C16=241.25          C4-C3-Zr1-C17=271.64          C7-C3-Zr1-C2=314.28           
C7-C3-Zr1-C4=242.77           C7-C3-Zr1-C5=280.40           C7-C3-Zr1-C6=322.26           C7-C3-Zr1-C13=140.09          
C7-C3-Zr1-C14=106.22          C7-C3-Zr1-C15= 92.70          C7-C3-Zr1-C16=124.02          C7-C3-Zr1-C17=154.41          
H8-C3-Zr1-C2=192.91           H8-C3-Zr1-C4=121.41           H8-C3-Zr1-C5=159.04           H8-C3-Zr1-C6=200.89           
H8-C3-Zr1-C7=238.63           H8-C3-Zr1-C13= 18.72          H8-C3-Zr1-C14=344.85          H8-C3-Zr1-C15=331.33          
H8-C3-Zr1-C16=  2.65          H8-C3-Zr1-C17= 33.05          C3-C4-Zr1-C2=225.04           C3-C4-Zr1-C5=244.63           
C3-C4-Zr1-C6=282.65           C3-C4-Zr1-C7=323.82           C3-C4-Zr1-C13= 74.48          C3-C4-Zr1-C14= 44.91          
C3-C4-Zr1-C15= 45.13          C3-C4-Zr1-C16= 99.84          C3-C4-Zr1-C17=103.64          C5-C4-Zr1-C2=340.41           
C5-C4-Zr1-C3=115.37           C5-C4-Zr1-C6= 38.01           C5-C4-Zr1-C7= 79.18           C5-C4-Zr1-C13=189.85          
C5-C4-Zr1-C14=160.27          C5-C4-Zr1-C15=160.49          C5-C4-Zr1-C16=215.21          C5-C4-Zr1-C17=219.00          
H9-C4-Zr1-C2=101.55           H9-C4-Zr1-C3=236.51           H9-C4-Zr1-C5=121.15           H9-C4-Zr1-C6=159.16           
H9-C4-Zr1-C7=200.33           H9-C4-Zr1-C13=310.99          H9-C4-Zr1-C14=281.42          H9-C4-Zr1-C15=281.64          
H9-C4-Zr1-C16=336.36          H9-C4-Zr1-C17=340.15          Zr1-C4-C3-C7= 62.88           Zr1-C4-C3-H8=235.18           
C5-C4-C3-Zr1=295.77           C5-C4-C3-C7=358.65            C5-C4-C3-H8=170.95            H9-C4-C3-Zr1=126.21           
H9-C4-C3-C7=189.09            H9-C4-C3-H8=  1.40            C4-C5-Zr1-C2=163.61           C4-C5-Zr1-C3=323.12           
C4-C5-Zr1-C6=245.35           C4-C5-Zr1-C7=282.68           C4-C5-Zr1-C13= 11.74          C4-C5-Zr1-C14=331.56          
C4-C5-Zr1-C15=290.95          C4-C5-Zr1-C16= 91.81          C4-C5-Zr1-C17= 53.13          C6-C5-Zr1-C2=278.26           
C6-C5-Zr1-C3= 77.77           C6-C5-Zr1-C4=114.65           C6-C5-Zr1-C7= 37.33           C6-C5-Zr1-C13=126.39          
C6-C5-Zr1-C14= 86.21          C6-C5-Zr1-C15= 45.60          C6-C5-Zr1-C16=206.46          C6-C5-Zr1-C17=167.78          
H10-C5-Zr1-C2= 40.19          H10-C5-Zr1-C3=199.70          H10-C5-Zr1-C4=236.58          H10-C5-Zr1-C6=121.93          
H10-C5-Zr1-C7=159.26          H10-C5-Zr1-C13=248.32         H10-C5-Zr1-C14=208.14         H10-C5-Zr1-C15=167.53         
H10-C5-Zr1-C16=328.39         H10-C5-Zr1-C17=289.72         Zr1-C5-C4-C3= 66.41           Zr1-C5-C4-H9=235.96           
C6-C5-C4-Zr1=294.06           C6-C5-C4-C3=  0.47            C6-C5-C4-H9=170.02            H10-C5-C4-Zr1=124.67          
H10-C5-C4-C3=191.08           H10-C5-C4-H9=  0.63           C5-C6-Zr1-C2= 96.95           C5-C6-Zr1-C3=281.96           
C5-C6-Zr1-C4=322.41           C5-C6-Zr1-C7=244.89           C5-C6-Zr1-C13=278.83          C5-C6-Zr1-C14=236.54          
C5-C6-Zr1-C15=193.66          C5-C6-Zr1-C16=148.16          C5-C6-Zr1-C17=325.76          C7-C6-Zr1-C2=212.05           
C7-C6-Zr1-C3= 37.07           C7-C6-Zr1-C4= 77.51           C7-C6-Zr1-C5=115.11           C7-C6-Zr1-C13= 33.94          
C7-C6-Zr1-C14=351.64          C7-C6-Zr1-C15=308.77          C7-C6-Zr1-C16=263.27          C7-C6-Zr1-C17= 80.87          
H11-C6-Zr1-C2=335.16          H11-C6-Zr1-C3=160.18          H11-C6-Zr1-C4=200.62          H11-C6-Zr1-C5=238.22          
H11-C6-Zr1-C7=123.11          H11-C6-Zr1-C13=157.05         H11-C6-Zr1-C14=114.76         H11-C6-Zr1-C15= 71.88         
H11-C6-Zr1-C16= 26.38         H11-C6-Zr1-C17=203.98         Zr1-C6-C5-C4= 66.93           Zr1-C6-C5-H10=236.36          
C7-C6-C5-Zr1=293.65           C7-C6-C5-C4=  0.58            C7-C6-C5-H10=170.02           H11-C6-C5-Zr1=123.13          
H11-C6-C5-C4=190.05           H11-C6-C5-H10=359.49          C3-C7-Zr1-C2=150.50           C3-C7-Zr1-C4= 36.14           
C3-C7-Zr1-C5= 77.31           C3-C7-Zr1-C6=115.09           C3-C7-Zr1-C13=318.60          C3-C7-Zr1-C14=288.27          
C3-C7-Zr1-C15=259.35          C3-C7-Zr1-C16=263.98          C3-C7-Zr1-C17=321.03          C6-C7-Zr1-C2= 35.41           
C6-C7-Zr1-C3=244.91           C6-C7-Zr1-C4=281.05           C6-C7-Zr1-C5=322.22           C6-C7-Zr1-C13=203.51          
C6-C7-Zr1-C14=173.18          C6-C7-Zr1-C15=144.26          C6-C7-Zr1-C16=148.89          C6-C7-Zr1-C17=205.95          
H12-C7-Zr1-C2=274.22          H12-C7-Zr1-C3=123.72          H12-C7-Zr1-C4=159.86          H12-C7-Zr1-C5=201.03          
H12-C7-Zr1-C6=238.81          H12-C7-Zr1-C13= 82.32         H12-C7-Zr1-C14= 51.99         H12-C7-Zr1-C15= 23.07         
H12-C7-Zr1-C16= 27.70         H12-C7-Zr1-C17= 84.75         Zr1-C7-C3-C4=297.07           Zr1-C7-C3-H8=124.77           
C6-C7-C3-Zr1= 64.64           C6-C7-C3-C4=  1.71            C6-C7-C3-H8=189.41            H12-C7-C3-Zr1=233.31          
H12-C7-C3-C4=170.38           H12-C7-C3-H8=358.08           Zr1-C7-C6-C5= 65.25           Zr1-C7-C6-H11=235.76          
C3-C7-C6-Zr1=293.34           C3-C7-C6-C5=358.59            C3-C7-C6-H11=169.10           H12-C7-C6-Zr1=124.64          
H12-C7-C6-C5=189.89           H12-C7-C6-H11=  0.40          
           -------------------------------------------------
          |                Final Singlepoint                |
           -------------------------------------------------

          ...................................................
          :                      SETUP                      :
          :.................................................:
          :  # basis functions                  79          :
          :  # atomic orbitals                  78          :
          :  # shells                           46          :
          :  # electrons                        72          :
          :  max. iterations                   250          :
          :  Hamiltonian                  GFN2-xTB          :
          :  restarted?                      false          :
          :  GBSA solvation                  false          :
          :  PC potential                    false          :
          :  electronic temp.          300.0000000     K    :
          :  accuracy                    1.0000000          :
          :  -> integral cutoff          0.2500000E+02      :
          :  -> integral neglect         0.1000000E-07      :
          :  -> SCF convergence          0.1000000E-05 Eh   :
          :  -> wf. convergence          0.1000000E-03 e    :
          :  Broyden damping             0.4000000          :
          ...................................................

 iter      E             dE          RMSdq      gap      omega  full diag
   1    -38.3034188 -0.383034E+02  0.762E-05    1.69       0.0  T
   2    -38.3034188 -0.194262E-10  0.565E-05    1.69     317.8  T
   3    -38.3034188 -0.102744E-10  0.390E-05    1.69     460.0  T

   *** convergence criteria satisfied after 3 iterations ***

         #    Occupation            Energy/Eh            Energy/eV
      -------------------------------------------------------------
         1        2.0000           -0.8728915             -23.7526
       ...           ...                  ...                  ...
        30        2.0000           -0.5484545             -14.9242
        31        2.0000           -0.5411054             -14.7242
        32        2.0000           -0.5345984             -14.5472
        33        2.0000           -0.5307408             -14.4422
        34        2.0000           -0.5213279             -14.1861
        35        2.0000           -0.5158112             -14.0359
        36        2.0000           -0.4946080             -13.4590 (HOMO)
        37                         -0.4324080             -11.7664 (LUMO)
        38                         -0.4303173             -11.7095
        39                         -0.4173840             -11.3576
        40                         -0.4086264             -11.1193
        41                         -0.3857734             -10.4974
       ...                                ...                  ...
        78                          2.5011412              68.0595
      -------------------------------------------------------------
                  HL-Gap            0.0622000 Eh            1.6925 eV
             Fermi-level           -0.4635080 Eh          -12.6127 eV

 SCC (total)                   0 d,  0 h,  0 min,  0.084 sec
 SCC setup                      ...        0 min,  0.002 sec (  2.894%)
 Dispersion                     ...        0 min,  0.000 sec (  0.119%)
 classical contributions        ...        0 min,  0.001 sec (  0.756%)
 integral evaluation            ...        0 min,  0.001 sec (  1.756%)
 iterations                     ...        0 min,  0.073 sec ( 86.004%)
 molecular gradient             ...        0 min,  0.007 sec (  8.251%)
 printout                       ...        0 min,  0.000 sec (  0.194%)

         :::::::::::::::::::::::::::::::::::::::::::::::::::::
         ::                     SUMMARY                     ::
         :::::::::::::::::::::::::::::::::::::::::::::::::::::
         :: total energy             -37.683614934033 Eh    ::
         :: gradient norm              0.000713476679 Eh/a0 ::
         :: HOMO-LUMO gap              1.692547570957 eV    ::
         ::.................................................::
         :: SCC energy               -38.303418816186 Eh    ::
         :: -> isotropic ES            0.086759504141 Eh    ::
         :: -> anisotropic ES         -0.010629739801 Eh    ::
         :: -> anisotropic XC          0.014743810386 Eh    ::
         :: -> dispersion             -0.025308225890 Eh    ::
         :: repulsion energy           0.619266402590 Eh    ::
         :: add. restraining           0.000062605814 Eh    ::
         :: total charge               1.000000000000 e     ::
         :::::::::::::::::::::::::::::::::::::::::::::::::::::

           -------------------------------------------------
          |                Property Printout                |
           -------------------------------------------------

    * Orbital Energies and Occupations

         #    Occupation            Energy/Eh            Energy/eV
      -------------------------------------------------------------
         1        2.0000           -0.8728915             -23.7526
       ...           ...                  ...                  ...
        24        2.0000           -0.5993628             -16.3095
        25        2.0000           -0.5981394             -16.2762
        26        2.0000           -0.5978821             -16.2692
        27        2.0000           -0.5969278             -16.2432
        28        2.0000           -0.5863439             -15.9552
        29        2.0000           -0.5686986             -15.4751
        30        2.0000           -0.5484545             -14.9242
        31        2.0000           -0.5411054             -14.7242
        32        2.0000           -0.5345984             -14.5472
        33        2.0000           -0.5307408             -14.4422
        34        2.0000           -0.5213279             -14.1861
        35        2.0000           -0.5158112             -14.0359
        36        2.0000           -0.4946080             -13.4590 (HOMO)
        37                         -0.4324080             -11.7664 (LUMO)
        38                         -0.4303173             -11.7095
        39                         -0.4173840             -11.3576
        40                         -0.4086264             -11.1193
        41                         -0.3857734             -10.4974
        42                         -0.3173738              -8.6362
        43                         -0.3165739              -8.6144
        44                         -0.3146217              -8.5613
        45                         -0.3138130              -8.5393
        46                         -0.0450030              -1.2246
        47                         -0.0310623              -0.8452
       ...                                ...                  ...
        78                          2.5011412              68.0595
      -------------------------------------------------------------
                  HL-Gap            0.0622000 Eh            1.6925 eV
             Fermi-level           -0.4635080 Eh          -12.6127 eV

     #   Z          covCN         q      C6AA      α(0)
     1  40 Zr       8.511     0.945   138.981    17.714
     2   6 C        3.620    -0.267    26.517     7.425
     3   6 C        3.745    -0.078    22.068     6.701
     4   6 C        3.755    -0.084    22.163     6.713
     5   6 C        3.769    -0.085    22.154     6.708
     6   6 C        3.769    -0.082    22.103     6.700
     7   6 C        3.755    -0.087    22.219     6.721
     8   1 H        0.925     0.093     1.846     2.125
     9   1 H        0.925     0.085     1.928     2.171
    10   1 H        0.925     0.091     1.867     2.137
    11   1 H        0.925     0.101     1.779     2.086
    12   1 H        0.925     0.083     1.944     2.180
    13   6 C        3.752    -0.080    22.092     6.703
    14   6 C        3.752    -0.083    22.137     6.710
    15   6 C        3.762    -0.087    22.210     6.718
    16   6 C        3.769    -0.079    22.048     6.692
    17   6 C        3.762    -0.088    22.221     6.719
    18   1 H        0.925     0.092     1.859     2.132
    19   1 H        0.925     0.089     1.893     2.152
    20   1 H        0.925     0.091     1.871     2.139
    21   1 H        0.925     0.104     1.753     2.071
    22   1 H        0.925     0.083     1.946     2.181
    23   1 H        0.926     0.076     2.025     2.225
    24   1 H        0.925     0.071     2.078     2.254
    25   6 C        3.875    -0.050    21.430     6.582
    26   1 H        0.922     0.048     2.347     2.396
    27   1 H        0.923     0.056     2.246     2.344
    28   6 C        3.751    -0.112    22.713     6.797
    29   1 H        0.925     0.051     2.313     2.378
    30   1 H        0.925     0.052     2.297     2.370
    31   1 H        0.925     0.055     2.264     2.353

 Mol. C6AA /au·bohr⁶  :       9482.326026
 Mol. C8AA /au·bohr⁸  :     320799.092007
 Mol. α(0) /au        :        143.297055


Wiberg/Mayer (AO) data.
largest (>0.10) Wiberg bond orders for each atom

 ---------------------------------------------------------------------------
     #   Z sym  total        # sym  WBO       # sym  WBO       # sym  WBO
 ---------------------------------------------------------------------------
     1  40 Zr   4.237 --     2 C    0.884     5 C    0.283    15 C    0.278
                             6 C    0.277    16 C    0.276    17 C    0.274
                             7 C    0.259     4 C    0.249    14 C    0.240
                            13 C    0.232     3 C    0.225    25 C    0.106
     2   6 C    3.864 --    25 C    0.989    23 H    0.906    24 H    0.902
                             1 Zr   0.884
     3   6 C    3.981 --     4 C    1.314     7 C    1.308     8 H    0.924
                             1 Zr   0.225
     4   6 C    3.980 --     3 C    1.314     5 C    1.290     9 H    0.918
                             1 Zr   0.249
     5   6 C    3.980 --     4 C    1.290     6 C    1.274    10 H    0.917
                             1 Zr   0.283
     6   6 C    3.980 --     7 C    1.290     5 C    1.274    11 H    0.917
                             1 Zr   0.277
     7   6 C    3.980 --     3 C    1.308     6 C    1.290    12 H    0.915
                             1 Zr   0.259
     8   1 H    0.989 --     3 C    0.924
     9   1 H    0.991 --     4 C    0.918
    10   1 H    0.989 --     5 C    0.917
    11   1 H    0.987 --     6 C    0.917
    12   1 H    0.992 --     7 C    0.915
    13   6 C    3.980 --    14 C    1.313    17 C    1.302    18 H    0.921
                             1 Zr   0.232
    14   6 C    3.981 --    13 C    1.313    15 C    1.299    19 H    0.919
                             1 Zr   0.240
    15   6 C    3.980 --    14 C    1.299    16 C    1.280    20 H    0.914
                             1 Zr   0.278
    16   6 C    3.981 --    15 C    1.280    17 C    1.279    21 H    0.920
                             1 Zr   0.276
    17   6 C    3.980 --    13 C    1.302    16 C    1.279    22 H    0.916
                             1 Zr   0.274
    18   1 H    0.990 --    13 C    0.921
    19   1 H    0.991 --    14 C    0.919
    20   1 H    0.989 --    15 C    0.914
    21   1 H    0.986 --    16 C    0.920
    22   1 H    0.991 --    17 C    0.916
    23   1 H    0.993 --     2 C    0.906
    24   1 H    0.994 --     2 C    0.902
    25   6 C    3.994 --    28 C    1.005     2 C    0.989    27 H    0.945
                            26 H    0.920     1 Zr   0.106
    26   1 H    0.996 --    25 C    0.920
    27   1 H    0.995 --    25 C    0.945
    28   6 C    3.991 --    25 C    1.005    31 H    0.984    29 H    0.983
                            30 H    0.983
    29   1 H    0.997 --    28 C    0.983
    30   1 H    0.994 --    28 C    0.983
    31   1 H    0.997 --    28 C    0.984
 ---------------------------------------------------------------------------

Topologies differ in total number of bonds
Writing topology from bond orders to xtbtopo.mol

molecular dipole:
                 x           y           z       tot (Debye)
 q only:       -0.942      -1.216       0.518
   full:       -0.795      -1.086       0.297       3.503
molecular quadrupole (traceless):
                xx          xy          yy          xz          yz          zz
 q only:       -0.888       5.953       2.581      -2.309      -2.382      -1.694
  q+dip:       -3.790       9.221       2.850      -2.427      -1.522       0.939
   full:       -4.669       6.823       0.183      -2.618      -1.316       4.486

           -------------------------------------------------
          |                Geometry Summary                 |
           -------------------------------------------------

      molecular mass/u    :      264.4982010
   center of mass at/Å    :       -0.5120300      -0.6756448       0.3275997
  moments of inertia/u·Å² :        0.6531565E+03   0.8368123E+03   0.1223585E+04
rotational constants/cm⁻¹ :        0.2580949E-01   0.2014506E-01   0.1377725E-01

 * 39 selected distances

     #   Z          #   Z                                           value/Å
     1  40 Zr       2   6 C                                       2.2468940
     1  40 Zr       3   6 C                                       2.4827254 (max)
     1  40 Zr       4   6 C                                       2.4452176
     3   6 C        4   6 C                                       1.4161542
     1  40 Zr       5   6 C                                       2.4058862
     4   6 C        5   6 C                                       1.4207377
     1  40 Zr       6   6 C                                       2.4116651
     5   6 C        6   6 C                                       1.4251667
     1  40 Zr       7   6 C                                       2.4436840
     3   6 C        7   6 C                                       1.4174320
     6   6 C        7   6 C                                       1.4206862
     3   6 C        8   1 H                                       1.0840163
     4   6 C        9   1 H                                       1.0860932
     5   6 C       10   1 H                                       1.0856697
     6   6 C       11   1 H                                       1.0847664
     7   6 C       12   1 H                                       1.0865345
     1  40 Zr      13   6 C                                       2.4625663
     1  40 Zr      14   6 C                                       2.4604131
    13   6 C       14   6 C                                       1.4168828
     1  40 Zr      15   6 C                                       2.4236221
    14   6 C       15   6 C                                       1.4189688
     1  40 Zr      16   6 C                                       2.4172149
    15   6 C       16   6 C                                       1.4232595
     1  40 Zr      17   6 C                                       2.4201767
    13   6 C       17   6 C                                       1.4185809
    16   6 C       17   6 C                                       1.4230435
    13   6 C       18   1 H                                       1.0849608
    14   6 C       19   1 H                                       1.0855134
    15   6 C       20   1 H                                       1.0862006
    16   6 C       21   1 H                                       1.0837270 (min)
    17   6 C       22   1 H                                       1.0865458
     2   6 C       23   1 H                                       1.1067756
     2   6 C       24   1 H                                       1.1083228
    25   6 C       26   1 H                                       1.1070463
    25   6 C       27   1 H                                       1.0985971
    25   6 C       28   6 C                                       1.5301463
    28   6 C       29   1 H                                       1.0879276
    28   6 C       30   1 H                                       1.0864498
    28   6 C       31   1 H                                       1.0877616

 * 3 distinct bonds (by element types)

   Z      Z             #   av. dist./Å        max./Å        min./Å
   1 H    6 C          17     1.0904064     1.1083228     1.0837270
   6 C    6 C          11     1.4300962     1.5301463     1.4161542
   6 C   40 Zr         11     2.4200059     2.4827254     2.2468940


optimized geometry written to: xtbopt.xyz


           -------------------------------------------------
          | TOTAL ENERGY              -37.683614934033 Eh   |
          | GRADIENT NORM               0.000713476679 Eh/α |
          | HOMO-LUMO GAP               1.692547570957 eV   |
           -------------------------------------------------

------------------------------------------------------------------------
 * finished run on 2026/07/20 at 17:13:01.099     
------------------------------------------------------------------------
 total:
 * wall-time:     0 d,  0 h,  0 min, 10.297 sec
 *  cpu-time:     0 d,  0 h,  1 min, 10.573 sec
 * ratio c/w:     6.853 speedup
 SCF:
 * wall-time:     0 d,  0 h,  0 min,  0.565 sec
 *  cpu-time:     0 d,  0 h,  0 min,  4.310 sec
 * ratio c/w:     7.631 speedup
 ANC optimizer:
 * wall-time:     0 d,  0 h,  0 min,  9.646 sec
 *  cpu-time:     0 d,  0 h,  1 min,  5.651 sec
 * ratio c/w:     6.806 speedup

