31
 energy: -37.671586747662 gnorm: 0.000797010459 xtb: 6.5.1 (b24c23e)
Zr          -0.58893199776250       -0.68596481003906        0.13006482988966
C           -1.94886876349801       -2.24780811930783       -0.27105783433541
C            1.71615686721477        0.01266755133810        0.84028831447574
C            1.80494350279953       -0.54054729053233       -0.45700419645369
C            1.45380142808259       -1.91580573241533       -0.37104296547121
C            1.12695183740483       -2.19748506089132        0.98139438967869
C            1.25420591842377       -0.99315812300556        1.72442801687772
H            2.05672662451347        0.99929981601153        1.13036907792625
H            2.24783082147632       -0.05729160516800       -1.32221857241010
H            1.59452901991604       -2.65299990806574       -1.15573071471730
H            0.95987362920293       -3.18377411799060        1.40115558275952
H            1.22256879517471       -0.91605118515582        2.80797322239721
C           -0.62806295244768        1.71016794607191       -0.35187396005401
C           -0.99626277863187        1.56617598736798        1.01036690310282
C           -2.22785484768021        0.86402331912446        1.06169887831271
C           -2.62771664547047        0.58549273985564       -0.27210151723633
C           -1.62217873482275        1.08355482062165       -1.14764468187417
H            0.18765448141426        2.32065429548354       -0.72487058218988
H           -0.51743476113072        2.05865849384545        1.85085963547686
H           -2.84731661813927        0.73413796031719        1.94388464186945
H           -3.59559179196020        0.20472397124928       -0.57454934363624
H           -1.71134916364716        1.15937289516882       -2.22762579650390
H           -0.98667558559948       -2.73686143838005       -0.51282449108739
H           -2.71769551142671       -2.46511429044704       -1.01212279698829
C           -2.37772557521073       -2.62818546394313        1.15469432178579
H           -1.71281533516538       -2.12281043735368        1.91311299641523
H           -3.40565759344219       -2.28666587681791        1.32903760751340
C           -2.32075327821799       -4.14275645269843        1.40014616986754
H           -1.31312161760460       -4.52315630381832        1.23305988397971
H           -2.61692070593389       -4.38654682267779        2.41706925773011
H           -2.99611559781680       -4.65223057765517        0.71660458288907
