31
 energy: -37.683614934033 gnorm: 0.000713476679 xtb: 6.5.1 (b24c23e)
Zr          -0.40886802869426       -0.58656872811840        0.14603658266586
C           -1.58913760153598       -2.49251886499005       -0.00512367628736
C            1.87381701002080        0.23589115721245        0.67218579495898
C            1.91761367860807       -0.41221282829972       -0.58620019645150
C            1.60950912880484       -1.78420544507833       -0.38321486797804
C            1.36452272560619       -1.97538804361652        1.00765913161005
C            1.50917306309594       -0.71875779125921        1.65442469872677
H            2.19622882227881        1.25187180665550        0.86948007344031
H            2.29953199532297        0.02060956879403       -1.50620092869529
H            1.72499712058481       -2.57616639070879       -1.11679433812935
H            1.25551963321926       -2.93406625730051        1.50341341522348
H            1.53470075633667       -0.56254406043537        2.72936774902116
C           -0.72456177362266        1.79706281576806       -0.38581865748262
C           -1.00574196734025        1.64446823160359        0.99447449851463
C           -2.13900674437982        0.80045215088880        1.12416547368540
C           -2.56925028422661        0.44583821739301       -0.18534081893453
C           -1.67581366616190        1.04197715471490       -1.11885125895529
H           -0.00174287781511        2.48559198103630       -0.81078954333353
H           -0.54155458315733        2.20406333792310        1.80052821776793
H           -2.69511923011417        0.62322707629854        2.04022313553169
H           -3.50306452802259       -0.04597920640345       -0.43145185181230
H           -1.82630186745575        1.08490215411393       -2.19406854430597
H           -0.92780375574665       -3.35644619533396       -0.20814841182037
H           -2.32479782513093       -2.47063555302912       -0.83379995839975
C           -2.36926662514356       -2.83211962893806        1.29586144581894
H           -1.69463887152817       -2.75117167109075        2.16986151527527
H           -3.19773461533711       -2.12360794828044        1.43212313403927
C           -2.94734682281952       -4.24818564401800        1.25195849399744
H           -2.15256040515382       -4.98469357052954        1.15471188777108
H           -3.50346386065714       -4.46397737611642        2.16000068485049
H           -3.62164492987818       -4.35299426881334        0.40486797971090
