31
 energy: -37.646839211092 gnorm: 0.000593825457 xtb: 6.5.1 (b24c23e)
Zr          -1.16266308484769       -0.13184208922778        0.48725446221973
C           -0.85958031742862        1.17742989235660       -1.44669204925230
C            0.46196340080312       -1.97946453551564        0.63699249693820
C            0.24350448216672       -1.76327110321994       -0.74396535559348
C           -1.10599687401513       -2.07303879534937       -1.02920027294107
C           -1.72848465927197       -2.48209915985856        0.17931900612213
C           -0.75469318037812       -2.43227023219789        1.20731373272512
H            1.42793104115191       -1.96716236738590        1.13007570277438
H            1.01472886520582       -1.55399617572479       -1.47782368907501
H           -1.54765127427071       -2.13381658918496       -2.01664530630620
H           -2.71040015657952       -2.93491256788583        0.26511936808277
H           -0.87858741284160       -2.83070852244475        2.20860421811733
C           -0.23179701152984        0.15749740741924        2.74637904671817
C           -1.63580922705039        0.33488264350313        2.82928394505239
C           -1.96000580483486        1.52964692589983        2.13445819754691
C           -0.76880396139700        2.06106357017065        1.59467053874724
C            0.30037438916258        1.20445365199442        1.95903766484179
H            0.34733229711752       -0.56339243433463        3.31092590358693
H           -2.30754612375365       -0.22326440307072        3.47434488212308
H           -2.91765084839056        2.03428963912886        2.16505570424954
H           -0.66807978125026        3.02911937827934        1.11838154048747
H            1.35605418594033        1.41505706062816        1.81905431219177
H            0.02450961333855        0.97642413369030       -0.78620293698329
H           -0.83571823502802        0.53089904920535       -2.32782456143518
H           -0.77722967843382        2.21185129865745       -1.77817251516366
C           -3.31331598852670        0.11891033797987       -0.28541819436309
C           -2.89172945077347        1.26099252355572       -0.99359784016771
H           -2.95662364841246        2.22818152363533       -0.49402385474678
H           -3.12644282104954        1.32584709912850       -2.05375621815978
H           -3.90623268663694        0.29662556594866        0.62084942652418
H           -3.71850820819011       -0.68402343578476       -0.90642531486293
