      -----------------------------------------------------------      
     |                   =====================                   |     
     |                           x T B                           |     
     |                   =====================                   |     
     |                         S. Grimme                         |     
     |          Mulliken Center for Theoretical Chemistry        |     
     |                    University of Bonn                     |     
      -----------------------------------------------------------      

   * xtb version 6.5.1 (b24c23e) compiled by 'conda@728c89f4b128' on 2022-07-12

   xtb is free software: you can redistribute it and/or modify it under
   the terms of the GNU Lesser General Public License as published by
   the Free Software Foundation, either version 3 of the License, or
   (at your option) any later version.
   
   xtb is distributed in the hope that it will be useful,
   but WITHOUT ANY WARRANTY; without even the implied warranty of
   MERCHANTABILITY or FITNESS FOR A PARTICULAR PURPOSE.  See the
   GNU Lesser General Public License for more details.
   
   Cite this work as:
   * C. Bannwarth, E. Caldeweyher, S. Ehlert, A. Hansen, P. Pracht,
     J. Seibert, S. Spicher, S. Grimme, WIREs Comput. Mol. Sci., 2020, 11,
     e01493. DOI: 10.1002/wcms.1493
   
   for GFN2-xTB:
   * C. Bannwarth, S. Ehlert and S. Grimme., J. Chem. Theory Comput., 2019,
     15, 1652-1671. DOI: 10.1021/acs.jctc.8b01176
   for GFN1-xTB:
   * S. Grimme, C. Bannwarth, P. Shushkov, J. Chem. Theory Comput., 2017,
     13, 1989-2009. DOI: 10.1021/acs.jctc.7b00118
   for GFN0-xTB:
   * P. Pracht, E. Caldeweyher, S. Ehlert, S. Grimme, ChemRxiv, 2019, preprint.
     DOI: 10.26434/chemrxiv.8326202.v1
   for GFN-FF:
   * S. Spicher and S. Grimme, Angew. Chem. Int. Ed., 2020, 59, 15665-15673.
     DOI: 10.1002/anie.202004239
   
   for ALPB and GBSA implicit solvation:
   * S. Ehlert, M. Stahn, S. Spicher, S. Grimme, J. Chem. Theory Comput.,
     2021, 17, 4250-4261. DOI: 10.1021/acs.jctc.1c00471
   
   for DFT-D4:
   * E. Caldeweyher, C. Bannwarth and S. Grimme, J. Chem. Phys., 2017,
     147, 034112. DOI: 10.1063/1.4993215
   * E. Caldeweyher, S. Ehlert, A. Hansen, H. Neugebauer, S. Spicher,
     C. Bannwarth and S. Grimme, J. Chem. Phys., 2019, 150, 154122.
     DOI: 10.1063/1.5090222
   * E. Caldeweyher, J.-M. Mewes, S. Ehlert and S. Grimme, Phys. Chem. Chem. Phys.
     2020, 22, 8499-8512. DOI: 10.1039/D0CP00502A
   
   for sTDA-xTB:
   * S. Grimme and C. Bannwarth, J. Chem. Phys., 2016, 145, 054103.
     DOI: 10.1063/1.4959605
   
   in the mass-spec context:
   * V. Asgeirsson, C. Bauer and S. Grimme, Chem. Sci., 2017, 8, 4879.
     DOI: 10.1039/c7sc00601b
   * J. Koopman and S. Grimme, ACS Omega 2019, 4, 12, 15120-15133.
     DOI: 10.1021/acsomega.9b02011
   
   for metadynamics refer to:
   * S. Grimme, J. Chem. Theory Comput., 2019, 155, 2847-2862
     DOI: 10.1021/acs.jctc.9b00143
   
   for SPH calculations refer to:
   * S. Spicher and S. Grimme, J. Chem. Theory Comput., 2021, 17, 1701-1714
     DOI: 10.1021/acs.jctc.0c01306
   
   with help from (in alphabetical order)
   P. Atkinson, C. Bannwarth, F. Bohle, G. Brandenburg, E. Caldeweyher
   M. Checinski, S. Dohm, S. Ehlert, S. Ehrlich, I. Gerasimov, C. Hölzer
   A. Katbashev, J. Koopman, C. Lavigne, S. Lehtola, F. März, M. Müller,
   F. Musil, H. Neugebauer, J. Pisarek, C. Plett, P. Pracht, F. Pultar,
   J. Seibert, P. Shushkov, S. Spicher, M. Stahn, M. Steiner, T. Strunk,
   J. Stückrath, T. Rose, and J. Unsleber
   
 * started run on 2026/07/20 at 17:14:07.964     

           -------------------------------------------------
          |                Calculation Setup                |
           -------------------------------------------------

          program call               : /h/332/chchoi/miniconda3/envs/el-agente/bin/xtb ts_seed.xyz --opt --gfn 2 -P 4 --chrg 1 --uhf 0 --input detailed_input.inp
          coordinate file            : ts_seed.xyz
          omp threads                :                     4

   ID    Z sym.   atoms
    1   40 Zr     1
    2    6 C      2-7, 13-17, 26, 27
    3    1 H      8-12, 18-25, 28-31
constraining bond 1 2 to    2.3500000 Å, actual value:    2.2077984 Å
constraining bond 1 26 to    2.3000000 Å, actual value:    2.1591094 Å
constraining bond 2 27 to    2.1000000 Å, actual value:    2.5000002 Å
constraining bond 26 27 to    1.4000000 Å, actual value:    1.3339472 Å
constraining angle 2 1 26 to   75.0000000°, actual value:   79.1709196°

           -------------------------------------------------
          |                 G F N 2 - x T B                 |
           -------------------------------------------------

        Reference                      10.1021/acs.jctc.8b01176
      * Hamiltonian:
        H0-scaling (s, p, d)           1.850000    2.230000    2.230000
        zeta-weighting                 0.500000
      * Dispersion:
        s8                             2.700000
        a1                             0.520000
        a2                             5.000000
        s9                             5.000000
      * Repulsion:
        kExp                           1.500000    1.000000
        rExp                           1.000000
      * Coulomb:
        alpha                          2.000000
        third order                    shell-resolved
        anisotropic                    true
        a3                             3.000000
        a5                             4.000000
        cn-shift                       1.200000
        cn-exp                         4.000000
        max-rad                        5.000000


          ...................................................
          :                      SETUP                      :
          :.................................................:
          :  # basis functions                  79          :
          :  # atomic orbitals                  78          :
          :  # shells                           46          :
          :  # electrons                        72          :
          :  max. iterations                   250          :
          :  Hamiltonian                  GFN2-xTB          :
          :  restarted?                      false          :
          :  GBSA solvation                  false          :
          :  PC potential                    false          :
          :  electronic temp.          300.0000000     K    :
          :  accuracy                    1.0000000          :
          :  -> integral cutoff          0.2500000E+02      :
          :  -> integral neglect         0.1000000E-07      :
          :  -> SCF convergence          0.1000000E-05 Eh   :
          :  -> wf. convergence          0.1000000E-03 e    :
          :  Broyden damping             0.4000000          :
          ...................................................

 iter      E             dE          RMSdq      gap      omega  full diag
   1    -38.1686020 -0.381686E+02  0.526E+00    1.40       0.0  T
   2    -38.2684017 -0.997997E-01  0.389E+00    1.69       1.0  T
   3    -38.2708808 -0.247903E-02  0.251E+00    1.33       1.0  T
   4    -38.2708501  0.306776E-04  0.747E-01    1.72       1.0  T
   5    -38.2792582 -0.840812E-02  0.346E-01    1.47       1.0  T
   6    -38.2804663 -0.120807E-02  0.195E-01    1.48       1.0  T
   7    -38.2804643  0.196368E-05  0.128E-01    1.50       1.0  T
   8    -38.2805271 -0.628148E-04  0.358E-02    1.52       1.0  T
   9    -38.2805346 -0.748699E-05  0.193E-02    1.52       1.0  T
  10    -38.2805351 -0.512087E-06  0.847E-03    1.52       2.1  T
  11    -38.2805354 -0.278727E-06  0.311E-03    1.52       5.8  T
  12    -38.2805355 -0.611166E-07  0.187E-03    1.52       9.6  T
  13    -38.2805355 -0.158130E-07  0.504E-04    1.52      35.6  T
  14    -38.2805355 -0.204471E-08  0.299E-04    1.52      60.1  T

   *** convergence criteria satisfied after 14 iterations ***

         #    Occupation            Energy/Eh            Energy/eV
      -------------------------------------------------------------
         1        2.0000           -0.8827299             -24.0203
       ...           ...                  ...                  ...
        30        2.0000           -0.5807224             -15.8023
        31        2.0000           -0.5713746             -15.5479
        32        2.0000           -0.5207819             -14.1712
        33        2.0000           -0.5162046             -14.0466
        34        2.0000           -0.5079823             -13.8229
        35        2.0000           -0.5029422             -13.6858
        36        2.0000           -0.4945886             -13.4584 (HOMO)
        37                         -0.4387539             -11.9391 (LUMO)
        38                         -0.4168043             -11.3418
        39                         -0.4023442             -10.9483
        40                         -0.3978392             -10.8258
        41                         -0.3767671             -10.2524
       ...                                ...                  ...
        78                          2.9170210              79.3762
      -------------------------------------------------------------
                  HL-Gap            0.0558348 Eh            1.5193 eV
             Fermi-level           -0.4666713 Eh          -12.6988 eV

 SCC (total)                   0 d,  0 h,  0 min,  0.591 sec
 SCC setup                      ...        0 min,  0.002 sec (  0.391%)
 Dispersion                     ...        0 min,  0.001 sec (  0.097%)
 classical contributions        ...        0 min,  0.000 sec (  0.084%)
 integral evaluation            ...        0 min,  0.008 sec (  1.436%)
 iterations                     ...        0 min,  0.493 sec ( 83.444%)
 molecular gradient             ...        0 min,  0.086 sec ( 14.499%)
 printout                       ...        0 min,  0.000 sec (  0.042%)

         :::::::::::::::::::::::::::::::::::::::::::::::::::::
         ::                     SUMMARY                     ::
         :::::::::::::::::::::::::::::::::::::::::::::::::::::
         :: total energy             -37.246004920537 Eh    ::
         :: gradient norm              1.164678482852 Eh/a0 ::
         :: HOMO-LUMO gap              1.519341536449 eV    ::
         ::.................................................::
         :: SCC energy               -38.280535477101 Eh    ::
         :: -> isotropic ES            0.093598181704 Eh    ::
         :: -> anisotropic ES         -0.012942163313 Eh    ::
         :: -> anisotropic XC          0.021128537778 Eh    ::
         :: -> dispersion             -0.028836010872 Eh    ::
         :: repulsion energy           0.666189102254 Eh    ::
         :: add. restraining           0.367674179806 Eh    ::
         :: total charge               1.000000000000 e     ::
         :::::::::::::::::::::::::::::::::::::::::::::::::::::

      ----------------------------------------------------------- 
     |                   =====================                   |
     |                        A N C O P T                        |
     |                   =====================                   |
     |               Approximate Normal Coordinate               |
     |                Rational Function Optimizer                |
      ----------------------------------------------------------- 

          ...................................................
          :                      SETUP                      :
          :.................................................:
          :   optimization level            normal          :
          :   max. optcycles                   200          :
          :   ANC micro-cycles                  20          :
          :   degrees of freedom                87          :
          :.................................................:
          :   RF solver                   davidson          :
          :   write xtbopt.log                true          :
          :   linear?                        false          :
          :   energy convergence         0.5000000E-05 Eh   :
          :   grad. convergence          0.1000000E-02 Eh/α :
          :   maximium RF displ.         1.0000000          :
          :   Hlow (freq-cutoff)         0.1000000E-01      :
          :   Hmax (freq-cutoff)         5.0000000          :
          :   S6 in model hess.         20.0000000          :
          ...................................................

generating ANC from model Hessian ...
Using Lindh-Hessian (1995)
 Shifting diagonal of input Hessian by    5.4791433364213341E-002
 Lowest  eigenvalues of input Hessian
    0.010000    0.030890    0.051934    0.052906    0.000000    0.000000
    0.000000    0.000000    0.000000    0.000000    0.055216    0.055304
    0.056273    0.058481    0.061356    0.062209    0.062636    0.062705
 Highest eigenvalues
    1.785710    1.787830    2.071957    2.404619    3.043961    3.949325


........................................................................
.............................. CYCLE    1 ..............................
........................................................................
   1    -38.2805355 -0.382805E+02  0.139E-04    1.52       0.0  T
   2    -38.2805355 -0.920295E-10  0.897E-05    1.52     200.3  T
   3    -38.2805355 -0.447358E-10  0.733E-05    1.52     244.9  T
     SCC iter.                  ...        0 min,  0.122 sec
     gradient                   ...        0 min,  0.090 sec
 * total energy  :   -37.2460049 Eh     change       -0.3179110E-09 Eh
   gradient norm :     1.1646793 Eh/α   predicted     0.0000000E+00 (-100.00%)
   displ. norm   :     0.4673196 α      lambda       -0.5072951E+00
   maximum displ.:     0.3348493 α      in ANC's #85, #61, #84, ...

........................................................................
.............................. CYCLE    2 ..............................
........................................................................
   1    -38.2416139 -0.382416E+02  0.105E+00    1.43       0.0  T
   2    -38.2425526 -0.938695E-03  0.109E+00    1.81       1.0  T
   3    -38.2492177 -0.666512E-02  0.643E-01    1.66       1.0  T
   4    -38.2484310  0.786665E-03  0.215E-01    1.61       1.0  T
   5    -38.2492901 -0.859060E-03  0.102E-01    1.64       1.0  T
   6    -38.2493910 -0.100884E-03  0.507E-02    1.64       1.0  T
   7    -38.2493894  0.154633E-05  0.265E-02    1.64       1.0  T
   8    -38.2493949 -0.545232E-05  0.104E-02    1.63       1.7  T
   9    -38.2493961 -0.119776E-05  0.609E-03    1.63       2.9  T
  10    -38.2493963 -0.221351E-06  0.225E-03    1.64       8.0  T
  11    -38.2493963 -0.278583E-07  0.133E-03    1.64      13.5  T
  12    -38.2493963 -0.162613E-07  0.571E-04    1.64      31.4  T
  13    -38.2493963 -0.192814E-08  0.274E-04    1.64      65.6  T
     SCC iter.                  ...        0 min,  0.446 sec
     gradient                   ...        0 min,  0.010 sec
 * total energy  :   -37.5623738 Eh     change       -0.3163689E+00 Eh
   gradient norm :     0.2735315 Eh/α   predicted    -0.3090411E+00 (  -2.32%)
   displ. norm   :     0.3821952 α      lambda       -0.5587577E-01
   maximum displ.:     0.1556757 α      in ANC's #1, #4, #25, ...

........................................................................
.............................. CYCLE    3 ..............................
........................................................................
   1    -38.2305931 -0.382306E+02  0.909E-01    1.59       0.0  T
   2    -38.2296299  0.963182E-03  0.931E-01    1.78       1.0  T
   3    -38.2380978 -0.846791E-02  0.450E-01    1.68       1.0  T
   4    -38.2375137  0.584160E-03  0.173E-01    1.66       1.0  T
   5    -38.2381888 -0.675127E-03  0.606E-02    1.68       1.0  T
   6    -38.2381940 -0.519568E-05  0.293E-02    1.67       1.0  T
   7    -38.2381946 -0.600723E-06  0.157E-02    1.68       1.1  T
   8    -38.2381968 -0.222228E-05  0.523E-03    1.67       3.4  T
   9    -38.2381971 -0.275790E-06  0.354E-03    1.67       5.1  T
  10    -38.2381972 -0.643343E-07  0.157E-03    1.67      11.5  T
  11    -38.2381972 -0.111254E-07  0.852E-04    1.67      21.1  T
  12    -38.2381972 -0.653317E-08  0.280E-04    1.67      64.2  T
     SCC iter.                  ...        0 min,  0.406 sec
     gradient                   ...        0 min,  0.011 sec
 * total energy  :   -37.5955049 Eh     change       -0.3313112E-01 Eh
   gradient norm :     0.0614593 Eh/α   predicted    -0.3201892E-01 (  -3.36%)
   displ. norm   :     0.4834975 α      lambda       -0.1738890E-01
   maximum displ.:     0.1823676 α      in ANC's #4, #1, #25, ...

........................................................................
.............................. CYCLE    4 ..............................
........................................................................
   1    -38.2414026 -0.382414E+02  0.485E-01    1.61       0.0  T
   2    -38.2414066 -0.400315E-05  0.502E-01    1.68       1.0  T
   3    -38.2433890 -0.198242E-02  0.289E-01    1.65       1.0  T
   4    -38.2432399  0.149140E-03  0.119E-01    1.64       1.0  T
   5    -38.2434495 -0.209587E-03  0.608E-02    1.65       1.0  T
   6    -38.2434612 -0.117291E-04  0.294E-02    1.64       1.0  T
   7    -38.2434656 -0.441316E-05  0.121E-02    1.65       1.5  T
   8    -38.2434660 -0.393574E-06  0.547E-03    1.65       3.3  T
   9    -38.2434662 -0.127257E-06  0.301E-03    1.65       6.0  T
  10    -38.2434663 -0.103797E-06  0.199E-03    1.65       9.0  T
  11    -38.2434663 -0.506820E-08  0.411E-04    1.65      43.7  T
  12    -38.2434663 -0.253827E-08  0.137E-04    1.65     131.3  T
     SCC iter.                  ...        0 min,  0.342 sec
     gradient                   ...        0 min,  0.018 sec
 * total energy  :   -37.6050933 Eh     change       -0.9588439E-02 Eh
   gradient norm :     0.0763873 Eh/α   predicted    -0.1072860E-01 (  11.89%)
   displ. norm   :     0.7266777 α      lambda       -0.2131373E-01
   maximum displ.:     0.4261047 α      in ANC's #1, #4, #25, ...

........................................................................
.............................. CYCLE    5 ..............................
........................................................................
   1    -38.2446730 -0.382447E+02  0.106E+00    1.71       0.0  T
   2    -38.2451072 -0.434169E-03  0.889E-01    1.74       1.0  T
   3    -38.2467420 -0.163484E-02  0.493E-01    1.71       1.0  T
   4    -38.2478140 -0.107200E-02  0.121E-01    1.72       1.0  T
   5    -38.2479761 -0.162050E-03  0.705E-02    1.72       1.0  T
   6    -38.2480139 -0.377618E-04  0.320E-02    1.72       1.0  T
   7    -38.2480161 -0.225788E-05  0.145E-02    1.72       1.2  T
   8    -38.2480161  0.558243E-07  0.843E-03    1.72       2.1  T
   9    -38.2480164 -0.384902E-06  0.465E-03    1.72       3.9  T
  10    -38.2480165 -0.277502E-07  0.201E-03    1.72       8.9  T
  11    -38.2480165 -0.778961E-08  0.627E-04    1.72      28.7  T
  12    -38.2480165 -0.311837E-08  0.278E-04    1.72      64.6  T
     SCC iter.                  ...        0 min,  0.420 sec
     gradient                   ...        0 min,  0.108 sec
 * total energy  :   -37.6173334 Eh     change       -0.1224002E-01 Eh
   gradient norm :     0.0708807 Eh/α   predicted    -0.1628454E-01 (  33.04%)
   displ. norm   :     0.4484129 α      lambda       -0.1019817E-01
   maximum displ.:     0.2391688 α      in ANC's #4, #15, #8, ...

........................................................................
.............................. CYCLE    6 ..............................
........................................................................
   1    -38.2497888 -0.382498E+02  0.368E-01    1.72       0.0  T
   2    -38.2498257 -0.369203E-04  0.327E-01    1.72       1.0  T
   3    -38.2502115 -0.385782E-03  0.181E-01    1.72       1.0  T
   4    -38.2502643 -0.528149E-04  0.435E-02    1.72       1.0  T
   5    -38.2502886 -0.243025E-04  0.272E-02    1.72       1.0  T
   6    -38.2502904 -0.174491E-05  0.966E-03    1.72       1.9  T
   7    -38.2502908 -0.470508E-06  0.505E-03    1.72       3.6  T
   8    -38.2502909 -0.276048E-07  0.302E-03    1.72       6.0  T
   9    -38.2502909 -0.291778E-07  0.149E-03    1.72      12.1  T
  10    -38.2502909 -0.129004E-07  0.728E-04    1.72      24.7  T
  11    -38.2502909 -0.260930E-08  0.120E-04    1.72     150.3  T
     SCC iter.                  ...        0 min,  0.381 sec
     gradient                   ...        0 min,  0.106 sec
 * total energy  :   -37.6239677 Eh     change       -0.6634321E-02 Eh
   gradient norm :     0.0409735 Eh/α   predicted    -0.6124710E-02 (  -7.68%)
   displ. norm   :     0.4879374 α      lambda       -0.8159636E-02
   maximum displ.:     0.2009481 α      in ANC's #2, #9, #8, ...

........................................................................
.............................. CYCLE    7 ..............................
........................................................................
   1    -38.2550037 -0.382550E+02  0.501E-01    1.77       0.0  T
   2    -38.2551570 -0.153270E-03  0.389E-01    1.77       1.0  T
   3    -38.2547686  0.388396E-03  0.180E-01    1.78       1.0  T
   4    -38.2553199 -0.551335E-03  0.715E-02    1.76       1.0  T
   5    -38.2553698 -0.498703E-04  0.317E-02    1.77       1.0  T
   6    -38.2553718 -0.196617E-05  0.132E-02    1.77       1.4  T
   7    -38.2553726 -0.835568E-06  0.621E-03    1.77       2.9  T
   8    -38.2553726 -0.288624E-07  0.229E-03    1.77       7.8  T
   9    -38.2553727 -0.591994E-07  0.139E-03    1.77      12.9  T
  10    -38.2553727 -0.119800E-08  0.575E-04    1.77      31.2  T
  11    -38.2553727 -0.166811E-08  0.164E-04    1.77     109.6  T
     SCC iter.                  ...        0 min,  0.352 sec
     gradient                   ...        0 min,  0.015 sec
 * total energy  :   -37.6287660 Eh     change       -0.4798317E-02 Eh
   gradient norm :     0.0436763 Eh/α   predicted    -0.5051180E-02 (   5.27%)
   displ. norm   :     0.3805614 α      lambda       -0.4997971E-02
   maximum displ.:     0.1785312 α      in ANC's #9, #8, #4, ...

........................................................................
.............................. CYCLE    8 ..............................
........................................................................
   1    -38.2579105 -0.382579E+02  0.365E-01    1.79       0.0  T
   2    -38.2579952 -0.846593E-04  0.331E-01    1.77       1.0  T
   3    -38.2584313 -0.436154E-03  0.182E-01    1.78       1.0  T
   4    -38.2584472 -0.158595E-04  0.330E-02    1.78       1.0  T
   5    -38.2584643 -0.171094E-04  0.216E-02    1.77       1.0  T
   6    -38.2584654 -0.112310E-05  0.651E-03    1.78       2.8  T
   7    -38.2584657 -0.276872E-06  0.321E-03    1.78       5.6  T
   8    -38.2584657 -0.386358E-07  0.121E-03    1.78      14.9  T
   9    -38.2584657 -0.125647E-07  0.701E-04    1.78      25.6  T
  10    -38.2584657 -0.278519E-09  0.378E-04    1.78      47.5  T
     SCC iter.                  ...        0 min,  0.367 sec
     gradient                   ...        0 min,  0.083 sec
 * total energy  :   -37.6325128 Eh     change       -0.3746801E-02 Eh
   gradient norm :     0.0311955 Eh/α   predicted    -0.2860910E-02 ( -23.64%)
   displ. norm   :     0.4696810 α      lambda       -0.5365403E-02
   maximum displ.:     0.1969467 α      in ANC's #9, #2, #5, ...

........................................................................
.............................. CYCLE    9 ..............................
........................................................................
   1    -38.2687051 -0.382687E+02  0.404E-01    1.80       0.0  T
   2    -38.2688142 -0.109044E-03  0.377E-01    1.77       1.0  T
   3    -38.2693146 -0.500389E-03  0.214E-01    1.79       1.0  T
   4    -38.2693237 -0.918935E-05  0.299E-02    1.78       1.0  T
   5    -38.2693370 -0.132053E-04  0.207E-02    1.78       1.0  T
   6    -38.2693375 -0.597199E-06  0.721E-03    1.78       2.5  T
   7    -38.2693380 -0.405541E-06  0.293E-03    1.78       6.1  T
   8    -38.2693380 -0.406549E-07  0.145E-03    1.78      12.4  T
   9    -38.2693380 -0.103459E-07  0.725E-04    1.78      24.8  T
  10    -38.2693380 -0.172592E-08  0.406E-04    1.78      44.3  T
     SCC iter.                  ...        0 min,  0.277 sec
     gradient                   ...        0 min,  0.016 sec
 * total energy  :   -37.6360321 Eh     change       -0.3519270E-02 Eh
   gradient norm :     0.0345520 Eh/α   predicted    -0.3274520E-02 (  -6.95%)
   displ. norm   :     0.4587243 α      lambda       -0.2946132E-02
   maximum displ.:     0.1690703 α      in ANC's #4, #9, #2, ...

........................................................................
.............................. CYCLE   10 ..............................
........................................................................
   1    -38.2666958 -0.382667E+02  0.441E-01    1.81       0.0  T
   2    -38.2668047 -0.108934E-03  0.380E-01    1.79       1.0  T
   3    -38.2669073 -0.102593E-03  0.182E-01    1.81       1.0  T
   4    -38.2671014 -0.194143E-03  0.390E-02    1.79       1.0  T
   5    -38.2671192 -0.177991E-04  0.204E-02    1.80       1.0  T
   6    -38.2671200 -0.782666E-06  0.709E-03    1.80       2.5  T
   7    -38.2671204 -0.381205E-06  0.333E-03    1.80       5.4  T
   8    -38.2671204  0.960461E-08  0.172E-03    1.80      10.4  T
   9    -38.2671204 -0.238624E-07  0.737E-04    1.80      24.4  T
  10    -38.2671204 -0.614605E-09  0.370E-04    1.80      48.6  T
     SCC iter.                  ...        0 min,  0.277 sec
     gradient                   ...        0 min,  0.017 sec
 * total energy  :   -37.6379547 Eh     change       -0.1922665E-02 Eh
   gradient norm :     0.0326056 Eh/α   predicted    -0.1783043E-02 (  -7.26%)
   displ. norm   :     0.3254046 α      lambda       -0.2081297E-02
   maximum displ.:     0.0991617 α      in ANC's #21, #16, #23, ...

........................................................................
.............................. CYCLE   11 ..............................
........................................................................
   1    -38.2762320 -0.382762E+02  0.232E-01    1.82       0.0  T
   2    -38.2762612 -0.291937E-04  0.131E-01    1.80       1.0  T
   3    -38.2762058  0.553501E-04  0.931E-02    1.82       1.0  T
   4    -38.2762839 -0.780463E-04  0.116E-02    1.81       1.6  T
   5    -38.2762844 -0.519038E-06  0.936E-03    1.81       1.9  T
   6    -38.2762847 -0.282094E-06  0.322E-03    1.81       5.6  T
   7    -38.2762849 -0.172695E-06  0.145E-03    1.81      12.3  T
   8    -38.2762849 -0.260240E-08  0.996E-04    1.81      18.0  T
   9    -38.2762849 -0.696760E-08  0.550E-04    1.81      32.6  T
     SCC iter.                  ...        0 min,  0.237 sec
     gradient                   ...        0 min,  0.015 sec
 * total energy  :   -37.6389117 Eh     change       -0.9570123E-03 Eh
   gradient norm :     0.0229585 Eh/α   predicted    -0.1150843E-02 (  20.25%)
   displ. norm   :     0.3721585 α      lambda       -0.1829859E-02
   maximum displ.:     0.1734775 α      in ANC's #2, #4, #9, ...

........................................................................
.............................. CYCLE   12 ..............................
........................................................................
   1    -38.2714126 -0.382714E+02  0.304E-01    1.81       0.0  T
   2    -38.2714555 -0.428967E-04  0.245E-01    1.82       1.0  T
   3    -38.2713392  0.116228E-03  0.118E-01    1.82       1.0  T
   4    -38.2715430 -0.203789E-03  0.285E-02    1.81       1.0  T
   5    -38.2715501 -0.705055E-05  0.127E-02    1.82       1.4  T
   6    -38.2715500  0.133889E-06  0.540E-03    1.82       3.3  T
   7    -38.2715503 -0.307703E-06  0.234E-03    1.82       7.7  T
   8    -38.2715503 -0.872655E-08  0.139E-03    1.82      12.9  T
   9    -38.2715503 -0.852327E-08  0.665E-04    1.82      27.0  T
  10    -38.2715503 -0.904826E-09  0.293E-04    1.82      61.3  T
     SCC iter.                  ...        0 min,  0.262 sec
     gradient                   ...        0 min,  0.078 sec
 * total energy  :   -37.6396704 Eh     change       -0.7586343E-03 Eh
   gradient norm :     0.0367982 Eh/α   predicted    -0.1041650E-02 (  37.31%)
   displ. norm   :     0.0995824 α      lambda       -0.8231030E-03
   maximum displ.:     0.0459432 α      in ANC's #7, #13, #9, ...

........................................................................
.............................. CYCLE   13 ..............................
........................................................................
   1    -38.2746986 -0.382747E+02  0.754E-02    1.82       0.0  T
   2    -38.2747056 -0.699616E-05  0.597E-02    1.82       1.0  T
   3    -38.2747117 -0.609724E-05  0.307E-02    1.82       1.0  T
   4    -38.2747159 -0.424918E-05  0.131E-02    1.82       1.4  T
   5    -38.2747174 -0.143942E-05  0.513E-03    1.82       3.5  T
   6    -38.2747174  0.702080E-09  0.255E-03    1.82       7.0  T
   7    -38.2747174 -0.650434E-07  0.831E-04    1.82      21.6  T
   8    -38.2747175 -0.219239E-08  0.552E-04    1.82      32.5  T
     SCC iter.                  ...        0 min,  0.237 sec
     gradient                   ...        0 min,  0.017 sec
 * total energy  :   -37.6403110 Eh     change       -0.6406459E-03 Eh
   gradient norm :     0.0249688 Eh/α   predicted    -0.4156375E-03 ( -35.12%)
   displ. norm   :     0.2472925 α      lambda       -0.1285851E-02
   maximum displ.:     0.1066527 α      in ANC's #13, #7, #2, ...

........................................................................
.............................. CYCLE   14 ..............................
........................................................................
   1    -38.2762542 -0.382763E+02  0.152E-01    1.84       0.0  T
   2    -38.2762633 -0.908392E-05  0.105E-01    1.83       1.0  T
   3    -38.2762255  0.377347E-04  0.612E-02    1.84       1.0  T
   4    -38.2762716 -0.460998E-04  0.148E-02    1.84       1.2  T
   5    -38.2762738 -0.219811E-05  0.926E-03    1.84       1.9  T
   6    -38.2762740 -0.166895E-06  0.421E-03    1.84       4.3  T
   7    -38.2762741 -0.147244E-06  0.173E-03    1.84      10.4  T
   8    -38.2762741 -0.266378E-08  0.116E-03    1.84      15.5  T
   9    -38.2762741 -0.623704E-08  0.473E-04    1.84      37.9  T
  10    -38.2762741 -0.728853E-09  0.208E-04    1.84      86.6  T
     SCC iter.                  ...        0 min,  0.270 sec
     gradient                   ...        0 min,  0.008 sec
 * total energy  :   -37.6411659 Eh     change       -0.8548378E-03 Eh
   gradient norm :     0.0109044 Eh/α   predicted    -0.6822642E-03 ( -20.19%)
   displ. norm   :     0.2401610 α      lambda       -0.6530916E-03
   maximum displ.:     0.1083836 α      in ANC's #2, #4, #13, ...

........................................................................
.............................. CYCLE   15 ..............................
........................................................................
   1    -38.2764862 -0.382765E+02  0.164E-01    1.86       0.0  T
   2    -38.2764910 -0.475486E-05  0.120E-01    1.85       1.0  T
   3    -38.2764683  0.226448E-04  0.354E-02    1.86       1.0  T
   4    -38.2764929 -0.245719E-04  0.113E-02    1.85       1.6  T
   5    -38.2764941 -0.121298E-05  0.631E-03    1.85       2.8  T
   6    -38.2764942 -0.101691E-06  0.222E-03    1.85       8.1  T
   7    -38.2764943 -0.348897E-07  0.130E-03    1.85      13.8  T
   8    -38.2764943 -0.156822E-08  0.728E-04    1.85      24.7  T
   9    -38.2764943 -0.161084E-08  0.390E-04    1.85      46.0  T
     SCC iter.                  ...        0 min,  0.233 sec
     gradient                   ...        0 min,  0.075 sec
 * total energy  :   -37.6416453 Eh     change       -0.4794691E-03 Eh
   gradient norm :     0.0138087 Eh/α   predicted    -0.3453829E-03 ( -27.97%)
   displ. norm   :     0.3303086 α      lambda       -0.9426312E-03
   maximum displ.:     0.1346287 α      in ANC's #4, #2, #7, ...

........................................................................
.............................. CYCLE   16 ..............................
........................................................................
   1    -38.2759104 -0.382759E+02  0.210E-01    1.88       0.0  T
   2    -38.2759204 -0.100388E-04  0.137E-01    1.87       1.0  T
   3    -38.2758650  0.554277E-04  0.637E-02    1.88       1.0  T
   4    -38.2759291 -0.641179E-04  0.147E-02    1.87       1.2  T
   5    -38.2759294 -0.341590E-06  0.895E-03    1.87       2.0  T
   6    -38.2759298 -0.348182E-06  0.340E-03    1.87       5.3  T
   7    -38.2759300 -0.165783E-06  0.206E-03    1.87       8.7  T
   8    -38.2759300 -0.166700E-07  0.110E-03    1.87      16.3  T
   9    -38.2759300 -0.289496E-08  0.522E-04    1.87      34.4  T
  10    -38.2759300 -0.134784E-08  0.293E-04    1.87      61.3  T
     SCC iter.                  ...        0 min,  0.249 sec
     gradient                   ...        0 min,  0.004 sec
 * total energy  :   -37.6421998 Eh     change       -0.5545201E-03 Eh
   gradient norm :     0.0149206 Eh/α   predicted    -0.5227432E-03 (  -5.73%)
   displ. norm   :     0.2705820 α      lambda       -0.6367831E-03
   maximum displ.:     0.1228388 α      in ANC's #4, #2, #57, ...

........................................................................
.............................. CYCLE   17 ..............................
........................................................................
   1    -38.2754237 -0.382754E+02  0.176E-01    1.89       0.0  T
   2    -38.2754379 -0.141608E-04  0.136E-01    1.88       1.0  T
   3    -38.2754046  0.332817E-04  0.596E-02    1.89       1.0  T
   4    -38.2754479 -0.432353E-04  0.166E-02    1.88       1.1  T
   5    -38.2754511 -0.324952E-05  0.864E-03    1.88       2.1  T
   6    -38.2754513 -0.222243E-06  0.319E-03    1.88       5.6  T
   7    -38.2754514 -0.933632E-07  0.179E-03    1.88      10.0  T
   8    -38.2754514 -0.169611E-07  0.814E-04    1.88      22.1  T
   9    -38.2754514 -0.108009E-08  0.483E-04    1.88      37.2  T
     SCC iter.                  ...        0 min,  0.221 sec
     gradient                   ...        0 min,  0.006 sec
 * total energy  :   -37.6425763 Eh     change       -0.3764525E-03 Eh
   gradient norm :     0.0134966 Eh/α   predicted    -0.3417047E-03 (  -9.23%)
   displ. norm   :     0.1386502 α      lambda       -0.5453128E-03
   maximum displ.:     0.0671906 α      in ANC's #14, #57, #4, ...

........................................................................
.............................. CYCLE   18 ..............................
........................................................................
   1    -38.2786230 -0.382786E+02  0.946E-02    1.89       0.0  T
   2    -38.2786265 -0.345791E-05  0.552E-02    1.88       1.0  T
   3    -38.2786144  0.120832E-04  0.326E-02    1.89       1.0  T
   4    -38.2786292 -0.148254E-04  0.815E-03    1.89       2.2  T
   5    -38.2786294 -0.158747E-06  0.479E-03    1.89       3.8  T
   6    -38.2786294  0.179565E-08  0.196E-03    1.89       9.2  T
   7    -38.2786294 -0.409083E-07  0.479E-04    1.89      37.5  T
   8    -38.2786294 -0.136752E-08  0.311E-04    1.89      57.8  T
     SCC iter.                  ...        0 min,  0.202 sec
     gradient                   ...        0 min,  0.005 sec
 * total energy  :   -37.6429478 Eh     change       -0.3714605E-03 Eh
   gradient norm :     0.0095411 Eh/α   predicted    -0.2778987E-03 ( -25.19%)
   displ. norm   :     0.2379027 α      lambda       -0.4664303E-03
   maximum displ.:     0.1034635 α      in ANC's #4, #57, #2, ...

........................................................................
.............................. CYCLE   19 ..............................
........................................................................
   1    -38.2784542 -0.382785E+02  0.127E-01    1.90       0.0  T
   2    -38.2784592 -0.505781E-05  0.773E-02    1.90       1.0  T
   3    -38.2784446  0.146507E-04  0.424E-02    1.90       1.0  T
   4    -38.2784622 -0.176009E-04  0.817E-03    1.90       2.2  T
   5    -38.2784627 -0.486990E-06  0.497E-03    1.90       3.6  T
   6    -38.2784628 -0.110279E-06  0.157E-03    1.90      11.4  T
   7    -38.2784628 -0.240819E-07  0.717E-04    1.90      25.1  T
   8    -38.2784628 -0.689482E-09  0.501E-04    1.90      35.8  T
     SCC iter.                  ...        0 min,  0.207 sec
     gradient                   ...        0 min,  0.005 sec
 * total energy  :   -37.6432772 Eh     change       -0.3294210E-03 Eh
   gradient norm :     0.0086027 Eh/α   predicted    -0.2464214E-03 ( -25.20%)
   displ. norm   :     0.2022762 α      lambda       -0.3475888E-03
   maximum displ.:     0.0781499 α      in ANC's #4, #57, #14, ...

........................................................................
.............................. CYCLE   20 ..............................
........................................................................
   1    -38.2791027 -0.382791E+02  0.122E-01    1.90       0.0  T
   2    -38.2791059 -0.320500E-05  0.779E-02    1.90       1.0  T
   3    -38.2790745  0.313921E-04  0.409E-02    1.90       1.0  T
   4    -38.2791103 -0.357200E-04  0.968E-03    1.90       1.9  T
   5    -38.2791107 -0.406769E-06  0.444E-03    1.90       4.0  T
   6    -38.2791106  0.468769E-07  0.208E-03    1.90       8.6  T
   7    -38.2791107 -0.546109E-07  0.793E-04    1.90      22.6  T
   8    -38.2791107 -0.168811E-08  0.488E-04    1.90      36.8  T
     SCC iter.                  ...        0 min,  0.219 sec
     gradient                   ...        0 min,  0.006 sec
 * total energy  :   -37.6435132 Eh     change       -0.2360358E-03 Eh
   gradient norm :     0.0061836 Eh/α   predicted    -0.1809073E-03 ( -23.36%)
   displ. norm   :     0.1855587 α      lambda       -0.1865246E-03
   maximum displ.:     0.0773156 α      in ANC's #3, #4, #2, ...
 * RMSD in coord.:     0.8583630 α      energy gain  -0.3975083E+00 Eh

generating ANC from model Hessian ...
Using Lindh-Hessian (1995)
 Shifting diagonal of input Hessian by    1.0384551546432932E-002
 Lowest  eigenvalues of input Hessian
    0.010000    0.000000    0.000000    0.000000    0.000000    0.000000
    0.000000    0.010566    0.010809    0.011847    0.012159    0.012394
    0.013157    0.015945    0.017964    0.018080    0.018157    0.018507
 Highest eigenvalues
    1.741193    1.743537    2.107593    2.314777    2.709059    3.614325


........................................................................
.............................. CYCLE   21 ..............................
........................................................................
   1    -38.2782376 -0.382782E+02  0.109E-01    1.91       0.0  T
   2    -38.2782398 -0.222600E-05  0.703E-02    1.91       1.0  T
   3    -38.2782159  0.239135E-04  0.355E-02    1.91       1.0  T
   4    -38.2782427 -0.267418E-04  0.699E-03    1.91       2.6  T
   5    -38.2782430 -0.348848E-06  0.344E-03    1.91       5.2  T
   6    -38.2782430 -0.348193E-08  0.148E-03    1.91      12.1  T
   7    -38.2782430 -0.271006E-07  0.613E-04    1.91      29.3  T
   8    -38.2782430 -0.390614E-09  0.447E-04    1.91      40.2  T
     SCC iter.                  ...        0 min,  0.208 sec
     gradient                   ...        0 min,  0.083 sec
 * total energy  :   -37.6436372 Eh     change       -0.1240276E-03 Eh
   gradient norm :     0.0077497 Eh/α   predicted     0.0000000E+00 (-100.00%)
   displ. norm   :     0.1047860 α      lambda       -0.2206309E-03
   maximum displ.:     0.0586445 α      in ANC's #7, #4, #14, ...

........................................................................
.............................. CYCLE   22 ..............................
........................................................................
   1    -38.2792473 -0.382792E+02  0.621E-02    1.91       0.0  T
   2    -38.2792482 -0.866449E-06  0.419E-02    1.91       1.0  T
   3    -38.2792416  0.662906E-05  0.179E-02    1.91       1.0  T
   4    -38.2792490 -0.746725E-05  0.500E-03    1.91       3.6  T
   5    -38.2792491 -0.840484E-07  0.281E-03    1.91       6.4  T
   6    -38.2792492 -0.456523E-07  0.912E-04    1.91      19.7  T
   7    -38.2792492 -0.618403E-08  0.677E-04    1.91      26.5  T
     SCC iter.                  ...        0 min,  0.202 sec
     gradient                   ...        0 min,  0.015 sec
 * total energy  :   -37.6438003 Eh     change       -0.1630472E-03 Eh
   gradient norm :     0.0025659 Eh/α   predicted    -0.1115331E-03 ( -31.59%)
   displ. norm   :     0.1685035 α      lambda       -0.1814278E-03
   maximum displ.:     0.1016300 α      in ANC's #7, #2, #4, ...

........................................................................
.............................. CYCLE   23 ..............................
........................................................................
   1    -38.2798704 -0.382799E+02  0.891E-02    1.92       0.0  T
   2    -38.2798727 -0.226466E-05  0.629E-02    1.92       1.0  T
   3    -38.2798542  0.185098E-04  0.351E-02    1.91       1.0  T
   4    -38.2798773 -0.231402E-04  0.676E-03    1.92       2.7  T
   5    -38.2798774 -0.580917E-07  0.419E-03    1.92       4.3  T
   6    -38.2798775 -0.146152E-06  0.999E-04    1.92      18.0  T
   7    -38.2798775 -0.683961E-08  0.653E-04    1.92      27.5  T
     SCC iter.                  ...        0 min,  0.192 sec
     gradient                   ...        0 min,  0.008 sec
 * total energy  :   -37.6439095 Eh     change       -0.1092142E-03 Eh
   gradient norm :     0.0019801 Eh/α   predicted    -0.9331262E-04 ( -14.56%)
   displ. norm   :     0.1572056 α      lambda       -0.5768455E-04
   maximum displ.:     0.0977560 α      in ANC's #2, #7, #4, ...

........................................................................
.............................. CYCLE   24 ..............................
........................................................................
   1    -38.2799336 -0.382799E+02  0.591E-02    1.92       0.0  T
   2    -38.2799346 -0.102906E-05  0.389E-02    1.92       1.0  T
   3    -38.2799254  0.926242E-05  0.225E-02    1.92       1.0  T
   4    -38.2799367 -0.113145E-04  0.414E-03    1.92       4.3  T
   5    -38.2799367 -0.459581E-07  0.269E-03    1.92       6.7  T
   6    -38.2799368 -0.248122E-07  0.670E-04    1.92      26.8  T
   7    -38.2799368 -0.211165E-08  0.458E-04    1.92      39.2  T
     SCC iter.                  ...        0 min,  0.190 sec
     gradient                   ...        0 min,  0.024 sec
 * total energy  :   -37.6439624 Eh     change       -0.5288384E-04 Eh
   gradient norm :     0.0022053 Eh/α   predicted    -0.2916611E-04 ( -44.85%)
   displ. norm   :     0.1155689 α      lambda       -0.6536033E-04
   maximum displ.:     0.0829035 α      in ANC's #2, #7, #6, ...

........................................................................
.............................. CYCLE   25 ..............................
........................................................................
   1    -38.2799133 -0.382799E+02  0.532E-02    1.92       0.0  T
   2    -38.2799136 -0.310316E-06  0.332E-02    1.92       1.0  T
   3    -38.2799123  0.130673E-05  0.980E-03    1.92       1.8  T
   4    -38.2799138 -0.149468E-05  0.270E-03    1.92       6.7  T
   5    -38.2799138  0.205736E-07  0.173E-03    1.92      10.4  T
   6    -38.2799138 -0.340141E-07  0.472E-04    1.92      38.1  T
   7    -38.2799138 -0.956604E-09  0.376E-04    1.92      47.8  T
     SCC iter.                  ...        0 min,  0.188 sec
     gradient                   ...        0 min,  0.016 sec
 * total energy  :   -37.6440158 Eh     change       -0.5344661E-04 Eh
   gradient norm :     0.0014864 Eh/α   predicted    -0.3311699E-04 ( -38.04%)
   displ. norm   :     0.2254878 α      lambda       -0.8306027E-04
   maximum displ.:     0.1586995 α      in ANC's #2, #6, #7, ...

........................................................................
.............................. CYCLE   26 ..............................
........................................................................
   1    -38.2796396 -0.382796E+02  0.974E-02    1.92       0.0  T
   2    -38.2796414 -0.181343E-05  0.606E-02    1.92       1.0  T
   3    -38.2796322  0.921235E-05  0.337E-02    1.92       1.0  T
   4    -38.2796430 -0.108384E-04  0.617E-03    1.92       2.9  T
   5    -38.2796432 -0.123502E-06  0.427E-03    1.92       4.2  T
   6    -38.2796433 -0.114418E-06  0.126E-03    1.92      14.2  T
   7    -38.2796433 -0.105307E-07  0.811E-04    1.92      22.2  T
   8    -38.2796433  0.208615E-10  0.529E-04    1.92      33.9  T
     SCC iter.                  ...        0 min,  0.209 sec
     gradient                   ...        0 min,  0.006 sec
 * total energy  :   -37.6441031 Eh     change       -0.8722918E-04 Eh
   gradient norm :     0.0024665 Eh/α   predicted    -0.4247021E-04 ( -51.31%)
   displ. norm   :     0.1316119 α      lambda       -0.6170957E-04
   maximum displ.:     0.0996427 α      in ANC's #2, #1, #3, ...

........................................................................
.............................. CYCLE   27 ..............................
........................................................................
   1    -38.2795123 -0.382795E+02  0.440E-02    1.92       0.0  T
   2    -38.2795127 -0.422521E-06  0.277E-02    1.92       1.0  T
   3    -38.2795114  0.123666E-05  0.135E-02    1.92       1.3  T
   4    -38.2795129 -0.144209E-05  0.343E-03    1.92       5.2  T
   5    -38.2795130 -0.102611E-06  0.190E-03    1.92       9.4  T
   6    -38.2795130 -0.764179E-08  0.752E-04    1.92      23.9  T
   7    -38.2795130 -0.437056E-08  0.449E-04    1.92      40.0  T
     SCC iter.                  ...        0 min,  0.201 sec
     gradient                   ...        0 min,  0.012 sec
 * total energy  :   -37.6441555 Eh     change       -0.5246346E-04 Eh
   gradient norm :     0.0027555 Eh/α   predicted    -0.3139429E-04 ( -40.16%)
   displ. norm   :     0.1465034 α      lambda       -0.6921041E-04
   maximum displ.:     0.1130507 α      in ANC's #2, #1, #3, ...

........................................................................
.............................. CYCLE   28 ..............................
........................................................................
   1    -38.2796557 -0.382797E+02  0.395E-02    1.92       0.0  T
   2    -38.2796564 -0.680512E-06  0.252E-02    1.92       1.0  T
   3    -38.2796554  0.104298E-05  0.152E-02    1.92       1.2  T
   4    -38.2796568 -0.140646E-05  0.310E-03    1.92       5.8  T
   5    -38.2796569 -0.111008E-06  0.214E-03    1.92       8.4  T
   6    -38.2796569 -0.288514E-07  0.695E-04    1.92      25.8  T
   7    -38.2796569 -0.415912E-08  0.364E-04    1.92      49.4  T
     SCC iter.                  ...        0 min,  0.194 sec
     gradient                   ...        0 min,  0.008 sec
 * total energy  :   -37.6442175 Eh     change       -0.6196519E-04 Eh
   gradient norm :     0.0020535 Eh/α   predicted    -0.3534941E-04 ( -42.95%)
   displ. norm   :     0.1701144 α      lambda       -0.7387163E-04
   maximum displ.:     0.1325295 α      in ANC's #2, #1, #3, ...

........................................................................
.............................. CYCLE   29 ..............................
........................................................................
   1    -38.2799399 -0.382799E+02  0.384E-02    1.92       0.0  T
   2    -38.2799406 -0.687491E-06  0.238E-02    1.92       1.0  T
   3    -38.2799398  0.838113E-06  0.134E-02    1.92       1.3  T
   4    -38.2799409 -0.115485E-05  0.281E-03    1.92       6.4  T
   5    -38.2799410 -0.217149E-07  0.218E-03    1.92       8.2  T
   6    -38.2799410 -0.405851E-07  0.637E-04    1.92      28.2  T
   7    -38.2799410 -0.379845E-08  0.349E-04    1.92      51.5  T
     SCC iter.                  ...        0 min,  0.201 sec
     gradient                   ...        0 min,  0.006 sec
 * total energy  :   -37.6442839 Eh     change       -0.6635678E-04 Eh
   gradient norm :     0.0013290 Eh/α   predicted    -0.3800531E-04 ( -42.73%)
   displ. norm   :     0.2635452 α      lambda       -0.6974130E-04
   maximum displ.:     0.2072997 α      in ANC's #2, #1, #3, ...

........................................................................
.............................. CYCLE   30 ..............................
........................................................................
   1    -38.2801299 -0.382801E+02  0.557E-02    1.92       0.0  T
   2    -38.2801310 -0.108803E-05  0.344E-02    1.92       1.0  T
   3    -38.2801291  0.188407E-05  0.157E-02    1.92       1.1  T
   4    -38.2801315 -0.238169E-05  0.377E-03    1.92       4.8  T
   5    -38.2801315 -0.109594E-07  0.224E-03    1.92       8.0  T
   6    -38.2801316 -0.482933E-07  0.714E-04    1.92      25.1  T
   7    -38.2801316 -0.313709E-08  0.446E-04    1.92      40.3  T
     SCC iter.                  ...        0 min,  0.171 sec
     gradient                   ...        0 min,  0.014 sec
 * total energy  :   -37.6443772 Eh     change       -0.9335062E-04 Eh
   gradient norm :     0.0023713 Eh/α   predicted    -0.3595172E-04 ( -61.49%)
   displ. norm   :     0.1476554 α      lambda       -0.6011693E-04
   maximum displ.:     0.1187007 α      in ANC's #2, #1, #3, ...

........................................................................
.............................. CYCLE   31 ..............................
........................................................................
   1    -38.2803805 -0.382804E+02  0.317E-02    1.92       0.0  T
   2    -38.2803807 -0.215496E-06  0.198E-02    1.92       1.0  T
   3    -38.2803800  0.714209E-06  0.689E-03    1.92       2.6  T
   4    -38.2803808 -0.814244E-06  0.208E-03    1.92       8.7  T
   5    -38.2803808 -0.184782E-07  0.124E-03    1.92      14.4  T
   6    -38.2803808 -0.826978E-08  0.271E-04    1.92      66.2  T
   7    -38.2803808 -0.150031E-09  0.213E-04    1.92      84.3  T
     SCC iter.                  ...        0 min,  0.188 sec
     gradient                   ...        0 min,  0.011 sec
 * total energy  :   -37.6444353 Eh     change       -0.5810518E-04 Eh
   gradient norm :     0.0025514 Eh/α   predicted    -0.3071548E-04 ( -47.14%)
   displ. norm   :     0.1525737 α      lambda       -0.7047071E-04
   maximum displ.:     0.1233598 α      in ANC's #2, #1, #3, ...

........................................................................
.............................. CYCLE   32 ..............................
........................................................................
   1    -38.2807373 -0.382807E+02  0.333E-02    1.92       0.0  T
   2    -38.2807375 -0.246873E-06  0.219E-02    1.92       1.0  T
   3    -38.2807360  0.154255E-05  0.798E-03    1.92       2.3  T
   4    -38.2807377 -0.170087E-05  0.232E-03    1.92       7.7  T
   5    -38.2807377 -0.438090E-07  0.123E-03    1.92      14.6  T
   6    -38.2807377 -0.232127E-08  0.331E-04    1.92      54.2  T
   7    -38.2807377 -0.313122E-09  0.219E-04    1.92      82.1  T
     SCC iter.                  ...        0 min,  0.200 sec
     gradient                   ...        0 min,  0.008 sec
 * total energy  :   -37.6445030 Eh     change       -0.6773365E-04 Eh
   gradient norm :     0.0023155 Eh/α   predicted    -0.3605752E-04 ( -46.77%)
   displ. norm   :     0.1837926 α      lambda       -0.8687098E-04
   maximum displ.:     0.1489629 α      in ANC's #2, #1, #3, ...

........................................................................
.............................. CYCLE   33 ..............................
........................................................................
   1    -38.2807975 -0.382808E+02  0.408E-02    1.92       0.0  T
   2    -38.2807980 -0.463893E-06  0.276E-02    1.92       1.0  T
   3    -38.2807952  0.278762E-05  0.105E-02    1.92       1.7  T
   4    -38.2807983 -0.310470E-05  0.299E-03    1.92       6.0  T
   5    -38.2807984 -0.830047E-07  0.154E-03    1.92      11.6  T
   6    -38.2807984 -0.257051E-08  0.516E-04    1.92      34.8  T
   7    -38.2807984 -0.156072E-08  0.294E-04    1.92      61.1  T
     SCC iter.                  ...        0 min,  0.204 sec
     gradient                   ...        0 min,  0.007 sec
 * total energy  :   -37.6445852 Eh     change       -0.8212476E-04 Eh
   gradient norm :     0.0015981 Eh/α   predicted    -0.4490457E-04 ( -45.32%)
   displ. norm   :     0.3052572 α      lambda       -0.9099506E-04
   maximum displ.:     0.2495387 α      in ANC's #2, #1, #3, ...

........................................................................
.............................. CYCLE   34 ..............................
........................................................................
   1    -38.2804715 -0.382805E+02  0.668E-02    1.92       0.0  T
   2    -38.2804729 -0.144431E-05  0.458E-02    1.92       1.0  T
   3    -38.2804652  0.774025E-05  0.176E-02    1.91       1.0  T
   4    -38.2804739 -0.872458E-05  0.509E-03    1.92       3.5  T
   5    -38.2804742 -0.240475E-06  0.261E-03    1.92       6.9  T
   6    -38.2804742 -0.108245E-07  0.885E-04    1.92      20.3  T
   7    -38.2804742 -0.559699E-08  0.500E-04    1.92      35.9  T
     SCC iter.                  ...        0 min,  0.201 sec
     gradient                   ...        0 min,  0.005 sec
 * total energy  :   -37.6447063 Eh     change       -0.1211623E-03 Eh
   gradient norm :     0.0009281 Eh/α   predicted    -0.4738298E-04 ( -60.89%)
   displ. norm   :     0.2523407 α      lambda       -0.6366922E-04
   maximum displ.:     0.2132379 α      in ANC's #2, #1, #3, ...

........................................................................
.............................. CYCLE   35 ..............................
........................................................................
   1    -38.2804690 -0.382805E+02  0.539E-02    1.92       0.0  T
   2    -38.2804701 -0.106599E-05  0.368E-02    1.92       1.0  T
   3    -38.2804653  0.474595E-05  0.144E-02    1.92       1.2  T
   4    -38.2804708 -0.543957E-05  0.436E-03    1.92       4.1  T
   5    -38.2804709 -0.152921E-06  0.233E-03    1.92       7.7  T
   6    -38.2804709 -0.693337E-08  0.799E-04    1.92      22.5  T
   7    -38.2804709 -0.536515E-08  0.448E-04    1.92      40.1  T
     SCC iter.                  ...        0 min,  0.170 sec
     gradient                   ...        0 min,  0.013 sec
 * total energy  :   -37.6447916 Eh     change       -0.8528804E-04 Eh
   gradient norm :     0.0012647 Eh/α   predicted    -0.3273702E-04 ( -61.62%)
   displ. norm   :     0.1849378 α      lambda       -0.4161546E-04
   maximum displ.:     0.1622064 α      in ANC's #2, #1, #3, ...

........................................................................
.............................. CYCLE   36 ..............................
........................................................................
   1    -38.2806520 -0.382807E+02  0.375E-02    1.92       0.0  T
   2    -38.2806525 -0.515050E-06  0.249E-02    1.92       1.0  T
   3    -38.2806505  0.199641E-05  0.968E-03    1.92       1.9  T
   4    -38.2806529 -0.230172E-05  0.286E-03    1.92       6.3  T
   5    -38.2806529 -0.569969E-07  0.152E-03    1.92      11.8  T
   6    -38.2806529 -0.714196E-08  0.533E-04    1.92      33.7  T
   7    -38.2806529 -0.231092E-08  0.325E-04    1.92      55.3  T
     SCC iter.                  ...        0 min,  0.205 sec
     gradient                   ...        0 min,  0.032 sec
 * total energy  :   -37.6448494 Eh     change       -0.5779233E-04 Eh
   gradient norm :     0.0010064 Eh/α   predicted    -0.2112737E-04 ( -63.44%)
   displ. norm   :     0.1358488 α      lambda       -0.3192629E-04
   maximum displ.:     0.1256778 α      in ANC's #2, #1, #4, ...

........................................................................
.............................. CYCLE   37 ..............................
........................................................................
   1    -38.2808590 -0.382809E+02  0.276E-02    1.92       0.0  T
   2    -38.2808593 -0.291689E-06  0.181E-02    1.92       1.0  T
   3    -38.2808583  0.937008E-06  0.740E-03    1.92       2.4  T
   4    -38.2808594 -0.110008E-05  0.233E-03    1.92       7.7  T
   5    -38.2808595 -0.179851E-07  0.137E-03    1.92      13.1  T
   6    -38.2808595 -0.103119E-07  0.403E-04    1.92      44.6  T
   7    -38.2808595 -0.152112E-08  0.205E-04    1.92      87.5  T
     SCC iter.                  ...        0 min,  0.183 sec
     gradient                   ...        0 min,  0.005 sec
 * total energy  :   -37.6448948 Eh     change       -0.4541876E-04 Eh
   gradient norm :     0.0013835 Eh/α   predicted    -0.1609854E-04 ( -64.56%)
   displ. norm   :     0.1161779 α      lambda       -0.2990300E-04
   maximum displ.:     0.1097744 α      in ANC's #2, #1, #4, ...

........................................................................
.............................. CYCLE   38 ..............................
........................................................................
   1    -38.2811478 -0.382811E+02  0.218E-02    1.92       0.0  T
   2    -38.2811480 -0.151602E-06  0.127E-02    1.92       1.4  T
   3    -38.2811477  0.319683E-06  0.656E-03    1.92       2.7  T
   4    -38.2811480 -0.397787E-06  0.120E-03    1.92      15.0  T
   5    -38.2811480  0.123922E-08  0.864E-04    1.92      20.8  T
   6    -38.2811481 -0.606875E-08  0.230E-04    1.92      78.0  T
     SCC iter.                  ...        0 min,  0.149 sec
     gradient                   ...        0 min,  0.006 sec
 * total energy  :   -37.6449382 Eh     change       -0.4339621E-04 Eh
   gradient norm :     0.0008811 Eh/α   predicted    -0.1504622E-04 ( -65.33%)
   displ. norm   :     0.1266142 α      lambda       -0.3450132E-04
   maximum displ.:     0.1191684 α      in ANC's #2, #8, #3, ...

........................................................................
.............................. CYCLE   39 ..............................
........................................................................
   1    -38.2811379 -0.382811E+02  0.242E-02    1.92       0.0  T
   2    -38.2811381 -0.150025E-06  0.144E-02    1.92       1.2  T
   3    -38.2811378  0.297900E-06  0.681E-03    1.92       2.6  T
   4    -38.2811381 -0.366027E-06  0.138E-03    1.92      13.0  T
   5    -38.2811381  0.600761E-08  0.115E-03    1.92      15.6  T
   6    -38.2811381 -0.118835E-07  0.259E-04    1.92      69.5  T
   7    -38.2811381 -0.535771E-09  0.143E-04    1.92     125.7  T
     SCC iter.                  ...        0 min,  0.172 sec
     gradient                   ...        0 min,  0.006 sec
 * total energy  :   -37.6449888 Eh     change       -0.5061750E-04 Eh
   gradient norm :     0.0007096 Eh/α   predicted    -0.1737778E-04 ( -65.67%)
   displ. norm   :     0.1546869 α      lambda       -0.4293680E-04
   maximum displ.:     0.1400747 α      in ANC's #2, #3, #8, ...

........................................................................
.............................. CYCLE   40 ..............................
........................................................................
   1    -38.2812545 -0.382813E+02  0.290E-02    1.91       0.0  T
   2    -38.2812547 -0.204212E-06  0.171E-02    1.91       1.1  T
   3    -38.2812541  0.589040E-06  0.957E-03    1.91       1.9  T
   4    -38.2812548 -0.707778E-06  0.177E-03    1.91      10.1  T
   5    -38.2812548  0.289690E-08  0.136E-03    1.91      13.2  T
   6    -38.2812548 -0.174413E-07  0.247E-04    1.91      72.8  T
   7    -38.2812548 -0.787615E-09  0.115E-04    1.91     156.5  T
     SCC iter.                  ...        0 min,  0.173 sec
     gradient                   ...        0 min,  0.007 sec
 * total energy  :   -37.6450518 Eh     change       -0.6293076E-04 Eh
   gradient norm :     0.0010655 Eh/α   predicted    -0.2170139E-04 ( -65.52%)
   displ. norm   :     0.2162687 α      lambda       -0.6044885E-04
   maximum displ.:     0.1900382 α      in ANC's #2, #3, #8, ...

........................................................................
.............................. CYCLE   41 ..............................
........................................................................
   1    -38.2811049 -0.382811E+02  0.374E-02    1.91       0.0  T
   2    -38.2811053 -0.343782E-06  0.223E-02    1.91       1.0  T
   3    -38.2811047  0.602994E-06  0.106E-02    1.91       1.7  T
   4    -38.2811054 -0.758310E-06  0.214E-03    1.91       8.4  T
   5    -38.2811054  0.180330E-07  0.172E-03    1.91      10.4  T
   6    -38.2811054 -0.259659E-07  0.303E-04    1.91      59.4  T
   7    -38.2811054 -0.104988E-08  0.147E-04    1.91     122.5  T
     SCC iter.                  ...        0 min,  0.184 sec
     gradient                   ...        0 min,  0.040 sec
 * total energy  :   -37.6451404 Eh     change       -0.8862325E-04 Eh
   gradient norm :     0.0011957 Eh/α   predicted    -0.3085363E-04 ( -65.19%)
   displ. norm   :     0.4603826 α      lambda       -0.1273117E-03
   maximum displ.:     0.3956826 α      in ANC's #2, #3, #8, ...

........................................................................
.............................. CYCLE   42 ..............................
........................................................................
   1    -38.2794205 -0.382794E+02  0.796E-02    1.91       0.0  T
   2    -38.2794221 -0.155832E-05  0.468E-02    1.91       1.0  T
   3    -38.2794180  0.404100E-05  0.253E-02    1.91       1.0  T
   4    -38.2794229 -0.488698E-05  0.508E-03    1.91       3.5  T
   5    -38.2794229  0.614156E-07  0.404E-03    1.91       4.4  T
   6    -38.2794230 -0.141395E-06  0.683E-04    1.91      26.3  T
   7    -38.2794230 -0.802339E-08  0.259E-04    1.91      69.3  T
     SCC iter.                  ...        0 min,  0.167 sec
     gradient                   ...        0 min,  0.012 sec
 * total energy  :   -37.6453146 Eh     change       -0.1742290E-03 Eh
   gradient norm :     0.0030758 Eh/α   predicted    -0.6965373E-04 ( -60.02%)
   displ. norm   :     0.6953235 α      lambda       -0.2639444E-03
   maximum displ.:     0.6022808 α      in ANC's #2, #3, #56, ...
 * RMSD in coord.:     0.7070425 α      energy gain  -0.1801406E-02 Eh

generating ANC from model Hessian ...
Using Lindh-Hessian (1995)
 Shifting diagonal of input Hessian by    1.0427722045593970E-002
 Lowest  eigenvalues of input Hessian
    0.010000    0.000000    0.000000    0.000000    0.000000    0.000000
    0.000000    0.010628    0.010880    0.011897    0.012177    0.012390
    0.013049    0.016069    0.018050    0.018187    0.018245    0.018457
 Highest eigenvalues
    1.735229    1.740585    2.108436    2.307057    2.700414    3.631792


........................................................................
.............................. CYCLE   43 ..............................
........................................................................
   1    -38.2743306 -0.382743E+02  0.126E-01    1.90       0.0  T
   2    -38.2743342 -0.355416E-05  0.758E-02    1.90       1.0  T
   3    -38.2743268  0.735995E-05  0.333E-02    1.90       1.0  T
   4    -38.2743359 -0.905772E-05  0.788E-03    1.90       2.3  T
   5    -38.2743358  0.746073E-07  0.457E-03    1.90       3.9  T
   6    -38.2743359 -0.104456E-06  0.111E-03    1.90      16.2  T
   7    -38.2743359 -0.135521E-07  0.459E-04    1.90      39.2  T
   8    -38.2743359  0.252946E-09  0.292E-04    1.90      61.6  T
     SCC iter.                  ...        0 min,  0.226 sec
     gradient                   ...        0 min,  0.080 sec
 * total energy  :   -37.6454529 Eh     change       -0.1382769E-03 Eh
   gradient norm :     0.0092571 Eh/α   predicted     0.0000000E+00 (-100.00%)
   displ. norm   :     0.0705331 α      lambda       -0.2820838E-03
   maximum displ.:     0.0411525 α      in ANC's #3, #55, #8, ...

........................................................................
.............................. CYCLE   44 ..............................
........................................................................
   1    -38.2801498 -0.382801E+02  0.391E-02    1.90       0.0  T
   2    -38.2801505 -0.634850E-06  0.242E-02    1.90       1.0  T
   3    -38.2801498  0.637769E-06  0.922E-03    1.90       1.9  T
   4    -38.2801506 -0.773637E-06  0.425E-03    1.90       4.2  T
   5    -38.2801506 -0.406260E-07  0.289E-03    1.90       6.2  T
   6    -38.2801506  0.138619E-07  0.103E-03    1.90      17.4  T
   7    -38.2801507 -0.241715E-07  0.290E-04    1.90      61.9  T
   8    -38.2801507  0.298783E-10  0.234E-04    1.90      76.8  T
     SCC iter.                  ...        0 min,  0.206 sec
     gradient                   ...        0 min,  0.007 sec
 * total energy  :   -37.6456387 Eh     change       -0.1858493E-03 Eh
   gradient norm :     0.0018888 Eh/α   predicted    -0.1423848E-03 ( -23.39%)
   displ. norm   :     0.1449639 α      lambda       -0.8957837E-04
   maximum displ.:     0.0974172 α      in ANC's #3, #2, #8, ...

........................................................................
.............................. CYCLE   45 ..............................
........................................................................
   1    -38.2836393 -0.382836E+02  0.534E-02    1.90       0.0  T
   2    -38.2836403 -0.101596E-05  0.374E-02    1.91       1.0  T
   3    -38.2836365  0.376091E-05  0.162E-02    1.90       1.1  T
   4    -38.2836408 -0.430303E-05  0.493E-03    1.91       3.6  T
   5    -38.2836411 -0.255246E-06  0.251E-03    1.91       7.2  T
   6    -38.2836411  0.114593E-07  0.111E-03    1.91      16.1  T
   7    -38.2836411 -0.187953E-07  0.354E-04    1.91      50.7  T
   8    -38.2836411 -0.275797E-09  0.258E-04    1.91      69.7  T
     SCC iter.                  ...        0 min,  0.202 sec
     gradient                   ...        0 min,  0.076 sec
 * total energy  :   -37.6457240 Eh     change       -0.8527986E-04 Eh
   gradient norm :     0.0031313 Eh/α   predicted    -0.4522692E-04 ( -46.97%)
   displ. norm   :     0.1196306 α      lambda       -0.7388915E-04
   maximum displ.:     0.0782133 α      in ANC's #3, #2, #6, ...

........................................................................
.............................. CYCLE   46 ..............................
........................................................................
   1    -38.2834992 -0.382835E+02  0.351E-02    1.91       0.0  T
   2    -38.2834996 -0.392953E-06  0.264E-02    1.91       1.0  T
   3    -38.2834975  0.215296E-05  0.111E-02    1.91       1.6  T
   4    -38.2835000 -0.255080E-05  0.299E-03    1.91       6.0  T
   5    -38.2835001 -0.109970E-06  0.169E-03    1.91      10.6  T
   6    -38.2835001 -0.516055E-08  0.563E-04    1.91      31.9  T
   7    -38.2835001 -0.196616E-08  0.354E-04    1.91      50.7  T
     SCC iter.                  ...        0 min,  0.191 sec
     gradient                   ...        0 min,  0.053 sec
 * total energy  :   -37.6457931 Eh     change       -0.6910111E-04 Eh
   gradient norm :     0.0030519 Eh/α   predicted    -0.3749431E-04 ( -45.74%)
   displ. norm   :     0.2537395 α      lambda       -0.1567966E-03
   maximum displ.:     0.1628743 α      in ANC's #3, #2, #6, ...

........................................................................
.............................. CYCLE   47 ..............................
........................................................................
   1    -38.2816123 -0.382816E+02  0.822E-02    1.91       0.0  T
   2    -38.2816139 -0.157381E-05  0.611E-02    1.91       1.0  T
   3    -38.2815985  0.154412E-04  0.263E-02    1.90       1.0  T
   4    -38.2816157 -0.172469E-04  0.591E-03    1.91       3.0  T
   5    -38.2816161 -0.358654E-06  0.386E-03    1.91       4.7  T
   6    -38.2816161 -0.395801E-07  0.126E-03    1.91      14.2  T
   7    -38.2816161 -0.565467E-08  0.850E-04    1.91      21.1  T
   8    -38.2816161 -0.178567E-08  0.303E-04    1.91      59.4  T
     SCC iter.                  ...        0 min,  0.159 sec
     gradient                   ...        0 min,  0.004 sec
 * total energy  :   -37.6459225 Eh     change       -0.1293582E-03 Eh
   gradient norm :     0.0017509 Eh/α   predicted    -0.8344601E-04 ( -35.49%)
   displ. norm   :     0.4189128 α      lambda       -0.1337178E-03
   maximum displ.:     0.2757553 α      in ANC's #3, #2, #6, ...

........................................................................
.............................. CYCLE   48 ..............................
........................................................................
   1    -38.2777857 -0.382778E+02  0.114E-01    1.90       0.0  T
   2    -38.2777890 -0.326757E-05  0.853E-02    1.91       1.0  T
   3    -38.2777616  0.274475E-04  0.345E-02    1.90       1.0  T
   4    -38.2777923 -0.306981E-04  0.927E-03    1.91       1.9  T
   5    -38.2777932 -0.959757E-06  0.600E-03    1.91       3.0  T
   6    -38.2777933 -0.760301E-07  0.162E-03    1.91      11.1  T
   7    -38.2777933 -0.131826E-07  0.102E-03    1.91      17.5  T
   8    -38.2777933 -0.171977E-08  0.418E-04    1.91      43.0  T
   9    -38.2777933 -0.206470E-08  0.217E-04    1.91      82.9  T
     SCC iter.                  ...        0 min,  0.094 sec
     gradient                   ...        0 min,  0.004 sec
 * total energy  :   -37.6460333 Eh     change       -0.1107813E-03 Eh
   gradient norm :     0.0048845 Eh/α   predicted    -0.7207730E-04 ( -34.94%)
   displ. norm   :     0.0960740 α      lambda       -0.6980919E-04
   maximum displ.:     0.0671762 α      in ANC's #3, #2, #7, ...

........................................................................
.............................. CYCLE   49 ..............................
........................................................................
   1    -38.2785462 -0.382785E+02  0.309E-02    1.91       0.0  T
   2    -38.2785464 -0.186453E-06  0.199E-02    1.90       1.0  T
   3    -38.2785456  0.817117E-06  0.814E-03    1.91       2.2  T
   4    -38.2785465 -0.906009E-06  0.297E-03    1.90       6.0  T
   5    -38.2785465 -0.453211E-07  0.153E-03    1.90      11.8  T
   6    -38.2785465  0.821231E-09  0.456E-04    1.90      39.4  T
   7    -38.2785465 -0.339878E-08  0.212E-04    1.90      84.7  T
     SCC iter.                  ...        0 min,  0.024 sec
     gradient                   ...        0 min,  0.007 sec
 * total energy  :   -37.6460911 Eh     change       -0.5781145E-04 Eh
   gradient norm :     0.0042553 Eh/α   predicted    -0.3523440E-04 ( -39.05%)
   displ. norm   :     0.2350813 α      lambda       -0.1745726E-03
   maximum displ.:     0.1627636 α      in ANC's #3, #2, #7, ...

........................................................................
.............................. CYCLE   50 ..............................
........................................................................
   1    -38.2816975 -0.382817E+02  0.546E-02    1.90       0.0  T
   2    -38.2816985 -0.950220E-06  0.331E-02    1.90       1.0  T
   3    -38.2816971  0.138514E-05  0.143E-02    1.90       1.3  T
   4    -38.2816988 -0.169682E-05  0.378E-03    1.90       4.7  T
   5    -38.2816988 -0.470475E-07  0.222E-03    1.90       8.1  T
   6    -38.2816989 -0.124204E-07  0.706E-04    1.90      25.4  T
   7    -38.2816989 -0.752656E-08  0.239E-04    1.90      75.2  T
     SCC iter.                  ...        0 min,  0.023 sec
     gradient                   ...        0 min,  0.004 sec
 * total energy  :   -37.6462238 Eh     change       -0.1327280E-03 Eh
   gradient norm :     0.0040086 Eh/α   predicted    -0.9211043E-04 ( -30.60%)
   displ. norm   :     0.4121970 α      lambda       -0.1962776E-03
   maximum displ.:     0.2814301 α      in ANC's #3, #2, #1, ...

........................................................................
.............................. CYCLE   51 ..............................
........................................................................
   1    -38.2821633 -0.382822E+02  0.838E-02    1.90       0.0  T
   2    -38.2821643 -0.980476E-06  0.536E-02    1.90       1.0  T
   3    -38.2821605  0.381965E-05  0.194E-02    1.90       1.0  T
   4    -38.2821648 -0.433567E-05  0.568E-03    1.90       3.2  T
   5    -38.2821647  0.987842E-07  0.454E-03    1.90       4.0  T
   6    -38.2821649 -0.195750E-06  0.816E-04    1.90      22.0  T
   7    -38.2821649 -0.531773E-08  0.435E-04    1.90      41.3  T
     SCC iter.                  ...        0 min,  0.025 sec
     gradient                   ...        0 min,  0.007 sec
 * total energy  :   -37.6463862 Eh     change       -0.1623491E-03 Eh
   gradient norm :     0.0049554 Eh/α   predicted    -0.1148172E-03 ( -29.28%)
   displ. norm   :     0.5250918 α      lambda       -0.2304994E-03
   maximum displ.:     0.3545780 α      in ANC's #3, #2, #1, ...

........................................................................
.............................. CYCLE   52 ..............................
........................................................................
   1    -38.2798415 -0.382798E+02  0.981E-02    1.89       0.0  T
   2    -38.2798429 -0.139364E-05  0.630E-02    1.90       1.0  T
   3    -38.2798346  0.829582E-05  0.256E-02    1.89       1.0  T
   4    -38.2798439 -0.926483E-05  0.572E-03    1.89       3.1  T
   5    -38.2798438  0.769657E-07  0.496E-03    1.89       3.6  T
   6    -38.2798441 -0.227864E-06  0.724E-04    1.89      24.8  T
   7    -38.2798441 -0.393823E-08  0.425E-04    1.89      42.3  T
     SCC iter.                  ...        0 min,  0.024 sec
     gradient                   ...        0 min,  0.005 sec
 * total energy  :   -37.6465573 Eh     change       -0.1710942E-03 Eh
   gradient norm :     0.0054900 Eh/α   predicted    -0.1470280E-03 ( -14.07%)
   displ. norm   :     0.3537762 α      lambda       -0.1885671E-03
   maximum displ.:     0.2326018 α      in ANC's #2, #3, #1, ...

........................................................................
.............................. CYCLE   53 ..............................
........................................................................
   1    -38.2803492 -0.382803E+02  0.653E-02    1.89       0.0  T
   2    -38.2803506 -0.140559E-05  0.372E-02    1.89       1.0  T
   3    -38.2803429  0.775808E-05  0.321E-02    1.89       1.0  T
   4    -38.2803527 -0.982238E-05  0.565E-03    1.89       3.2  T
   5    -38.2803527 -0.395444E-08  0.421E-03    1.89       4.3  T
   6    -38.2803528 -0.910366E-07  0.144E-03    1.89      12.5  T
   7    -38.2803528 -0.267758E-07  0.264E-04    1.89      67.9  T
   8    -38.2803528 -0.252008E-09  0.145E-04    1.89     124.0  T
     SCC iter.                  ...        0 min,  0.027 sec
     gradient                   ...        0 min,  0.004 sec
 * total energy  :   -37.6466797 Eh     change       -0.1224496E-03 Eh
   gradient norm :     0.0034458 Eh/α   predicted    -0.1060842E-03 ( -13.37%)
   displ. norm   :     0.2002037 α      lambda       -0.6435177E-04
   maximum displ.:     0.1373171 α      in ANC's #2, #3, #8, ...

........................................................................
.............................. CYCLE   54 ..............................
........................................................................
   1    -38.2803483 -0.382803E+02  0.441E-02    1.89       0.0  T
   2    -38.2803487 -0.400949E-06  0.281E-02    1.89       1.0  T
   3    -38.2803472  0.152609E-05  0.122E-02    1.89       1.5  T
   4    -38.2803489 -0.175631E-05  0.254E-03    1.89       7.1  T
   5    -38.2803489  0.707882E-08  0.234E-03    1.89       7.7  T
   6    -38.2803489 -0.312313E-07  0.485E-04    1.89      37.1  T
   7    -38.2803489 -0.451482E-08  0.190E-04    1.89      94.5  T
     SCC iter.                  ...        0 min,  0.024 sec
     gradient                   ...        0 min,  0.004 sec
 * total energy  :   -37.6467256 Eh     change       -0.4587426E-04 Eh
   gradient norm :     0.0026088 Eh/α   predicted    -0.3346656E-04 ( -27.05%)
   displ. norm   :     0.1241112 α      lambda       -0.4702850E-04
   maximum displ.:     0.0865764 α      in ANC's #2, #3, #4, ...

........................................................................
.............................. CYCLE   55 ..............................
........................................................................
   1    -38.2820735 -0.382821E+02  0.358E-02    1.89       0.0  T
   2    -38.2820740 -0.502909E-06  0.238E-02    1.89       1.0  T
   3    -38.2820721  0.192511E-05  0.103E-02    1.89       1.7  T
   4    -38.2820744 -0.224917E-05  0.296E-03    1.89       6.1  T
   5    -38.2820744 -0.514527E-07  0.170E-03    1.89      10.5  T
   6    -38.2820744 -0.671932E-08  0.494E-04    1.89      36.3  T
   7    -38.2820744 -0.957925E-09  0.287E-04    1.89      62.5  T
     SCC iter.                  ...        0 min,  0.023 sec
     gradient                   ...        0 min,  0.004 sec
 * total energy  :   -37.6467536 Eh     change       -0.2806220E-04 Eh
   gradient norm :     0.0020855 Eh/α   predicted    -0.2387694E-04 ( -14.91%)
   displ. norm   :     0.2384738 α      lambda       -0.3568300E-04
   maximum displ.:     0.1792880 α      in ANC's #2, #3, #4, ...

........................................................................
.............................. CYCLE   56 ..............................
........................................................................
   1    -38.2797210 -0.382797E+02  0.618E-02    1.89       0.0  T
   2    -38.2797219 -0.837293E-06  0.445E-02    1.89       1.0  T
   3    -38.2797124  0.948791E-05  0.182E-02    1.89       1.0  T
   4    -38.2797226 -0.102333E-04  0.493E-03    1.89       3.6  T
   5    -38.2797228 -0.197904E-06  0.268E-03    1.89       6.7  T
   6    -38.2797228 -0.167318E-07  0.885E-04    1.89      20.3  T
   7    -38.2797228 -0.413284E-08  0.410E-04    1.89      43.8  T
     SCC iter.                  ...        0 min,  0.023 sec
     gradient                   ...        0 min,  0.006 sec
 * total energy  :   -37.6467568 Eh     change       -0.3115383E-05 Eh
   gradient norm :     0.0032969 Eh/α   predicted    -0.1885918E-04 ( 505.36%)
   displ. norm   :     0.0908903 α      lambda       -0.3291823E-04
   maximum displ.:     0.0652139 α      in ANC's #3, #2, #1, ...

........................................................................
.............................. CYCLE   57 ..............................
........................................................................
   1    -38.2819833 -0.382820E+02  0.200E-02    1.89       0.0  T
   2    -38.2819834 -0.107730E-06  0.126E-02    1.89       1.4  T
   3    -38.2819831  0.358635E-06  0.597E-03    1.89       3.0  T
   4    -38.2819835 -0.414884E-06  0.176E-03    1.89      10.2  T
   5    -38.2819835  0.397110E-08  0.147E-03    1.89      12.2  T
   6    -38.2819835 -0.120323E-07  0.398E-04    1.89      45.1  T
   7    -38.2819835 -0.128277E-08  0.127E-04    1.89     142.0  T
     SCC iter.                  ...        0 min,  0.023 sec
     gradient                   ...        0 min,  0.004 sec
 * total energy  :   -37.6467754 Eh     change       -0.1866886E-04 Eh
   gradient norm :     0.0013048 Eh/α   predicted    -0.1659531E-04 ( -11.11%)
   displ. norm   :     0.0509368 α      lambda       -0.9520552E-05
   maximum displ.:     0.0446116 α      in ANC's #2, #8, #1, ...

........................................................................
.............................. CYCLE   58 ..............................
........................................................................
   1    -38.2827400 -0.382827E+02  0.151E-02    1.89       0.0  T
   2    -38.2827401 -0.724766E-07  0.989E-03    1.89       1.8  T
   3    -38.2827397  0.355783E-06  0.424E-03    1.89       4.2  T
   4    -38.2827401 -0.406091E-06  0.137E-03    1.89      13.1  T
   5    -38.2827402 -0.110855E-07  0.728E-04    1.89      24.7  T
   6    -38.2827402 -0.547878E-09  0.287E-04    1.89      62.5  T
     SCC iter.                  ...        0 min,  0.020 sec
     gradient                   ...        0 min,  0.004 sec
 * total energy  :   -37.6467868 Eh     change       -0.1137032E-04 Eh
   gradient norm :     0.0009029 Eh/α   predicted    -0.4769486E-05 ( -58.05%)
   displ. norm   :     0.2188139 α      lambda       -0.2347657E-04
   maximum displ.:     0.1977758 α      in ANC's #2, #3, #55, ...

........................................................................
.............................. CYCLE   59 ..............................
........................................................................
   1    -38.2827962 -0.382828E+02  0.582E-02    1.89       0.0  T
   2    -38.2827966 -0.350866E-06  0.389E-02    1.89       1.0  T
   3    -38.2827946  0.195772E-05  0.875E-03    1.89       2.1  T
   4    -38.2827968 -0.213902E-05  0.324E-03    1.89       5.5  T
   5    -38.2827968 -0.191830E-07  0.175E-03    1.89      10.2  T
   6    -38.2827968 -0.234285E-07  0.626E-04    1.89      28.7  T
   7    -38.2827968 -0.235750E-08  0.402E-04    1.89      44.7  T
     SCC iter.                  ...        0 min,  0.027 sec
     gradient                   ...        0 min,  0.007 sec
 * total energy  :   -37.6468113 Eh     change       -0.2449324E-04 Eh
   gradient norm :     0.0013118 Eh/α   predicted    -0.1198949E-04 ( -51.05%)
   displ. norm   :     0.2484701 α      lambda       -0.1718409E-04
   maximum displ.:     0.2313678 α      in ANC's #2, #3, #55, ...

........................................................................
.............................. CYCLE   60 ..............................
........................................................................
   1    -38.2822025 -0.382822E+02  0.619E-02    1.89       0.0  T
   2    -38.2822029 -0.318405E-06  0.419E-02    1.89       1.0  T
   3    -38.2822014  0.144682E-05  0.804E-03    1.89       2.2  T
   4    -38.2822030 -0.162304E-05  0.381E-03    1.89       4.7  T
   5    -38.2822030  0.405187E-08  0.196E-03    1.89       9.2  T
   6    -38.2822031 -0.483790E-07  0.657E-04    1.89      27.3  T
   7    -38.2822031 -0.735845E-09  0.410E-04    1.89      43.8  T
     SCC iter.                  ...        0 min,  0.023 sec
     gradient                   ...        0 min,  0.007 sec
 * total energy  :   -37.6468260 Eh     change       -0.1470566E-04 Eh
   gradient norm :     0.0019671 Eh/α   predicted    -0.8829564E-05 ( -39.96%)
   displ. norm   :     0.1184842 α      lambda       -0.9738860E-05
   maximum displ.:     0.1085641 α      in ANC's #2, #1, #55, ...

........................................................................
.............................. CYCLE   61 ..............................
........................................................................
   1    -38.2825267 -0.382825E+02  0.294E-02    1.89       0.0  T
   2    -38.2825268 -0.131926E-06  0.186E-02    1.89       1.0  T
   3    -38.2825257  0.113343E-05  0.920E-03    1.89       2.0  T
   4    -38.2825269 -0.124884E-05  0.165E-03    1.89      10.9  T
   5    -38.2825269 -0.183163E-07  0.119E-03    1.89      15.1  T
   6    -38.2825269 -0.700400E-08  0.281E-04    1.89      64.0  T
   7    -38.2825269 -0.760217E-09  0.966E-05    1.89     185.9  T
     SCC iter.                  ...        0 min,  0.022 sec
     gradient                   ...        0 min,  0.007 sec
 * total energy  :   -37.6468345 Eh     change       -0.8470778E-05 Eh
   gradient norm :     0.0007658 Eh/α   predicted    -0.4901486E-05 ( -42.14%)
   displ. norm   :     0.0704143 α      lambda       -0.4396476E-05
   maximum displ.:     0.0642677 α      in ANC's #2, #3, #8, ...

........................................................................
.............................. CYCLE   62 ..............................
........................................................................
   1    -38.2827463 -0.382827E+02  0.174E-02    1.89       0.0  T
   2    -38.2827463 -0.764844E-07  0.110E-02    1.89       1.6  T
   3    -38.2827461  0.266926E-06  0.468E-03    1.89       3.8  T
   4    -38.2827464 -0.311480E-06  0.111E-03    1.89      16.2  T
   5    -38.2827464 -0.523144E-09  0.621E-04    1.89      28.9  T
   6    -38.2827464 -0.243567E-08  0.199E-04    1.89      90.4  T
     SCC iter.                  ...        0 min,  0.021 sec
     gradient                   ...        0 min,  0.004 sec
 * total energy  :   -37.6468392 Eh     change       -0.4747555E-05 Eh
   gradient norm :     0.0005896 Eh/α   predicted    -0.2206797E-05 ( -53.52%)
   displ. norm   :     0.0837660 α      lambda       -0.4063310E-05
   maximum displ.:     0.0734256 α      in ANC's #2, #3, #4, ...

   *** GEOMETRY OPTIMIZATION CONVERGED AFTER 62 ITERATIONS ***

------------------------------------------------------------------------
 total energy gain   :        -0.4008343 Eh     -251.5273 kcal/mol
 total RMSD          :         1.3792456 a0        0.7299 Å
 total power (kW/mol):       -16.9740368 (step)  -78.3107 (real)
------------------------------------------------------------------------

 ANCopt (total)                0 d,  0 h,  0 min, 13.439 sec
 optimizer setup                ...        0 min,  0.002 sec (  0.018%)
 model hessian                  ...        0 min,  0.070 sec (  0.519%)
 ANC generation                 ...        0 min,  0.006 sec (  0.046%)
 coordinate transformation      ...        0 min,  0.001 sec (  0.006%)
 single point calculation       ...        0 min, 13.186 sec ( 98.118%)
 optimization log               ...        0 min,  0.006 sec (  0.043%)
 hessian update                 ...        0 min,  0.072 sec (  0.538%)
 rational function              ...        0 min,  0.092 sec (  0.683%)

================
 final structure:
================
31
 xtb: 6.5.1 (b24c23e)
Zr          -1.16266308484769       -0.13184208922778        0.48725446221973
C           -0.85958031742862        1.17742989235660       -1.44669204925230
C            0.46196340080312       -1.97946453551564        0.63699249693820
C            0.24350448216672       -1.76327110321994       -0.74396535559348
C           -1.10599687401513       -2.07303879534937       -1.02920027294107
C           -1.72848465927197       -2.48209915985856        0.17931900612213
C           -0.75469318037812       -2.43227023219789        1.20731373272512
H            1.42793104115191       -1.96716236738590        1.13007570277438
H            1.01472886520582       -1.55399617572479       -1.47782368907501
H           -1.54765127427071       -2.13381658918496       -2.01664530630620
H           -2.71040015657952       -2.93491256788583        0.26511936808277
H           -0.87858741284160       -2.83070852244475        2.20860421811733
C           -0.23179701152984        0.15749740741924        2.74637904671817
C           -1.63580922705039        0.33488264350313        2.82928394505239
C           -1.96000580483486        1.52964692589983        2.13445819754691
C           -0.76880396139700        2.06106357017065        1.59467053874724
C            0.30037438916258        1.20445365199442        1.95903766484179
H            0.34733229711752       -0.56339243433463        3.31092590358693
H           -2.30754612375365       -0.22326440307072        3.47434488212308
H           -2.91765084839056        2.03428963912886        2.16505570424954
H           -0.66807978125026        3.02911937827934        1.11838154048747
H            1.35605418594033        1.41505706062816        1.81905431219177
H            0.02450961333855        0.97642413369030       -0.78620293698329
H           -0.83571823502802        0.53089904920535       -2.32782456143518
H           -0.77722967843382        2.21185129865745       -1.77817251516366
C           -3.31331598852670        0.11891033797987       -0.28541819436309
C           -2.89172945077347        1.26099252355572       -0.99359784016771
H           -2.95662364841246        2.22818152363533       -0.49402385474678
H           -3.12644282104954        1.32584709912850       -2.05375621815978
H           -3.90623268663694        0.29662556594866        0.62084942652418
H           -3.71850820819011       -0.68402343578476       -0.90642531486293

 Bond Distances (Angstroems)
 ---------------------------
Zr1-C2=2.3550        Zr1-C3=2.4649        Zr1-C4=2.4809        Zr1-C5=2.4640        Zr1-C6=2.4369        Zr1-C7=2.4448        
Zr1-C13=2.4605       Zr1-C14=2.4345       Zr1-C15=2.4718       Zr1-C16=2.4880       Zr1-C17=2.4683       Zr1-H23=2.0638       
Zr1-C26=2.2990       Zr1-C27=2.6688       C2-Zr1=2.3550        C2-H23=1.1217        C2-H24=1.0931        C2-H25=1.0894        
C3-Zr1=2.4649        C3-C4=1.4147         C3-C7=1.4179         C3-H8=1.0846         C4-Zr1=2.4809        C4-C3=1.4147         
C4-C5=1.4137         C4-H9=1.0850         C5-Zr1=2.4640        C5-C4=1.4137         C5-C6=1.4196         C5-H10=1.0834        
C6-Zr1=2.4369        C6-C5=1.4196         C6-C7=1.4169         C6-H11=1.0847        C7-Zr1=2.4448        C7-C3=1.4179         
C7-C6=1.4169         C7-H12=1.0848        H8-C3=1.0846         H9-C4=1.0850         H10-C5=1.0834        H11-C6=1.0847        
H12-C7=1.0848        C13-Zr1=2.4605       C13-C14=1.4176       C13-C17=1.4139       C13-H18=1.0834       C14-Zr1=2.4345       
C14-C13=1.4176       C14-C15=1.4196       C14-H19=1.0858       C15-Zr1=2.4718       C15-C14=1.4196       C15-C16=1.4116       
C15-H20=1.0829       C16-Zr1=2.4880       C16-C15=1.4116       C16-C17=1.4176       C16-H21=1.0836       C17-Zr1=2.4683       
C17-C13=1.4139       C17-C16=1.4176       C17-H22=1.0855       H18-C13=1.0834       H19-C14=1.0858       H20-C15=1.0829       
H21-C16=1.0836       H22-C17=1.0855       H23-Zr1=2.0638       H23-C2=1.1217        H24-C2=1.0931        H25-C2=1.0894        
C26-Zr1=2.2990       C26-C27=1.4084       C26-H30=1.0975       C26-H31=1.0929       C27-Zr1=2.6688       C27-C26=1.4084       
C27-H28=1.0905       C27-H29=1.0878       H28-C27=1.0905       H29-C27=1.0878       H30-C26=1.0975       H31-C26=1.0929       
 C  H  Rav=1.0892 sigma=0.0091  Rmin=1.0829  Rmax=1.1217    17
 C  C  Rav=1.4156 sigma=0.0033  Rmin=1.4084  Rmax=1.4196    11
 Zr H  Rav=2.0638 sigma=0.0000  Rmin=2.0638  Rmax=2.0638     1
 Zr C  Rav=2.4567 sigma=0.0800  Rmin=2.2990  Rmax=2.6688    13

 selected bond angles (degree)
 --------------------
C3-Zr1-C2=112.44               C4-Zr1-C2= 83.40               C4-Zr1-C3= 33.24               C5-Zr1-C2= 85.96               
C5-Zr1-C3= 55.37               C5-Zr1-C4= 33.22               C6-Zr1-C2=117.53               C6-Zr1-C3= 55.79               
C6-Zr1-C4= 55.58               C6-Zr1-C5= 33.67               C7-Zr1-C2=138.03               C7-Zr1-C3= 33.57               
C7-Zr1-C4= 55.45               C7-Zr1-C5= 55.67               C7-Zr1-C6= 33.74               C13-Zr1-C2=129.79              
C13-Zr1-C3= 77.47              C13-Zr1-C4=108.58              C13-Zr1-C5=130.47              C13-Zr1-C6=108.50              
C13-Zr1-C7= 77.12              C14-Zr1-C2=135.11              C14-Zr1-C3=102.32              C14-Zr1-C4=135.53              
C14-Zr1-C5=138.38              C14-Zr1-C6=105.15              C14-Zr1-C7= 85.96              C14-Zr1-C13= 33.66             
C15-Zr1-C2=102.42              C15-Zr1-C3=132.53              C15-Zr1-C4=162.86              C15-Zr1-C5=161.29              
C15-Zr1-C6=131.12              C15-Zr1-C7=119.34              C15-Zr1-C13= 55.33             C15-Zr1-C14= 33.63             
C16-Zr1-C2= 81.67              C16-Zr1-C3=121.96              C16-Zr1-C4=135.30              C16-Zr1-C5=164.73              
C16-Zr1-C6=160.57              C16-Zr1-C7=132.21              C16-Zr1-C13= 55.10             C16-Zr1-C14= 55.50             
C16-Zr1-C15= 33.07             C17-Zr1-C2= 96.45              C17-Zr1-C3= 88.79              C17-Zr1-C4=108.42              
C17-Zr1-C5=141.25              C17-Zr1-C6=137.32              C17-Zr1-C7=103.59              C17-Zr1-C13= 33.34             
C17-Zr1-C14= 55.79             C17-Zr1-C15= 55.24             C17-Zr1-C16= 33.24             H23-Zr1-C2= 28.44              
H23-Zr1-C3= 93.49              H23-Zr1-C4= 73.79              H23-Zr1-C5= 91.72              H23-Zr1-C6=124.99              
H23-Zr1-C7=126.23              H23-Zr1-C13=106.61             H23-Zr1-C14=127.05             H23-Zr1-C15=103.64             
H23-Zr1-C16= 73.16             H23-Zr1-C17= 74.71             C26-Zr1-C2= 77.51              C26-Zr1-C3=135.95              
C26-Zr1-C4=115.80              C26-Zr1-C5= 84.29              C26-Zr1-C6= 81.11              C26-Zr1-C7=110.96              
C26-Zr1-C13=130.52             C26-Zr1-C14= 96.93             C26-Zr1-C15= 81.31             C26-Zr1-C16=101.63             
C26-Zr1-C17=134.10             C26-Zr1-H23=105.79             C27-Zr1-C2= 48.52              C27-Zr1-C3=148.42              
C27-Zr1-C4=115.79              C27-Zr1-C5= 94.85              C27-Zr1-C6=106.43              C27-Zr1-C7=139.70              
C27-Zr1-C13=133.88             C27-Zr1-C14=107.93             C27-Zr1-C15= 79.05             C27-Zr1-C16= 83.66             
C27-Zr1-C17=115.62             C27-Zr1-H23= 75.53             C27-Zr1-C26= 31.84             H23-C2-Zr1= 61.20              
H24-C2-Zr1=109.63              H24-C2-H23=110.57              H25-C2-Zr1=141.95              H25-C2-H23=106.84              
H25-C2-H24=108.34              C4-C3-Zr1= 74.00               C7-C3-Zr1= 72.44               C7-C3-C4=107.99                
H8-C3-Zr1=127.31               H8-C3-C4=125.42                H8-C3-C7=125.80                C3-C4-Zr1= 72.76               
C5-C4-Zr1= 72.73               C5-C4-C3=108.11                H9-C4-Zr1=127.72               H9-C4-C3=125.45                
H9-C4-C5=125.76                C4-C5-Zr1= 74.05               C6-C5-Zr1= 72.12               C6-C5-C4=108.06                
H10-C5-Zr1=126.57              H10-C5-C4=125.83               H10-C5-C6=125.52               C5-C6-Zr1= 74.21               
C7-C6-Zr1= 73.43               C7-C6-C5=107.83                H11-C6-Zr1=127.07              H11-C6-C5=125.77               
H11-C6-C7=125.41               C3-C7-Zr1= 73.99               C6-C7-Zr1= 72.82               C6-C7-C3=108.01                
H12-C7-Zr1=126.76              H12-C7-C3=125.91               H12-C7-C6=125.33               

 selected dihedral angles (degree)
 ---------------------------------
H23-C2-Zr1-C3=308.63          H23-C2-Zr1-C4=292.11          H23-C2-Zr1-C5=258.84          H23-C2-Zr1-C6=246.71          
H23-C2-Zr1-C7=281.36          H23-C2-Zr1-C13= 40.84         H23-C2-Zr1-C14= 86.51         H23-C2-Zr1-C15= 95.76         
H23-C2-Zr1-C16= 69.85         H23-C2-Zr1-C17= 39.99         H23-C2-Zr1-C26=173.80         H23-C2-Zr1-C27=158.73         
H24-C2-Zr1-C3= 51.91          H24-C2-Zr1-C4= 35.39          H24-C2-Zr1-C5=  2.12          H24-C2-Zr1-C6=349.99          
H24-C2-Zr1-C7= 24.64          H24-C2-Zr1-C13=144.12         H24-C2-Zr1-C14=189.79         H24-C2-Zr1-C15=199.04         
H24-C2-Zr1-C16=173.13         H24-C2-Zr1-C17=143.27         H24-C2-Zr1-H23=103.28         H24-C2-Zr1-C26=277.08         
H24-C2-Zr1-C27=262.01         H25-C2-Zr1-C3=228.18          H25-C2-Zr1-C4=211.67          H25-C2-Zr1-C5=178.39          
H25-C2-Zr1-C6=166.26          H25-C2-Zr1-C7=200.91          H25-C2-Zr1-C13=320.39         H25-C2-Zr1-C14=  6.06         
H25-C2-Zr1-C15= 15.31         H25-C2-Zr1-C16=349.40         H25-C2-Zr1-C17=319.55         H25-C2-Zr1-H23=279.55         
H25-C2-Zr1-C26= 93.35         H25-C2-Zr1-C27= 78.28         C4-C3-Zr1-C2=328.99           C4-C3-Zr1-C5= 36.78           
C4-C3-Zr1-C6= 77.89           C4-C3-Zr1-C7=115.33           C4-C3-Zr1-C13=200.86          C4-C3-Zr1-C14=177.97          
C4-C3-Zr1-C15=194.98          C4-C3-Zr1-C16=234.80          C4-C3-Zr1-C17=232.50          C4-C3-Zr1-H23=307.10          
C4-C3-Zr1-C26= 64.18          C4-C3-Zr1-C27= 14.83          C7-C3-Zr1-C2=213.66           C7-C3-Zr1-C4=244.67           
C7-C3-Zr1-C5=281.46           C7-C3-Zr1-C6=322.56           C7-C3-Zr1-C13= 85.53          C7-C3-Zr1-C14= 62.64          
C7-C3-Zr1-C15= 79.65          C7-C3-Zr1-C16=119.47          C7-C3-Zr1-C17=117.17          C7-C3-Zr1-H23=191.77          
C7-C3-Zr1-C26=308.85          C7-C3-Zr1-C27=259.50          H8-C3-Zr1-C2= 91.64           H8-C3-Zr1-C4=122.65           
H8-C3-Zr1-C5=159.44           H8-C3-Zr1-C6=200.54           H8-C3-Zr1-C7=237.98           H8-C3-Zr1-C13=323.51          
H8-C3-Zr1-C14=300.62          H8-C3-Zr1-C15=317.63          H8-C3-Zr1-C16=357.45          H8-C3-Zr1-C17=355.15          
H8-C3-Zr1-H23= 69.75          H8-C3-Zr1-C26=186.83          H8-C3-Zr1-C27=137.48          C3-C4-Zr1-C2=151.35           
C3-C4-Zr1-C5=244.07           C3-C4-Zr1-C6=281.40           C3-C4-Zr1-C7=322.64           C3-C4-Zr1-C13= 21.51          
C3-C4-Zr1-C14=357.16          C3-C4-Zr1-C15= 40.28          C3-C4-Zr1-C16= 80.27          C3-C4-Zr1-C17= 56.72          
C3-C4-Zr1-H23=124.00          C3-C4-Zr1-C26=224.04          C3-C4-Zr1-C27=188.56          C5-C4-Zr1-C2=267.29           
C5-C4-Zr1-C3=115.93           C5-C4-Zr1-C6= 37.34           C5-C4-Zr1-C7= 78.57           C5-C4-Zr1-C13=137.44          
C5-C4-Zr1-C14=113.10          C5-C4-Zr1-C15=156.21          C5-C4-Zr1-C16=196.20          C5-C4-Zr1-C17=172.66          
C5-C4-Zr1-H23=239.93          C5-C4-Zr1-C26=339.97          C5-C4-Zr1-C27=304.49          H9-C4-Zr1-C2= 29.51           
H9-C4-Zr1-C3=238.16           H9-C4-Zr1-C5=122.22           H9-C4-Zr1-C6=159.56           H9-C4-Zr1-C7=200.79           
H9-C4-Zr1-C13=259.66          H9-C4-Zr1-C14=235.32          H9-C4-Zr1-C15=278.43          H9-C4-Zr1-C16=318.43          
H9-C4-Zr1-C17=294.88          H9-C4-Zr1-H23=  2.15          H9-C4-Zr1-C26=102.19          H9-C4-Zr1-C27= 66.71          
Zr1-C4-C3-C7= 64.96           Zr1-C4-C3-H8=235.26           C5-C4-C3-Zr1=295.37           C5-C4-C3-C7=  0.34            
C5-C4-C3-H8=170.64            H9-C4-C3-Zr1=124.42           H9-C4-C3-C7=189.39            H9-C4-C3-H8=359.68            
C4-C5-Zr1-C2= 84.12           C4-C5-Zr1-C3=323.19           C4-C5-Zr1-C6=244.47           C4-C5-Zr1-C7=282.18           
C4-C5-Zr1-C13=302.57          C4-C5-Zr1-C14=255.96          C4-C5-Zr1-C15=201.75          C4-C5-Zr1-C16= 48.18          
C4-C5-Zr1-C17=348.83          C4-C5-Zr1-H23= 56.24          C4-C5-Zr1-C26=161.95          C4-C5-Zr1-C27=131.86          
C6-C5-Zr1-C2=199.64           C6-C5-Zr1-C3= 78.72           C6-C5-Zr1-C4=115.53           C6-C5-Zr1-C7= 37.71           
C6-C5-Zr1-C13= 58.10          C6-C5-Zr1-C14= 11.49          C6-C5-Zr1-C15=317.27          C6-C5-Zr1-C16=163.70          
C6-C5-Zr1-C17=104.36          C6-C5-Zr1-H23=171.77          C6-C5-Zr1-C26=277.47          C6-C5-Zr1-C27=247.39          
H10-C5-Zr1-C2=321.03          H10-C5-Zr1-C3=200.10          H10-C5-Zr1-C4=236.91          H10-C5-Zr1-C6=121.38          
H10-C5-Zr1-C7=159.09          H10-C5-Zr1-C13=179.48         H10-C5-Zr1-C14=132.87         H10-C5-Zr1-C15= 78.66         
H10-C5-Zr1-C16=285.09         H10-C5-Zr1-C17=225.74         H10-C5-Zr1-H23=293.16         H10-C5-Zr1-C26= 38.86         
H10-C5-Zr1-C27=  8.77         Zr1-C5-C4-C3= 64.64           Zr1-C5-C4-H9=235.56           C6-C5-C4-Zr1=295.41           
C6-C5-C4-C3=  0.05            C6-C5-C4-H9=170.96            H10-C5-C4-Zr1=123.91          H10-C5-C4-C3=188.55           
H10-C5-C4-H9=359.46           C5-C6-Zr1-C2= 22.22           C5-C6-Zr1-C3=282.65           C5-C6-Zr1-C4=323.18           
C5-C6-Zr1-C7=245.41           C5-C6-Zr1-C13=222.93          C5-C6-Zr1-C14=187.88          C5-C6-Zr1-C15=163.21          
C5-C6-Zr1-C16=192.84          C5-C6-Zr1-C17=243.43          C5-C6-Zr1-H23=349.94          C5-C6-Zr1-C26= 93.05          
C5-C6-Zr1-C27= 73.53          C7-C6-Zr1-C2=136.81           C7-C6-Zr1-C3= 37.24           C7-C6-Zr1-C4= 77.76           
C7-C6-Zr1-C5=114.59           C7-C6-Zr1-C13=337.51          C7-C6-Zr1-C14=302.47          C7-C6-Zr1-C15=277.79          
C7-C6-Zr1-C16=307.42          C7-C6-Zr1-C17=358.02          C7-C6-Zr1-H23=104.53          C7-C6-Zr1-C26=207.64          
C7-C6-Zr1-C27=188.12          H11-C6-Zr1-C2=259.01          H11-C6-Zr1-C3=159.44          H11-C6-Zr1-C4=199.97          
H11-C6-Zr1-C5=236.79          H11-C6-Zr1-C7=122.20          H11-C6-Zr1-C13= 99.72         H11-C6-Zr1-C14= 64.67         
H11-C6-Zr1-C15= 40.00         H11-C6-Zr1-C16= 69.63         H11-C6-Zr1-C17=120.22         H11-C6-Zr1-H23=226.73         
H11-C6-Zr1-C26=329.84         H11-C6-Zr1-C27=310.32         Zr1-C6-C5-C4= 65.86           Zr1-C6-C5-H10=237.40          
C7-C6-C5-Zr1=293.72           C7-C6-C5-C4=359.58            C7-C6-C5-H10=171.11           H11-C6-C5-Zr1=124.63          
H11-C6-C5-C4=190.50           H11-C6-C5-H10=  2.03          C3-C7-Zr1-C2= 49.99           C3-C7-Zr1-C4= 36.98           
C3-C7-Zr1-C5= 77.55           C3-C7-Zr1-C6=115.17           C3-C7-Zr1-C13=273.32          C3-C7-Zr1-C14=240.44          
C3-C7-Zr1-C15=236.27          C3-C7-Zr1-C16=274.27          C3-C7-Zr1-C17=293.79          C3-C7-Zr1-H23= 14.62          
C3-C7-Zr1-C26=144.56          C3-C7-Zr1-C27=127.25          C6-C7-Zr1-C2=294.83           C6-C7-Zr1-C3=244.83           
C6-C7-Zr1-C4=281.82           C6-C7-Zr1-C5=322.38           C6-C7-Zr1-C13=158.16          C6-C7-Zr1-C14=125.27          
C6-C7-Zr1-C15=121.10          C6-C7-Zr1-C16=159.10          C6-C7-Zr1-C17=178.62          C6-C7-Zr1-H23=259.45          
C6-C7-Zr1-C26= 29.39          C6-C7-Zr1-C27= 12.08          H12-C7-Zr1-C2=173.18          H12-C7-Zr1-C3=123.19          
H12-C7-Zr1-C4=160.17          H12-C7-Zr1-C5=200.73          H12-C7-Zr1-C6=238.36          H12-C7-Zr1-C13= 36.51         
H12-C7-Zr1-C14=  3.63         H12-C7-Zr1-C15=359.45         H12-C7-Zr1-C16= 37.46         H12-C7-Zr1-C17= 56.98         
H12-C7-Zr1-H23=137.81         H12-C7-Zr1-C26=267.75         H12-C7-Zr1-C27=250.44         Zr1-C7-C3-C4=294.00           
Zr1-C7-C3-H8=123.75           C6-C7-C3-Zr1= 65.40           C6-C7-C3-C4=359.40            C6-C7-C3-H8=189.15            
H12-C7-C3-Zr1=235.88          H12-C7-C3-C4=169.88           H12-C7-C3-H8=359.63           Zr1-C7-C6-C5= 66.80           
Zr1-C7-C6-H11=235.94          C3-C7-C6-Zr1=293.83           C3-C7-C6-C5=  0.63            C3-C7-C6-H11=169.76           
H12-C7-C6-Zr1=123.28          H12-C7-C6-C5=190.08           H12-C7-C6-H11=359.21          
           -------------------------------------------------
          |                Final Singlepoint                |
           -------------------------------------------------

          ...................................................
          :                      SETUP                      :
          :.................................................:
          :  # basis functions                  79          :
          :  # atomic orbitals                  78          :
          :  # shells                           46          :
          :  # electrons                        72          :
          :  max. iterations                   250          :
          :  Hamiltonian                  GFN2-xTB          :
          :  restarted?                      false          :
          :  GBSA solvation                  false          :
          :  PC potential                    false          :
          :  electronic temp.          300.0000000     K    :
          :  accuracy                    1.0000000          :
          :  -> integral cutoff          0.2500000E+02      :
          :  -> integral neglect         0.1000000E-07      :
          :  -> SCF convergence          0.1000000E-05 Eh   :
          :  -> wf. convergence          0.1000000E-03 e    :
          :  Broyden damping             0.4000000          :
          ...................................................

 iter      E             dE          RMSdq      gap      omega  full diag
   1    -38.2827464 -0.382827E+02  0.111E-04    1.89       0.0  T
   2    -38.2827464 -0.373888E-10  0.681E-05    1.89     263.8  T
   3    -38.2827464 -0.485159E-10  0.524E-05    1.89     342.5  T

   *** convergence criteria satisfied after 3 iterations ***

         #    Occupation            Energy/Eh            Energy/eV
      -------------------------------------------------------------
         1        2.0000           -0.8745430             -23.7975
       ...           ...                  ...                  ...
        30        2.0000           -0.5872266             -15.9792
        31        2.0000           -0.5755275             -15.6609
        32        2.0000           -0.5202660             -14.1572
        33        2.0000           -0.5200378             -14.1509
        34        2.0000           -0.5094789             -13.8636
        35        2.0000           -0.5041109             -13.7176
        36        2.0000           -0.4903059             -13.3419 (HOMO)
        37                         -0.4207462             -11.4491 (LUMO)
        38                         -0.4089395             -11.1278
        39                         -0.4024837             -10.9521
        40                         -0.4018492             -10.9349
        41                         -0.3929908             -10.6938
       ...                                ...                  ...
        78                          2.5465827              69.2960
      -------------------------------------------------------------
                  HL-Gap            0.0695597 Eh            1.8928 eV
             Fermi-level           -0.4555260 Eh          -12.3955 eV

 SCC (total)                   0 d,  0 h,  0 min,  0.017 sec
 SCC setup                      ...        0 min,  0.000 sec (  1.324%)
 Dispersion                     ...        0 min,  0.000 sec (  0.527%)
 classical contributions        ...        0 min,  0.000 sec (  0.163%)
 integral evaluation            ...        0 min,  0.003 sec ( 17.540%)
 iterations                     ...        0 min,  0.010 sec ( 57.121%)
 molecular gradient             ...        0 min,  0.004 sec ( 22.404%)
 printout                       ...        0 min,  0.000 sec (  0.824%)

         :::::::::::::::::::::::::::::::::::::::::::::::::::::
         ::                     SUMMARY                     ::
         :::::::::::::::::::::::::::::::::::::::::::::::::::::
         :: total energy             -37.646839211092 Eh    ::
         :: gradient norm              0.000593825457 Eh/a0 ::
         :: HOMO-LUMO gap              1.892814815719 eV    ::
         ::.................................................::
         :: SCC energy               -38.282746392992 Eh    ::
         :: -> isotropic ES            0.087849646964 Eh    ::
         :: -> anisotropic ES         -0.013079098662 Eh    ::
         :: -> anisotropic XC          0.020207458732 Eh    ::
         :: -> dispersion             -0.028125246402 Eh    ::
         :: repulsion energy           0.633637047185 Eh    ::
         :: add. restraining           0.001606968392 Eh    ::
         :: total charge               1.000000000000 e     ::
         :::::::::::::::::::::::::::::::::::::::::::::::::::::

           -------------------------------------------------
          |                Property Printout                |
           -------------------------------------------------

    * Orbital Energies and Occupations

         #    Occupation            Energy/Eh            Energy/eV
      -------------------------------------------------------------
         1        2.0000           -0.8745430             -23.7975
       ...           ...                  ...                  ...
        24        2.0000           -0.5937083             -16.1556
        25        2.0000           -0.5920469             -16.1104
        26        2.0000           -0.5907786             -16.0759
        27        2.0000           -0.5896015             -16.0439
        28        2.0000           -0.5891157             -16.0307
        29        2.0000           -0.5875352             -15.9876
        30        2.0000           -0.5872266             -15.9792
        31        2.0000           -0.5755275             -15.6609
        32        2.0000           -0.5202660             -14.1572
        33        2.0000           -0.5200378             -14.1509
        34        2.0000           -0.5094789             -13.8636
        35        2.0000           -0.5041109             -13.7176
        36        2.0000           -0.4903059             -13.3419 (HOMO)
        37                         -0.4207462             -11.4491 (LUMO)
        38                         -0.4089395             -11.1278
        39                         -0.4024837             -10.9521
        40                         -0.4018492             -10.9349
        41                         -0.3929908             -10.6938
        42                         -0.3576200              -9.7313
        43                         -0.3047454              -8.2925
        44                         -0.3043002              -8.2804
        45                         -0.3037039              -8.2642
        46                         -0.3026255              -8.2349
        47                         -0.0660379              -1.7970
       ...                                ...                  ...
        78                          2.5465827              69.2960
      -------------------------------------------------------------
                  HL-Gap            0.0695597 Eh            1.8928 eV
             Fermi-level           -0.4555260 Eh          -12.3955 eV

     #   Z          covCN         q      C6AA      α(0)
     1  40 Zr      10.456     0.947   138.922    17.711
     2   6 C        3.876    -0.246    25.397     7.165
     3   6 C        3.756    -0.088    22.241     6.724
     4   6 C        3.748    -0.089    22.261     6.729
     5   6 C        3.757    -0.091    22.286     6.731
     6   6 C        3.765    -0.088    22.224     6.719
     7   6 C        3.764    -0.087    22.195     6.715
     8   1 H        0.925     0.081     1.973     2.197
     9   1 H        0.925     0.070     2.080     2.256
    10   1 H        0.925     0.081     1.968     2.194
    11   1 H        0.925     0.087     1.912     2.163
    12   1 H        0.925     0.086     1.920     2.167
    13   6 C        3.761    -0.083    22.128     6.706
    14   6 C        3.766    -0.092    22.301     6.731
    15   6 C        3.755    -0.089    22.252     6.726
    16   6 C        3.747    -0.091    22.303     6.736
    17   6 C        3.754    -0.092    22.322     6.737
    18   1 H        0.925     0.086     1.921     2.167
    19   1 H        0.925     0.082     1.958     2.188
    20   1 H        0.925     0.081     1.973     2.197
    21   1 H        0.925     0.075     2.035     2.231
    22   1 H        0.925     0.072     2.060     2.245
    23   1 H        1.643     0.096     1.808     2.099
    24   1 H        0.926     0.087     1.910     2.161
    25   1 H        0.925     0.088     1.894     2.152
    26   6 C        3.624    -0.232    25.684     7.304
    27   6 C        3.764    -0.054    21.588     6.623
    28   1 H        0.924     0.104     1.746     2.066
    29   1 H        0.925     0.109     1.704     2.041
    30   1 H        0.932     0.098     1.802     2.099
    31   1 H        0.925     0.094     1.845     2.124

 Mol. C6AA /au·bohr⁶  :       9428.195039
 Mol. C8AA /au·bohr⁸  :     320379.169725
 Mol. α(0) /au        :        142.802972


Wiberg/Mayer (AO) data.
largest (>0.10) Wiberg bond orders for each atom

 ---------------------------------------------------------------------------
     #   Z sym  total        # sym  WBO       # sym  WBO       # sym  WBO
 ---------------------------------------------------------------------------
     1  40 Zr   4.334 --    26 C    0.609     2 C    0.444    14 C    0.261
                             6 C    0.256     7 C    0.248     3 C    0.235
                            17 C    0.232     5 C    0.231    15 C    0.230
                            13 C    0.229     4 C    0.224    16 C    0.222
                            27 C    0.173    23 H    0.140
     2   6 C    3.916 --    25 H    0.962    24 H    0.941    23 H    0.797
                            27 C    0.537     1 Zr   0.444    26 C    0.125
     3   6 C    3.979 --     4 C    1.308     7 C    1.302     8 H    0.924
                             1 Zr   0.235
     4   6 C    3.980 --     5 C    1.317     3 C    1.308     9 H    0.927
                             1 Zr   0.224
     5   6 C    3.978 --     4 C    1.317     6 C    1.291    10 H    0.927
                             1 Zr   0.231
     6   6 C    3.981 --     7 C    1.297     5 C    1.291    11 H    0.919
                             1 Zr   0.256
     7   6 C    3.980 --     3 C    1.302     6 C    1.297    12 H    0.921
                             1 Zr   0.248
     8   1 H    0.991 --     3 C    0.924
     9   1 H    0.993 --     4 C    0.927
    10   1 H    0.990 --     5 C    0.927
    11   1 H    0.990 --     6 C    0.919
    12   1 H    0.990 --     7 C    0.921
    13   6 C    3.982 --    17 C    1.316    14 C    1.299    18 H    0.925
                             1 Zr   0.229
    14   6 C    3.979 --    13 C    1.299    15 C    1.286    19 H    0.918
                             1 Zr   0.261
    15   6 C    3.979 --    16 C    1.323    14 C    1.286    20 H    0.927
                             1 Zr   0.230
    16   6 C    3.979 --    15 C    1.323    17 C    1.298    21 H    0.929
                             1 Zr   0.222
    17   6 C    3.979 --    13 C    1.316    16 C    1.298    22 H    0.923
                             1 Zr   0.232
    18   1 H    0.991 --    13 C    0.925
    19   1 H    0.991 --    14 C    0.918
    20   1 H    0.991 --    15 C    0.927
    21   1 H    0.992 --    16 C    0.929
    22   1 H    0.994 --    17 C    0.923
    23   1 H    0.991 --     2 C    0.797     1 Zr   0.140
    24   1 H    0.992 --     2 C    0.941
    25   1 H    0.991 --     2 C    0.962
    26   6 C    3.894 --    27 C    1.272    31 H    0.912    30 H    0.873
                             1 Zr   0.609     2 C    0.125
    27   6 C    3.969 --    26 C    1.272    29 H    0.947    28 H    0.932
                             2 C    0.537     1 Zr   0.173
    28   1 H    0.987 --    27 C    0.932
    29   1 H    0.987 --    27 C    0.947
    30   1 H    0.990 --    26 C    0.873
    31   1 H    0.990 --    26 C    0.912
 ---------------------------------------------------------------------------

Topologies differ in total number of bonds
Writing topology from bond orders to xtbtopo.mol

molecular dipole:
                 x           y           z       tot (Debye)
 q only:       -2.712       0.238       0.332
   full:       -2.252       0.344       0.266       5.829
molecular quadrupole (traceless):
                xx          xy          yy          xz          yz          zz
 q only:        8.949      -1.870      -5.724       0.040      -5.185      -3.225
  q+dip:        9.376      -1.169      -7.427       0.131      -8.071      -1.949
   full:        8.929      -0.555      -6.708      -1.276      -6.834      -2.221

           -------------------------------------------------
          |                Geometry Summary                 |
           -------------------------------------------------

      molecular mass/u    :      264.4982010
   center of mass at/Å    :       -1.1323481      -0.1720809       0.5834139
  moments of inertia/u·Å² :        0.5786898E+03   0.7144651E+03   0.9235748E+03
rotational constants/cm⁻¹ :        0.2913069E-01   0.2359476E-01   0.1825259E-01

 * 41 selected distances

     #   Z          #   Z                                           value/Å
     1  40 Zr       2   6 C                                       2.3550377
     1  40 Zr       3   6 C                                       2.4648616
     1  40 Zr       4   6 C                                       2.4808811
     3   6 C        4   6 C                                       1.4147469
     1  40 Zr       5   6 C                                       2.4639586
     4   6 C        5   6 C                                       1.4136723
     1  40 Zr       6   6 C                                       2.4369423
     5   6 C        6   6 C                                       1.4196269
     1  40 Zr       7   6 C                                       2.4447690
     3   6 C        7   6 C                                       1.4179397
     6   6 C        7   6 C                                       1.4168720
     3   6 C        8   1 H                                       1.0846087
     4   6 C        9   1 H                                       1.0849568
     5   6 C       10   1 H                                       1.0834207
     6   6 C       11   1 H                                       1.0846935
     7   6 C       12   1 H                                       1.0847514
     1  40 Zr      13   6 C                                       2.4604622
     1  40 Zr      14   6 C                                       2.4345025
    13   6 C       14   6 C                                       1.4175999
     1  40 Zr      15   6 C                                       2.4717570
    14   6 C       15   6 C                                       1.4196296
     1  40 Zr      16   6 C                                       2.4880377 (max)
    15   6 C       16   6 C                                       1.4116432
     1  40 Zr      17   6 C                                       2.4682609
    13   6 C       17   6 C                                       1.4139415
    16   6 C       17   6 C                                       1.4176342
    13   6 C       18   1 H                                       1.0834142
    14   6 C       19   1 H                                       1.0857543
    15   6 C       20   1 H                                       1.0829057 (min)
    16   6 C       21   1 H                                       1.0835723
    17   6 C       22   1 H                                       1.0855456
     1  40 Zr      23   1 H                                       2.0638138
     2   6 C       23   1 H                                       1.1217239
     2   6 C       24   1 H                                       1.0931451
     2   6 C       25   1 H                                       1.0893525
     1  40 Zr      26   6 C                                       2.2989582
    26   6 C       27   6 C                                       1.4084054
    27   6 C       28   1 H                                       1.0905229
    27   6 C       29   1 H                                       1.0877649
    26   6 C       30   1 H                                       1.0974763
    26   6 C       31   1 H                                       1.0929471

 * 4 distinct bonds (by element types)

   Z      Z             #   av. dist./Å        max./Å        min./Å
   1 H    6 C          17     1.0892092     1.1217239     1.0829057
   6 C    6 C          11     1.4156101     1.4196296     1.4084054
   1 H   40 Zr          1     2.0638138     2.0638138     2.0638138
   6 C   40 Zr         12     2.4390357     2.4880377     2.2989582


optimized geometry written to: xtbopt.xyz


           -------------------------------------------------
          | TOTAL ENERGY              -37.646839211092 Eh   |
          | GRADIENT NORM               0.000593825457 Eh/α |
          | HOMO-LUMO GAP               1.892814815719 eV   |
           -------------------------------------------------

------------------------------------------------------------------------
 * finished run on 2026/07/20 at 17:14:22.159     
------------------------------------------------------------------------
 total:
 * wall-time:     0 d,  0 h,  0 min, 14.195 sec
 *  cpu-time:     0 d,  0 h,  1 min, 49.188 sec
 * ratio c/w:     7.692 speedup
 SCF:
 * wall-time:     0 d,  0 h,  0 min,  0.592 sec
 *  cpu-time:     0 d,  0 h,  0 min,  4.480 sec
 * ratio c/w:     7.574 speedup
 ANC optimizer:
 * wall-time:     0 d,  0 h,  0 min, 13.471 sec
 *  cpu-time:     0 d,  0 h,  1 min, 43.757 sec
 * ratio c/w:     7.702 speedup

