31
Properties=species:S:1:pos:R:3 energy:=T -37.660887772609=T gnorm:=T 0.000368736267=T xtb:=T 6.5.1=T (b24c23e)=T pbc="F F F"
Zr      -1.18394974      -0.04730793       0.41181536
C       -1.04183897       1.15182380      -1.43649752
C        0.45114033      -1.90489531       0.73821530
C        0.36486954      -1.61513690      -0.64352676
C       -0.94032940      -1.96952641      -1.08216105
C       -1.65551476      -2.46368908       0.03787979
C       -0.79795645      -2.41413973       1.16164613
H        1.35764856      -1.88194597       1.33117604
H        1.19399766      -1.34069023      -1.28686098
H       -1.26090877      -2.02323942      -2.11590007
H       -2.60004671      -2.99311551      -0.00160664
H       -1.00399175      -2.86250810       2.12666673
C       -0.68054754       0.21672446       2.84024231
C       -1.88525239       0.90537551       2.56627042
C       -1.57785819       1.99349202       1.70679660
C       -0.18562074       1.95747511       1.43680790
C        0.36591586       0.85815401       2.13588033
H       -0.55417359      -0.56154703       3.58351541
H       -2.82543980       0.74898799       3.08563369
H       -2.23413614       2.81681656       1.45308079
H        0.37773232       2.72871441       0.92445312
H        1.42478917       0.65209475       2.24275682
H        0.01390937       1.21709104      -1.75479268
H       -1.59282540       0.71743698      -2.28605253
H       -1.39267703       2.18982407      -1.33186997
C       -3.16529837      -0.31960763      -0.40173435
C       -3.28123272       1.00759202      -0.33453890
H       -3.59975363       1.50467693       0.57439373
H       -3.19957773       1.62702335      -1.22099983
H       -3.42608313      -0.94413621       0.45369169
H       -3.05214202      -0.81190826      -1.36700884
