44
CpRu(eta6-sumanene)+ peripheral convex; eta6 ring atoms [19, 20, 1, 2, 3, 4]
C        2.015347      -2.464973      -0.100251
C        2.342860      -1.071599       0.397503
C        1.250449      -0.572877       1.072599
C        1.025456       0.803031       1.160115
C        1.889334       1.701878       0.573914
C        1.126681       2.969540       0.245421
C       -0.293209       2.532406       0.544322
C       -0.259454       1.291982       1.142695
C       -1.339949       0.412854       1.037483
C       -2.471210       0.760310       0.332242
C       -3.141024      -0.502810      -0.170145
C       -2.095064      -1.539962       0.185940
C       -1.118502      -0.941365       0.951350
C        0.186987      -1.438146       0.969045
C        0.536467      -2.541343       0.221610
C       -0.456639      -3.217763      -0.520272
C       -1.785517      -2.712085      -0.538283
C       -2.564221       2.050004      -0.235409
C       -1.464368       2.944881      -0.128313
C        3.053990       1.225504      -0.067046
C        3.283014      -0.175055      -0.156131
H        2.585738      -3.233352       0.462401
H        2.187490      -2.545521      -1.195074
H        1.242252       3.235022      -0.827390
H        1.435039       3.803551       0.910005
H       -4.091014      -0.692630       0.371906
H       -3.297198      -0.458433      -1.269417
H       -0.179018      -4.020783      -1.190410
H       -2.510719      -3.133494      -1.222015
H       -3.399293       2.300524      -0.876416
H       -1.469449       3.870710      -0.688501
H        3.686446       1.908733      -0.618583
H        4.088300      -0.548741      -0.774895
Ru       3.089449       0.372631       2.084191
C        4.976956       1.012705       3.090483
C        4.822512      -0.441678       3.232392
C        3.583923      -0.695885       3.981236
C        2.972944       0.601378       4.302098
C        3.833903       1.657390       3.751571
H        5.791177       1.520818       2.586577
H        5.502830      -1.194871       2.851533
H        3.190133      -1.669522       4.249777
H        2.049258       0.752847       4.848920
H        3.656840       2.724638       3.820975
