12
Properties=species:S:1:pos:R:3 pbc="F F F"
Ru       0.15950000       0.11960000       0.00000000
H       -1.61050000       0.11960000       0.00000000
C        2.00896950       1.37038478       0.00000000
C        2.00933594       0.50668486      -1.18880000
C        2.00992890      -0.89091502      -0.73470000
C        2.00992890      -0.89091502       0.73470000
C        2.00933594       0.50668486       1.18880000
H        2.00850959       2.45438468       0.00000000
H        2.00919381       0.84168483      -2.21980000
H        2.01030098      -1.76791494      -1.37190000
H        2.01030098      -1.76791494       1.37190000
H        2.00919381       0.84168483       2.21980000
