      -----------------------------------------------------------      
     |                   =====================                   |     
     |                           x T B                           |     
     |                   =====================                   |     
     |                         S. Grimme                         |     
     |          Mulliken Center for Theoretical Chemistry        |     
     |                    University of Bonn                     |     
      -----------------------------------------------------------      

   * xtb version 6.5.1 (b24c23e) compiled by 'conda@728c89f4b128' on 2022-07-12

   xtb is free software: you can redistribute it and/or modify it under
   the terms of the GNU Lesser General Public License as published by
   the Free Software Foundation, either version 3 of the License, or
   (at your option) any later version.
   
   xtb is distributed in the hope that it will be useful,
   but WITHOUT ANY WARRANTY; without even the implied warranty of
   MERCHANTABILITY or FITNESS FOR A PARTICULAR PURPOSE.  See the
   GNU Lesser General Public License for more details.
   
   Cite this work as:
   * C. Bannwarth, E. Caldeweyher, S. Ehlert, A. Hansen, P. Pracht,
     J. Seibert, S. Spicher, S. Grimme, WIREs Comput. Mol. Sci., 2020, 11,
     e01493. DOI: 10.1002/wcms.1493
   
   for GFN2-xTB:
   * C. Bannwarth, S. Ehlert and S. Grimme., J. Chem. Theory Comput., 2019,
     15, 1652-1671. DOI: 10.1021/acs.jctc.8b01176
   for GFN1-xTB:
   * S. Grimme, C. Bannwarth, P. Shushkov, J. Chem. Theory Comput., 2017,
     13, 1989-2009. DOI: 10.1021/acs.jctc.7b00118
   for GFN0-xTB:
   * P. Pracht, E. Caldeweyher, S. Ehlert, S. Grimme, ChemRxiv, 2019, preprint.
     DOI: 10.26434/chemrxiv.8326202.v1
   for GFN-FF:
   * S. Spicher and S. Grimme, Angew. Chem. Int. Ed., 2020, 59, 15665-15673.
     DOI: 10.1002/anie.202004239
   
   for ALPB and GBSA implicit solvation:
   * S. Ehlert, M. Stahn, S. Spicher, S. Grimme, J. Chem. Theory Comput.,
     2021, 17, 4250-4261. DOI: 10.1021/acs.jctc.1c00471
   
   for DFT-D4:
   * E. Caldeweyher, C. Bannwarth and S. Grimme, J. Chem. Phys., 2017,
     147, 034112. DOI: 10.1063/1.4993215
   * E. Caldeweyher, S. Ehlert, A. Hansen, H. Neugebauer, S. Spicher,
     C. Bannwarth and S. Grimme, J. Chem. Phys., 2019, 150, 154122.
     DOI: 10.1063/1.5090222
   * E. Caldeweyher, J.-M. Mewes, S. Ehlert and S. Grimme, Phys. Chem. Chem. Phys.
     2020, 22, 8499-8512. DOI: 10.1039/D0CP00502A
   
   for sTDA-xTB:
   * S. Grimme and C. Bannwarth, J. Chem. Phys., 2016, 145, 054103.
     DOI: 10.1063/1.4959605
   
   in the mass-spec context:
   * V. Asgeirsson, C. Bauer and S. Grimme, Chem. Sci., 2017, 8, 4879.
     DOI: 10.1039/c7sc00601b
   * J. Koopman and S. Grimme, ACS Omega 2019, 4, 12, 15120-15133.
     DOI: 10.1021/acsomega.9b02011
   
   for metadynamics refer to:
   * S. Grimme, J. Chem. Theory Comput., 2019, 155, 2847-2862
     DOI: 10.1021/acs.jctc.9b00143
   
   for SPH calculations refer to:
   * S. Spicher and S. Grimme, J. Chem. Theory Comput., 2021, 17, 1701-1714
     DOI: 10.1021/acs.jctc.0c01306
   
   with help from (in alphabetical order)
   P. Atkinson, C. Bannwarth, F. Bohle, G. Brandenburg, E. Caldeweyher
   M. Checinski, S. Dohm, S. Ehlert, S. Ehrlich, I. Gerasimov, C. Hölzer
   A. Katbashev, J. Koopman, C. Lavigne, S. Lehtola, F. März, M. Müller,
   F. Musil, H. Neugebauer, J. Pisarek, C. Plett, P. Pracht, F. Pultar,
   J. Seibert, P. Shushkov, S. Spicher, M. Stahn, M. Steiner, T. Strunk,
   J. Stückrath, T. Rose, and J. Unsleber
   
 * started run on 2026/07/30 at 13:23:37.309     

           -------------------------------------------------
          |                Calculation Setup                |
           -------------------------------------------------

          program call               : /h/332/chchoi/miniconda3/envs/el-agente/bin/xtb stilbene_cis_init.xyz --opt --gfn 2 -P 4 --chrg 0 --uhf 0 --input detailed_input.inp
          coordinate file            : stilbene_cis_init.xyz
          omp threads                :                     4

   ID    Z sym.   atoms
    1    6 C      1-14
    2    1 H      15-26
constraining bond 3 4 to    1.3550000 Å, actual value:    1.3549534 Å
constraining angle 1 3 4 2 to    0.0000000°, actual value:   -0.0000000°

           -------------------------------------------------
          |                 G F N 2 - x T B                 |
           -------------------------------------------------

        Reference                      10.1021/acs.jctc.8b01176
      * Hamiltonian:
        H0-scaling (s, p, d)           1.850000    2.230000    2.230000
        zeta-weighting                 0.500000
      * Dispersion:
        s8                             2.700000
        a1                             0.520000
        a2                             5.000000
        s9                             5.000000
      * Repulsion:
        kExp                           1.500000    1.000000
        rExp                           1.000000
      * Coulomb:
        alpha                          2.000000
        third order                    shell-resolved
        anisotropic                    true
        a3                             3.000000
        a5                             4.000000
        cn-shift                       1.200000
        cn-exp                         4.000000
        max-rad                        5.000000


          ...................................................
          :                      SETUP                      :
          :.................................................:
          :  # basis functions                  68          :
          :  # atomic orbitals                  68          :
          :  # shells                           40          :
          :  # electrons                        68          :
          :  max. iterations                   250          :
          :  Hamiltonian                  GFN2-xTB          :
          :  restarted?                      false          :
          :  GBSA solvation                  false          :
          :  PC potential                    false          :
          :  electronic temp.          300.0000000     K    :
          :  accuracy                    1.0000000          :
          :  -> integral cutoff          0.2500000E+02      :
          :  -> integral neglect         0.1000000E-07      :
          :  -> SCF convergence          0.1000000E-05 Eh   :
          :  -> wf. convergence          0.1000000E-03 e    :
          :  Broyden damping             0.4000000          :
          ...................................................

 iter      E             dE          RMSdq      gap      omega  full diag
   1    -36.6082187 -0.366082E+02  0.451E+00    1.90       0.0  T
   2    -36.6291233 -0.209045E-01  0.273E+00    1.90       1.0  T
   3    -36.6101414  0.189818E-01  0.836E-01    1.77       1.0  T
   4    -36.6297764 -0.196349E-01  0.347E-01    1.86       1.0  T
   5    -36.6329200 -0.314361E-02  0.541E-02    1.85       1.0  T
   6    -36.6329728 -0.528547E-04  0.316E-02    1.84       1.0  T
   7    -36.6329780 -0.514095E-05  0.948E-03    1.84       2.1  T
   8    -36.6329798 -0.182237E-05  0.179E-03    1.84      10.9  T
   9    -36.6329798 -0.329990E-07  0.946E-04    1.84      20.7  T
  10    -36.6329798 -0.619360E-08  0.527E-04    1.84      37.2  T

   *** convergence criteria satisfied after 10 iterations ***

         #    Occupation            Energy/Eh            Energy/eV
      -------------------------------------------------------------
         1        2.0000           -0.6595048             -17.9460
       ...           ...                  ...                  ...
        28        2.0000           -0.4279162             -11.6442
        29        2.0000           -0.4268502             -11.6152
        30        2.0000           -0.4156392             -11.3101
        31        2.0000           -0.4059993             -11.0478
        32        2.0000           -0.3940986             -10.7240
        33        2.0000           -0.3831853             -10.4270
        34        2.0000           -0.3385265              -9.2118 (HOMO)
        35                         -0.2707773              -7.3682 (LUMO)
        36                         -0.2270960              -6.1796
        37                         -0.2138246              -5.8185
        38                         -0.1991110              -5.4181
        39                         -0.1649033              -4.4872
       ...                                ...                  ...
        68                          0.6744198              18.3519
      -------------------------------------------------------------
                  HL-Gap            0.0677492 Eh            1.8435 eV
             Fermi-level           -0.3046519 Eh           -8.2900 eV

 SCC (total)                   0 d,  0 h,  0 min,  1.204 sec
 SCC setup                      ...        0 min,  0.025 sec (  2.091%)
 Dispersion                     ...        0 min,  0.041 sec (  3.387%)
 classical contributions        ...        0 min,  0.011 sec (  0.951%)
 integral evaluation            ...        0 min,  0.083 sec (  6.927%)
 iterations                     ...        0 min,  0.958 sec ( 79.604%)
 molecular gradient             ...        0 min,  0.084 sec (  7.017%)
 printout                       ...        0 min,  0.000 sec (  0.020%)

         :::::::::::::::::::::::::::::::::::::::::::::::::::::
         ::                     SUMMARY                     ::
         :::::::::::::::::::::::::::::::::::::::::::::::::::::
         :: total energy             -35.948054518311 Eh    ::
         :: gradient norm              0.147479146657 Eh/a0 ::
         :: HOMO-LUMO gap              1.843549939969 eV    ::
         ::.................................................::
         :: SCC energy               -36.632979827507 Eh    ::
         :: -> isotropic ES            0.004286958398 Eh    ::
         :: -> anisotropic ES          0.004621311045 Eh    ::
         :: -> anisotropic XC          0.026655184868 Eh    ::
         :: -> dispersion             -0.026840398648 Eh    ::
         :: repulsion energy           0.684864434871 Eh    ::
         :: add. restraining           0.000000007770 Eh    ::
         :: total charge               0.000000000000 e     ::
         :::::::::::::::::::::::::::::::::::::::::::::::::::::

      ----------------------------------------------------------- 
     |                   =====================                   |
     |                        A N C O P T                        |
     |                   =====================                   |
     |               Approximate Normal Coordinate               |
     |                Rational Function Optimizer                |
      ----------------------------------------------------------- 

          ...................................................
          :                      SETUP                      :
          :.................................................:
          :   optimization level            normal          :
          :   max. optcycles                   200          :
          :   ANC micro-cycles                  20          :
          :   degrees of freedom                72          :
          :.................................................:
          :   RF solver                   davidson          :
          :   write xtbopt.log                true          :
          :   linear?                        false          :
          :   energy convergence         0.5000000E-05 Eh   :
          :   grad. convergence          0.1000000E-02 Eh/α :
          :   maximium RF displ.         1.0000000          :
          :   Hlow (freq-cutoff)         0.1000000E-01      :
          :   Hmax (freq-cutoff)         5.0000000          :
          :   S6 in model hess.         20.0000000          :
          ...................................................

generating ANC from model Hessian ...
Using Lindh-Hessian (1995)
 Shifting diagonal of input Hessian by    7.7228380654163209E-003
 Lowest  eigenvalues of input Hessian
    0.000000    0.000000    0.000000    0.000000    0.000000    0.000000
    0.010000    0.010820    0.011789    0.015513    0.019062    0.023124
    0.024591    0.026607    0.029127    0.029718    0.033384    0.042162
 Highest eigenvalues
    1.925253    1.959188    1.970619    2.001281    2.613049    5.813511


........................................................................
.............................. CYCLE    1 ..............................
........................................................................
   1    -36.6329798 -0.366330E+02  0.155E-04    1.84       0.0  T
   2    -36.6329798 -0.792895E-10  0.103E-04    1.84     190.7  T
   3    -36.6329798 -0.192529E-09  0.558E-05    1.84     351.6  T
     SCC iter.                  ...        0 min,  0.292 sec
     gradient                   ...        0 min,  0.039 sec
 * total energy  :   -35.9480545 Eh     change       -0.4178716E-08 Eh
   gradient norm :     0.1474830 Eh/α   predicted     0.0000000E+00 (-100.00%)
   displ. norm   :     0.4744200 α      lambda       -0.5884425E-01
   maximum displ.:     0.2415315 α      in ANC's #43, #38, #34, ...

........................................................................
.............................. CYCLE    2 ..............................
........................................................................
   1    -36.6941337 -0.366941E+02  0.436E-01    2.34       0.0  T
   2    -36.6947870 -0.653340E-03  0.319E-01    2.32       1.0  T
   3    -36.6954093 -0.622334E-03  0.166E-01    2.33       1.0  T
   4    -36.6956420 -0.232656E-03  0.461E-02    2.31       1.0  T
   5    -36.6956520 -0.100492E-04  0.207E-02    2.31       1.0  T
   6    -36.6956585 -0.646224E-05  0.547E-03    2.31       3.6  T
   7    -36.6956589 -0.369402E-06  0.224E-03    2.31       8.8  T
   8    -36.6956589 -0.642330E-07  0.102E-03    2.31      19.2  T
   9    -36.6956590 -0.139736E-07  0.433E-04    2.31      45.2  T
  10    -36.6956590 -0.101781E-08  0.185E-04    2.31     106.0  T
     SCC iter.                  ...        0 min,  0.737 sec
     gradient                   ...        0 min,  0.119 sec
 * total energy  :   -35.9933165 Eh     change       -0.4526198E-01 Eh
   gradient norm :     0.0798787 Eh/α   predicted    -0.3604904E-01 ( -20.35%)
   displ. norm   :     0.5039478 α      lambda       -0.3449662E-01
   maximum displ.:     0.2730594 α      in ANC's #43, #5, #12, ...

........................................................................
.............................. CYCLE    3 ..............................
........................................................................
   1    -36.7349373 -0.367349E+02  0.339E-01    2.62       0.0  T
   2    -36.7352401 -0.302787E-03  0.216E-01    2.61       1.0  T
   3    -36.7353888 -0.148717E-03  0.126E-01    2.61       1.0  T
   4    -36.7355621 -0.173327E-03  0.242E-02    2.61       1.0  T
   5    -36.7355648 -0.263925E-05  0.128E-02    2.61       1.5  T
   6    -36.7355670 -0.225544E-05  0.375E-03    2.61       5.2  T
   7    -36.7355672 -0.186903E-06  0.158E-03    2.61      12.4  T
   8    -36.7355672 -0.352722E-07  0.614E-04    2.61      31.9  T
   9    -36.7355672 -0.431341E-08  0.274E-04    2.61      71.5  T
     SCC iter.                  ...        0 min,  0.506 sec
     gradient                   ...        0 min,  0.005 sec
 * total energy  :   -36.0183043 Eh     change       -0.2498784E-01 Eh
   gradient norm :     0.0363316 Eh/α   predicted    -0.2162876E-01 ( -13.44%)
   displ. norm   :     0.4949289 α      lambda       -0.1488978E-01
   maximum displ.:     0.2427765 α      in ANC's #5, #43, #12, ...

........................................................................
.............................. CYCLE    4 ..............................
........................................................................
   1    -36.7432465 -0.367432E+02  0.231E-01    2.73       0.0  T
   2    -36.7433054 -0.588922E-04  0.136E-01    2.73       1.0  T
   3    -36.7432496  0.557782E-04  0.791E-02    2.73       1.0  T
   4    -36.7433562 -0.106576E-03  0.104E-02    2.73       1.9  T
   5    -36.7433564 -0.248598E-06  0.599E-03    2.73       3.3  T
   6    -36.7433570 -0.538945E-06  0.178E-03    2.73      11.0  T
   7    -36.7433570 -0.456098E-07  0.727E-04    2.73      27.0  T
   8    -36.7433570 -0.644035E-08  0.327E-04    2.73      59.9  T
     SCC iter.                  ...        0 min,  1.025 sec
     gradient                   ...        0 min,  0.115 sec
 * total energy  :   -36.0294394 Eh     change       -0.1113508E-01 Eh
   gradient norm :     0.0210672 Eh/α   predicted    -0.9268563E-02 ( -16.76%)
   displ. norm   :     0.5243365 α      lambda       -0.7995855E-02
   maximum displ.:     0.3024863 α      in ANC's #5, #3, #43, ...

........................................................................
.............................. CYCLE    5 ..............................
........................................................................
   1    -36.7452886 -0.367453E+02  0.214E-01    2.81       0.0  T
   2    -36.7453074 -0.188216E-04  0.125E-01    2.81       1.0  T
   3    -36.7452620  0.453967E-04  0.522E-02    2.81       1.0  T
   4    -36.7453202 -0.582205E-04  0.642E-03    2.81       3.1  T
   5    -36.7453203 -0.870666E-07  0.288E-03    2.81       6.8  T
   6    -36.7453205 -0.132222E-06  0.827E-04    2.81      23.7  T
   7    -36.7453205 -0.106955E-07  0.369E-04    2.81      53.1  T
     SCC iter.                  ...        0 min,  0.952 sec
     gradient                   ...        0 min,  0.422 sec
 * total energy  :   -36.0355280 Eh     change       -0.6088546E-02 Eh
   gradient norm :     0.0138511 Eh/α   predicted    -0.5097078E-02 ( -16.28%)
   displ. norm   :     0.5568914 α      lambda       -0.4624295E-02
   maximum displ.:     0.3270308 α      in ANC's #5, #2, #3, ...

........................................................................
.............................. CYCLE    6 ..............................
........................................................................
   1    -36.7462574 -0.367463E+02  0.236E-01    2.86       0.0  T
   2    -36.7462667 -0.926244E-05  0.139E-01    2.86       1.0  T
   3    -36.7462385  0.282374E-04  0.380E-02    2.86       1.0  T
   4    -36.7462725 -0.339787E-04  0.467E-03    2.86       4.2  T
   5    -36.7462725 -0.461417E-07  0.257E-03    2.86       7.6  T
   6    -36.7462726 -0.716232E-07  0.104E-03    2.86      18.8  T
   7    -36.7462726 -0.177743E-07  0.358E-04    2.86      54.8  T
   8    -36.7462726 -0.767415E-09  0.171E-04    2.86     114.6  T
     SCC iter.                  ...        0 min,  1.026 sec
     gradient                   ...        0 min,  0.227 sec
 * total energy  :   -36.0390562 Eh     change       -0.3528212E-02 Eh
   gradient norm :     0.0103150 Eh/α   predicted    -0.3029264E-02 ( -14.14%)
   displ. norm   :     0.5564252 α      lambda       -0.2642965E-02
   maximum displ.:     0.3253338 α      in ANC's #2, #5, #3, ...

........................................................................
.............................. CYCLE    7 ..............................
........................................................................
   1    -36.7477495 -0.367477E+02  0.249E-01    2.91       0.0  T
   2    -36.7477549 -0.538653E-05  0.147E-01    2.91       1.0  T
   3    -36.7477356  0.192897E-04  0.298E-02    2.91       1.0  T
   4    -36.7477585 -0.228489E-04  0.347E-03    2.91       5.7  T
   5    -36.7477585 -0.310640E-07  0.211E-03    2.91       9.3  T
   6    -36.7477586 -0.434834E-07  0.793E-04    2.91      24.7  T
   7    -36.7477586 -0.997142E-08  0.271E-04    2.91      72.3  T
     SCC iter.                  ...        0 min,  0.959 sec
     gradient                   ...        0 min,  0.229 sec
 * total energy  :   -36.0410464 Eh     change       -0.1990171E-02 Eh
   gradient norm :     0.0094450 Eh/α   predicted    -0.1730629E-02 ( -13.04%)
   displ. norm   :     0.5110602 α      lambda       -0.1479694E-02
   maximum displ.:     0.3551774 α      in ANC's #2, #5, #3, ...

........................................................................
.............................. CYCLE    8 ..............................
........................................................................
   1    -36.7492930 -0.367493E+02  0.242E-01    2.96       0.0  T
   2    -36.7492962 -0.326979E-05  0.142E-01    2.96       1.0  T
   3    -36.7492855  0.106944E-04  0.211E-02    2.96       1.0  T
   4    -36.7492983 -0.127984E-04  0.256E-03    2.96       7.7  T
   5    -36.7492984 -0.203883E-07  0.147E-03    2.96      13.3  T
   6    -36.7492984 -0.910238E-08  0.658E-04    2.96      29.8  T
   7    -36.7492984 -0.780206E-08  0.187E-04    2.96     104.7  T
     SCC iter.                  ...        0 min,  0.809 sec
     gradient                   ...        0 min,  0.291 sec
 * total energy  :   -36.0421545 Eh     change       -0.1108154E-02 Eh
   gradient norm :     0.0083469 Eh/α   predicted    -0.9330973E-03 ( -15.80%)
   displ. norm   :     0.4077856 α      lambda       -0.8155191E-03
   maximum displ.:     0.3207167 α      in ANC's #2, #3, #5, ...

........................................................................
.............................. CYCLE    9 ..............................
........................................................................
   1    -36.7523616 -0.367524E+02  0.203E-01    3.02       0.0  T
   2    -36.7523632 -0.155792E-05  0.119E-01    3.02       1.0  T
   3    -36.7523584  0.476224E-05  0.136E-02    3.02       1.4  T
   4    -36.7523643 -0.582923E-05  0.180E-03    3.02      10.9  T
   5    -36.7523643 -0.300157E-08  0.936E-04    3.02      21.0  T
   6    -36.7523643 -0.896173E-08  0.189E-04    3.02     103.6  T
     SCC iter.                  ...        0 min,  0.933 sec
     gradient                   ...        0 min,  0.049 sec
 * total energy  :   -36.0427862 Eh     change       -0.6316485E-03 Eh
   gradient norm :     0.0092538 Eh/α   predicted    -0.4755665E-03 ( -24.71%)
   displ. norm   :     0.3428066 α      lambda       -0.5579453E-03
   maximum displ.:     0.2939561 α      in ANC's #2, #3, #5, ...

........................................................................
.............................. CYCLE   10 ..............................
........................................................................
   1    -36.7542905 -0.367543E+02  0.177E-01    3.05       0.0  T
   2    -36.7542916 -0.106830E-05  0.104E-01    3.05       1.0  T
   3    -36.7542898  0.180940E-05  0.834E-03    3.05       2.4  T
   4    -36.7542922 -0.239685E-05  0.156E-03    3.05      12.6  T
   5    -36.7542922 -0.900946E-08  0.914E-04    3.05      21.5  T
   6    -36.7542922 -0.124848E-08  0.416E-04    3.05      47.2  T
     SCC iter.                  ...        0 min,  0.707 sec
     gradient                   ...        0 min,  0.324 sec
 * total energy  :   -36.0432302 Eh     change       -0.4440132E-03 Eh
   gradient norm :     0.0063799 Eh/α   predicted    -0.3117620E-03 ( -29.79%)
   displ. norm   :     0.3122869 α      lambda       -0.4338546E-03
   maximum displ.:     0.2839600 α      in ANC's #2, #3, #5, ...

........................................................................
.............................. CYCLE   11 ..............................
........................................................................
   1    -36.7555403 -0.367555E+02  0.163E-01    3.08       0.0  T
   2    -36.7555410 -0.683833E-06  0.959E-02    3.08       1.0  T
   3    -36.7555402  0.769153E-06  0.616E-03    3.08       3.2  T
   4    -36.7555414 -0.117177E-05  0.128E-03    3.08      15.3  T
   5    -36.7555414  0.448151E-08  0.844E-04    3.08      23.2  T
   6    -36.7555414 -0.978461E-08  0.214E-04    3.08      91.6  T
     SCC iter.                  ...        0 min,  0.727 sec
     gradient                   ...        0 min,  0.330 sec
 * total energy  :   -36.0435817 Eh     change       -0.3514867E-03 Eh
   gradient norm :     0.0060276 Eh/α   predicted    -0.2381223E-03 ( -32.25%)
   displ. norm   :     0.2727371 α      lambda       -0.3121449E-03
   maximum displ.:     0.2542020 α      in ANC's #2, #3, #12, ...

........................................................................
.............................. CYCLE   12 ..............................
........................................................................
   1    -36.7556458 -0.367556E+02  0.143E-01    3.09       0.0  T
   2    -36.7556464 -0.595326E-06  0.839E-02    3.09       1.0  T
   3    -36.7556462  0.228752E-06  0.423E-03    3.09       4.6  T
   4    -36.7556467 -0.532989E-06  0.126E-03    3.09      15.5  T
   5    -36.7556467 -0.230482E-08  0.726E-04    3.09      27.0  T
   6    -36.7556467 -0.458617E-08  0.244E-04    3.09      80.5  T
     SCC iter.                  ...        0 min,  0.900 sec
     gradient                   ...        0 min,  0.336 sec
 * total energy  :   -36.0438203 Eh     change       -0.2386182E-03 Eh
   gradient norm :     0.0028661 Eh/α   predicted    -0.1676828E-03 ( -29.73%)
   displ. norm   :     0.2220326 α      lambda       -0.1671348E-03
   maximum displ.:     0.2070262 α      in ANC's #2, #3, #37, ...

........................................................................
.............................. CYCLE   13 ..............................
........................................................................
   1    -36.7553628 -0.367554E+02  0.116E-01    3.10       0.0  T
   2    -36.7553632 -0.374598E-06  0.683E-02    3.10       1.0  T
   3    -36.7553631  0.102691E-06  0.348E-03    3.10       5.6  T
   4    -36.7553634 -0.294773E-06  0.931E-04    3.10      21.1  T
   5    -36.7553634 -0.167333E-09  0.397E-04    3.10      49.4  T
     SCC iter.                  ...        0 min,  0.620 sec
     gradient                   ...        0 min,  0.364 sec
 * total energy  :   -36.0439279 Eh     change       -0.1076280E-03 Eh
   gradient norm :     0.0027453 Eh/α   predicted    -0.8769145E-04 ( -18.52%)
   displ. norm   :     0.1324262 α      lambda       -0.5952853E-04
   maximum displ.:     0.1237918 α      in ANC's #2, #12, #3, ...

........................................................................
.............................. CYCLE   14 ..............................
........................................................................
   1    -36.7556382 -0.367556E+02  0.711E-02    3.10       0.0  T
   2    -36.7556383 -0.168753E-06  0.417E-02    3.10       1.0  T
   3    -36.7556382  0.145268E-06  0.282E-03    3.10       6.9  T
   4    -36.7556384 -0.230543E-06  0.770E-04    3.10      25.5  T
   5    -36.7556384 -0.970786E-09  0.483E-04    3.10      40.6  T
     SCC iter.                  ...        0 min,  0.677 sec
     gradient                   ...        0 min,  0.366 sec
 * total energy  :   -36.0439613 Eh     change       -0.3335349E-04 Eh
   gradient norm :     0.0014514 Eh/α   predicted    -0.3028693E-04 (  -9.19%)
   displ. norm   :     0.0886949 α      lambda       -0.1371963E-04
   maximum displ.:     0.0821687 α      in ANC's #2, #31, #37, ...

........................................................................
.............................. CYCLE   15 ..............................
........................................................................
   1    -36.7560524 -0.367561E+02  0.482E-02    3.11       0.0  T
   2    -36.7560525 -0.634461E-07  0.283E-02    3.11       1.0  T
   3    -36.7560525  0.101487E-07  0.153E-03    3.11      12.8  T
   4    -36.7560525 -0.410585E-07  0.468E-04    3.11      41.9  T
   5    -36.7560525  0.353225E-09  0.276E-04    3.11      71.2  T
     SCC iter.                  ...        0 min,  0.757 sec
     gradient                   ...        0 min,  0.277 sec
 * total energy  :   -36.0439728 Eh     change       -0.1150702E-04 Eh
   gradient norm :     0.0015289 Eh/α   predicted    -0.6888964E-05 ( -40.13%)
   displ. norm   :     0.0880126 α      lambda       -0.1200616E-04
   maximum displ.:     0.0781499 α      in ANC's #2, #5, #31, ...

........................................................................
.............................. CYCLE   16 ..............................
........................................................................
   1    -36.7563645 -0.367564E+02  0.487E-02    3.11       0.0  T
   2    -36.7563646 -0.704252E-07  0.286E-02    3.11       1.0  T
   3    -36.7563645  0.136086E-06  0.240E-03    3.11       8.2  T
   4    -36.7563646 -0.173819E-06  0.394E-04    3.11      49.8  T
   5    -36.7563646 -0.500584E-09  0.230E-04    3.11      85.3  T
     SCC iter.                  ...        0 min,  0.852 sec
     gradient                   ...        0 min,  0.189 sec
 * total energy  :   -36.0439799 Eh     change       -0.7175809E-05 Eh
   gradient norm :     0.0021462 Eh/α   predicted    -0.6026315E-05 ( -16.02%)
   displ. norm   :     0.0342781 α      lambda       -0.1030115E-04
   maximum displ.:     0.0234541 α      in ANC's #2, #3, #5, ...

........................................................................
.............................. CYCLE   17 ..............................
........................................................................
   1    -36.7565369 -0.367565E+02  0.182E-02    3.12       0.0  T
   2    -36.7565369 -0.167037E-07  0.107E-02    3.12       1.8  T
   3    -36.7565369  0.335147E-07  0.128E-03    3.12      15.4  T
   4    -36.7565369 -0.420264E-07  0.239E-04    3.12      82.0  T
   5    -36.7565369 -0.966551E-10  0.150E-04    3.12     131.0  T
     SCC iter.                  ...        0 min,  1.135 sec
     gradient                   ...        0 min,  0.591 sec
 * total energy  :   -36.0439881 Eh     change       -0.8117332E-05 Eh
   gradient norm :     0.0013077 Eh/α   predicted    -0.5159929E-05 ( -36.43%)
   displ. norm   :     0.1082198 α      lambda       -0.1609583E-04
   maximum displ.:     0.0628122 α      in ANC's #3, #2, #5, ...

........................................................................
.............................. CYCLE   18 ..............................
........................................................................
   1    -36.7567371 -0.367567E+02  0.516E-02    3.13       0.0  T
   2    -36.7567372 -0.100693E-06  0.303E-02    3.13       1.0  T
   3    -36.7567371  0.118962E-06  0.258E-03    3.13       7.6  T
   4    -36.7567373 -0.169122E-06  0.577E-04    3.13      34.0  T
   5    -36.7567373 -0.626635E-09  0.233E-04    3.13      84.1  T
     SCC iter.                  ...        0 min,  1.017 sec
     gradient                   ...        0 min,  0.411 sec
 * total energy  :   -36.0439992 Eh     change       -0.1112856E-04 Eh
   gradient norm :     0.0020384 Eh/α   predicted    -0.8091623E-05 ( -27.29%)
   displ. norm   :     0.0366563 α      lambda       -0.8792593E-05
   maximum displ.:     0.0302776 α      in ANC's #3, #2, #25, ...

........................................................................
.............................. CYCLE   19 ..............................
........................................................................
   1    -36.7567208 -0.367567E+02  0.144E-02    3.13       0.0  T
   2    -36.7567208 -0.108306E-07  0.847E-03    3.13       2.3  T
   3    -36.7567208  0.440492E-07  0.130E-03    3.13      15.1  T
   4    -36.7567208 -0.518776E-07  0.187E-04    3.13     104.7  T
   5    -36.7567208 -0.585203E-10  0.134E-04    3.13     146.0  T
     SCC iter.                  ...        0 min,  0.822 sec
     gradient                   ...        0 min,  0.089 sec
 * total energy  :   -36.0440061 Eh     change       -0.6923878E-05 Eh
   gradient norm :     0.0014878 Eh/α   predicted    -0.4403998E-05 ( -36.39%)
   displ. norm   :     0.0481330 α      lambda       -0.1097076E-04
   maximum displ.:     0.0415333 α      in ANC's #3, #2, #5, ...

........................................................................
.............................. CYCLE   20 ..............................
........................................................................
   1    -36.7563595 -0.367564E+02  0.148E-02    3.13       0.0  T
   2    -36.7563595 -0.297161E-07  0.878E-03    3.13       2.2  T
   3    -36.7563594  0.140269E-06  0.209E-03    3.13       9.4  T
   4    -36.7563595 -0.161940E-06  0.247E-04    3.13      79.5  T
   5    -36.7563595 -0.320526E-09  0.140E-04    3.13     140.0  T
     SCC iter.                  ...        0 min,  1.592 sec
     gradient                   ...        0 min,  0.867 sec
 * total energy  :   -36.0440167 Eh     change       -0.1056152E-04 Eh
   gradient norm :     0.0011838 Eh/α   predicted    -0.5494242E-05 ( -47.98%)
   displ. norm   :     0.0453114 α      lambda       -0.7020013E-05
   maximum displ.:     0.0408788 α      in ANC's #3, #2, #5, ...
 * RMSD in coord.:     0.9298693 α      energy gain  -0.9596215E-01 Eh

generating ANC from model Hessian ...
Using Lindh-Hessian (1995)
 Shifting diagonal of input Hessian by    9.0711598032430733E-003
 Lowest  eigenvalues of input Hessian
    0.000000    0.000000    0.000000    0.000000    0.000000    0.000000
    0.010000    0.010280    0.010443    0.014276    0.015377    0.021315
    0.023374    0.024718    0.024930    0.029431    0.032109    0.033151
 Highest eigenvalues
    1.970953    1.999665    2.025864    2.044318    3.101728    5.809668


........................................................................
.............................. CYCLE   21 ..............................
........................................................................
   1    -36.7562454 -0.367562E+02  0.133E-02    3.13       0.0  T
   2    -36.7562454 -0.203178E-07  0.790E-03    3.13       2.5  T
   3    -36.7562453  0.923198E-07  0.171E-03    3.13      11.5  T
   4    -36.7562454 -0.107467E-06  0.241E-04    3.13      81.5  T
   5    -36.7562454 -0.983391E-11  0.152E-04    3.13     128.8  T
     SCC iter.                  ...        0 min,  1.434 sec
     gradient                   ...        0 min,  0.778 sec
 * total energy  :   -36.0440224 Eh     change       -0.5705190E-05 Eh
   gradient norm :     0.0016332 Eh/α   predicted     0.0000000E+00 (-100.00%)
   displ. norm   :     0.0264263 α      lambda       -0.6654937E-05
   maximum displ.:     0.0245963 α      in ANC's #1, #18, #14, ...

........................................................................
.............................. CYCLE   22 ..............................
........................................................................
   1    -36.7564663 -0.367565E+02  0.123E-02    3.13       0.0  T
   2    -36.7564664 -0.175921E-07  0.731E-03    3.13       2.7  T
   3    -36.7564663  0.352243E-07  0.115E-03    3.13      17.0  T
   4    -36.7564664 -0.427042E-07  0.206E-04    3.13      95.1  T
   5    -36.7564664 -0.111179E-09  0.121E-04    3.13     162.5  T
     SCC iter.                  ...        0 min,  1.541 sec
     gradient                   ...        0 min,  0.760 sec
 * total energy  :   -36.0440285 Eh     change       -0.6163737E-05 Eh
   gradient norm :     0.0004823 Eh/α   predicted    -0.3581118E-05 ( -41.90%)
   displ. norm   :     0.0257387 α      lambda       -0.3270424E-05
   maximum displ.:     0.0250701 α      in ANC's #1, #5, #3, ...

........................................................................
.............................. CYCLE   23 ..............................
........................................................................
   1    -36.7564871 -0.367565E+02  0.813E-03    3.14       0.0  T
   2    -36.7564871 -0.408238E-08  0.479E-03    3.14       4.1  T
   3    -36.7564871  0.105113E-07  0.667E-04    3.14      29.4  T
   4    -36.7564871 -0.128695E-07  0.937E-05    3.14     209.4  T
     SCC iter.                  ...        0 min,  0.918 sec
     gradient                   ...        0 min,  0.657 sec
 * total energy  :   -36.0440327 Eh     change       -0.4119295E-05 Eh
   gradient norm :     0.0007207 Eh/α   predicted    -0.1637271E-05 ( -60.25%)
   displ. norm   :     0.0245212 α      lambda       -0.2696324E-05
   maximum displ.:     0.0239472 α      in ANC's #1, #5, #3, ...

   *** GEOMETRY OPTIMIZATION CONVERGED AFTER 23 ITERATIONS ***

------------------------------------------------------------------------
 total energy gain   :        -0.0959781 Eh      -60.2272 kcal/mol
 total RMSD          :         0.9271058 a0        0.4906 Å
 total power (kW/mol):       -10.9561120 (step)   -7.3065 (real)
------------------------------------------------------------------------

 ANCopt (total)                0 d,  0 h,  0 min, 34.489 sec
 optimizer setup                ...        0 min,  0.001 sec (  0.003%)
 model hessian                  ...        0 min,  0.087 sec (  0.253%)
 ANC generation                 ...        0 min,  0.167 sec (  0.484%)
 coordinate transformation      ...        0 min,  0.000 sec (  0.001%)
 single point calculation       ...        0 min, 33.463 sec ( 97.026%)
 optimization log               ...        0 min,  0.002 sec (  0.006%)
 hessian update                 ...        0 min,  0.685 sec (  1.986%)
 rational function              ...        0 min,  0.081 sec (  0.234%)

================
 final structure:
================
26
 xtb: 6.5.1 (b24c23e)
C           -2.00519748542390        0.22391470001559       -0.10586244090606
C            0.17636009761093       -2.02790034695825        0.12200913216062
C           -0.55621253868413        0.38419947931485       -0.02840911525450
C            0.38129463781979       -0.58348382280110        0.06768235042017
C           -2.60172353383710       -0.77405696417410       -0.87620071878962
C           -0.84934145161427       -2.60458358692188        0.87082991426351
C           -2.82714674828654        1.13267175578367        0.56042000800522
C            1.06838781047561       -2.86762889577666       -0.54472039554188
C           -3.97741649077367       -0.87394004327532       -0.95172384162350
C           -0.99190195983453       -3.97751399780572        0.92499772133831
C           -4.20310822281079        1.02340524037805        0.49222322934894
C            0.91650587949578       -4.24045360422654       -0.49802531628601
C           -4.78336957497607        0.01822376898180       -0.26292292034598
C           -0.11565302872614       -4.80046169256494        0.23585428578934
H           -0.21821931458578        1.41335118879844       -0.00473655326808
H            1.42038371673295       -0.27648699073539        0.06334824602751
H           -1.97865757051620       -1.46325637950071       -1.42651158717145
H           -1.52656307420778       -1.96859516699275        1.42119824176307
H           -2.37711738750188        1.92097265413945        1.14765546995544
H            1.87752989704801       -2.43347938889131       -1.11568319808959
H           -4.42558005002489       -1.65002143551011       -1.55615336257991
H           -1.78917342856045       -4.41018051091281        1.51219952986099
H           -4.82542109213652        1.72910984096725        1.02352851444877
H            1.60978425651146       -4.87640321295831       -1.02987904829142
H           -5.85873452014845       -0.06363514339325       -0.32235219314325
H           -0.23095729304592       -5.87351262498063        0.27829208790948

 Bond Distances (Angstroems)
 ---------------------------
C1-C3=1.4599         C1-C5=1.3947         C1-C7=1.3948         C2-C4=1.4599         C2-C6=1.3948         C2-C8=1.3948         
C3-C1=1.4599         C3-C4=1.3508         C3-H15=1.0835        C4-C2=1.4599         C4-C3=1.3508         C4-H16=1.0835        
C5-C1=1.3947         C5-C9=1.3814         C5-H17=1.0798        C6-C2=1.3948         C6-C10=1.3814        C6-H18=1.0798        
C7-C1=1.3948         C7-C11=1.3820        C7-H19=1.0811        C8-C2=1.3948         C8-C12=1.3820        C8-H20=1.0813        
C9-C5=1.3814         C9-C13=1.3856        C9-H21=1.0810        C10-C6=1.3814        C10-C14=1.3856       C10-H22=1.0806       
C11-C7=1.3820        C11-C13=1.3847       C11-H23=1.0805       C12-C8=1.3820        C12-C14=1.3848       C12-H24=1.0807       
C13-C9=1.3856        C13-C11=1.3847       C13-H25=1.0801       C14-C10=1.3856       C14-C12=1.3848       C14-H26=1.0801       
H15-C3=1.0835        H16-C4=1.0835        H17-C5=1.0798        H18-C6=1.0798        H19-C7=1.0811        H20-C8=1.0813        
H21-C9=1.0810        H22-C10=1.0806       H23-C11=1.0805       H24-C12=1.0807       H25-C13=1.0801       H26-C14=1.0801       
 C  H  Rav=1.0810 sigma=0.0012  Rmin=1.0798  Rmax=1.0835    12
 C  C  Rav=1.3945 sigma=0.0277  Rmin=1.3508  Rmax=1.4599    15

 selected bond angles (degree)
 --------------------
C5-C1-C3=122.17                C7-C1-C3=119.21                C7-C1-C5=118.56                C6-C2-C4=122.16                
C8-C2-C4=119.22                C8-C2-C6=118.56                C4-C3-C1=127.88                H15-C3-C1=114.52               
H15-C3-C4=117.54               C3-C4-C2=127.88                H16-C4-C2=114.53               H16-C4-C3=117.54               
C9-C5-C1=120.52                H17-C5-C1=119.43               H17-C5-C9=120.04               C10-C6-C2=120.52               
H18-C6-C2=119.43               H18-C6-C10=120.04              C11-C7-C1=120.77               H19-C7-C1=119.29               
H19-C7-C11=119.93              C12-C8-C2=120.77               H20-C8-C2=119.29               H20-C8-C12=119.93              
C13-C9-C5=120.37               H21-C9-C5=119.69               H21-C9-C13=119.94              C14-C10-C6=120.37              
H22-C10-C6=119.70              H22-C10-C14=119.94             

 selected dihedral angles (degree)
 ---------------------------------
C4-C3-C1-C5=318.88            C4-C3-C1-C7=141.90            H15-C3-C1-C5=141.67           H15-C3-C1-C7=324.69           
C3-C4-C2-C6=318.81            C3-C4-C2-C8=141.82            H16-C4-C2-C6=141.60           H16-C4-C2-C8=324.60           
C2-C4-C3-C1=359.79            C2-C4-C3-H15=176.92           H16-C4-C3-C1=176.93           H16-C4-C3-H15=354.06          
C9-C5-C1-C3=181.64            C9-C5-C1-C7=358.64            H17-C5-C1-C3=  0.82           H17-C5-C1-C7=177.81           
C10-C6-C2-C4=181.63           C10-C6-C2-C8=358.64           H18-C6-C2-C4=  0.82           H18-C6-C2-C8=177.83           
C11-C7-C1-C3=179.01           C11-C7-C1-C5=  1.92           H19-C7-C1-C3=358.09           H19-C7-C1-C5=181.00           
C12-C8-C2-C4=179.02           C12-C8-C2-C6=  1.92           H20-C8-C2-C4=358.08           H20-C8-C2-C6=180.98           
C13-C9-C5-C1=  0.06           C13-C9-C5-H17=180.88          H21-C9-C5-C1=179.74           H21-C9-C5-H17=  0.57          
C14-C10-C6-C2=  0.05          C14-C10-C6-H18=180.87         H22-C10-C6-C2=179.78          H22-C10-C6-H18=  0.60         
           -------------------------------------------------
          |                Final Singlepoint                |
           -------------------------------------------------

          ...................................................
          :                      SETUP                      :
          :.................................................:
          :  # basis functions                  68          :
          :  # atomic orbitals                  68          :
          :  # shells                           40          :
          :  # electrons                        68          :
          :  max. iterations                   250          :
          :  Hamiltonian                  GFN2-xTB          :
          :  restarted?                      false          :
          :  GBSA solvation                  false          :
          :  PC potential                    false          :
          :  electronic temp.          300.0000000     K    :
          :  accuracy                    1.0000000          :
          :  -> integral cutoff          0.2500000E+02      :
          :  -> integral neglect         0.1000000E-07      :
          :  -> SCF convergence          0.1000000E-05 Eh   :
          :  -> wf. convergence          0.1000000E-03 e    :
          :  Broyden damping             0.4000000          :
          ...................................................

 iter      E             dE          RMSdq      gap      omega  full diag
   1    -36.7564871 -0.367565E+02  0.568E-05    3.14       0.0  T
   2    -36.7564871 -0.721911E-11  0.451E-05    3.14     435.1  T
   3    -36.7564871 -0.384759E-10  0.198E-05    3.14     992.4  T

   *** convergence criteria satisfied after 3 iterations ***

         #    Occupation            Energy/Eh            Energy/eV
      -------------------------------------------------------------
         1        2.0000           -0.6436288             -17.5140
       ...           ...                  ...                  ...
        28        2.0000           -0.4214854             -11.4692
        29        2.0000           -0.4207618             -11.4495
        30        2.0000           -0.4128595             -11.2345
        31        2.0000           -0.4039118             -10.9910
        32        2.0000           -0.4001957             -10.8899
        33        2.0000           -0.3993578             -10.8671
        34        2.0000           -0.3723282             -10.1316 (HOMO)
        35                         -0.2570870              -6.9957 (LUMO)
        36                         -0.2222036              -6.0465
        37                         -0.2168548              -5.9009
        38                         -0.2135243              -5.8103
        39                         -0.1710691              -4.6550
       ...                                ...                  ...
        68                          0.6862703              18.6744
      -------------------------------------------------------------
                  HL-Gap            0.1152413 Eh            3.1359 eV
             Fermi-level           -0.3147076 Eh           -8.5636 eV

 SCC (total)                   0 d,  0 h,  0 min,  2.278 sec
 SCC setup                      ...        0 min,  0.046 sec (  2.010%)
 Dispersion                     ...        0 min,  0.219 sec (  9.633%)
 classical contributions        ...        0 min,  0.113 sec (  4.958%)
 integral evaluation            ...        0 min,  0.228 sec ( 10.000%)
 iterations                     ...        0 min,  0.806 sec ( 35.361%)
 molecular gradient             ...        0 min,  0.866 sec ( 38.026%)
 printout                       ...        0 min,  0.000 sec (  0.009%)

         :::::::::::::::::::::::::::::::::::::::::::::::::::::
         ::                     SUMMARY                     ::
         :::::::::::::::::::::::::::::::::::::::::::::::::::::
         :: total energy             -36.044032659988 Eh    ::
         :: gradient norm              0.000720384855 Eh/a0 ::
         :: HOMO-LUMO gap              3.135874560516 eV    ::
         ::.................................................::
         :: SCC energy               -36.756487141805 Eh    ::
         :: -> isotropic ES            0.001624112722 Eh    ::
         :: -> anisotropic ES          0.004640033786 Eh    ::
         :: -> anisotropic XC          0.026086003620 Eh    ::
         :: -> dispersion             -0.026331642218 Eh    ::
         :: repulsion energy           0.712213083278 Eh    ::
         :: add. restraining           0.000070886390 Eh    ::
         :: total charge               0.000000000000 e     ::
         :::::::::::::::::::::::::::::::::::::::::::::::::::::

           -------------------------------------------------
          |                Property Printout                |
           -------------------------------------------------

    * Orbital Energies and Occupations

         #    Occupation            Energy/Eh            Energy/eV
      -------------------------------------------------------------
         1        2.0000           -0.6436288             -17.5140
       ...           ...                  ...                  ...
        22        2.0000           -0.4740910             -12.9007
        23        2.0000           -0.4715665             -12.8320
        24        2.0000           -0.4640555             -12.6276
        25        2.0000           -0.4526091             -12.3161
        26        2.0000           -0.4322577             -11.7623
        27        2.0000           -0.4254889             -11.5781
        28        2.0000           -0.4214854             -11.4692
        29        2.0000           -0.4207618             -11.4495
        30        2.0000           -0.4128595             -11.2345
        31        2.0000           -0.4039118             -10.9910
        32        2.0000           -0.4001957             -10.8899
        33        2.0000           -0.3993578             -10.8671
        34        2.0000           -0.3723282             -10.1316 (HOMO)
        35                         -0.2570870              -6.9957 (LUMO)
        36                         -0.2222036              -6.0465
        37                         -0.2168548              -5.9009
        38                         -0.2135243              -5.8103
        39                         -0.1710691              -4.6550
        40                         -0.0866734              -2.3585
        41                         -0.0786878              -2.1412
        42                          0.1049791               2.8566
        43                          0.1076106               2.9282
        44                          0.1289638               3.5093
        45                          0.1330233               3.6197
       ...                                ...                  ...
        68                          0.6862703              18.6744
      -------------------------------------------------------------
                  HL-Gap            0.1152413 Eh            3.1359 eV
             Fermi-level           -0.3147076 Eh           -8.5636 eV

     #   Z          covCN         q      C6AA      α(0)
     1   6 C        2.970     0.019    27.590     8.616
     2   6 C        2.970     0.019    27.590     8.616
     3   6 C        2.898    -0.040    28.986     8.827
     4   6 C        2.898    -0.040    28.985     8.827
     5   6 C        2.924    -0.031    28.774     8.797
     6   6 C        2.924    -0.031    28.774     8.797
     7   6 C        2.927    -0.036    28.889     8.814
     8   6 C        2.927    -0.036    28.888     8.814
     9   6 C        2.918    -0.030    28.740     8.791
    10   6 C        2.918    -0.030    28.741     8.791
    11   6 C        2.918    -0.030    28.751     8.793
    12   6 C        2.918    -0.030    28.751     8.793
    13   6 C        2.920    -0.031    28.784     8.798
    14   6 C        2.920    -0.031    28.785     8.798
    15   1 H        0.925     0.034     2.531     2.488
    16   1 H        0.925     0.034     2.531     2.488
    17   1 H        0.926     0.032     2.562     2.503
    18   1 H        0.926     0.032     2.562     2.503
    19   1 H        0.926     0.028     2.613     2.528
    20   1 H        0.925     0.028     2.614     2.528
    21   1 H        0.926     0.028     2.609     2.526
    22   1 H        0.926     0.029     2.607     2.525
    23   1 H        0.926     0.028     2.609     2.526
    24   1 H        0.926     0.028     2.610     2.526
    25   1 H        0.926     0.028     2.610     2.526
    26   1 H        0.926     0.028     2.610     2.526

 Mol. C6AA /au·bohr⁶  :       8876.357574
 Mol. C8AA /au·bohr⁸  :     220902.647541
 Mol. α(0) /au        :        153.066310


Wiberg/Mayer (AO) data.
largest (>0.10) Wiberg bond orders for each atom

 ---------------------------------------------------------------------------
     #   Z sym  total        # sym  WBO       # sym  WBO       # sym  WBO
 ---------------------------------------------------------------------------
     1   6 C    3.990 --     7 C    1.381     5 C    1.377     3 C    1.078
                            13 C    0.104
     2   6 C    3.990 --     8 C    1.381     6 C    1.377     4 C    1.078
                            14 C    0.104
     3   6 C    3.990 --     4 C    1.813     1 C    1.078    15 H    0.961
     4   6 C    3.990 --     3 C    1.813     2 C    1.078    16 H    0.961
     5   6 C    3.992 --     9 C    1.458     1 C    1.377    17 H    0.969
                            11 C    0.107
     6   6 C    3.992 --    10 C    1.458     2 C    1.377    18 H    0.969
                            12 C    0.107
     7   6 C    3.987 --    11 C    1.453     1 C    1.381    19 H    0.970
                             9 C    0.106
     8   6 C    3.987 --    12 C    1.453     2 C    1.381    20 H    0.970
                            10 C    0.106
     9   6 C    3.992 --     5 C    1.458    13 C    1.430    21 H    0.971
                             7 C    0.106
    10   6 C    3.992 --     6 C    1.458    14 C    1.430    22 H    0.971
                             8 C    0.106
    11   6 C    3.992 --     7 C    1.453    13 C    1.434    23 H    0.971
                             5 C    0.107
    12   6 C    3.992 --     8 C    1.453    14 C    1.434    24 H    0.971
                             6 C    0.107
    13   6 C    3.989 --    11 C    1.434     9 C    1.430    25 H    0.972
                             1 C    0.104
    14   6 C    3.989 --    12 C    1.434    10 C    1.430    26 H    0.972
                             2 C    0.104
    15   1 H    0.998 --     3 C    0.961
    16   1 H    0.998 --     4 C    0.961
    17   1 H    0.999 --     5 C    0.969
    18   1 H    0.999 --     6 C    0.969
    19   1 H    0.999 --     7 C    0.970
    20   1 H    0.999 --     8 C    0.970
    21   1 H    0.999 --     9 C    0.971
    22   1 H    0.999 --    10 C    0.971
    23   1 H    0.998 --    11 C    0.971
    24   1 H    0.998 --    12 C    0.971
    25   1 H    0.999 --    13 C    0.972
    26   1 H    0.999 --    14 C    0.972
 ---------------------------------------------------------------------------

Topologies differ in total number of bonds
Writing topology from bond orders to xtbtopo.mol

molecular dipole:
                 x           y           z       tot (Debye)
 q only:        0.033       0.033       0.001
   full:        0.042       0.041       0.001       0.149
molecular quadrupole (traceless):
                xx          xy          yy          xz          yz          zz
 q only:        0.632       0.189       0.600      -0.770       0.825      -1.231
  q+dip:        3.028       0.124       2.923      -3.563       3.807      -5.951
   full:        1.405       0.205       1.344      -1.734       1.854      -2.750

           -------------------------------------------------
          |                Geometry Summary                 |
           -------------------------------------------------

      molecular mass/u    :      180.2455916
   center of mass at/Å    :       -1.4597261      -1.4309386       0.0003591
  moments of inertia/u·Å² :        0.3283476E+03   0.1174356E+04   0.1366416E+04
rotational constants/cm⁻¹ :        0.5134081E-01   0.1435478E-01   0.1233712E-01

 * 25 selected distances

     #   Z          #   Z                                           value/Å
     3   6 C        4   6 C                                       1.3507644
     1   6 C        5   6 C                                       1.3947086
     2   6 C        6   6 C                                       1.3947617
     1   6 C        7   6 C                                       1.3947662
     2   6 C        8   6 C                                       1.3947710 (max)
     5   6 C        9   6 C                                       1.3813804
     6   6 C       10   6 C                                       1.3813746
     7   6 C       11   6 C                                       1.3819770
     8   6 C       12   6 C                                       1.3819901
     9   6 C       13   6 C                                       1.3856275
    11   6 C       13   6 C                                       1.3846801
    10   6 C       14   6 C                                       1.3856313
    12   6 C       14   6 C                                       1.3847529
     3   6 C       15   1 H                                       1.0834912
     4   6 C       16   1 H                                       1.0835000
     5   6 C       17   1 H                                       1.0798376
     6   6 C       18   1 H                                       1.0798222 (min)
     7   6 C       19   1 H                                       1.0811061
     8   6 C       20   1 H                                       1.0812934
     9   6 C       21   1 H                                       1.0809663
    10   6 C       22   1 H                                       1.0805778
    11   6 C       23   1 H                                       1.0805451
    12   6 C       24   1 H                                       1.0807106
    13   6 C       25   1 H                                       1.0801124
    14   6 C       26   1 H                                       1.0800623

 * 2 distinct bonds (by element types)

   Z      Z             #   av. dist./Å        max./Å        min./Å
   1 H    6 C          12     1.0810021     1.0835000     1.0798222
   6 C    6 C          13     1.3843989     1.3947710     1.3507644


optimized geometry written to: xtbopt.xyz


           -------------------------------------------------
          | TOTAL ENERGY              -36.044032659988 Eh   |
          | GRADIENT NORM               0.000720384855 Eh/α |
          | HOMO-LUMO GAP               3.135874560516 eV   |
           -------------------------------------------------

------------------------------------------------------------------------
 * finished run on 2026/07/30 at 13:24:15.594     
------------------------------------------------------------------------
 total:
 * wall-time:     0 d,  0 h,  0 min, 38.285 sec
 *  cpu-time:     0 d,  0 h,  0 min, 42.554 sec
 * ratio c/w:     1.112 speedup
 SCF:
 * wall-time:     0 d,  0 h,  0 min,  1.204 sec
 *  cpu-time:     0 d,  0 h,  0 min,  2.940 sec
 * ratio c/w:     2.442 speedup
 ANC optimizer:
 * wall-time:     0 d,  0 h,  0 min, 36.823 sec
 *  cpu-time:     0 d,  0 h,  0 min, 39.283 sec
 * ratio c/w:     1.067 speedup

