      -----------------------------------------------------------      
     |                   =====================                   |     
     |                           x T B                           |     
     |                   =====================                   |     
     |                         S. Grimme                         |     
     |          Mulliken Center for Theoretical Chemistry        |     
     |                    University of Bonn                     |     
      -----------------------------------------------------------      

   * xtb version 6.5.1 (b24c23e) compiled by 'conda@728c89f4b128' on 2022-07-12

   xtb is free software: you can redistribute it and/or modify it under
   the terms of the GNU Lesser General Public License as published by
   the Free Software Foundation, either version 3 of the License, or
   (at your option) any later version.
   
   xtb is distributed in the hope that it will be useful,
   but WITHOUT ANY WARRANTY; without even the implied warranty of
   MERCHANTABILITY or FITNESS FOR A PARTICULAR PURPOSE.  See the
   GNU Lesser General Public License for more details.
   
   Cite this work as:
   * C. Bannwarth, E. Caldeweyher, S. Ehlert, A. Hansen, P. Pracht,
     J. Seibert, S. Spicher, S. Grimme, WIREs Comput. Mol. Sci., 2020, 11,
     e01493. DOI: 10.1002/wcms.1493
   
   for GFN2-xTB:
   * C. Bannwarth, S. Ehlert and S. Grimme., J. Chem. Theory Comput., 2019,
     15, 1652-1671. DOI: 10.1021/acs.jctc.8b01176
   for GFN1-xTB:
   * S. Grimme, C. Bannwarth, P. Shushkov, J. Chem. Theory Comput., 2017,
     13, 1989-2009. DOI: 10.1021/acs.jctc.7b00118
   for GFN0-xTB:
   * P. Pracht, E. Caldeweyher, S. Ehlert, S. Grimme, ChemRxiv, 2019, preprint.
     DOI: 10.26434/chemrxiv.8326202.v1
   for GFN-FF:
   * S. Spicher and S. Grimme, Angew. Chem. Int. Ed., 2020, 59, 15665-15673.
     DOI: 10.1002/anie.202004239
   
   for ALPB and GBSA implicit solvation:
   * S. Ehlert, M. Stahn, S. Spicher, S. Grimme, J. Chem. Theory Comput.,
     2021, 17, 4250-4261. DOI: 10.1021/acs.jctc.1c00471
   
   for DFT-D4:
   * E. Caldeweyher, C. Bannwarth and S. Grimme, J. Chem. Phys., 2017,
     147, 034112. DOI: 10.1063/1.4993215
   * E. Caldeweyher, S. Ehlert, A. Hansen, H. Neugebauer, S. Spicher,
     C. Bannwarth and S. Grimme, J. Chem. Phys., 2019, 150, 154122.
     DOI: 10.1063/1.5090222
   * E. Caldeweyher, J.-M. Mewes, S. Ehlert and S. Grimme, Phys. Chem. Chem. Phys.
     2020, 22, 8499-8512. DOI: 10.1039/D0CP00502A
   
   for sTDA-xTB:
   * S. Grimme and C. Bannwarth, J. Chem. Phys., 2016, 145, 054103.
     DOI: 10.1063/1.4959605
   
   in the mass-spec context:
   * V. Asgeirsson, C. Bauer and S. Grimme, Chem. Sci., 2017, 8, 4879.
     DOI: 10.1039/c7sc00601b
   * J. Koopman and S. Grimme, ACS Omega 2019, 4, 12, 15120-15133.
     DOI: 10.1021/acsomega.9b02011
   
   for metadynamics refer to:
   * S. Grimme, J. Chem. Theory Comput., 2019, 155, 2847-2862
     DOI: 10.1021/acs.jctc.9b00143
   
   for SPH calculations refer to:
   * S. Spicher and S. Grimme, J. Chem. Theory Comput., 2021, 17, 1701-1714
     DOI: 10.1021/acs.jctc.0c01306
   
   with help from (in alphabetical order)
   P. Atkinson, C. Bannwarth, F. Bohle, G. Brandenburg, E. Caldeweyher
   M. Checinski, S. Dohm, S. Ehlert, S. Ehrlich, I. Gerasimov, C. Hölzer
   A. Katbashev, J. Koopman, C. Lavigne, S. Lehtola, F. März, M. Müller,
   F. Musil, H. Neugebauer, J. Pisarek, C. Plett, P. Pracht, F. Pultar,
   J. Seibert, P. Shushkov, S. Spicher, M. Stahn, M. Steiner, T. Strunk,
   J. Stückrath, T. Rose, and J. Unsleber
   
 * started run on 2026/07/30 at 13:23:37.312     

           -------------------------------------------------
          |                Calculation Setup                |
           -------------------------------------------------

          program call               : /h/332/chchoi/miniconda3/envs/el-agente/bin/xtb stilbene_twist90_init.xyz --opt --gfn 2 -P 4 --chrg 0 --uhf 0 --input detailed_input.inp
          coordinate file            : stilbene_twist90_init.xyz
          omp threads                :                     4

   ID    Z sym.   atoms
    1    6 C      1-14
    2    1 H      15-26
constraining bond 3 4 to    1.3550000 Å, actual value:    1.3549534 Å
constraining angle 1 3 4 2 to   90.0000000°, actual value:   90.0000000°

           -------------------------------------------------
          |                 G F N 2 - x T B                 |
           -------------------------------------------------

        Reference                      10.1021/acs.jctc.8b01176
      * Hamiltonian:
        H0-scaling (s, p, d)           1.850000    2.230000    2.230000
        zeta-weighting                 0.500000
      * Dispersion:
        s8                             2.700000
        a1                             0.520000
        a2                             5.000000
        s9                             5.000000
      * Repulsion:
        kExp                           1.500000    1.000000
        rExp                           1.000000
      * Coulomb:
        alpha                          2.000000
        third order                    shell-resolved
        anisotropic                    true
        a3                             3.000000
        a5                             4.000000
        cn-shift                       1.200000
        cn-exp                         4.000000
        max-rad                        5.000000


          ...................................................
          :                      SETUP                      :
          :.................................................:
          :  # basis functions                  68          :
          :  # atomic orbitals                  68          :
          :  # shells                           40          :
          :  # electrons                        68          :
          :  max. iterations                   250          :
          :  Hamiltonian                  GFN2-xTB          :
          :  restarted?                      false          :
          :  GBSA solvation                  false          :
          :  PC potential                    false          :
          :  electronic temp.          300.0000000     K    :
          :  accuracy                    1.0000000          :
          :  -> integral cutoff          0.2500000E+02      :
          :  -> integral neglect         0.1000000E-07      :
          :  -> SCF convergence          0.1000000E-05 Eh   :
          :  -> wf. convergence          0.1000000E-03 e    :
          :  Broyden damping             0.4000000          :
          ...................................................

 iter      E             dE          RMSdq      gap      omega  full diag
   1    -36.6042673 -0.366043E+02  0.442E+00    0.05       0.0  T
   2    -36.5135077  0.907596E-01  0.343E+00    0.19       1.0  T
   3    -36.3490647  0.164443E+00  0.427E+00    1.86       1.0  T
   4    -36.4648398 -0.115775E+00  0.307E+00    0.87       1.0  T
   5    -36.5534531 -0.886133E-01  0.208E+00    0.12       1.0  T
   6    -36.5189194  0.345336E-01  0.235E+00    0.18       1.0  T
   7    -36.5464446 -0.275251E-01  0.209E+00    0.13       1.0  T
   8    -36.6270220 -0.805775E-01  0.369E-01    0.04       1.0  T
   9    -36.6287162 -0.169421E-02  0.217E-01    0.03       1.0  T
  10    -36.6295594 -0.843139E-03  0.270E-02    0.03       1.0  T
  11    -36.6295688 -0.945869E-05  0.273E-02    0.03       1.0  T
  12    -36.6295745 -0.564929E-05  0.200E-02    0.03       1.0  T
  13    -36.6295510  0.234218E-04  0.400E-02    0.03       1.0  T
  14    -36.6295706 -0.195518E-04  0.244E-02    0.03       1.0  T
  15    -36.6295802 -0.964655E-05  0.975E-03    0.03       2.0  T
  16    -36.6295820 -0.171958E-05  0.237E-03    0.03       8.3  T
  17    -36.6295821 -0.923086E-07  0.915E-04    0.03      21.4  T
  18    -36.6295821 -0.149502E-07  0.236E-04    0.03      83.0  T

   *** convergence criteria satisfied after 18 iterations ***

         #    Occupation            Energy/Eh            Energy/eV
      -------------------------------------------------------------
         1        2.0000           -0.6424130             -17.4809
       ...           ...                  ...                  ...
        28        2.0000           -0.4219487             -11.4818
        29        2.0000           -0.4194602             -11.4141
        30        2.0000           -0.4091495             -11.1335
        31        2.0000           -0.4076205             -11.0919
        32        2.0000           -0.4004224             -10.8960
        33        2.0000           -0.3993624             -10.8672
        34        1.2778           -0.3148940              -8.5687 (HOMO)
        35        0.7222           -0.3138100              -8.5392 (LUMO)
        36                         -0.2233141              -6.0767
        37                         -0.2219615              -6.0399
        38                         -0.2006262              -5.4593
        39                         -0.1982469              -5.3946
       ...                                ...                  ...
        68                          0.6686886              18.1959
      -------------------------------------------------------------
                  HL-Gap            0.0010841 Eh            0.0295 eV
             Fermi-level           -0.3143520 Eh           -8.5540 eV

 SCC (total)                   0 d,  0 h,  0 min,  1.729 sec
 SCC setup                      ...        0 min,  0.011 sec (  0.620%)
 Dispersion                     ...        0 min,  0.021 sec (  1.189%)
 classical contributions        ...        0 min,  0.014 sec (  0.785%)
 integral evaluation            ...        0 min,  0.036 sec (  2.093%)
 iterations                     ...        0 min,  1.374 sec ( 79.489%)
 molecular gradient             ...        0 min,  0.273 sec ( 15.805%)
 printout                       ...        0 min,  0.000 sec (  0.015%)

         :::::::::::::::::::::::::::::::::::::::::::::::::::::
         ::                     SUMMARY                     ::
         :::::::::::::::::::::::::::::::::::::::::::::::::::::
         :: total energy             -35.946938477395 Eh    ::
         :: gradient norm              0.139908791991 Eh/a0 ::
         :: HOMO-LUMO gap              0.029498606404 eV    ::
         ::.................................................::
         :: SCC energy               -36.629582073879 Eh    ::
         :: -> isotropic ES            0.001947760269 Eh    ::
         :: -> anisotropic ES          0.004705887677 Eh    ::
         :: -> anisotropic XC          0.026643676223 Eh    ::
         :: -> dispersion             -0.025296749808 Eh    ::
         :: repulsion energy           0.682645323323 Eh    ::
         :: add. restraining           0.000000007770 Eh    ::
         :: total charge               0.000000000000 e     ::
         :::::::::::::::::::::::::::::::::::::::::::::::::::::

      ----------------------------------------------------------- 
     |                   =====================                   |
     |                        A N C O P T                        |
     |                   =====================                   |
     |               Approximate Normal Coordinate               |
     |                Rational Function Optimizer                |
      ----------------------------------------------------------- 

          ...................................................
          :                      SETUP                      :
          :.................................................:
          :   optimization level            normal          :
          :   max. optcycles                   200          :
          :   ANC micro-cycles                  20          :
          :   degrees of freedom                72          :
          :.................................................:
          :   RF solver                   davidson          :
          :   write xtbopt.log                true          :
          :   linear?                        false          :
          :   energy convergence         0.5000000E-05 Eh   :
          :   grad. convergence          0.1000000E-02 Eh/α :
          :   maximium RF displ.         1.0000000          :
          :   Hlow (freq-cutoff)         0.1000000E-01      :
          :   Hmax (freq-cutoff)         5.0000000          :
          :   S6 in model hess.         20.0000000          :
          ...................................................

generating ANC from model Hessian ...
Using Lindh-Hessian (1995)
 Shifting diagonal of input Hessian by    8.8997999393632954E-003
 Lowest  eigenvalues of input Hessian
    0.000000    0.000000    0.000000    0.000000    0.000000    0.000000
    0.010000    0.010040    0.010373    0.014658    0.015959    0.017420
    0.023126    0.023245    0.025516    0.028309    0.030940    0.032072
 Highest eigenvalues
    1.901688    1.947239    1.968300    1.976056    2.139849    5.814046


........................................................................
.............................. CYCLE    1 ..............................
........................................................................
   1    -36.6295821 -0.366296E+02  0.117E-04    0.03       0.0  T
   2    -36.6295819  0.144098E-06  0.270E-03    0.03       7.3  T
   3    -36.6295821 -0.144321E-06  0.461E-05    0.03     425.8  T
   4    -36.6295821 -0.280949E-10  0.250E-05    0.03     784.2  T
     SCC iter.                  ...        0 min,  0.492 sec
     gradient                   ...        0 min,  0.216 sec
 * total energy  :   -35.9469385 Eh     change       -0.1058041E-08 Eh
   gradient norm :     0.1399090 Eh/α   predicted     0.0000000E+00 (-100.00%)
   displ. norm   :     0.3754933 α      lambda       -0.1456116E-01
   maximum displ.:     0.2350034 α      in ANC's #14, #9, #16, ...

........................................................................
.............................. CYCLE    2 ..............................
........................................................................
   1    -36.6673377 -0.366673E+02  0.504E-01    0.47       0.0  T
   2    -36.6670021  0.335630E-03  0.326E-01    0.47       1.0  T
   3    -36.6390137  0.279884E-01  0.114E+00    0.51       1.0  T
   4    -36.6673465 -0.283328E-01  0.435E-02    0.46       1.0  T
   5    -36.6673802 -0.336947E-04  0.110E-02    0.46       1.8  T
   6    -36.6673810 -0.772217E-06  0.606E-03    0.46       3.2  T
   7    -36.6673814 -0.427718E-06  0.237E-03    0.46       8.3  T
   8    -36.6673815 -0.885933E-07  0.158E-03    0.46      12.4  T
   9    -36.6673816 -0.512918E-07  0.236E-04    0.46      83.1  T
  10    -36.6673816 -0.376147E-09  0.950E-05    0.46     206.3  T
     SCC iter.                  ...        0 min,  0.795 sec
     gradient                   ...        0 min,  0.386 sec
 * total energy  :   -35.9674901 Eh     change       -0.2055158E-01 Eh
   gradient norm :     0.0636940 Eh/α   predicted    -0.8309797E-02 ( -59.57%)
   displ. norm   :     0.6362432 α      lambda       -0.3017510E-01
   maximum displ.:     0.4224807 α      in ANC's #14, #16, #9, ...

........................................................................
.............................. CYCLE    3 ..............................
........................................................................
   1    -36.6829763 -0.366830E+02  0.533E-01    1.19       0.0  T
   2    -36.6830197 -0.434196E-04  0.316E-01    1.19       1.0  T
   3    -36.6829830  0.367840E-04  0.431E-02    1.19       1.0  T
   4    -36.6830237 -0.407139E-04  0.226E-02    1.19       1.0  T
   5    -36.6830240 -0.367681E-06  0.201E-02    1.19       1.0  T
   6    -36.6830331 -0.908884E-05  0.330E-03    1.19       5.9  T
   7    -36.6830332 -0.462854E-07  0.118E-03    1.19      16.6  T
   8    -36.6830332 -0.221426E-07  0.409E-04    1.19      48.0  T
   9    -36.6830332 -0.994135E-09  0.227E-04    1.19      86.6  T
     SCC iter.                  ...        0 min,  1.364 sec
     gradient                   ...        0 min,  0.320 sec
 * total energy  :   -35.9877326 Eh     change       -0.2024258E-01 Eh
   gradient norm :     0.0667722 Eh/α   predicted    -0.2119933E-01 (   4.73%)
   displ. norm   :     0.4063902 α      lambda       -0.1130893E-01
   maximum displ.:     0.2414788 α      in ANC's #14, #9, #12, ...

........................................................................
.............................. CYCLE    4 ..............................
........................................................................
   1    -36.6970247 -0.366970E+02  0.331E-01    1.54       0.0  T
   2    -36.6970379 -0.132453E-04  0.194E-01    1.54       1.0  T
   3    -36.6969450  0.929782E-04  0.563E-02    1.54       1.0  T
   4    -36.6970497 -0.104734E-03  0.798E-03    1.54       2.5  T
   5    -36.6970504 -0.672374E-06  0.551E-03    1.54       3.6  T
   6    -36.6970509 -0.492681E-06  0.216E-03    1.54       9.1  T
   7    -36.6970509 -0.567078E-07  0.623E-04    1.54      31.5  T
   8    -36.6970509 -0.126288E-08  0.279E-04    1.54      70.2  T
     SCC iter.                  ...        0 min,  1.066 sec
     gradient                   ...        0 min,  0.303 sec
 * total energy  :   -35.9960672 Eh     change       -0.8334542E-02 Eh
   gradient norm :     0.0696032 Eh/α   predicted    -0.6588372E-02 ( -20.95%)
   displ. norm   :     0.3649659 α      lambda       -0.1087886E-01
   maximum displ.:     0.1908006 α      in ANC's #9, #14, #11, ...

........................................................................
.............................. CYCLE    5 ..............................
........................................................................
   1    -36.7144056 -0.367144E+02  0.308E-01    1.81       0.0  T
   2    -36.7144378 -0.322139E-04  0.179E-01    1.81       1.0  T
   3    -36.7143168  0.121018E-03  0.687E-02    1.81       1.0  T
   4    -36.7144577 -0.140858E-03  0.112E-02    1.82       1.8  T
   5    -36.7144596 -0.192151E-05  0.594E-03    1.82       3.3  T
   6    -36.7144602 -0.585389E-06  0.273E-03    1.82       7.2  T
   7    -36.7144603 -0.917476E-07  0.792E-04    1.82      24.8  T
   8    -36.7144603 -0.516174E-09  0.379E-04    1.82      51.7  T
     SCC iter.                  ...        0 min,  1.156 sec
     gradient                   ...        0 min,  0.128 sec
 * total energy  :   -36.0038516 Eh     change       -0.7784431E-02 Eh
   gradient norm :     0.0540069 Eh/α   predicted    -0.6163953E-02 ( -20.82%)
   displ. norm   :     0.3435253 α      lambda       -0.5197122E-02
   maximum displ.:     0.2128991 α      in ANC's #9, #14, #3, ...

........................................................................
.............................. CYCLE    6 ..............................
........................................................................
   1    -36.7172485 -0.367172E+02  0.290E-01    2.01       0.0  T
   2    -36.7172662 -0.176503E-04  0.169E-01    2.02       1.0  T
   3    -36.7172106  0.555497E-04  0.492E-02    2.02       1.0  T
   4    -36.7172730 -0.623802E-04  0.105E-02    2.02       1.9  T
   5    -36.7172751 -0.215557E-05  0.354E-03    2.02       5.5  T
   6    -36.7172753 -0.166039E-06  0.219E-03    2.02       9.0  T
   7    -36.7172754 -0.433134E-07  0.465E-04    2.02      42.2  T
   8    -36.7172754 -0.105945E-08  0.229E-04    2.02      85.5  T
     SCC iter.                  ...        0 min,  0.925 sec
     gradient                   ...        0 min,  0.190 sec
 * total energy  :   -36.0070345 Eh     change       -0.3182897E-02 Eh
   gradient norm :     0.0163163 Eh/α   predicted    -0.2905213E-02 (  -8.72%)
   displ. norm   :     0.3261517 α      lambda       -0.2241737E-02
   maximum displ.:     0.1462324 α      in ANC's #9, #6, #4, ...

........................................................................
.............................. CYCLE    7 ..............................
........................................................................
   1    -36.7152884 -0.367153E+02  0.245E-01    2.13       0.0  T
   2    -36.7153005 -0.121315E-04  0.148E-01    2.13       1.0  T
   3    -36.7151887  0.111893E-03  0.713E-02    2.13       1.0  T
   4    -36.7153084 -0.119780E-03  0.183E-02    2.13       1.1  T
   5    -36.7153133 -0.481532E-05  0.686E-03    2.13       2.9  T
   6    -36.7153134 -0.174029E-06  0.261E-03    2.13       7.5  T
   7    -36.7153135 -0.862438E-07  0.853E-04    2.13      23.0  T
   8    -36.7153135 -0.561165E-08  0.373E-04    2.13      52.6  T
     SCC iter.                  ...        0 min,  1.090 sec
     gradient                   ...        0 min,  0.330 sec
 * total energy  :   -36.0054074 Eh     change        0.1627128E-02 Eh
   gradient norm :     0.0508697 Eh/α   predicted    -0.1240110E-02 (-176.21%)
   displ. norm   :     0.1700579 α      lambda       -0.4809496E-02
   maximum displ.:     0.0995291 α      in ANC's #6, #15, #5, ...

........................................................................
.............................. CYCLE    8 ..............................
........................................................................
   1    -36.7162208 -0.367162E+02  0.143E-01    2.12       0.0  T
   2    -36.7162263 -0.546696E-05  0.881E-02    2.12       1.0  T
   3    -36.7161588  0.674642E-04  0.579E-02    2.12       1.0  T
   4    -36.7162335 -0.746720E-04  0.140E-02    2.12       1.4  T
   5    -36.7162361 -0.260850E-05  0.555E-03    2.12       3.5  T
   6    -36.7162363 -0.184391E-06  0.159E-03    2.12      12.3  T
   7    -36.7162363 -0.275639E-07  0.651E-04    2.12      30.1  T
   8    -36.7162363 -0.334069E-08  0.281E-04    2.12      69.7  T
     SCC iter.                  ...        0 min,  0.958 sec
     gradient                   ...        0 min,  0.247 sec
 * total energy  :   -36.0077716 Eh     change       -0.2364244E-02 Eh
   gradient norm :     0.0041288 Eh/α   predicted    -0.2474294E-02 (   4.65%)
   displ. norm   :     0.0840155 α      lambda       -0.1183732E-03
   maximum displ.:     0.0599587 α      in ANC's #4, #3, #1, ...

........................................................................
.............................. CYCLE    9 ..............................
........................................................................
   1    -36.7168810 -0.367169E+02  0.259E-02    2.11       0.0  T
   2    -36.7168811 -0.680604E-07  0.154E-02    2.11       1.3  T
   3    -36.7168796  0.147806E-05  0.803E-03    2.11       2.4  T
   4    -36.7168812 -0.159452E-05  0.844E-04    2.11      23.2  T
   5    -36.7168812 -0.102792E-07  0.455E-04    2.11      43.1  T
   6    -36.7168812 -0.311299E-08  0.144E-04    2.11     135.7  T
     SCC iter.                  ...        0 min,  0.817 sec
     gradient                   ...        0 min,  0.311 sec
 * total energy  :   -36.0078673 Eh     change       -0.9566893E-04 Eh
   gradient norm :     0.0035395 Eh/α   predicted    -0.5960527E-04 ( -37.70%)
   displ. norm   :     0.2287940 α      lambda       -0.2403433E-03
   maximum displ.:     0.1698960 α      in ANC's #4, #3, #1, ...

........................................................................
.............................. CYCLE   10 ..............................
........................................................................
   1    -36.7160027 -0.367160E+02  0.690E-02    2.12       0.0  T
   2    -36.7160029 -0.183350E-06  0.408E-02    2.12       1.0  T
   3    -36.7159998  0.315454E-05  0.119E-02    2.12       1.7  T
   4    -36.7160032 -0.340258E-05  0.137E-03    2.12      14.4  T
   5    -36.7160032 -0.201859E-07  0.681E-04    2.12      28.8  T
   6    -36.7160032 -0.361033E-08  0.236E-04    2.12      83.1  T
     SCC iter.                  ...        0 min,  0.732 sec
     gradient                   ...        0 min,  0.336 sec
 * total energy  :   -36.0080068 Eh     change       -0.1394596E-03 Eh
   gradient norm :     0.0033121 Eh/α   predicted    -0.1264643E-03 (  -9.32%)
   displ. norm   :     0.1045270 α      lambda       -0.5721227E-04
   maximum displ.:     0.0764309 α      in ANC's #3, #4, #1, ...

........................................................................
.............................. CYCLE   11 ..............................
........................................................................
   1    -36.7165764 -0.367166E+02  0.243E-02    2.11       0.0  T
   2    -36.7165764 -0.298936E-07  0.143E-02    2.11       1.4  T
   3    -36.7165744  0.203387E-05  0.990E-03    2.11       2.0  T
   4    -36.7165766 -0.222675E-05  0.932E-04    2.11      21.0  T
   5    -36.7165766 -0.148962E-07  0.420E-04    2.11      46.6  T
   6    -36.7165766 -0.207274E-08  0.149E-04    2.11     131.8  T
     SCC iter.                  ...        0 min,  0.755 sec
     gradient                   ...        0 min,  0.309 sec
 * total energy  :   -36.0080431 Eh     change       -0.3631819E-04 Eh
   gradient norm :     0.0025534 Eh/α   predicted    -0.2892191E-04 ( -20.37%)
   displ. norm   :     0.0529931 α      lambda       -0.2050738E-04
   maximum displ.:     0.0449035 α      in ANC's #3, #1, #4, ...

........................................................................
.............................. CYCLE   12 ..............................
........................................................................
   1    -36.7167038 -0.367167E+02  0.139E-02    2.12       0.0  T
   2    -36.7167038 -0.179972E-07  0.813E-03    2.12       2.4  T
   3    -36.7167037  0.105789E-06  0.208E-03    2.12       9.4  T
   4    -36.7167038 -0.115928E-06  0.452E-04    2.12      43.3  T
   5    -36.7167038 -0.420821E-08  0.138E-04    2.12     142.3  T
     SCC iter.                  ...        0 min,  0.564 sec
     gradient                   ...        0 min,  0.345 sec
 * total energy  :   -36.0080601 Eh     change       -0.1701051E-04 Eh
   gradient norm :     0.0012353 Eh/α   predicted    -0.1028511E-04 ( -39.54%)
   displ. norm   :     0.0802776 α      lambda       -0.1974664E-04
   maximum displ.:     0.0648654 α      in ANC's #3, #1, #4, ...

........................................................................
.............................. CYCLE   13 ..............................
........................................................................
   1    -36.7168247 -0.367168E+02  0.326E-02    2.12       0.0  T
   2    -36.7168248 -0.416834E-07  0.191E-02    2.12       1.0  T
   3    -36.7168241  0.630879E-06  0.509E-03    2.12       3.9  T
   4    -36.7168248 -0.679920E-06  0.758E-04    2.12      25.9  T
   5    -36.7168248 -0.142049E-07  0.230E-04    2.12      85.2  T
     SCC iter.                  ...        0 min,  0.494 sec
     gradient                   ...        0 min,  0.323 sec
 * total energy  :   -36.0080810 Eh     change       -0.2090065E-04 Eh
   gradient norm :     0.0015515 Eh/α   predicted    -0.9902787E-05 ( -52.62%)
   displ. norm   :     0.0635190 α      lambda       -0.1018583E-04
   maximum displ.:     0.0501763 α      in ANC's #3, #1, #4, ...

........................................................................
.............................. CYCLE   14 ..............................
........................................................................
   1    -36.7166893 -0.367167E+02  0.245E-02    2.12       0.0  T
   2    -36.7166893 -0.201298E-07  0.144E-02    2.12       1.4  T
   3    -36.7166892  0.986811E-07  0.197E-03    2.12       9.9  T
   4    -36.7166893 -0.111926E-06  0.403E-04    2.12      48.7  T
   5    -36.7166893 -0.276793E-08  0.179E-04    2.12     109.7  T
     SCC iter.                  ...        0 min,  0.920 sec
     gradient                   ...        0 min,  0.535 sec
 * total energy  :   -36.0080941 Eh     change       -0.1310435E-04 Eh
   gradient norm :     0.0013880 Eh/α   predicted    -0.5106454E-05 ( -61.03%)
   displ. norm   :     0.0747437 α      lambda       -0.1076096E-04
   maximum displ.:     0.0555732 α      in ANC's #3, #1, #4, ...

........................................................................
.............................. CYCLE   15 ..............................
........................................................................
   1    -36.7167356 -0.367167E+02  0.300E-02    2.12       0.0  T
   2    -36.7167357 -0.316710E-07  0.176E-02    2.12       1.1  T
   3    -36.7167354  0.238226E-06  0.321E-03    2.12       6.1  T
   4    -36.7167357 -0.260846E-06  0.538E-04    2.12      36.5  T
   5    -36.7167357 -0.552384E-08  0.213E-04    2.12      92.2  T
     SCC iter.                  ...        0 min,  1.137 sec
     gradient                   ...        0 min,  0.534 sec
 * total energy  :   -36.0081067 Eh     change       -0.1258459E-04 Eh
   gradient norm :     0.0007037 Eh/α   predicted    -0.5394919E-05 ( -57.13%)
   displ. norm   :     0.0752995 α      lambda       -0.7086494E-05
   maximum displ.:     0.0554679 α      in ANC's #3, #1, #2, ...

........................................................................
.............................. CYCLE   16 ..............................
........................................................................
   1    -36.7166939 -0.367167E+02  0.280E-02    2.13       0.0  T
   2    -36.7166939 -0.289478E-07  0.165E-02    2.13       1.2  T
   3    -36.7166937  0.196273E-06  0.291E-03    2.13       6.7  T
   4    -36.7166939 -0.216052E-06  0.540E-04    2.13      36.3  T
   5    -36.7166939 -0.567962E-08  0.217E-04    2.13      90.2  T
     SCC iter.                  ...        0 min,  1.126 sec
     gradient                   ...        0 min,  0.535 sec
 * total energy  :   -36.0081137 Eh     change       -0.7015049E-05 Eh
   gradient norm :     0.0004195 Eh/α   predicted    -0.3554584E-05 ( -49.33%)
   displ. norm   :     0.0484313 α      lambda       -0.2521308E-05
   maximum displ.:     0.0352834 α      in ANC's #3, #1, #2, ...

........................................................................
.............................. CYCLE   17 ..............................
........................................................................
   1    -36.7166440 -0.367166E+02  0.157E-02    2.13       0.0  T
   2    -36.7166440 -0.691815E-08  0.926E-03    2.13       2.1  T
   3    -36.7166438  0.228194E-06  0.309E-03    2.13       6.3  T
   4    -36.7166440 -0.244291E-06  0.349E-04    2.13      56.1  T
   5    -36.7166440 -0.268795E-08  0.137E-04    2.13     143.0  T
     SCC iter.                  ...        0 min,  1.465 sec
     gradient                   ...        0 min,  0.726 sec
 * total energy  :   -36.0081162 Eh     change       -0.2472854E-05 Eh
   gradient norm :     0.0003735 Eh/α   predicted    -0.1263965E-05 ( -48.89%)
   displ. norm   :     0.0299971 α      lambda       -0.8277690E-06
   maximum displ.:     0.0209184 α      in ANC's #3, #1, #4, ...

   *** GEOMETRY OPTIMIZATION CONVERGED AFTER 17 ITERATIONS ***

------------------------------------------------------------------------
 total energy gain   :        -0.0611777 Eh      -38.3896 kcal/mol
 total RMSD          :         0.4617340 a0        0.2443 Å
 total power (kW/mol):        -9.4483515 (step)   -6.0877 (real)
------------------------------------------------------------------------

 ANCopt (total)                0 d,  0 h,  0 min, 26.385 sec
 optimizer setup                ...        0 min,  0.001 sec (  0.002%)
 model hessian                  ...        0 min,  0.014 sec (  0.053%)
 ANC generation                 ...        0 min,  0.002 sec (  0.007%)
 coordinate transformation      ...        0 min,  0.000 sec (  0.001%)
 single point calculation       ...        0 min, 25.872 sec ( 98.056%)
 optimization log               ...        0 min,  0.001 sec (  0.005%)
 hessian update                 ...        0 min,  0.447 sec (  1.694%)
 rational function              ...        0 min,  0.047 sec (  0.177%)

================
 final structure:
================
26
 xtb: 6.5.1 (b24c23e)
C           -1.97992678307238        0.21680679513293       -0.05329444404635
C            1.04107867668349       -1.14396507233266       -1.25159366472146
C           -0.54295837566595        0.40790078409617       -0.03967491797501
C            0.43257630526800       -0.53507466982848       -0.08534621221075
C           -2.54754405042468       -1.00146671067496       -0.44652642344778
C            0.44405734652412       -1.05209494168398       -2.51506622570302
C           -2.83240955451402        1.23741786280489        0.37692880155239
C            2.27160003929677       -1.79836633506014       -1.14596856180896
C           -3.90974202228502       -1.20271815079618       -0.36259623225468
C            1.08043233580967       -1.55203850681981       -3.63230916444326
C           -4.19539023527168        1.03268308045209        0.45343212971413
C            2.90149502704502       -2.30186844978783       -2.26634305652508
C           -4.74064728577962       -0.18749888902979        0.08657332855337
C            2.31113110740923       -2.18004594273625       -3.51432590733595
H           -0.32268761217167        1.18641258959228        0.69949011966377
H            1.23431669820531       -0.32677018395686        0.63239269661102
H           -1.90139448865845       -1.79557047548994       -0.79133478372324
H           -0.51193321449642       -0.55799785548006       -2.61000565814772
H           -2.41395679879308        2.19256138959056        0.66218095827611
H            2.73664284129750       -1.89894211859299       -0.17516450362092
H           -4.33048031272565       -2.15477181461043       -0.65275321918685
H            0.61440466689433       -1.45769820820797       -4.60261910795273
H           -4.83923307703812        1.82912569211887        0.79804448577008
H            3.85731428826456       -2.79615759138220       -2.16800730736701
H           -5.80699303097961       -0.34640752652831        0.14984045740543
H            2.80643814917836       -2.57316625078918       -4.38972222707547

 Bond Distances (Angstroems)
 ---------------------------
C1-C3=1.4497         C1-C5=1.4004         C1-C7=1.3977         C2-C4=1.4495         C2-C6=1.4004         C2-C8=1.3977         
C3-C1=1.4497         C3-C4=1.3576         C3-H15=1.0959        C4-C2=1.4495         C4-C3=1.3576         C4-H16=1.0961        
C5-C1=1.4004         C5-C9=1.3795         C5-H17=1.0803        C6-C2=1.4004         C6-C10=1.3795        C6-H18=1.0803        
C7-C1=1.3977         C7-C11=1.3804        C7-H19=1.0811        C8-C2=1.3977         C8-C12=1.3804        C8-H20=1.0811        
C9-C5=1.3795         C9-C13=1.3867        C9-H21=1.0806        C10-C6=1.3795        C10-C14=1.3867       C10-H22=1.0805       
C11-C7=1.3804        C11-C13=1.3859       C11-H23=1.0806       C12-C8=1.3804        C12-C14=1.3859       C12-H24=1.0805       
C13-C9=1.3867        C13-C11=1.3859       C13-H25=1.0800       C14-C10=1.3867       C14-C12=1.3859       C14-H26=1.0799       
H15-C3=1.0959        H16-C4=1.0961        H17-C5=1.0803        H18-C6=1.0803        H19-C7=1.0811        H20-C8=1.0811        
H21-C9=1.0806        H22-C10=1.0805       H23-C11=1.0806       H24-C12=1.0805       H25-C13=1.0800       H26-C14=1.0799       
 C  H  Rav=1.0831 sigma=0.0058  Rmin=1.0799  Rmax=1.0961    12
 C  C  Rav=1.3945 sigma=0.0240  Rmin=1.3576  Rmax=1.4497    15

 selected bond angles (degree)
 --------------------
C5-C1-C3=121.27                C7-C1-C3=120.36                C7-C1-C5=118.33                C6-C2-C4=121.29                
C8-C2-C4=120.36                C8-C2-C6=118.31                C4-C3-C1=128.35                H15-C3-C1=107.41               
H15-C3-C4=111.82               C3-C4-C2=128.35                H16-C4-C2=107.44               H16-C4-C3=111.81               
C9-C5-C1=120.67                H17-C5-C1=119.12               H17-C5-C9=120.19               C10-C6-C2=120.68               
H18-C6-C2=119.11               H18-C6-C10=120.18              C11-C7-C1=120.73               H19-C7-C1=119.36               
H19-C7-C11=119.91              C12-C8-C2=120.74               H20-C8-C2=119.35               H20-C8-C12=119.91              
C13-C9-C5=120.30               H21-C9-C5=119.78               H21-C9-C13=119.92              C14-C10-C6=120.31              
H22-C10-C6=119.78              H22-C10-C14=119.91             

 selected dihedral angles (degree)
 ---------------------------------
C4-C3-C1-C5=344.05            C4-C3-C1-C7=161.65            H15-C3-C1-C5=205.91           H15-C3-C1-C7= 23.51           
C3-C4-C2-C6=343.89            C3-C4-C2-C8=161.50            H16-C4-C2-C6=205.72           H16-C4-C2-C8= 23.32           
C2-C4-C3-C1= 87.04            C2-C4-C3-H15=223.73           H16-C4-C3-C1=223.78           H16-C4-C3-H15=  0.47          
C9-C5-C1-C3=175.26            C9-C5-C1-C7=357.61            H17-C5-C1-C3=357.00           H17-C5-C1-C7=179.35           
C10-C6-C2-C4=175.29           C10-C6-C2-C8=357.63           H18-C6-C2-C4=357.03           H18-C6-C2-C8=179.37           
C11-C7-C1-C3=184.44           C11-C7-C1-C5=  2.10           H19-C7-C1-C3=  3.77           H19-C7-C1-C5=181.43           
C12-C8-C2-C4=184.41           C12-C8-C2-C6=  2.09           H20-C8-C2-C4=  3.72           H20-C8-C2-C6=181.40           
C13-C9-C5-C1=  1.41           C13-C9-C5-H17=179.65          H21-C9-C5-C1=181.13           H21-C9-C5-H17=359.37          
C14-C10-C6-C2=  1.40          C14-C10-C6-H18=179.64         H22-C10-C6-C2=181.08          H22-C10-C6-H18=359.32         
           -------------------------------------------------
          |                Final Singlepoint                |
           -------------------------------------------------

          ...................................................
          :                      SETUP                      :
          :.................................................:
          :  # basis functions                  68          :
          :  # atomic orbitals                  68          :
          :  # shells                           40          :
          :  # electrons                        68          :
          :  max. iterations                   250          :
          :  Hamiltonian                  GFN2-xTB          :
          :  restarted?                      false          :
          :  GBSA solvation                  false          :
          :  PC potential                    false          :
          :  electronic temp.          300.0000000     K    :
          :  accuracy                    1.0000000          :
          :  -> integral cutoff          0.2500000E+02      :
          :  -> integral neglect         0.1000000E-07      :
          :  -> SCF convergence          0.1000000E-05 Eh   :
          :  -> wf. convergence          0.1000000E-03 e    :
          :  Broyden damping             0.4000000          :
          ...................................................

 iter      E             dE          RMSdq      gap      omega  full diag
   1    -36.7166440 -0.367166E+02  0.391E-05    2.13       0.0  T
   2    -36.7166440 -0.125340E-10  0.242E-05    2.13     809.1  T
   3    -36.7166440 -0.601830E-11  0.148E-05    2.13    1323.6  T

   *** convergence criteria satisfied after 3 iterations ***

         #    Occupation            Energy/Eh            Energy/eV
      -------------------------------------------------------------
         1        2.0000           -0.6442922             -17.5321
       ...           ...                  ...                  ...
        28        2.0000           -0.4224212             -11.4947
        29        2.0000           -0.4178617             -11.3706
        30        2.0000           -0.4148648             -11.2890
        31        2.0000           -0.4089436             -11.1279
        32        2.0000           -0.4033041             -10.9745
        33        2.0000           -0.4031649             -10.9707
        34        2.0000           -0.3578561              -9.7378 (HOMO)
        35                         -0.2796987              -7.6110 (LUMO)
        36                         -0.2204390              -5.9984
        37                         -0.2200804              -5.9887
        38                         -0.2088506              -5.6831
        39                         -0.1825362              -4.9671
       ...                                ...                  ...
        68                          0.6806319              18.5209
      -------------------------------------------------------------
                  HL-Gap            0.0781574 Eh            2.1268 eV
             Fermi-level           -0.3187774 Eh           -8.6744 eV

 SCC (total)                   0 d,  0 h,  0 min,  2.407 sec
 SCC setup                      ...        0 min,  0.067 sec (  2.803%)
 Dispersion                     ...        0 min,  0.142 sec (  5.889%)
 classical contributions        ...        0 min,  0.077 sec (  3.199%)
 integral evaluation            ...        0 min,  0.241 sec ( 10.009%)
 iterations                     ...        0 min,  1.149 sec ( 47.717%)
 molecular gradient             ...        0 min,  0.731 sec ( 30.376%)
 printout                       ...        0 min,  0.000 sec (  0.006%)

         :::::::::::::::::::::::::::::::::::::::::::::::::::::
         ::                     SUMMARY                     ::
         :::::::::::::::::::::::::::::::::::::::::::::::::::::
         :: total energy             -36.008116156923 Eh    ::
         :: gradient norm              0.000373712494 Eh/a0 ::
         :: HOMO-LUMO gap              2.126769848635 eV    ::
         ::.................................................::
         :: SCC energy               -36.716644007246 Eh    ::
         :: -> isotropic ES            0.001596469489 Eh    ::
         :: -> anisotropic ES          0.004525981144 Eh    ::
         :: -> anisotropic XC          0.025057880908 Eh    ::
         :: -> dispersion             -0.024973992378 Eh    ::
         :: repulsion energy           0.707205342386 Eh    ::
         :: add. restraining           0.001360282034 Eh    ::
         :: total charge               0.000000000000 e     ::
         :::::::::::::::::::::::::::::::::::::::::::::::::::::

           -------------------------------------------------
          |                Property Printout                |
           -------------------------------------------------

    * Orbital Energies and Occupations

         #    Occupation            Energy/Eh            Energy/eV
      -------------------------------------------------------------
         1        2.0000           -0.6442922             -17.5321
       ...           ...                  ...                  ...
        22        2.0000           -0.4744085             -12.9093
        23        2.0000           -0.4739502             -12.8968
        24        2.0000           -0.4623107             -12.5801
        25        2.0000           -0.4539544             -12.3527
        26        2.0000           -0.4329432             -11.7810
        27        2.0000           -0.4258784             -11.5887
        28        2.0000           -0.4224212             -11.4947
        29        2.0000           -0.4178617             -11.3706
        30        2.0000           -0.4148648             -11.2890
        31        2.0000           -0.4089436             -11.1279
        32        2.0000           -0.4033041             -10.9745
        33        2.0000           -0.4031649             -10.9707
        34        2.0000           -0.3578561              -9.7378 (HOMO)
        35                         -0.2796987              -7.6110 (LUMO)
        36                         -0.2204390              -5.9984
        37                         -0.2200804              -5.9887
        38                         -0.2088506              -5.6831
        39                         -0.1825362              -4.9671
        40                         -0.0866446              -2.3577
        41                         -0.0795660              -2.1651
        42                          0.0879861               2.3942
        43                          0.1144558               3.1145
        44                          0.1297277               3.5301
        45                          0.1332708               3.6265
       ...                                ...                  ...
        68                          0.6806319              18.5209
      -------------------------------------------------------------
                  HL-Gap            0.0781574 Eh            2.1268 eV
             Fermi-level           -0.3187774 Eh           -8.6744 eV

     #   Z          covCN         q      C6AA      α(0)
     1   6 C        2.969     0.019    27.570     8.613
     2   6 C        2.969     0.019    27.571     8.613
     3   6 C        2.897    -0.041    29.008     8.831
     4   6 C        2.897    -0.041    29.007     8.831
     5   6 C        2.924    -0.034    28.858     8.810
     6   6 C        2.924    -0.034    28.858     8.810
     7   6 C        2.925    -0.036    28.895     8.815
     8   6 C        2.925    -0.036    28.895     8.815
     9   6 C        2.917    -0.030    28.738     8.791
    10   6 C        2.917    -0.030    28.738     8.791
    11   6 C        2.917    -0.029    28.730     8.790
    12   6 C        2.917    -0.029    28.730     8.790
    13   6 C        2.920    -0.031    28.780     8.797
    14   6 C        2.920    -0.031    28.780     8.797
    15   1 H        0.924     0.028     2.617     2.530
    16   1 H        0.924     0.028     2.618     2.530
    17   1 H        0.926     0.037     2.486     2.465
    18   1 H        0.926     0.037     2.486     2.465
    19   1 H        0.926     0.029     2.596     2.520
    20   1 H        0.926     0.029     2.597     2.520
    21   1 H        0.926     0.029     2.595     2.519
    22   1 H        0.926     0.029     2.594     2.519
    23   1 H        0.926     0.029     2.602     2.523
    24   1 H        0.926     0.029     2.602     2.522
    25   1 H        0.926     0.029     2.602     2.523
    26   1 H        0.926     0.029     2.602     2.522

 Mol. C6AA /au·bohr⁶  :       8874.409860
 Mol. C8AA /au·bohr⁸  :     220890.423557
 Mol. α(0) /au        :        153.050525


Wiberg/Mayer (AO) data.
largest (>0.10) Wiberg bond orders for each atom

 ---------------------------------------------------------------------------
     #   Z sym  total        # sym  WBO       # sym  WBO       # sym  WBO
 ---------------------------------------------------------------------------
     1   6 C    3.989 --     7 C    1.356     5 C    1.349     3 C    1.131
     2   6 C    3.989 --     8 C    1.356     6 C    1.349     4 C    1.131
     3   6 C    3.967 --     4 C    1.700     1 C    1.131    15 H    0.957
     4   6 C    3.967 --     3 C    1.700     2 C    1.131    16 H    0.957
     5   6 C    3.986 --     9 C    1.469     1 C    1.349    17 H    0.969
                            11 C    0.102
     6   6 C    3.986 --    10 C    1.470     2 C    1.349    18 H    0.969
                            12 C    0.102
     7   6 C    3.981 --    11 C    1.464     1 C    1.356    19 H    0.969
                             9 C    0.101
     8   6 C    3.981 --    12 C    1.464     2 C    1.356    20 H    0.969
                            10 C    0.101
     9   6 C    3.993 --     5 C    1.469    13 C    1.422    21 H    0.971
                             7 C    0.101
    10   6 C    3.993 --     6 C    1.470    14 C    1.422    22 H    0.971
                             8 C    0.101
    11   6 C    3.992 --     7 C    1.464    13 C    1.426    23 H    0.971
                             5 C    0.102
    12   6 C    3.992 --     8 C    1.464    14 C    1.426    24 H    0.971
                             6 C    0.102
    13   6 C    3.978 --    11 C    1.426     9 C    1.422    25 H    0.972
    14   6 C    3.978 --    12 C    1.426    10 C    1.422    26 H    0.972
    15   1 H    0.998 --     3 C    0.957
    16   1 H    0.998 --     4 C    0.957
    17   1 H    0.999 --     5 C    0.969
    18   1 H    0.999 --     6 C    0.969
    19   1 H    0.999 --     7 C    0.969
    20   1 H    0.999 --     8 C    0.969
    21   1 H    0.999 --     9 C    0.971
    22   1 H    0.999 --    10 C    0.971
    23   1 H    0.999 --    11 C    0.971
    24   1 H    0.999 --    12 C    0.971
    25   1 H    0.999 --    13 C    0.972
    26   1 H    0.999 --    14 C    0.972
 ---------------------------------------------------------------------------

Topologies differ in total number of bonds
Writing topology from bond orders to xtbtopo.mol

molecular dipole:
                 x           y           z       tot (Debye)
 q only:       -0.006      -0.006      -0.009
   full:        0.040       0.038       0.057       0.202
molecular quadrupole (traceless):
                xx          xy          yy          xz          yz          zz
 q only:        0.867      -0.596      -0.512       0.122       1.085      -0.355
  q+dip:        3.892      -3.204      -1.914      -0.010       4.079      -1.978
   full:        1.921      -1.425      -1.054      -0.026       2.062      -0.868

           -------------------------------------------------
          |                Geometry Summary                 |
           -------------------------------------------------

      molecular mass/u    :      180.2455916
   center of mass at/Å    :       -0.7337392      -0.7190214      -1.0288984
  moments of inertia/u·Å² :        0.2463067E+03   0.1571268E+04   0.1687236E+04
rotational constants/cm⁻¹ :        0.6844164E-01   0.1072868E-01   0.9991270E-02

 * 25 selected distances

     #   Z          #   Z                                           value/Å
     3   6 C        4   6 C                                       1.3575555
     1   6 C        5   6 C                                       1.4003612
     2   6 C        6   6 C                                       1.4004420 (max)
     1   6 C        7   6 C                                       1.3976646
     2   6 C        8   6 C                                       1.3977056
     5   6 C        9   6 C                                       1.3795398
     6   6 C       10   6 C                                       1.3795466
     7   6 C       11   6 C                                       1.3803933
     8   6 C       12   6 C                                       1.3804063
     9   6 C       13   6 C                                       1.3866605
    11   6 C       13   6 C                                       1.3859059
    10   6 C       14   6 C                                       1.3866987
    12   6 C       14   6 C                                       1.3859408
     3   6 C       15   1 H                                       1.0958855
     4   6 C       16   1 H                                       1.0960510
     5   6 C       17   1 H                                       1.0802792
     6   6 C       18   1 H                                       1.0803072
     7   6 C       19   1 H                                       1.0810971
     8   6 C       20   1 H                                       1.0811295
     9   6 C       21   1 H                                       1.0805638
    10   6 C       22   1 H                                       1.0805478
    11   6 C       23   1 H                                       1.0805611
    12   6 C       24   1 H                                       1.0805472
    13   6 C       25   1 H                                       1.0799760
    14   6 C       26   1 H                                       1.0799035 (min)

 * 2 distinct bonds (by element types)

   Z      Z             #   av. dist./Å        max./Å        min./Å
   1 H    6 C          12     1.0830707     1.0960510     1.0799035
   6 C    6 C          13     1.3860631     1.4004420     1.3575555


optimized geometry written to: xtbopt.xyz


           -------------------------------------------------
          | TOTAL ENERGY              -36.008116156923 Eh   |
          | GRADIENT NORM               0.000373712494 Eh/α |
          | HOMO-LUMO GAP               2.126769848635 eV   |
           -------------------------------------------------

------------------------------------------------------------------------
 * finished run on 2026/07/30 at 13:24:08.117     
------------------------------------------------------------------------
 total:
 * wall-time:     0 d,  0 h,  0 min, 30.805 sec
 *  cpu-time:     0 d,  0 h,  0 min, 37.208 sec
 * ratio c/w:     1.208 speedup
 SCF:
 * wall-time:     0 d,  0 h,  0 min,  1.729 sec
 *  cpu-time:     0 d,  0 h,  0 min,  4.094 sec
 * ratio c/w:     2.367 speedup
 ANC optimizer:
 * wall-time:     0 d,  0 h,  0 min, 28.815 sec
 *  cpu-time:     0 d,  0 h,  0 min, 32.838 sec
 * ratio c/w:     1.140 speedup

