      -----------------------------------------------------------      
     |                   =====================                   |     
     |                           x T B                           |     
     |                   =====================                   |     
     |                         S. Grimme                         |     
     |          Mulliken Center for Theoretical Chemistry        |     
     |                    University of Bonn                     |     
      -----------------------------------------------------------      

   * xtb version 6.5.1 (b24c23e) compiled by 'conda@728c89f4b128' on 2022-07-12

   xtb is free software: you can redistribute it and/or modify it under
   the terms of the GNU Lesser General Public License as published by
   the Free Software Foundation, either version 3 of the License, or
   (at your option) any later version.
   
   xtb is distributed in the hope that it will be useful,
   but WITHOUT ANY WARRANTY; without even the implied warranty of
   MERCHANTABILITY or FITNESS FOR A PARTICULAR PURPOSE.  See the
   GNU Lesser General Public License for more details.
   
   Cite this work as:
   * C. Bannwarth, E. Caldeweyher, S. Ehlert, A. Hansen, P. Pracht,
     J. Seibert, S. Spicher, S. Grimme, WIREs Comput. Mol. Sci., 2020, 11,
     e01493. DOI: 10.1002/wcms.1493
   
   for GFN2-xTB:
   * C. Bannwarth, S. Ehlert and S. Grimme., J. Chem. Theory Comput., 2019,
     15, 1652-1671. DOI: 10.1021/acs.jctc.8b01176
   for GFN1-xTB:
   * S. Grimme, C. Bannwarth, P. Shushkov, J. Chem. Theory Comput., 2017,
     13, 1989-2009. DOI: 10.1021/acs.jctc.7b00118
   for GFN0-xTB:
   * P. Pracht, E. Caldeweyher, S. Ehlert, S. Grimme, ChemRxiv, 2019, preprint.
     DOI: 10.26434/chemrxiv.8326202.v1
   for GFN-FF:
   * S. Spicher and S. Grimme, Angew. Chem. Int. Ed., 2020, 59, 15665-15673.
     DOI: 10.1002/anie.202004239
   
   for ALPB and GBSA implicit solvation:
   * S. Ehlert, M. Stahn, S. Spicher, S. Grimme, J. Chem. Theory Comput.,
     2021, 17, 4250-4261. DOI: 10.1021/acs.jctc.1c00471
   
   for DFT-D4:
   * E. Caldeweyher, C. Bannwarth and S. Grimme, J. Chem. Phys., 2017,
     147, 034112. DOI: 10.1063/1.4993215
   * E. Caldeweyher, S. Ehlert, A. Hansen, H. Neugebauer, S. Spicher,
     C. Bannwarth and S. Grimme, J. Chem. Phys., 2019, 150, 154122.
     DOI: 10.1063/1.5090222
   * E. Caldeweyher, J.-M. Mewes, S. Ehlert and S. Grimme, Phys. Chem. Chem. Phys.
     2020, 22, 8499-8512. DOI: 10.1039/D0CP00502A
   
   for sTDA-xTB:
   * S. Grimme and C. Bannwarth, J. Chem. Phys., 2016, 145, 054103.
     DOI: 10.1063/1.4959605
   
   in the mass-spec context:
   * V. Asgeirsson, C. Bauer and S. Grimme, Chem. Sci., 2017, 8, 4879.
     DOI: 10.1039/c7sc00601b
   * J. Koopman and S. Grimme, ACS Omega 2019, 4, 12, 15120-15133.
     DOI: 10.1021/acsomega.9b02011
   
   for metadynamics refer to:
   * S. Grimme, J. Chem. Theory Comput., 2019, 155, 2847-2862
     DOI: 10.1021/acs.jctc.9b00143
   
   for SPH calculations refer to:
   * S. Spicher and S. Grimme, J. Chem. Theory Comput., 2021, 17, 1701-1714
     DOI: 10.1021/acs.jctc.0c01306
   
   with help from (in alphabetical order)
   P. Atkinson, C. Bannwarth, F. Bohle, G. Brandenburg, E. Caldeweyher
   M. Checinski, S. Dohm, S. Ehlert, S. Ehrlich, I. Gerasimov, C. Hölzer
   A. Katbashev, J. Koopman, C. Lavigne, S. Lehtola, F. März, M. Müller,
   F. Musil, H. Neugebauer, J. Pisarek, C. Plett, P. Pracht, F. Pultar,
   J. Seibert, P. Shushkov, S. Spicher, M. Stahn, M. Steiner, T. Strunk,
   J. Stückrath, T. Rose, and J. Unsleber
   
 * started run on 2026/07/30 at 13:24:02.729     

           -------------------------------------------------
          |                Calculation Setup                |
           -------------------------------------------------

          program call               : /h/332/chchoi/miniconda3/envs/el-agente/bin/xtb stilbene_cis_init.xyz --opt --gfn 2 -P 4 --chrg 0 --uhf 0 --input detailed_input.inp
          coordinate file            : stilbene_cis_init.xyz
          omp threads                :                     4

   ID    Z sym.   atoms
    1    6 C      1-14
    2    1 H      15-26
constraining angle 1 3 4 2 to    0.0000000°, actual value:   -0.0000000°

           -------------------------------------------------
          |                 G F N 2 - x T B                 |
           -------------------------------------------------

        Reference                      10.1021/acs.jctc.8b01176
      * Hamiltonian:
        H0-scaling (s, p, d)           1.850000    2.230000    2.230000
        zeta-weighting                 0.500000
      * Dispersion:
        s8                             2.700000
        a1                             0.520000
        a2                             5.000000
        s9                             5.000000
      * Repulsion:
        kExp                           1.500000    1.000000
        rExp                           1.000000
      * Coulomb:
        alpha                          2.000000
        third order                    shell-resolved
        anisotropic                    true
        a3                             3.000000
        a5                             4.000000
        cn-shift                       1.200000
        cn-exp                         4.000000
        max-rad                        5.000000


          ...................................................
          :                      SETUP                      :
          :.................................................:
          :  # basis functions                  68          :
          :  # atomic orbitals                  68          :
          :  # shells                           40          :
          :  # electrons                        68          :
          :  max. iterations                   250          :
          :  Hamiltonian                  GFN2-xTB          :
          :  restarted?                      false          :
          :  GBSA solvation                  false          :
          :  PC potential                    false          :
          :  electronic temp.          300.0000000     K    :
          :  accuracy                    1.0000000          :
          :  -> integral cutoff          0.2500000E+02      :
          :  -> integral neglect         0.1000000E-07      :
          :  -> SCF convergence          0.1000000E-05 Eh   :
          :  -> wf. convergence          0.1000000E-03 e    :
          :  Broyden damping             0.4000000          :
          ...................................................

 iter      E             dE          RMSdq      gap      omega  full diag
   1    -36.6082187 -0.366082E+02  0.451E+00    1.90       0.0  T
   2    -36.6291233 -0.209045E-01  0.273E+00    1.90       1.0  T
   3    -36.6101414  0.189818E-01  0.836E-01    1.77       1.0  T
   4    -36.6297764 -0.196349E-01  0.347E-01    1.86       1.0  T
   5    -36.6329200 -0.314361E-02  0.541E-02    1.85       1.0  T
   6    -36.6329728 -0.528547E-04  0.316E-02    1.84       1.0  T
   7    -36.6329780 -0.514095E-05  0.948E-03    1.84       2.1  T
   8    -36.6329798 -0.182237E-05  0.179E-03    1.84      10.9  T
   9    -36.6329798 -0.329990E-07  0.946E-04    1.84      20.7  T
  10    -36.6329798 -0.619359E-08  0.527E-04    1.84      37.2  T

   *** convergence criteria satisfied after 10 iterations ***

         #    Occupation            Energy/Eh            Energy/eV
      -------------------------------------------------------------
         1        2.0000           -0.6595048             -17.9460
       ...           ...                  ...                  ...
        28        2.0000           -0.4279162             -11.6442
        29        2.0000           -0.4268502             -11.6152
        30        2.0000           -0.4156392             -11.3101
        31        2.0000           -0.4059993             -11.0478
        32        2.0000           -0.3940986             -10.7240
        33        2.0000           -0.3831853             -10.4270
        34        2.0000           -0.3385265              -9.2118 (HOMO)
        35                         -0.2707773              -7.3682 (LUMO)
        36                         -0.2270960              -6.1796
        37                         -0.2138246              -5.8185
        38                         -0.1991110              -5.4181
        39                         -0.1649033              -4.4872
       ...                                ...                  ...
        68                          0.6744198              18.3519
      -------------------------------------------------------------
                  HL-Gap            0.0677492 Eh            1.8435 eV
             Fermi-level           -0.3046519 Eh           -8.2900 eV

 SCC (total)                   0 d,  0 h,  0 min,  4.170 sec
 SCC setup                      ...        0 min,  0.073 sec (  1.752%)
 Dispersion                     ...        0 min,  0.149 sec (  3.581%)
 classical contributions        ...        0 min,  0.097 sec (  2.335%)
 integral evaluation            ...        0 min,  0.273 sec (  6.554%)
 iterations                     ...        0 min,  3.143 sec ( 75.361%)
 molecular gradient             ...        0 min,  0.434 sec ( 10.412%)
 printout                       ...        0 min,  0.000 sec (  0.004%)

         :::::::::::::::::::::::::::::::::::::::::::::::::::::
         ::                     SUMMARY                     ::
         :::::::::::::::::::::::::::::::::::::::::::::::::::::
         :: total energy             -35.948054526081 Eh    ::
         :: gradient norm              0.147521015586 Eh/a0 ::
         :: HOMO-LUMO gap              1.843549939969 eV    ::
         ::.................................................::
         :: SCC energy               -36.632979827507 Eh    ::
         :: -> isotropic ES            0.004286958398 Eh    ::
         :: -> anisotropic ES          0.004621311045 Eh    ::
         :: -> anisotropic XC          0.026655184868 Eh    ::
         :: -> dispersion             -0.026840398648 Eh    ::
         :: repulsion energy           0.684864434871 Eh    ::
         :: add. restraining           0.000000000000 Eh    ::
         :: total charge              -0.000000000000 e     ::
         :::::::::::::::::::::::::::::::::::::::::::::::::::::

      ----------------------------------------------------------- 
     |                   =====================                   |
     |                        A N C O P T                        |
     |                   =====================                   |
     |               Approximate Normal Coordinate               |
     |                Rational Function Optimizer                |
      ----------------------------------------------------------- 

          ...................................................
          :                      SETUP                      :
          :.................................................:
          :   optimization level            normal          :
          :   max. optcycles                   200          :
          :   ANC micro-cycles                  20          :
          :   degrees of freedom                72          :
          :.................................................:
          :   RF solver                   davidson          :
          :   write xtbopt.log                true          :
          :   linear?                        false          :
          :   energy convergence         0.5000000E-05 Eh   :
          :   grad. convergence          0.1000000E-02 Eh/α :
          :   maximium RF displ.         1.0000000          :
          :   Hlow (freq-cutoff)         0.1000000E-01      :
          :   Hmax (freq-cutoff)         5.0000000          :
          :   S6 in model hess.         20.0000000          :
          ...................................................

generating ANC from model Hessian ...
Using Lindh-Hessian (1995)
 Shifting diagonal of input Hessian by    7.7228326614619119E-003
 Lowest  eigenvalues of input Hessian
    0.000000    0.000000    0.000000    0.000000    0.000000    0.000000
    0.010000    0.010820    0.011774    0.015513    0.019030    0.023124
    0.024512    0.026608    0.029062    0.029720    0.032950    0.041891
 Highest eigenvalues
    1.872537    1.933013    1.959249    2.001154    2.053947    2.616583


........................................................................
.............................. CYCLE    1 ..............................
........................................................................
   1    -36.6329798 -0.366330E+02  0.155E-04    1.84       0.0  T
   2    -36.6329798 -0.793250E-10  0.103E-04    1.84     190.7  T
   3    -36.6329798 -0.192507E-09  0.558E-05    1.84     351.6  T
     SCC iter.                  ...        0 min,  0.780 sec
     gradient                   ...        0 min,  0.524 sec
 * total energy  :   -35.9480545 Eh     change       -0.4178695E-08 Eh
   gradient norm :     0.1475249 Eh/α   predicted     0.0000000E+00 (-100.00%)
   displ. norm   :     0.4739377 α      lambda       -0.5890903E-01
   maximum displ.:     0.2408273 α      in ANC's #43, #38, #34, ...

........................................................................
.............................. CYCLE    2 ..............................
........................................................................
   1    -36.6951792 -0.366952E+02  0.435E-01    2.36       0.0  T
   2    -36.6958279 -0.648734E-03  0.318E-01    2.33       1.0  T
   3    -36.6964474 -0.619515E-03  0.165E-01    2.34       1.0  T
   4    -36.6966792 -0.231794E-03  0.459E-02    2.32       1.0  T
   5    -36.6966887 -0.946396E-05  0.207E-02    2.33       1.0  T
   6    -36.6966955 -0.677306E-05  0.517E-03    2.33       3.8  T
   7    -36.6966958 -0.307841E-06  0.213E-03    2.33       9.2  T
   8    -36.6966958 -0.578935E-07  0.965E-04    2.33      20.3  T
   9    -36.6966958 -0.117368E-07  0.431E-04    2.33      45.5  T
     SCC iter.                  ...        0 min,  2.666 sec
     gradient                   ...        0 min,  0.159 sec
 * total energy  :   -35.9933893 Eh     change       -0.4533480E-01 Eh
   gradient norm :     0.0803785 Eh/α   predicted    -0.3607287E-01 ( -20.43%)
   displ. norm   :     0.5036695 α      lambda       -0.3459998E-01
   maximum displ.:     0.2720364 α      in ANC's #43, #26, #38, ...

........................................................................
.............................. CYCLE    3 ..............................
........................................................................
   1    -36.7376720 -0.367377E+02  0.338E-01    2.66       0.0  T
   2    -36.7379724 -0.300409E-03  0.216E-01    2.65       1.0  T
   3    -36.7381213 -0.148889E-03  0.126E-01    2.66       1.0  T
   4    -36.7382934 -0.172074E-03  0.240E-02    2.65       1.0  T
   5    -36.7382956 -0.229408E-05  0.125E-02    2.65       1.6  T
   6    -36.7382981 -0.240484E-05  0.317E-03    2.65       6.2  T
   7    -36.7382982 -0.109643E-06  0.147E-03    2.65      13.4  T
   8    -36.7382982 -0.301664E-07  0.563E-04    2.65      34.8  T
   9    -36.7382982 -0.327049E-08  0.273E-04    2.65      71.9  T
     SCC iter.                  ...        0 min,  2.634 sec
     gradient                   ...        0 min,  0.784 sec
 * total energy  :   -36.0184118 Eh     change       -0.2502244E-01 Eh
   gradient norm :     0.0364417 Eh/α   predicted    -0.2168871E-01 ( -13.32%)
   displ. norm   :     0.4951041 α      lambda       -0.1486578E-01
   maximum displ.:     0.2436492 α      in ANC's #5, #43, #26, ...

........................................................................
.............................. CYCLE    4 ..............................
........................................................................
   1    -36.7461012 -0.367461E+02  0.231E-01    2.79       0.0  T
   2    -36.7461601 -0.588624E-04  0.136E-01    2.78       1.0  T
   3    -36.7461039  0.561288E-04  0.789E-02    2.79       1.0  T
   4    -36.7462106 -0.106721E-03  0.104E-02    2.78       1.9  T
   5    -36.7462109 -0.257712E-06  0.571E-03    2.78       3.4  T
   6    -36.7462114 -0.498073E-06  0.160E-03    2.78      12.3  T
   7    -36.7462114 -0.353047E-07  0.680E-04    2.78      28.9  T
   8    -36.7462114 -0.496614E-08  0.318E-04    2.78      61.7  T
     SCC iter.                  ...        0 min,  1.867 sec
     gradient                   ...        0 min,  0.794 sec
 * total energy  :   -36.0295448 Eh     change       -0.1113301E-01 Eh
   gradient norm :     0.0215478 Eh/α   predicted    -0.9254915E-02 ( -16.87%)
   displ. norm   :     0.5258373 α      lambda       -0.8048348E-02
   maximum displ.:     0.3051510 α      in ANC's #5, #3, #43, ...

........................................................................
.............................. CYCLE    5 ..............................
........................................................................
   1    -36.7478186 -0.367478E+02  0.215E-01    2.86       0.0  T
   2    -36.7478378 -0.192095E-04  0.126E-01    2.86       1.0  T
   3    -36.7477924  0.454705E-04  0.522E-02    2.86       1.0  T
   4    -36.7478507 -0.583252E-04  0.644E-03    2.86       3.0  T
   5    -36.7478508 -0.110710E-06  0.291E-03    2.86       6.7  T
   6    -36.7478509 -0.117746E-06  0.869E-04    2.86      22.6  T
   7    -36.7478509 -0.131675E-07  0.373E-04    2.86      52.6  T
     SCC iter.                  ...        0 min,  1.897 sec
     gradient                   ...        0 min,  0.752 sec
 * total energy  :   -36.0356820 Eh     change       -0.6137182E-02 Eh
   gradient norm :     0.0139566 Eh/α   predicted    -0.5136880E-02 ( -16.30%)
   displ. norm   :     0.5597833 α      lambda       -0.4678447E-02
   maximum displ.:     0.3273050 α      in ANC's #5, #2, #3, ...

........................................................................
.............................. CYCLE    6 ..............................
........................................................................
   1    -36.7490444 -0.367490E+02  0.238E-01    2.91       0.0  T
   2    -36.7490537 -0.927542E-05  0.140E-01    2.91       1.0  T
   3    -36.7490255  0.281520E-04  0.383E-02    2.91       1.0  T
   4    -36.7490594 -0.339402E-04  0.464E-03    2.91       4.2  T
   5    -36.7490595 -0.426745E-07  0.241E-03    2.91       8.1  T
   6    -36.7490596 -0.649530E-07  0.920E-04    2.91      21.3  T
   7    -36.7490596 -0.130504E-07  0.358E-04    2.91      54.8  T
     SCC iter.                  ...        0 min,  2.214 sec
     gradient                   ...        0 min,  0.548 sec
 * total energy  :   -36.0392552 Eh     change       -0.3573239E-02 Eh
   gradient norm :     0.0101181 Eh/α   predicted    -0.3072237E-02 ( -14.02%)
   displ. norm   :     0.5576261 α      lambda       -0.2664352E-02
   maximum displ.:     0.3263019 α      in ANC's #2, #5, #3, ...

........................................................................
.............................. CYCLE    7 ..............................
........................................................................
   1    -36.7506480 -0.367506E+02  0.251E-01    2.96       0.0  T
   2    -36.7506533 -0.536233E-05  0.147E-01    2.96       1.0  T
   3    -36.7506344  0.189613E-04  0.297E-02    2.96       1.0  T
   4    -36.7506569 -0.225036E-04  0.341E-03    2.96       5.8  T
   5    -36.7506569 -0.266611E-07  0.199E-03    2.96       9.9  T
   6    -36.7506570 -0.380723E-07  0.725E-04    2.96      27.1  T
   7    -36.7506570 -0.788319E-08  0.273E-04    2.96      71.9  T
     SCC iter.                  ...        0 min,  1.822 sec
     gradient                   ...        0 min,  0.200 sec
 * total energy  :   -36.0412666 Eh     change       -0.2011363E-02 Eh
   gradient norm :     0.0090023 Eh/α   predicted    -0.1746415E-02 ( -13.17%)
   displ. norm   :     0.5131341 α      lambda       -0.1490199E-02
   maximum displ.:     0.3603064 α      in ANC's #2, #5, #3, ...

........................................................................
.............................. CYCLE    8 ..............................
........................................................................
   1    -36.7527414 -0.367527E+02  0.244E-01    3.02       0.0  T
   2    -36.7527445 -0.312757E-05  0.143E-01    3.02       1.0  T
   3    -36.7527338  0.107210E-04  0.213E-02    3.02       1.0  T
   4    -36.7527466 -0.128491E-04  0.252E-03    3.02       7.8  T
   5    -36.7527466 -0.875464E-08  0.141E-03    3.02      14.0  T
   6    -36.7527466 -0.152829E-07  0.493E-04    3.02      39.8  T
   7    -36.7527466 -0.394071E-08  0.186E-04    3.02     105.2  T
     SCC iter.                  ...        0 min,  2.045 sec
     gradient                   ...        0 min,  0.542 sec
 * total energy  :   -36.0423931 Eh     change       -0.1126554E-02 Eh
   gradient norm :     0.0085145 Eh/α   predicted    -0.9413040E-03 ( -16.44%)
   displ. norm   :     0.4086664 α      lambda       -0.8270909E-03
   maximum displ.:     0.3224417 α      in ANC's #2, #3, #5, ...

........................................................................
.............................. CYCLE    9 ..............................
........................................................................
   1    -36.7558755 -0.367559E+02  0.204E-01    3.08       0.0  T
   2    -36.7558771 -0.154206E-05  0.120E-01    3.08       1.0  T
   3    -36.7558724  0.463756E-05  0.134E-02    3.08       1.5  T
   4    -36.7558781 -0.569231E-05  0.179E-03    3.08      10.9  T
   5    -36.7558781 -0.207788E-08  0.924E-04    3.08      21.2  T
   6    -36.7558781 -0.817584E-08  0.192E-04    3.08     102.1  T
     SCC iter.                  ...        0 min,  1.607 sec
     gradient                   ...        0 min,  0.616 sec
 * total energy  :   -36.0430455 Eh     change       -0.6523401E-03 Eh
   gradient norm :     0.0075198 Eh/α   predicted    -0.4826735E-03 ( -26.01%)
   displ. norm   :     0.3467388 α      lambda       -0.5593240E-03
   maximum displ.:     0.3002944 α      in ANC's #2, #3, #5, ...

........................................................................
.............................. CYCLE   10 ..............................
........................................................................
   1    -36.7581033 -0.367581E+02  0.179E-01    3.12       0.0  T
   2    -36.7581042 -0.926459E-06  0.105E-01    3.12       1.0  T
   3    -36.7581025  0.174138E-05  0.832E-03    3.12       2.4  T
   4    -36.7581048 -0.233006E-05  0.149E-03    3.12      13.1  T
   5    -36.7581048  0.209000E-08  0.784E-04    3.12      25.0  T
   6    -36.7581048 -0.585757E-08  0.251E-04    3.12      78.0  T
     SCC iter.                  ...        0 min,  1.804 sec
     gradient                   ...        0 min,  0.662 sec
 * total energy  :   -36.0435058 Eh     change       -0.4603560E-03 Eh
   gradient norm :     0.0061466 Eh/α   predicted    -0.3132859E-03 ( -31.95%)
   displ. norm   :     0.3079492 α      lambda       -0.4313954E-03
   maximum displ.:     0.2813498 α      in ANC's #2, #3, #12, ...

........................................................................
.............................. CYCLE   11 ..............................
........................................................................
   1    -36.7594732 -0.367595E+02  0.162E-01    3.15       0.0  T
   2    -36.7594738 -0.652809E-06  0.951E-02    3.15       1.0  T
   3    -36.7594730  0.785451E-06  0.601E-03    3.15       3.3  T
   4    -36.7594742 -0.118496E-05  0.123E-03    3.15      15.9  T
   5    -36.7594742  0.454425E-08  0.720E-04    3.15      27.2  T
   6    -36.7594742 -0.750610E-08  0.165E-04    3.15     118.6  T
     SCC iter.                  ...        0 min,  1.277 sec
     gradient                   ...        0 min,  0.527 sec
 * total energy  :   -36.0438606 Eh     change       -0.3548380E-03 Eh
   gradient norm :     0.0049000 Eh/α   predicted    -0.2361566E-03 ( -33.45%)
   displ. norm   :     0.2787584 α      lambda       -0.3172300E-03
   maximum displ.:     0.2598965 α      in ANC's #2, #3, #11, ...

........................................................................
.............................. CYCLE   12 ..............................
........................................................................
   1    -36.7595025 -0.367595E+02  0.146E-01    3.17       0.0  T
   2    -36.7595030 -0.576273E-06  0.855E-02    3.17       1.0  T
   3    -36.7595030  0.715353E-07  0.385E-03    3.17       5.1  T
   4    -36.7595033 -0.370699E-06  0.126E-03    3.17      15.5  T
   5    -36.7595033  0.118879E-08  0.720E-04    3.17      27.2  T
   6    -36.7595034 -0.664379E-08  0.173E-04    3.17     113.5  T
     SCC iter.                  ...        0 min,  1.667 sec
     gradient                   ...        0 min,  0.657 sec
 * total energy  :   -36.0441028 Eh     change       -0.2421495E-03 Eh
   gradient norm :     0.0029267 Eh/α   predicted    -0.1709411E-03 ( -29.41%)
   displ. norm   :     0.2260332 α      lambda       -0.1716497E-03
   maximum displ.:     0.2119174 α      in ANC's #2, #3, #12, ...

........................................................................
.............................. CYCLE   13 ..............................
........................................................................
   1    -36.7593453 -0.367593E+02  0.120E-01    3.17       0.0  T
   2    -36.7593457 -0.347825E-06  0.706E-02    3.17       1.0  T
   3    -36.7593457 -0.144266E-08  0.282E-03    3.17       6.9  T
   4    -36.7593458 -0.182126E-06  0.918E-04    3.17      21.4  T
   5    -36.7593458 -0.107105E-08  0.228E-04    3.17      86.2  T
     SCC iter.                  ...        0 min,  1.204 sec
     gradient                   ...        0 min,  0.591 sec
 * total energy  :   -36.0442182 Eh     change       -0.1154434E-03 Eh
   gradient norm :     0.0021586 Eh/α   predicted    -0.9021153E-04 ( -21.86%)
   displ. norm   :     0.1383945 α      lambda       -0.5817577E-04
   maximum displ.:     0.1296415 α      in ANC's #2, #3, #31, ...

........................................................................
.............................. CYCLE   14 ..............................
........................................................................
   1    -36.7596409 -0.367596E+02  0.733E-02    3.18       0.0  T
   2    -36.7596411 -0.177227E-06  0.430E-02    3.18       1.0  T
   3    -36.7596409  0.185777E-06  0.326E-03    3.18       6.0  T
   4    -36.7596412 -0.282689E-06  0.728E-04    3.18      27.0  T
   5    -36.7596412  0.142824E-08  0.453E-04    3.18      43.2  T
     SCC iter.                  ...        0 min,  1.090 sec
     gradient                   ...        0 min,  0.625 sec
 * total energy  :   -36.0442538 Eh     change       -0.3557100E-04 Eh
   gradient norm :     0.0018082 Eh/α   predicted    -0.2970747E-04 ( -16.48%)
   displ. norm   :     0.1264553 α      lambda       -0.2203520E-04
   maximum displ.:     0.1182599 α      in ANC's #2, #31, #37, ...

........................................................................
.............................. CYCLE   15 ..............................
........................................................................
   1    -36.7599910 -0.367600E+02  0.686E-02    3.18       0.0  T
   2    -36.7599912 -0.135757E-06  0.403E-02    3.18       1.0  T
   3    -36.7599910  0.147504E-06  0.264E-03    3.18       7.4  T
   4    -36.7599913 -0.222565E-06  0.626E-04    3.18      31.3  T
   5    -36.7599913  0.107242E-09  0.343E-04    3.18      57.2  T
     SCC iter.                  ...        0 min,  1.284 sec
     gradient                   ...        0 min,  0.655 sec
 * total energy  :   -36.0442668 Eh     change       -0.1294969E-04 Eh
   gradient norm :     0.0022703 Eh/α   predicted    -0.1109678E-04 ( -14.31%)
   displ. norm   :     0.0413413 α      lambda       -0.1343553E-04
   maximum displ.:     0.0353624 α      in ANC's #2, #5, #31, ...

........................................................................
.............................. CYCLE   16 ..............................
........................................................................
   1    -36.7601863 -0.367602E+02  0.233E-02    3.18       0.0  T
   2    -36.7601863 -0.230546E-07  0.137E-02    3.18       1.4  T
   3    -36.7601863  0.461693E-07  0.165E-03    3.18      11.9  T
   4    -36.7601864 -0.585772E-07  0.234E-04    3.18      84.0  T
   5    -36.7601864  0.516778E-10  0.147E-04    3.18     133.9  T
     SCC iter.                  ...        0 min,  1.063 sec
     gradient                   ...        0 min,  0.443 sec
 * total energy  :   -36.0442764 Eh     change       -0.9647178E-05 Eh
   gradient norm :     0.0011966 Eh/α   predicted    -0.6731243E-05 ( -30.23%)
   displ. norm   :     0.0957968 α      lambda       -0.1747607E-04
   maximum displ.:     0.0700937 α      in ANC's #2, #3, #5, ...

........................................................................
.............................. CYCLE   17 ..............................
........................................................................
   1    -36.7607798 -0.367608E+02  0.513E-02    3.20       0.0  T
   2    -36.7607800 -0.128581E-06  0.301E-02    3.20       1.0  T
   3    -36.7607797  0.270425E-06  0.372E-03    3.20       5.3  T
   4    -36.7607800 -0.339979E-06  0.608E-04    3.20      32.3  T
   5    -36.7607800  0.592237E-10  0.346E-04    3.20      56.7  T
     SCC iter.                  ...        0 min,  1.239 sec
     gradient                   ...        0 min,  0.606 sec
 * total energy  :   -36.0442870 Eh     change       -0.1056561E-04 Eh
   gradient norm :     0.0026321 Eh/α   predicted    -0.8778242E-05 ( -16.92%)
   displ. norm   :     0.0443143 α      lambda       -0.1443874E-04
   maximum displ.:     0.0292425 α      in ANC's #3, #2, #5, ...

........................................................................
.............................. CYCLE   18 ..............................
........................................................................
   1    -36.7609067 -0.367609E+02  0.210E-02    3.20       0.0  T
   2    -36.7609068 -0.278683E-07  0.123E-02    3.20       1.6  T
   3    -36.7609067  0.107008E-06  0.187E-03    3.20      10.5  T
   4    -36.7609068 -0.123682E-06  0.244E-04    3.20      80.3  T
   5    -36.7609068 -0.404640E-09  0.153E-04    3.20     128.5  T
     SCC iter.                  ...        0 min,  0.992 sec
     gradient                   ...        0 min,  0.510 sec
 * total energy  :   -36.0442973 Eh     change       -0.1029207E-04 Eh
   gradient norm :     0.0019951 Eh/α   predicted    -0.7237553E-05 ( -29.68%)
   displ. norm   :     0.0655829 α      lambda       -0.1303492E-04
   maximum displ.:     0.0516427 α      in ANC's #3, #2, #34, ...

........................................................................
.............................. CYCLE   19 ..............................
........................................................................
   1    -36.7604951 -0.367605E+02  0.273E-02    3.21       0.0  T
   2    -36.7604951 -0.420160E-07  0.161E-02    3.21       1.2  T
   3    -36.7604949  0.247882E-06  0.270E-03    3.21       7.3  T
   4    -36.7604951 -0.284831E-06  0.276E-04    3.21      70.9  T
   5    -36.7604951 -0.602256E-10  0.177E-04    3.21     110.6  T
     SCC iter.                  ...        0 min,  0.922 sec
     gradient                   ...        0 min,  0.409 sec
 * total energy  :   -36.0443108 Eh     change       -0.1348475E-04 Eh
   gradient norm :     0.0012181 Eh/α   predicted    -0.6531092E-05 ( -51.57%)
   displ. norm   :     0.0521884 α      lambda       -0.7512335E-05
   maximum displ.:     0.0426510 α      in ANC's #3, #2, #25, ...

........................................................................
.............................. CYCLE   20 ..............................
........................................................................
   1    -36.7606070 -0.367606E+02  0.188E-02    3.21       0.0  T
   2    -36.7606071 -0.146804E-07  0.111E-02    3.21       1.8  T
   3    -36.7606070  0.120128E-07  0.812E-04    3.21      24.2  T
   4    -36.7606071 -0.183114E-07  0.227E-04    3.21      86.5  T
     SCC iter.                  ...        0 min,  0.518 sec
     gradient                   ...        0 min,  0.145 sec
 * total energy  :   -36.0443199 Eh     change       -0.9101586E-05 Eh
   gradient norm :     0.0013830 Eh/α   predicted    -0.3764215E-05 ( -58.64%)
   displ. norm   :     0.0629501 α      lambda       -0.9122161E-05
   maximum displ.:     0.0486384 α      in ANC's #3, #2, #5, ...
 * RMSD in coord.:     0.9439278 α      energy gain  -0.9626533E-01 Eh

generating ANC from model Hessian ...
Using Lindh-Hessian (1995)
 Shifting diagonal of input Hessian by    9.0548708237913125E-003
 Lowest  eigenvalues of input Hessian
    0.000000    0.000000    0.000000    0.000000    0.000000    0.000000
    0.010000    0.010286    0.010429    0.014394    0.015584    0.021386
    0.023254    0.024713    0.024896    0.029470    0.031815    0.033207
 Highest eigenvalues
    1.918521    1.974971    2.001090    2.045525    2.093238    3.149472


........................................................................
.............................. CYCLE   21 ..............................
........................................................................
   1    -36.7605365 -0.367605E+02  0.227E-02    3.22       0.0  T
   2    -36.7605365 -0.282870E-07  0.133E-02    3.22       1.5  T
   3    -36.7605364  0.595424E-07  0.159E-03    3.22      12.3  T
   4    -36.7605365 -0.742655E-07  0.280E-04    3.22      70.0  T
   5    -36.7605365 -0.775913E-11  0.171E-04    3.22     114.7  T
     SCC iter.                  ...        0 min,  0.723 sec
     gradient                   ...        0 min,  0.385 sec
 * total energy  :   -36.0443298 Eh     change       -0.9989099E-05 Eh
   gradient norm :     0.0012581 Eh/α   predicted     0.0000000E+00 (-100.00%)
   displ. norm   :     0.0299810 α      lambda       -0.6264057E-05
   maximum displ.:     0.0287354 α      in ANC's #1, #3, #9, ...

........................................................................
.............................. CYCLE   22 ..............................
........................................................................
   1    -36.7605563 -0.367606E+02  0.981E-03    3.22       0.0  T
   2    -36.7605563 -0.109865E-07  0.582E-03    3.22       3.4  T
   3    -36.7605563  0.427718E-07  0.126E-03    3.22      15.6  T
   4    -36.7605563 -0.501433E-07  0.172E-04    3.22     113.8  T
   5    -36.7605563  0.518554E-10  0.119E-04    3.22     165.2  T
     SCC iter.                  ...        0 min,  0.546 sec
     gradient                   ...        0 min,  0.244 sec
 * total energy  :   -36.0443369 Eh     change       -0.7021653E-05 Eh
   gradient norm :     0.0003266 Eh/α   predicted    -0.3178256E-05 ( -54.74%)
   displ. norm   :     0.0314261 α      lambda       -0.3928247E-05
   maximum displ.:     0.0305705 α      in ANC's #1, #3, #5, ...

........................................................................
.............................. CYCLE   23 ..............................
........................................................................
   1    -36.7605759 -0.367606E+02  0.870E-03    3.22       0.0  T
   2    -36.7605759 -0.466868E-08  0.512E-03    3.22       3.8  T
   3    -36.7605759  0.259965E-07  0.985E-04    3.22      19.9  T
   4    -36.7605759 -0.300313E-07  0.121E-04    3.22     162.6  T
     SCC iter.                  ...        0 min,  0.428 sec
     gradient                   ...        0 min,  0.323 sec
 * total energy  :   -36.0443422 Eh     change       -0.5306119E-05 Eh
   gradient norm :     0.0006254 Eh/α   predicted    -0.1985017E-05 ( -62.59%)
   displ. norm   :     0.0273849 α      lambda       -0.3183911E-05
   maximum displ.:     0.0265787 α      in ANC's #1, #3, #5, ...

........................................................................
.............................. CYCLE   24 ..............................
........................................................................
   1    -36.7605889 -0.367606E+02  0.746E-03    3.22       0.0  T
   2    -36.7605890 -0.284493E-08  0.438E-03    3.22       4.5  T
   3    -36.7605889  0.858348E-08  0.545E-04    3.22      36.0  T
   4    -36.7605890 -0.105487E-07  0.876E-05    3.22     223.8  T
     SCC iter.                  ...        0 min,  0.388 sec
     gradient                   ...        0 min,  0.209 sec
 * total energy  :   -36.0443467 Eh     change       -0.4531659E-05 Eh
   gradient norm :     0.0005046 Eh/α   predicted    -0.1595549E-05 ( -64.79%)
   displ. norm   :     0.0261437 α      lambda       -0.2921618E-05
   maximum displ.:     0.0256029 α      in ANC's #1, #3, #5, ...

   *** GEOMETRY OPTIMIZATION CONVERGED AFTER 24 ITERATIONS ***

------------------------------------------------------------------------
 total energy gain   :        -0.0962922 Eh      -60.4243 kcal/mol
 total RMSD          :         0.9374610 a0        0.4961 Å
 total power (kW/mol):       -10.5339615 (step)   -4.7219 (real)
------------------------------------------------------------------------

 ANCopt (total)                0 d,  0 h,  0 min, 53.541 sec
 optimizer setup                ...        0 min,  0.001 sec (  0.001%)
 model hessian                  ...        0 min,  0.152 sec (  0.284%)
 ANC generation                 ...        0 min,  0.091 sec (  0.170%)
 coordinate transformation      ...        0 min,  0.000 sec (  0.001%)
 single point calculation       ...        0 min, 52.170 sec ( 97.440%)
 optimization log               ...        0 min,  0.002 sec (  0.004%)
 hessian update                 ...        0 min,  1.034 sec (  1.932%)
 rational function              ...        0 min,  0.089 sec (  0.166%)

================
 final structure:
================
26
 xtb: 6.5.1 (b24c23e)
C           -2.00031193486475        0.21980005583789       -0.10881142463902
C            0.17214075227324       -2.02290087842345        0.12464255073851
C           -0.54927006755117        0.38014552759047       -0.02924462679419
C            0.37733468507057       -0.57647502888975        0.06861768819738
C           -2.59484569569557       -0.77390293962860       -0.88557750622633
C           -0.84912469482683       -2.59791633781280        0.88012606035158
C           -2.82314324485376        1.12271723719943        0.56372007965310
C            1.05846027400179       -2.86320911814649       -0.54845442731260
C           -3.97065464851078       -0.87512363297001       -0.96217713608556
C           -0.99286681006654       -3.97093971172014        0.93543926137273
C           -4.19902560578747        1.01222137624621        0.49463810186946
C            0.90531906177323       -4.23592740690995       -0.50102680408539
C           -4.77787078803026        0.01152097788869       -0.26783737174675
C           -0.12227704716112       -4.79482814467247        0.24033324906911
H           -0.21682216202319        1.41192278243808       -0.00962127570583
H            1.41884880637753       -0.27518702504544        0.06842822796557
H           -1.97087185690346       -1.45930945331648       -1.43944952999947
H           -1.52254266315696       -1.96123323867225        1.43428986313077
H           -2.37391559145002        1.90745803619411        1.15661910585931
H            1.86409534724157       -2.42978733108420       -1.12421910766808
H           -4.41746415479564       -1.64795697914343       -1.57075404799982
H           -1.78669388722783       -4.40265680101309        1.52797914368887
H           -4.82222933927998        1.71344829491943        1.03103718175663
H            1.59409809498153       -4.87256955432623       -1.03742783109596
H           -5.85312092452031       -0.07125064435021       -0.32775526343168
H           -0.23849437501359       -5.86780524218923        0.28354387913759

 Bond Distances (Angstroems)
 ---------------------------
C1-C3=1.4620         C1-C5=1.3944         C1-C7=1.3945         C2-C4=1.4620         C2-C6=1.3944         C2-C8=1.3945         
C3-C1=1.4620         C3-C4=1.3354         C3-H15=1.0842        C4-C2=1.4620         C4-C3=1.3354         C4-H16=1.0842        
C5-C1=1.3944         C5-C9=1.3817         C5-H17=1.0798        C6-C2=1.3944         C6-C10=1.3816        C6-H18=1.0798        
C7-C1=1.3945         C7-C11=1.3820        C7-H19=1.0813        C8-C2=1.3945         C8-C12=1.3820        C8-H20=1.0809        
C9-C5=1.3817         C9-C13=1.3856        C9-H21=1.0804        C10-C6=1.3816        C10-C14=1.3856       C10-H22=1.0806       
C11-C7=1.3820        C11-C13=1.3849       C11-H23=1.0807       C12-C8=1.3820        C12-C14=1.3849       C12-H24=1.0805       
C13-C9=1.3856        C13-C11=1.3849       C13-H25=1.0801       C14-C10=1.3856       C14-C12=1.3849       C14-H26=1.0801       
H15-C3=1.0842        H16-C4=1.0842        H17-C5=1.0798        H18-C6=1.0798        H19-C7=1.0813        H20-C8=1.0809        
H21-C9=1.0804        H22-C10=1.0806       H23-C11=1.0807       H24-C12=1.0805       H25-C13=1.0801       H26-C14=1.0801       
 C  H  Rav=1.0810 sigma=0.0015  Rmin=1.0798  Rmax=1.0842    12
 C  C  Rav=1.3937 sigma=0.0301  Rmin=1.3354  Rmax=1.4620    15

 selected bond angles (degree)
 --------------------
C5-C1-C3=122.12                C7-C1-C3=119.23                C7-C1-C5=118.59                C6-C2-C4=122.11                
C8-C2-C4=119.24                C8-C2-C6=118.59                C4-C3-C1=127.89                H15-C3-C1=114.18               
H15-C3-C4=117.88               C3-C4-C2=127.89                H16-C4-C2=114.19               H16-C4-C3=117.87               
C9-C5-C1=120.51                H17-C5-C1=119.45               H17-C5-C9=120.03               C10-C6-C2=120.51               
H18-C6-C2=119.45               H18-C6-C10=120.04              C11-C7-C1=120.77               H19-C7-C1=119.29               
H19-C7-C11=119.94              C12-C8-C2=120.76               H20-C8-C2=119.29               H20-C8-C12=119.94              
C13-C9-C5=120.36               H21-C9-C5=119.70               H21-C9-C13=119.94              C14-C10-C6=120.36              
H22-C10-C6=119.70              H22-C10-C14=119.94             

 selected dihedral angles (degree)
 ---------------------------------
C4-C3-C1-C5=318.46            C4-C3-C1-C7=141.37            H15-C3-C1-C5=141.09           H15-C3-C1-C7=324.00           
C3-C4-C2-C6=318.36            C3-C4-C2-C8=141.28            H16-C4-C2-C6=141.00           H16-C4-C2-C8=323.92           
C2-C4-C3-C1=359.80            C2-C4-C3-H15=177.08           H16-C4-C3-C1=177.08           H16-C4-C3-H15=354.36          
C9-C5-C1-C3=181.57            C9-C5-C1-C7=358.68            H17-C5-C1-C3=  0.80           H17-C5-C1-C7=177.90           
C10-C6-C2-C4=181.59           C10-C6-C2-C8=358.68           H18-C6-C2-C4=  0.82           H18-C6-C2-C8=177.91           
C11-C7-C1-C3=179.08           C11-C7-C1-C5=  1.89           H19-C7-C1-C3=358.16           H19-C7-C1-C5=180.97           
C12-C8-C2-C4=179.08           C12-C8-C2-C6=  1.90           H20-C8-C2-C4=358.17           H20-C8-C2-C6=181.00           
C13-C9-C5-C1=  0.05           C13-C9-C5-H17=180.83          H21-C9-C5-C1=179.79           H21-C9-C5-H17=  0.56          
C14-C10-C6-C2=  0.03          C14-C10-C6-H18=180.80         H22-C10-C6-C2=179.77          H22-C10-C6-H18=  0.55         
           -------------------------------------------------
          |                Final Singlepoint                |
           -------------------------------------------------

          ...................................................
          :                      SETUP                      :
          :.................................................:
          :  # basis functions                  68          :
          :  # atomic orbitals                  68          :
          :  # shells                           40          :
          :  # electrons                        68          :
          :  max. iterations                   250          :
          :  Hamiltonian                  GFN2-xTB          :
          :  restarted?                      false          :
          :  GBSA solvation                  false          :
          :  PC potential                    false          :
          :  electronic temp.          300.0000000     K    :
          :  accuracy                    1.0000000          :
          :  -> integral cutoff          0.2500000E+02      :
          :  -> integral neglect         0.1000000E-07      :
          :  -> SCF convergence          0.1000000E-05 Eh   :
          :  -> wf. convergence          0.1000000E-03 e    :
          :  Broyden damping             0.4000000          :
          ...................................................

 iter      E             dE          RMSdq      gap      omega  full diag
   1    -36.7605890 -0.367606E+02  0.596E-05    3.22       0.0  T
   2    -36.7605890 -0.596145E-11  0.480E-05    3.22     408.7  T
   3    -36.7605890 -0.418865E-10  0.199E-05    3.22     983.3  T

   *** convergence criteria satisfied after 3 iterations ***

         #    Occupation            Energy/Eh            Energy/eV
      -------------------------------------------------------------
         1        2.0000           -0.6436901             -17.5157
       ...           ...                  ...                  ...
        28        2.0000           -0.4213194             -11.4647
        29        2.0000           -0.4207566             -11.4494
        30        2.0000           -0.4124754             -11.2240
        31        2.0000           -0.4038989             -10.9906
        32        2.0000           -0.4001626             -10.8890
        33        2.0000           -0.3992574             -10.8643
        34        2.0000           -0.3734714             -10.1627 (HOMO)
        35                         -0.2552077              -6.9446 (LUMO)
        36                         -0.2222234              -6.0470
        37                         -0.2168548              -5.9009
        38                         -0.2137102              -5.8154
        39                         -0.1695438              -4.6135
       ...                                ...                  ...
        68                          0.6938045              18.8794
      -------------------------------------------------------------
                  HL-Gap            0.1182637 Eh            3.2181 eV
             Fermi-level           -0.3143396 Eh           -8.5536 eV

 SCC (total)                   0 d,  0 h,  0 min,  0.768 sec
 SCC setup                      ...        0 min,  0.064 sec (  8.347%)
 Dispersion                     ...        0 min,  0.091 sec ( 11.889%)
 classical contributions        ...        0 min,  0.021 sec (  2.737%)
 integral evaluation            ...        0 min,  0.090 sec ( 11.686%)
 iterations                     ...        0 min,  0.246 sec ( 32.053%)
 molecular gradient             ...        0 min,  0.255 sec ( 33.261%)
 printout                       ...        0 min,  0.000 sec (  0.021%)

         :::::::::::::::::::::::::::::::::::::::::::::::::::::
         ::                     SUMMARY                     ::
         :::::::::::::::::::::::::::::::::::::::::::::::::::::
         :: total energy             -36.044346702684 Eh    ::
         :: gradient norm              0.000504700742 Eh/a0 ::
         :: HOMO-LUMO gap              3.218117782789 eV    ::
         ::.................................................::
         :: SCC energy               -36.760588952888 Eh    ::
         :: -> isotropic ES            0.001617894850 Eh    ::
         :: -> anisotropic ES          0.004634586922 Eh    ::
         :: -> anisotropic XC          0.026022382070 Eh    ::
         :: -> dispersion             -0.026368191379 Eh    ::
         :: repulsion energy           0.716061090326 Eh    ::
         :: add. restraining           0.000006031534 Eh    ::
         :: total charge               0.000000000000 e     ::
         :::::::::::::::::::::::::::::::::::::::::::::::::::::

           -------------------------------------------------
          |                Property Printout                |
           -------------------------------------------------

    * Orbital Energies and Occupations

         #    Occupation            Energy/Eh            Energy/eV
      -------------------------------------------------------------
         1        2.0000           -0.6436901             -17.5157
       ...           ...                  ...                  ...
        22        2.0000           -0.4740553             -12.8997
        23        2.0000           -0.4715591             -12.8318
        24        2.0000           -0.4643721             -12.6362
        25        2.0000           -0.4522681             -12.3068
        26        2.0000           -0.4330315             -11.7834
        27        2.0000           -0.4254546             -11.5772
        28        2.0000           -0.4213194             -11.4647
        29        2.0000           -0.4207566             -11.4494
        30        2.0000           -0.4124754             -11.2240
        31        2.0000           -0.4038989             -10.9906
        32        2.0000           -0.4001626             -10.8890
        33        2.0000           -0.3992574             -10.8643
        34        2.0000           -0.3734714             -10.1627 (HOMO)
        35                         -0.2552077              -6.9446 (LUMO)
        36                         -0.2222234              -6.0470
        37                         -0.2168548              -5.9009
        38                         -0.2137102              -5.8154
        39                         -0.1695438              -4.6135
        40                         -0.0867346              -2.3602
        41                         -0.0785129              -2.1364
        42                          0.1047015               2.8491
        43                          0.1058629               2.8807
        44                          0.1291164               3.5134
        45                          0.1326374               3.6092
       ...                                ...                  ...
        68                          0.6938045              18.8794
      -------------------------------------------------------------
                  HL-Gap            0.1182637 Eh            3.2181 eV
             Fermi-level           -0.3143396 Eh           -8.5536 eV

     #   Z          covCN         q      C6AA      α(0)
     1   6 C        2.971     0.018    27.603     8.618
     2   6 C        2.971     0.018    27.603     8.618
     3   6 C        2.898    -0.039    28.957     8.823
     4   6 C        2.898    -0.039    28.956     8.823
     5   6 C        2.924    -0.031    28.774     8.797
     6   6 C        2.924    -0.031    28.774     8.797
     7   6 C        2.927    -0.036    28.889     8.814
     8   6 C        2.927    -0.036    28.890     8.815
     9   6 C        2.918    -0.030    28.741     8.791
    10   6 C        2.918    -0.030    28.741     8.791
    11   6 C        2.918    -0.030    28.752     8.793
    12   6 C        2.918    -0.030    28.752     8.793
    13   6 C        2.920    -0.031    28.785     8.798
    14   6 C        2.920    -0.031    28.786     8.798
    15   1 H        0.925     0.034     2.535     2.490
    16   1 H        0.925     0.034     2.535     2.490
    17   1 H        0.926     0.031     2.565     2.505
    18   1 H        0.926     0.031     2.566     2.505
    19   1 H        0.925     0.028     2.614     2.528
    20   1 H        0.926     0.028     2.613     2.528
    21   1 H        0.926     0.029     2.607     2.525
    22   1 H        0.926     0.029     2.607     2.525
    23   1 H        0.926     0.028     2.609     2.526
    24   1 H        0.926     0.028     2.609     2.526
    25   1 H        0.926     0.028     2.610     2.526
    26   1 H        0.926     0.028     2.610     2.526

 Mol. C6AA /au·bohr⁶  :       8876.701723
 Mol. C8AA /au·bohr⁸  :     220904.597251
 Mol. α(0) /au        :        153.069040


Wiberg/Mayer (AO) data.
largest (>0.10) Wiberg bond orders for each atom

 ---------------------------------------------------------------------------
     #   Z sym  total        # sym  WBO       # sym  WBO       # sym  WBO
 ---------------------------------------------------------------------------
     1   6 C    3.990 --     7 C    1.382     5 C    1.379     3 C    1.073
                            13 C    0.104
     2   6 C    3.990 --     8 C    1.382     6 C    1.379     4 C    1.073
                            14 C    0.104
     3   6 C    3.990 --     4 C    1.824     1 C    1.073    15 H    0.960
     4   6 C    3.990 --     3 C    1.824     2 C    1.073    16 H    0.960
     5   6 C    3.992 --     9 C    1.457     1 C    1.379    17 H    0.969
                            11 C    0.108
     6   6 C    3.992 --    10 C    1.457     2 C    1.379    18 H    0.969
                            12 C    0.108
     7   6 C    3.987 --    11 C    1.453     1 C    1.382    19 H    0.970
                             9 C    0.106
     8   6 C    3.987 --    12 C    1.453     2 C    1.382    20 H    0.970
                            10 C    0.106
     9   6 C    3.992 --     5 C    1.457    13 C    1.430    21 H    0.971
                             7 C    0.106
    10   6 C    3.992 --     6 C    1.457    14 C    1.430    22 H    0.971
                             8 C    0.106
    11   6 C    3.992 --     7 C    1.453    13 C    1.434    23 H    0.971
                             5 C    0.108
    12   6 C    3.992 --     8 C    1.453    14 C    1.434    24 H    0.971
                             6 C    0.108
    13   6 C    3.989 --    11 C    1.434     9 C    1.430    25 H    0.972
                             1 C    0.104
    14   6 C    3.989 --    12 C    1.434    10 C    1.430    26 H    0.972
                             2 C    0.104
    15   1 H    0.998 --     3 C    0.960
    16   1 H    0.998 --     4 C    0.960
    17   1 H    0.999 --     5 C    0.969
    18   1 H    0.999 --     6 C    0.969
    19   1 H    0.999 --     7 C    0.970
    20   1 H    0.999 --     8 C    0.970
    21   1 H    0.999 --     9 C    0.971
    22   1 H    0.999 --    10 C    0.971
    23   1 H    0.998 --    11 C    0.971
    24   1 H    0.998 --    12 C    0.971
    25   1 H    0.999 --    13 C    0.972
    26   1 H    0.999 --    14 C    0.972
 ---------------------------------------------------------------------------

Topologies differ in total number of bonds
Writing topology from bond orders to xtbtopo.mol

molecular dipole:
                 x           y           z       tot (Debye)
 q only:        0.036       0.034       0.000
   full:        0.044       0.042       0.001       0.155
molecular quadrupole (traceless):
                xx          xy          yy          xz          yz          zz
 q only:        0.616       0.186       0.580      -0.772       0.830      -1.196
  q+dip:        2.959       0.142       2.852      -3.581       3.823      -5.811
   full:        1.370       0.217       1.306      -1.742       1.862      -2.676

           -------------------------------------------------
          |                Geometry Summary                 |
           -------------------------------------------------

      molecular mass/u    :      180.2455916
   center of mass at/Å    :       -1.4595804      -1.4307683       0.0002514
  moments of inertia/u·Å² :        0.3293739E+03   0.1168867E+04   0.1359301E+04
rotational constants/cm⁻¹ :        0.5118084E-01   0.1442220E-01   0.1240169E-01

 * 25 selected distances

     #   Z          #   Z                                           value/Å
     3   6 C        4   6 C                                       1.3354013
     1   6 C        5   6 C                                       1.3943751
     2   6 C        6   6 C                                       1.3944108
     1   6 C        7   6 C                                       1.3944927
     2   6 C        8   6 C                                       1.3945394 (max)
     5   6 C        9   6 C                                       1.3816525
     6   6 C       10   6 C                                       1.3816349
     7   6 C       11   6 C                                       1.3820399
     8   6 C       12   6 C                                       1.3820483
     9   6 C       13   6 C                                       1.3855846
    11   6 C       13   6 C                                       1.3848582
    10   6 C       14   6 C                                       1.3856015
    12   6 C       14   6 C                                       1.3848967
     3   6 C       15   1 H                                       1.0841915
     4   6 C       16   1 H                                       1.0842169
     5   6 C       17   1 H                                       1.0797684 (min)
     6   6 C       18   1 H                                       1.0797939
     7   6 C       19   1 H                                       1.0812738
     8   6 C       20   1 H                                       1.0809290
     9   6 C       21   1 H                                       1.0804056
    10   6 C       22   1 H                                       1.0805761
    11   6 C       23   1 H                                       1.0806601
    12   6 C       24   1 H                                       1.0804888
    13   6 C       25   1 H                                       1.0800946
    14   6 C       26   1 H                                       1.0801174

 * 2 distinct bonds (by element types)

   Z      Z             #   av. dist./Å        max./Å        min./Å
   1 H    6 C          12     1.0810430     1.0842169     1.0797684
   6 C    6 C          13     1.3831951     1.3945394     1.3354013


optimized geometry written to: xtbopt.xyz


           -------------------------------------------------
          | TOTAL ENERGY              -36.044346702684 Eh   |
          | GRADIENT NORM               0.000504700742 Eh/α |
          | HOMO-LUMO GAP               3.218117782789 eV   |
           -------------------------------------------------

------------------------------------------------------------------------
 * finished run on 2026/07/30 at 13:25:01.775     
------------------------------------------------------------------------
 total:
 * wall-time:     0 d,  0 h,  0 min, 59.046 sec
 *  cpu-time:     0 d,  0 h,  0 min, 44.776 sec
 * ratio c/w:     0.758 speedup
 SCF:
 * wall-time:     0 d,  0 h,  0 min,  4.170 sec
 *  cpu-time:     0 d,  0 h,  0 min,  2.482 sec
 * ratio c/w:     0.595 speedup
 ANC optimizer:
 * wall-time:     0 d,  0 h,  0 min, 54.370 sec
 *  cpu-time:     0 d,  0 h,  0 min, 42.056 sec
 * ratio c/w:     0.774 speedup

