      -----------------------------------------------------------      
     |                   =====================                   |     
     |                           x T B                           |     
     |                   =====================                   |     
     |                         S. Grimme                         |     
     |          Mulliken Center for Theoretical Chemistry        |     
     |                    University of Bonn                     |     
      -----------------------------------------------------------      

   * xtb version 6.5.1 (b24c23e) compiled by 'conda@728c89f4b128' on 2022-07-12

   xtb is free software: you can redistribute it and/or modify it under
   the terms of the GNU Lesser General Public License as published by
   the Free Software Foundation, either version 3 of the License, or
   (at your option) any later version.
   
   xtb is distributed in the hope that it will be useful,
   but WITHOUT ANY WARRANTY; without even the implied warranty of
   MERCHANTABILITY or FITNESS FOR A PARTICULAR PURPOSE.  See the
   GNU Lesser General Public License for more details.
   
   Cite this work as:
   * C. Bannwarth, E. Caldeweyher, S. Ehlert, A. Hansen, P. Pracht,
     J. Seibert, S. Spicher, S. Grimme, WIREs Comput. Mol. Sci., 2020, 11,
     e01493. DOI: 10.1002/wcms.1493
   
   for GFN2-xTB:
   * C. Bannwarth, S. Ehlert and S. Grimme., J. Chem. Theory Comput., 2019,
     15, 1652-1671. DOI: 10.1021/acs.jctc.8b01176
   for GFN1-xTB:
   * S. Grimme, C. Bannwarth, P. Shushkov, J. Chem. Theory Comput., 2017,
     13, 1989-2009. DOI: 10.1021/acs.jctc.7b00118
   for GFN0-xTB:
   * P. Pracht, E. Caldeweyher, S. Ehlert, S. Grimme, ChemRxiv, 2019, preprint.
     DOI: 10.26434/chemrxiv.8326202.v1
   for GFN-FF:
   * S. Spicher and S. Grimme, Angew. Chem. Int. Ed., 2020, 59, 15665-15673.
     DOI: 10.1002/anie.202004239
   
   for ALPB and GBSA implicit solvation:
   * S. Ehlert, M. Stahn, S. Spicher, S. Grimme, J. Chem. Theory Comput.,
     2021, 17, 4250-4261. DOI: 10.1021/acs.jctc.1c00471
   
   for DFT-D4:
   * E. Caldeweyher, C. Bannwarth and S. Grimme, J. Chem. Phys., 2017,
     147, 034112. DOI: 10.1063/1.4993215
   * E. Caldeweyher, S. Ehlert, A. Hansen, H. Neugebauer, S. Spicher,
     C. Bannwarth and S. Grimme, J. Chem. Phys., 2019, 150, 154122.
     DOI: 10.1063/1.5090222
   * E. Caldeweyher, J.-M. Mewes, S. Ehlert and S. Grimme, Phys. Chem. Chem. Phys.
     2020, 22, 8499-8512. DOI: 10.1039/D0CP00502A
   
   for sTDA-xTB:
   * S. Grimme and C. Bannwarth, J. Chem. Phys., 2016, 145, 054103.
     DOI: 10.1063/1.4959605
   
   in the mass-spec context:
   * V. Asgeirsson, C. Bauer and S. Grimme, Chem. Sci., 2017, 8, 4879.
     DOI: 10.1039/c7sc00601b
   * J. Koopman and S. Grimme, ACS Omega 2019, 4, 12, 15120-15133.
     DOI: 10.1021/acsomega.9b02011
   
   for metadynamics refer to:
   * S. Grimme, J. Chem. Theory Comput., 2019, 155, 2847-2862
     DOI: 10.1021/acs.jctc.9b00143
   
   for SPH calculations refer to:
   * S. Spicher and S. Grimme, J. Chem. Theory Comput., 2021, 17, 1701-1714
     DOI: 10.1021/acs.jctc.0c01306
   
   with help from (in alphabetical order)
   P. Atkinson, C. Bannwarth, F. Bohle, G. Brandenburg, E. Caldeweyher
   M. Checinski, S. Dohm, S. Ehlert, S. Ehrlich, I. Gerasimov, C. Hölzer
   A. Katbashev, J. Koopman, C. Lavigne, S. Lehtola, F. März, M. Müller,
   F. Musil, H. Neugebauer, J. Pisarek, C. Plett, P. Pracht, F. Pultar,
   J. Seibert, P. Shushkov, S. Spicher, M. Stahn, M. Steiner, T. Strunk,
   J. Stückrath, T. Rose, and J. Unsleber
   
 * started run on 2026/07/21 at 15:00:19.642     

           -------------------------------------------------
          |                Calculation Setup                |
           -------------------------------------------------

          program call               : /h/332/chchoi/miniconda3/envs/el-agente/bin/xtb ts_guess3.xyz --opt --gfn 2 -P 4 --chrg 1 --uhf 0 --input detailed_input.inp
          coordinate file            : ts_guess3.xyz
          omp threads                :                     4

   ID    Z sym.   atoms
    1   40 Zr     1
    2    6 C      2-7, 13-17, 23, 24
    3    1 H      8-12, 18-22, 25-31
constraining bond 1 2 to    2.4750000 Å, actual value:    2.4750002 Å
constraining bond 1 24 to    2.5630000 Å, actual value:    2.5634266 Å
constraining bond 2 24 to    2.3300000 Å, actual value:    2.3278084 Å
constraining bond 23 24 to    1.3350000 Å, actual value:    1.3349601 Å
constraining angle 2 1 24 to   55.0000000°, actual value:   55.0000000°
constraining angle 23 1 24 to   30.2000000°, actual value:   30.1859195°

           -------------------------------------------------
          |                 G F N 2 - x T B                 |
           -------------------------------------------------

        Reference                      10.1021/acs.jctc.8b01176
      * Hamiltonian:
        H0-scaling (s, p, d)           1.850000    2.230000    2.230000
        zeta-weighting                 0.500000
      * Dispersion:
        s8                             2.700000
        a1                             0.520000
        a2                             5.000000
        s9                             5.000000
      * Repulsion:
        kExp                           1.500000    1.000000
        rExp                           1.000000
      * Coulomb:
        alpha                          2.000000
        third order                    shell-resolved
        anisotropic                    true
        a3                             3.000000
        a5                             4.000000
        cn-shift                       1.200000
        cn-exp                         4.000000
        max-rad                        5.000000


          ...................................................
          :                      SETUP                      :
          :.................................................:
          :  # basis functions                  79          :
          :  # atomic orbitals                  78          :
          :  # shells                           46          :
          :  # electrons                        72          :
          :  max. iterations                   250          :
          :  Hamiltonian                  GFN2-xTB          :
          :  restarted?                      false          :
          :  GBSA solvation                  false          :
          :  PC potential                    false          :
          :  electronic temp.          300.0000000     K    :
          :  accuracy                    1.0000000          :
          :  -> integral cutoff          0.2500000E+02      :
          :  -> integral neglect         0.1000000E-07      :
          :  -> SCF convergence          0.1000000E-05 Eh   :
          :  -> wf. convergence          0.1000000E-03 e    :
          :  Broyden damping             0.4000000          :
          ...................................................

 iter      E             dE          RMSdq      gap      omega  full diag
   1    -37.7871381 -0.377871E+02  0.544E+00    0.44       0.0  T
   2    -37.8962159 -0.109078E+00  0.388E+00    1.85       1.0  T
   3    -37.9706576 -0.744417E-01  0.275E+00    0.84       1.0  T
   4    -37.9730615 -0.240385E-02  0.110E+00    0.80       1.0  T
   5    -37.9813724 -0.831094E-02  0.412E-01    1.03       1.0  T
   6    -37.9829610 -0.158856E-02  0.190E-01    0.99       1.0  T
   7    -37.9830982 -0.137293E-03  0.128E-01    1.01       1.0  T
   8    -37.9831873 -0.890499E-04  0.773E-02    1.02       1.0  T
   9    -37.9831887 -0.139108E-05  0.574E-02    1.01       1.0  T
  10    -37.9832056 -0.168706E-04  0.206E-02    1.02       1.0  T
  11    -37.9832072 -0.168702E-05  0.115E-02    1.02       1.6  T
  12    -37.9832089 -0.164007E-05  0.562E-03    1.02       3.2  T
  13    -37.9832090 -0.979788E-07  0.186E-03    1.02       9.6  T
  14    -37.9832090 -0.304126E-07  0.116E-03    1.02      15.5  T
  15    -37.9832090 -0.252059E-08  0.683E-04    1.02      26.3  T
  16    -37.9832090 -0.204103E-09  0.349E-04    1.02      51.4  T

   *** convergence criteria satisfied after 16 iterations ***

         #    Occupation            Energy/Eh            Energy/eV
      -------------------------------------------------------------
         1        2.0000           -0.8508878             -23.1538
       ...           ...                  ...                  ...
        30        2.0000           -0.5482972             -14.9199
        31        2.0000           -0.5258160             -14.3082
        32        2.0000           -0.5056113             -13.7584
        33        2.0000           -0.5033314             -13.6963
        34        2.0000           -0.4951776             -13.4745
        35        2.0000           -0.4911068             -13.3637
        36        2.0000           -0.4810781             -13.0908 (HOMO)
        37                         -0.4437110             -12.0740 (LUMO)
        38                         -0.4375053             -11.9051
        39                         -0.4323606             -11.7651
        40                         -0.4293178             -11.6823
        41                         -0.4201503             -11.4329
       ...                                ...                  ...
        78                          1.9073812              51.9025
      -------------------------------------------------------------
                  HL-Gap            0.0373671 Eh            1.0168 eV
             Fermi-level           -0.4623952 Eh          -12.5824 eV

 SCC (total)                   0 d,  0 h,  0 min,  0.628 sec
 SCC setup                      ...        0 min,  0.013 sec (  2.002%)
 Dispersion                     ...        0 min,  0.021 sec (  3.396%)
 classical contributions        ...        0 min,  0.004 sec (  0.689%)
 integral evaluation            ...        0 min,  0.025 sec (  3.941%)
 iterations                     ...        0 min,  0.546 sec ( 87.022%)
 molecular gradient             ...        0 min,  0.018 sec (  2.899%)
 printout                       ...        0 min,  0.000 sec (  0.045%)

         :::::::::::::::::::::::::::::::::::::::::::::::::::::
         ::                     SUMMARY                     ::
         :::::::::::::::::::::::::::::::::::::::::::::::::::::
         :: total energy             -37.385597218950 Eh    ::
         :: gradient norm              0.332630319100 Eh/a0 ::
         :: HOMO-LUMO gap              1.016810494234 eV    ::
         ::.................................................::
         :: SCC energy               -37.983209016494 Eh    ::
         :: -> isotropic ES            0.099054920428 Eh    ::
         :: -> anisotropic ES         -0.001766788122 Eh    ::
         :: -> anisotropic XC          0.020121272365 Eh    ::
         :: -> dispersion             -0.027137862381 Eh    ::
         :: repulsion energy           0.596810046388 Eh    ::
         :: add. restraining           0.000008934098 Eh    ::
         :: total charge               0.999999999992 e     ::
         :::::::::::::::::::::::::::::::::::::::::::::::::::::

      ----------------------------------------------------------- 
     |                   =====================                   |
     |                        A N C O P T                        |
     |                   =====================                   |
     |               Approximate Normal Coordinate               |
     |                Rational Function Optimizer                |
      ----------------------------------------------------------- 

          ...................................................
          :                      SETUP                      :
          :.................................................:
          :   optimization level            normal          :
          :   max. optcycles                   200          :
          :   ANC micro-cycles                  20          :
          :   degrees of freedom                87          :
          :.................................................:
          :   RF solver                   davidson          :
          :   write xtbopt.log                true          :
          :   linear?                        false          :
          :   energy convergence         0.5000000E-05 Eh   :
          :   grad. convergence          0.1000000E-02 Eh/α :
          :   maximium RF displ.         1.0000000          :
          :   Hlow (freq-cutoff)         0.1000000E-01      :
          :   Hmax (freq-cutoff)         5.0000000          :
          :   S6 in model hess.         20.0000000          :
          ...................................................

generating ANC from model Hessian ...
Using Lindh-Hessian (1995)
 Shifting diagonal of input Hessian by    1.3454174243345577E-002
 Lowest  eigenvalues of input Hessian
    0.010000    0.000000    0.000000    0.000000    0.000000    0.000000
    0.000000    0.013593    0.013669    0.013742    0.013983    0.014087
    0.014292    0.014374    0.014727    0.014828    0.015080    0.015546
 Highest eigenvalues
    1.495477    1.495675    1.632912    2.286616    3.377453    4.118475


........................................................................
.............................. CYCLE    1 ..............................
........................................................................
   1    -37.9832090 -0.379832E+02  0.127E-04    1.02       0.0  T
   2    -37.9832090 -0.304397E-10  0.582E-05    1.02     308.4  T
   3    -37.9832090 -0.294449E-10  0.521E-05    1.02     344.9  T
     SCC iter.                  ...        0 min,  0.156 sec
     gradient                   ...        0 min,  0.023 sec
 * total energy  :   -37.3855972 Eh     change       -0.5943193E-09 Eh
   gradient norm :     0.3326258 Eh/α   predicted     0.0000000E+00 (-100.00%)
   displ. norm   :     0.6228712 α      lambda       -0.1574241E+00
   maximum displ.:     0.3194037 α      in ANC's #22, #54, #70, ...

........................................................................
.............................. CYCLE    2 ..............................
........................................................................
   1    -38.1122832 -0.381123E+02  0.732E-01    1.31       0.0  T
   2    -38.1128937 -0.610462E-03  0.583E-01    1.24       1.0  T
   3    -38.1126427  0.250968E-03  0.286E-01    1.34       1.0  T
   4    -38.1133748 -0.732038E-03  0.116E-01    1.28       1.0  T
   5    -38.1133969 -0.221373E-04  0.560E-02    1.29       1.0  T
   6    -38.1134135 -0.166081E-04  0.343E-02    1.28       1.0  T
   7    -38.1134215 -0.801502E-05  0.194E-02    1.28       1.0  T
   8    -38.1134231 -0.155006E-05  0.941E-03    1.28       1.9  T
   9    -38.1134237 -0.625452E-06  0.460E-03    1.28       3.9  T
  10    -38.1134238 -0.547579E-07  0.180E-03    1.28      10.0  T
  11    -38.1134238 -0.279653E-08  0.875E-04    1.28      20.5  T
  12    -38.1134238 -0.871611E-08  0.447E-04    1.28      40.2  T
     SCC iter.                  ...        0 min,  0.469 sec
     gradient                   ...        0 min,  0.109 sec
 * total energy  :   -37.4984751 Eh     change       -0.1128778E+00 Eh
   gradient norm :     0.1520954 Eh/α   predicted    -0.1092805E+00 (  -3.19%)
   displ. norm   :     0.5979191 α      lambda       -0.6781968E-01
   maximum displ.:     0.3194473 α      in ANC's #22, #4, #54, ...

........................................................................
.............................. CYCLE    3 ..............................
........................................................................
   1    -38.1828585 -0.381829E+02  0.544E-01    1.47       0.0  T
   2    -38.1832497 -0.391290E-03  0.386E-01    1.41       1.0  T
   3    -38.1829372  0.312536E-03  0.227E-01    1.46       1.0  T
   4    -38.1834788 -0.541601E-03  0.817E-02    1.41       1.0  T
   5    -38.1834914 -0.125385E-04  0.498E-02    1.41       1.0  T
   6    -38.1835101 -0.187207E-04  0.301E-02    1.42       1.0  T
   7    -38.1835139 -0.386335E-05  0.171E-02    1.42       1.0  T
   8    -38.1835140 -0.648306E-07  0.701E-03    1.42       2.6  T
   9    -38.1835143 -0.304105E-06  0.236E-03    1.42       7.6  T
  10    -38.1835143 -0.115771E-07  0.121E-03    1.42      14.8  T
  11    -38.1835143 -0.762904E-08  0.691E-04    1.42      26.0  T
  12    -38.1835143 -0.202279E-08  0.483E-04    1.42      37.2  T
     SCC iter.                  ...        0 min,  0.430 sec
     gradient                   ...        0 min,  0.072 sec
 * total energy  :   -37.5488202 Eh     change       -0.5034518E-01 Eh
   gradient norm :     0.0969577 Eh/α   predicted    -0.4603287E-01 (  -8.57%)
   displ. norm   :     0.6212396 α      lambda       -0.3838632E-01
   maximum displ.:     0.3348883 α      in ANC's #4, #22, #13, ...

........................................................................
.............................. CYCLE    4 ..............................
........................................................................
   1    -38.2187610 -0.382188E+02  0.451E-01    1.43       0.0  T
   2    -38.2190604 -0.299400E-03  0.332E-01    1.41       1.0  T
   3    -38.2189617  0.986950E-04  0.267E-01    1.39       1.0  T
   4    -38.2194114 -0.449621E-03  0.794E-02    1.41       1.0  T
   5    -38.2194437 -0.323544E-04  0.692E-02    1.38       1.0  T
   6    -38.2194735 -0.298048E-04  0.302E-02    1.40       1.0  T
   7    -38.2194758 -0.224907E-05  0.158E-02    1.40       1.1  T
   8    -38.2194760 -0.238002E-06  0.857E-03    1.40       2.1  T
   9    -38.2194764 -0.426124E-06  0.310E-03    1.40       5.8  T
  10    -38.2194765 -0.251048E-07  0.167E-03    1.40      10.8  T
  11    -38.2194765 -0.147488E-07  0.464E-04    1.40      38.7  T
  12    -38.2194765 -0.589111E-10  0.336E-04    1.40      53.5  T
     SCC iter.                  ...        0 min,  0.371 sec
     gradient                   ...        0 min,  0.105 sec
 * total energy  :   -37.5767072 Eh     change       -0.2788691E-01 Eh
   gradient norm :     0.0755361 Eh/α   predicted    -0.2660059E-01 (  -4.61%)
   displ. norm   :     0.8220595 α      lambda       -0.3713123E-01
   maximum displ.:     0.4597564 α      in ANC's #1, #4, #70, ...

........................................................................
.............................. CYCLE    5 ..............................
........................................................................
   1    -38.2340177 -0.382340E+02  0.110E+00    1.39       0.0  T
   2    -38.2355316 -0.151397E-02  0.978E-01    1.39       1.0  T
   3    -38.2361213 -0.589633E-03  0.706E-01    1.33       1.0  T
   4    -38.2353795  0.741756E-03  0.315E-01    1.42       1.0  T
   5    -38.2371202 -0.174069E-02  0.149E-01    1.33       1.0  T
   6    -38.2372294 -0.109260E-03  0.762E-02    1.37       1.0  T
   7    -38.2372481 -0.186734E-04  0.269E-02    1.37       1.0  T
   8    -38.2372491 -0.984741E-06  0.134E-02    1.37       1.3  T
   9    -38.2372501 -0.992974E-06  0.608E-03    1.37       3.0  T
  10    -38.2372501 -0.304366E-07  0.281E-03    1.37       6.4  T
  11    -38.2372501 -0.141858E-07  0.154E-03    1.37      11.6  T
  12    -38.2372502 -0.199934E-07  0.478E-04    1.37      37.6  T
  13    -38.2372502  0.208232E-09  0.269E-04    1.37      66.8  T
     SCC iter.                  ...        0 min,  0.413 sec
     gradient                   ...        0 min,  0.012 sec
 * total energy  :   -37.5825993 Eh     change       -0.5892185E-02 Eh
   gradient norm :     0.1030213 Eh/α   predicted    -0.3111193E-01 ( 428.02%)
   displ. norm   :     0.5118850 α      lambda       -0.3822920E-01
   maximum displ.:     0.3333857 α      in ANC's #1, #13, #4, ...

........................................................................
.............................. CYCLE    6 ..............................
........................................................................
   1    -38.2486820 -0.382487E+02  0.623E-01    1.44       0.0  T
   2    -38.2493813 -0.699333E-03  0.599E-01    1.46       1.0  T
   3    -38.2496021 -0.220812E-03  0.455E-01    1.43       1.0  T
   4    -38.2487316  0.870491E-03  0.243E-01    1.49       1.0  T
   5    -38.2497411 -0.100946E-02  0.824E-02    1.44       1.0  T
   6    -38.2497630 -0.218839E-04  0.550E-02    1.45       1.0  T
   7    -38.2497712 -0.821518E-05  0.171E-02    1.44       1.0  T
   8    -38.2497711  0.130915E-06  0.844E-03    1.44       2.1  T
   9    -38.2497718 -0.720977E-06  0.420E-03    1.44       4.3  T
  10    -38.2497720 -0.174713E-06  0.187E-03    1.44       9.6  T
  11    -38.2497720 -0.511806E-08  0.468E-04    1.44      38.3  T
  12    -38.2497720 -0.175931E-08  0.240E-04    1.44      74.8  T
     SCC iter.                  ...        0 min,  0.328 sec
     gradient                   ...        0 min,  0.009 sec
 * total energy  :   -37.6034610 Eh     change       -0.2086166E-01 Eh
   gradient norm :     0.0612384 Eh/α   predicted    -0.2412314E-01 (  15.63%)
   displ. norm   :     0.5554799 α      lambda       -0.1170244E-01
   maximum displ.:     0.3737509 α      in ANC's #4, #2, #13, ...

........................................................................
.............................. CYCLE    7 ..............................
........................................................................
   1    -38.2428454 -0.382428E+02  0.356E-01    1.41       0.0  T
   2    -38.2429646 -0.119254E-03  0.279E-01    1.41       1.0  T
   3    -38.2427957  0.168902E-03  0.214E-01    1.37       1.0  T
   4    -38.2431250 -0.329275E-03  0.603E-02    1.41       1.0  T
   5    -38.2431510 -0.260657E-04  0.462E-02    1.39       1.0  T
   6    -38.2431588 -0.774967E-05  0.229E-02    1.40       1.0  T
   7    -38.2431604 -0.157548E-05  0.109E-02    1.40       1.7  T
   8    -38.2431609 -0.534945E-06  0.652E-03    1.40       2.8  T
   9    -38.2431611 -0.154759E-06  0.271E-03    1.40       6.6  T
  10    -38.2431611 -0.452177E-07  0.130E-03    1.40      13.8  T
  11    -38.2431611 -0.665879E-08  0.303E-04    1.40      59.3  T
  12    -38.2431611 -0.500279E-09  0.164E-04    1.40     109.8  T
     SCC iter.                  ...        0 min,  0.336 sec
     gradient                   ...        0 min,  0.008 sec
 * total energy  :   -37.6107908 Eh     change       -0.7329790E-02 Eh
   gradient norm :     0.0418007 Eh/α   predicted    -0.7656666E-02 (   4.46%)
   displ. norm   :     0.6116503 α      lambda       -0.9332945E-02
   maximum displ.:     0.3131944 α      in ANC's #4, #19, #13, ...

........................................................................
.............................. CYCLE    8 ..............................
........................................................................
   1    -38.2500844 -0.382501E+02  0.313E-01    1.43       0.0  T
   2    -38.2500755  0.887882E-05  0.202E-01    1.45       1.0  T
   3    -38.2499267  0.148794E-03  0.173E-01    1.41       1.0  T
   4    -38.2503594 -0.432669E-03  0.367E-02    1.44       1.0  T
   5    -38.2503730 -0.136764E-04  0.183E-02    1.43       1.0  T
   6    -38.2503742 -0.114815E-05  0.865E-03    1.43       2.1  T
   7    -38.2503744 -0.250162E-06  0.442E-03    1.43       4.1  T
   8    -38.2503744  0.371859E-08  0.246E-03    1.43       7.3  T
   9    -38.2503745 -0.395923E-07  0.100E-03    1.43      17.9  T
  10    -38.2503745 -0.298895E-08  0.639E-04    1.43      28.1  T
  11    -38.2503745 -0.766697E-09  0.210E-04    1.43      85.6  T
     SCC iter.                  ...        0 min,  0.304 sec
     gradient                   ...        0 min,  0.025 sec
 * total energy  :   -37.6176271 Eh     change       -0.6836355E-02 Eh
   gradient norm :     0.0352949 Eh/α   predicted    -0.6412273E-02 (  -6.20%)
   displ. norm   :     0.6128838 α      lambda       -0.7867608E-02
   maximum displ.:     0.3526406 α      in ANC's #4, #12, #13, ...

........................................................................
.............................. CYCLE    9 ..............................
........................................................................
   1    -38.2635956 -0.382636E+02  0.316E-01    1.44       0.0  T
   2    -38.2636552 -0.596264E-04  0.221E-01    1.45       1.0  T
   3    -38.2635299  0.125320E-03  0.145E-01    1.42       1.0  T
   4    -38.2638043 -0.274405E-03  0.621E-02    1.46       1.0  T
   5    -38.2638287 -0.244254E-04  0.265E-02    1.44       1.0  T
   6    -38.2638290 -0.252437E-06  0.175E-02    1.45       1.0  T
   7    -38.2638309 -0.192745E-05  0.720E-03    1.44       2.5  T
   8    -38.2638310 -0.133808E-06  0.386E-03    1.44       4.7  T
   9    -38.2638311 -0.806556E-07  0.138E-03    1.44      13.0  T
  10    -38.2638311 -0.256455E-08  0.724E-04    1.45      24.8  T
  11    -38.2638311 -0.897693E-09  0.254E-04    1.45      70.7  T
     SCC iter.                  ...        0 min,  0.178 sec
     gradient                   ...        0 min,  0.004 sec
 * total energy  :   -37.6225049 Eh     change       -0.4877777E-02 Eh
   gradient norm :     0.0266559 Eh/α   predicted    -0.5411447E-02 (  10.94%)
   displ. norm   :     0.5684210 α      lambda       -0.4360779E-02
   maximum displ.:     0.3347938 α      in ANC's #12, #4, #19, ...

........................................................................
.............................. CYCLE   10 ..............................
........................................................................
   1    -38.2618426 -0.382618E+02  0.299E-01    1.45       0.0  T
   2    -38.2617598  0.827393E-04  0.209E-01    1.51       1.0  T
   3    -38.2619727 -0.212850E-03  0.164E-01    1.45       1.0  T
   4    -38.2621658 -0.193083E-03  0.316E-02    1.47       1.0  T
   5    -38.2621725 -0.667209E-05  0.211E-02    1.47       1.0  T
   6    -38.2621740 -0.156906E-05  0.573E-03    1.47       3.1  T
   7    -38.2621745 -0.466102E-06  0.156E-03    1.47      11.5  T
   8    -38.2621745 -0.503211E-08  0.112E-03    1.47      16.0  T
   9    -38.2621745 -0.415957E-08  0.731E-04    1.47      24.6  T
  10    -38.2621745 -0.298261E-08  0.321E-04    1.47      56.0  T
     SCC iter.                  ...        0 min,  0.030 sec
     gradient                   ...        0 min,  0.007 sec
 * total energy  :   -37.6256740 Eh     change       -0.3169101E-02 Eh
   gradient norm :     0.0306089 Eh/α   predicted    -0.2884883E-02 (  -8.97%)
   displ. norm   :     0.5850448 α      lambda       -0.3744399E-02
   maximum displ.:     0.3838390 α      in ANC's #12, #4, #3, ...

........................................................................
.............................. CYCLE   11 ..............................
........................................................................
   1    -38.2599164 -0.382599E+02  0.302E-01    1.50       0.0  T
   2    -38.2599130  0.343610E-05  0.184E-01    1.52       1.0  T
   3    -38.2595195  0.393520E-03  0.171E-01    1.48       1.0  T
   4    -38.2599651 -0.445619E-03  0.214E-02    1.51       1.0  T
   5    -38.2599684 -0.334649E-05  0.185E-02    1.51       1.0  T
   6    -38.2599692 -0.788511E-06  0.606E-03    1.51       3.0  T
   7    -38.2599697 -0.514938E-06  0.143E-03    1.51      12.6  T
   8    -38.2599697 -0.124151E-07  0.744E-04    1.51      24.2  T
   9    -38.2599697 -0.177278E-08  0.380E-04    1.51      47.3  T
     SCC iter.                  ...        0 min,  0.024 sec
     gradient                   ...        0 min,  0.004 sec
 * total energy  :   -37.6285391 Eh     change       -0.2865109E-02 Eh
   gradient norm :     0.0331778 Eh/α   predicted    -0.2513010E-02 ( -12.29%)
   displ. norm   :     0.5808939 α      lambda       -0.4057975E-02
   maximum displ.:     0.3779895 α      in ANC's #12, #3, #6, ...

........................................................................
.............................. CYCLE   12 ..............................
........................................................................
   1    -38.2759166 -0.382759E+02  0.353E-01    1.53       0.0  T
   2    -38.2759328 -0.162396E-04  0.236E-01    1.53       1.0  T
   3    -38.2758474  0.854849E-04  0.628E-02    1.53       1.0  T
   4    -38.2759396 -0.922461E-04  0.208E-02    1.53       1.0  T
   5    -38.2759416 -0.200697E-05  0.128E-02    1.54       1.4  T
   6    -38.2759416  0.135131E-07  0.708E-03    1.53       2.5  T
   7    -38.2759422 -0.651455E-06  0.216E-03    1.53       8.3  T
   8    -38.2759423 -0.341673E-07  0.120E-03    1.53      14.9  T
   9    -38.2759423 -0.458336E-08  0.413E-04    1.53      43.5  T
  10    -38.2759423 -0.856879E-09  0.255E-04    1.53      70.5  T
     SCC iter.                  ...        0 min,  0.018 sec
     gradient                   ...        0 min,  0.004 sec
 * total energy  :   -37.6310768 Eh     change       -0.2537678E-02 Eh
   gradient norm :     0.0250994 Eh/α   predicted    -0.2713644E-02 (   6.93%)
   displ. norm   :     0.6022080 α      lambda       -0.3303288E-02
   maximum displ.:     0.4237012 α      in ANC's #12, #3, #8, ...

........................................................................
.............................. CYCLE   13 ..............................
........................................................................
   1    -38.2684420 -0.382684E+02  0.265E-01    1.55       0.0  T
   2    -38.2683872  0.548163E-04  0.194E-01    1.61       1.0  T
   3    -38.2686177 -0.230500E-03  0.127E-01    1.56       1.0  T
   4    -38.2686842 -0.665315E-04  0.361E-02    1.58       1.0  T
   5    -38.2687082 -0.240154E-04  0.161E-02    1.57       1.1  T
   6    -38.2687087 -0.446126E-06  0.695E-03    1.57       2.6  T
   7    -38.2687088 -0.164690E-06  0.383E-03    1.57       4.7  T
   8    -38.2687088 -0.532221E-08  0.260E-03    1.57       6.9  T
   9    -38.2687089 -0.364316E-07  0.118E-03    1.57      15.2  T
  10    -38.2687089 -0.382462E-08  0.472E-04    1.57      38.1  T
  11    -38.2687089 -0.106590E-08  0.143E-04    1.57     125.5  T
     SCC iter.                  ...        0 min,  0.021 sec
     gradient                   ...        0 min,  0.006 sec
 * total energy  :   -37.6319761 Eh     change       -0.8993342E-03 Eh
   gradient norm :     0.0577453 Eh/α   predicted    -0.2250620E-02 ( 150.25%)
   displ. norm   :     0.1876559 α      lambda       -0.3206111E-02
   maximum displ.:     0.0910028 α      in ANC's #3, #59, #25, ...

........................................................................
.............................. CYCLE   14 ..............................
........................................................................
   1    -38.2764415 -0.382764E+02  0.160E-01    1.60       0.0  T
   2    -38.2763989  0.426051E-04  0.222E-01    1.53       1.0  T
   3    -38.2766761 -0.277239E-03  0.133E-01    1.55       1.0  T
   4    -38.2766635  0.126362E-04  0.459E-02    1.55       1.0  T
   5    -38.2767062 -0.426857E-04  0.118E-02    1.56       1.5  T
   6    -38.2767066 -0.405824E-06  0.687E-03    1.56       2.6  T
   7    -38.2767067 -0.749638E-07  0.197E-03    1.56       9.1  T
   8    -38.2767067 -0.132137E-07  0.147E-03    1.56      12.2  T
   9    -38.2767067 -0.460754E-08  0.864E-04    1.56      20.8  T
  10    -38.2767067 -0.416257E-08  0.212E-04    1.56      84.6  T
     SCC iter.                  ...        0 min,  0.025 sec
     gradient                   ...        0 min,  0.004 sec
 * total energy  :   -37.6333953 Eh     change       -0.1419149E-02 Eh
   gradient norm :     0.0219098 Eh/α   predicted    -0.1659512E-02 (  16.94%)
   displ. norm   :     0.2671424 α      lambda       -0.1747524E-02
   maximum displ.:     0.1777642 α      in ANC's #12, #8, #3, ...

........................................................................
.............................. CYCLE   15 ..............................
........................................................................
   1    -38.2769134 -0.382769E+02  0.195E-01    1.55       0.0  T
   2    -38.2769179 -0.451143E-05  0.140E-01    1.54       1.0  T
   3    -38.2767606  0.157273E-03  0.817E-02    1.57       1.0  T
   4    -38.2769315 -0.170884E-03  0.289E-02    1.54       1.0  T
   5    -38.2769335 -0.198842E-05  0.177E-02    1.54       1.0  T
   6    -38.2769344 -0.959942E-06  0.542E-03    1.55       3.3  T
   7    -38.2769347 -0.274997E-06  0.179E-03    1.55      10.0  T
   8    -38.2769347 -0.169987E-07  0.120E-03    1.55      15.0  T
   9    -38.2769347 -0.494512E-08  0.817E-04    1.55      22.0  T
  10    -38.2769347 -0.783253E-09  0.360E-04    1.55      49.8  T
     SCC iter.                  ...        0 min,  0.027 sec
     gradient                   ...        0 min,  0.004 sec
 * total energy  :   -37.6342469 Eh     change       -0.8515632E-03 Eh
   gradient norm :     0.0190850 Eh/α   predicted    -0.9361189E-03 (   9.93%)
   displ. norm   :     0.3401999 α      lambda       -0.1329487E-02
   maximum displ.:     0.2020945 α      in ANC's #12, #8, #3, ...

........................................................................
.............................. CYCLE   16 ..............................
........................................................................
   1    -38.2780372 -0.382780E+02  0.157E-01    1.56       0.0  T
   2    -38.2780405 -0.330262E-05  0.991E-02    1.56       1.0  T
   3    -38.2779530  0.875362E-04  0.792E-02    1.55       1.0  T
   4    -38.2780497 -0.967221E-04  0.148E-02    1.56       1.2  T
   5    -38.2780514 -0.174317E-05  0.815E-03    1.56       2.2  T
   6    -38.2780515 -0.557615E-07  0.264E-03    1.56       6.8  T
   7    -38.2780516 -0.770838E-07  0.102E-03    1.56      17.7  T
   8    -38.2780516 -0.860167E-08  0.642E-04    1.56      28.0  T
   9    -38.2780516 -0.130740E-08  0.331E-04    1.56      54.2  T
     SCC iter.                  ...        0 min,  0.021 sec
     gradient                   ...        0 min,  0.004 sec
 * total energy  :   -37.6349475 Eh     change       -0.7006091E-03 Eh
   gradient norm :     0.0318660 Eh/α   predicted    -0.7416782E-03 (   5.86%)
   displ. norm   :     0.2704414 α      lambda       -0.9802274E-03
   maximum displ.:     0.1476675 α      in ANC's #12, #8, #3, ...

........................................................................
.............................. CYCLE   17 ..............................
........................................................................
   1    -38.2785370 -0.382785E+02  0.147E-01    1.55       0.0  T
   2    -38.2785407 -0.364483E-05  0.919E-02    1.55       1.0  T
   3    -38.2784483  0.923995E-04  0.654E-02    1.56       1.0  T
   4    -38.2785514 -0.103075E-03  0.197E-02    1.55       1.0  T
   5    -38.2785530 -0.159348E-05  0.737E-03    1.55       2.4  T
   6    -38.2785529  0.147212E-07  0.242E-03    1.55       7.4  T
   7    -38.2785530 -0.649573E-07  0.927E-04    1.55      19.4  T
   8    -38.2785530 -0.358735E-08  0.663E-04    1.55      27.1  T
     SCC iter.                  ...        0 min,  0.023 sec
     gradient                   ...        0 min,  0.004 sec
 * total energy  :   -37.6355953 Eh     change       -0.6478013E-03 Eh
   gradient norm :     0.0257570 Eh/α   predicted    -0.5259621E-03 ( -18.81%)
   displ. norm   :     0.2737448 α      lambda       -0.1168150E-02
   maximum displ.:     0.1549316 α      in ANC's #8, #19, #6, ...

........................................................................
.............................. CYCLE   18 ..............................
........................................................................
   1    -38.2862925 -0.382863E+02  0.185E-01    1.57       0.0  T
   2    -38.2863002 -0.767094E-05  0.117E-01    1.53       1.0  T
   3    -38.2862649  0.352744E-04  0.985E-02    1.57       1.0  T
   4    -38.2863329 -0.679816E-04  0.178E-02    1.55       1.0  T
   5    -38.2863374 -0.455251E-05  0.144E-02    1.55       1.3  T
   6    -38.2863379 -0.507927E-06  0.830E-03    1.55       2.2  T
   7    -38.2863385 -0.529177E-06  0.188E-03    1.55       9.6  T
   8    -38.2863385 -0.217388E-07  0.108E-03    1.55      16.6  T
   9    -38.2863385 -0.448345E-08  0.508E-04    1.55      35.3  T
  10    -38.2863385 -0.490132E-09  0.256E-04    1.55      70.1  T
     SCC iter.                  ...        0 min,  0.018 sec
     gradient                   ...        0 min,  0.004 sec
 * total energy  :   -37.6362119 Eh     change       -0.6165985E-03 Eh
   gradient norm :     0.0149131 Eh/α   predicted    -0.6278429E-03 (   1.82%)
   displ. norm   :     0.4801781 α      lambda       -0.1337159E-02
   maximum displ.:     0.2728613 α      in ANC's #12, #8, #59, ...

........................................................................
.............................. CYCLE   19 ..............................
........................................................................
   1    -38.2780494 -0.382780E+02  0.250E-01    1.55       0.0  T
   2    -38.2780636 -0.142130E-04  0.163E-01    1.54       1.0  T
   3    -38.2780192  0.444287E-04  0.520E-02    1.55       1.0  T
   4    -38.2780674 -0.482371E-04  0.323E-02    1.54       1.0  T
   5    -38.2780706 -0.317336E-05  0.149E-02    1.54       1.2  T
   6    -38.2780706 -0.166502E-07  0.771E-03    1.54       2.3  T
   7    -38.2780713 -0.712165E-06  0.291E-03    1.54       6.2  T
   8    -38.2780713 -0.544890E-08  0.110E-03    1.54      16.3  T
   9    -38.2780713 -0.146665E-07  0.590E-04    1.54      30.4  T
  10    -38.2780713 -0.497572E-09  0.268E-04    1.54      67.1  T
     SCC iter.                  ...        0 min,  0.020 sec
     gradient                   ...        0 min,  0.004 sec
 * total energy  :   -37.6366935 Eh     change       -0.4816390E-03 Eh
   gradient norm :     0.0197072 Eh/α   predicted    -0.8227287E-03 (  70.82%)
   displ. norm   :     0.1374222 α      lambda       -0.8682633E-03
   maximum displ.:     0.0487901 α      in ANC's #10, #12, #5, ...

........................................................................
.............................. CYCLE   20 ..............................
........................................................................
   1    -38.2808038 -0.382808E+02  0.117E-01    1.54       0.0  T
   2    -38.2808049 -0.105651E-05  0.637E-02    1.53       1.0  T
   3    -38.2807817  0.231409E-04  0.780E-02    1.55       1.0  T
   4    -38.2808270 -0.453037E-04  0.153E-02    1.54       1.2  T
   5    -38.2808281 -0.102669E-05  0.107E-02    1.54       1.7  T
   6    -38.2808288 -0.747854E-06  0.353E-03    1.54       5.1  T
   7    -38.2808289 -0.987231E-07  0.112E-03    1.54      16.0  T
   8    -38.2808289 -0.311147E-09  0.764E-04    1.54      23.5  T
   9    -38.2808289 -0.219966E-08  0.517E-04    1.54      34.8  T
     SCC iter.                  ...        0 min,  0.020 sec
     gradient                   ...        0 min,  0.004 sec
 * total energy  :   -37.6370941 Eh     change       -0.4006379E-03 Eh
   gradient norm :     0.0145587 Eh/α   predicted    -0.4423355E-03 (  10.41%)
   displ. norm   :     0.1575083 α      lambda       -0.6676262E-03
   maximum displ.:     0.0716722 α      in ANC's #10, #19, #2, ...
 * RMSD in coord.:     1.1003449 α      energy gain  -0.2514969E+00 Eh

generating ANC from model Hessian ...
Using Lindh-Hessian (1995)
 Shifting diagonal of input Hessian by    9.8280461334915893E-003
 Lowest  eigenvalues of input Hessian
    0.000000    0.000000    0.000000    0.000000    0.000000    0.000000
    0.010000    0.010200    0.010272    0.011280    0.011640    0.011753
    0.012087    0.012752    0.014099    0.014652    0.016649    0.017641
 Highest eigenvalues
    1.735991    1.736708    1.740757    1.973838    3.252779    4.216155


........................................................................
.............................. CYCLE   21 ..............................
........................................................................
   1    -38.2861884 -0.382862E+02  0.939E-02    1.54       0.0  T
   2    -38.2861891 -0.677883E-06  0.772E-02    1.55       1.0  T
   3    -38.2862036 -0.144766E-04  0.406E-02    1.54       1.0  T
   4    -38.2862114 -0.784097E-05  0.166E-02    1.55       1.1  T
   5    -38.2862137 -0.227808E-05  0.885E-03    1.55       2.0  T
   6    -38.2862138 -0.685374E-07  0.219E-03    1.54       8.2  T
   7    -38.2862139 -0.106503E-06  0.111E-03    1.54      16.2  T
   8    -38.2862139 -0.243901E-08  0.906E-04    1.54      19.8  T
   9    -38.2862139 -0.351575E-08  0.499E-04    1.54      36.0  T
     SCC iter.                  ...        0 min,  0.243 sec
     gradient                   ...        0 min,  0.009 sec
 * total energy  :   -37.6374280 Eh     change       -0.3338926E-03 Eh
   gradient norm :     0.0143820 Eh/α   predicted     0.0000000E+00 (-100.00%)
   displ. norm   :     0.2696746 α      lambda       -0.1261118E-02
   maximum displ.:     0.1402845 α      in ANC's #7, #10, #6, ...

........................................................................
.............................. CYCLE   22 ..............................
........................................................................
   1    -38.2835570 -0.382836E+02  0.194E-01    1.53       0.0  T
   2    -38.2835556  0.139073E-05  0.167E-01    1.56       1.0  T
   3    -38.2835177  0.379286E-04  0.814E-02    1.53       1.0  T
   4    -38.2835890 -0.712992E-04  0.231E-02    1.55       1.0  T
   5    -38.2835938 -0.480468E-05  0.129E-02    1.54       1.4  T
   6    -38.2835941 -0.300411E-06  0.391E-03    1.54       4.6  T
   7    -38.2835943 -0.201307E-06  0.196E-03    1.54       9.2  T
   8    -38.2835943 -0.888405E-08  0.101E-03    1.54      17.8  T
   9    -38.2835943 -0.594531E-08  0.565E-04    1.54      31.8  T
  10    -38.2835943 -0.268948E-09  0.222E-04    1.54      81.0  T
     SCC iter.                  ...        0 min,  0.263 sec
     gradient                   ...        0 min,  0.006 sec
 * total energy  :   -37.6383279 Eh     change       -0.8998352E-03 Eh
   gradient norm :     0.0066609 Eh/α   predicted    -0.6765284E-03 ( -24.82%)
   displ. norm   :     0.4080260 α      lambda       -0.1117423E-02
   maximum displ.:     0.2136728 α      in ANC's #7, #6, #4, ...

........................................................................
.............................. CYCLE   23 ..............................
........................................................................
   1    -38.2788025 -0.382788E+02  0.239E-01    1.53       0.0  T
   2    -38.2787505  0.519932E-04  0.206E-01    1.58       1.0  T
   3    -38.2789144 -0.163887E-03  0.115E-01    1.54       1.0  T
   4    -38.2789601 -0.456659E-04  0.185E-02    1.55       1.0  T
   5    -38.2789634 -0.330309E-05  0.118E-02    1.55       1.5  T
   6    -38.2789635 -0.137908E-06  0.526E-03    1.55       3.4  T
   7    -38.2789638 -0.236539E-06  0.160E-03    1.55      11.2  T
   8    -38.2789638 -0.147956E-07  0.109E-03    1.55      16.5  T
   9    -38.2789638 -0.154723E-08  0.578E-04    1.55      31.1  T
  10    -38.2789638 -0.107746E-08  0.324E-04    1.55      55.4  T
     SCC iter.                  ...        0 min,  0.247 sec
     gradient                   ...        0 min,  0.015 sec
 * total energy  :   -37.6389961 Eh     change       -0.6682273E-03 Eh
   gradient norm :     0.0115373 Eh/α   predicted    -0.6517304E-03 (  -2.47%)
   displ. norm   :     0.1625496 α      lambda       -0.4007255E-03
   maximum displ.:     0.0786215 α      in ANC's #2, #4, #6, ...

........................................................................
.............................. CYCLE   24 ..............................
........................................................................
   1    -38.2809703 -0.382810E+02  0.791E-02    1.55       0.0  T
   2    -38.2809718 -0.145331E-05  0.511E-02    1.56       1.0  T
   3    -38.2809466  0.252060E-04  0.361E-02    1.55       1.0  T
   4    -38.2809759 -0.293278E-04  0.133E-02    1.56       1.3  T
   5    -38.2809768 -0.890133E-06  0.573E-03    1.56       3.1  T
   6    -38.2809769 -0.747871E-07  0.159E-03    1.56      11.3  T
   7    -38.2809769 -0.224630E-07  0.659E-04    1.56      27.2  T
   8    -38.2809769  0.405649E-09  0.619E-04    1.56      29.0  T
     SCC iter.                  ...        0 min,  0.231 sec
     gradient                   ...        0 min,  0.018 sec
 * total energy  :   -37.6393127 Eh     change       -0.3165982E-03 Eh
   gradient norm :     0.0090862 Eh/α   predicted    -0.2056576E-03 ( -35.04%)
   displ. norm   :     0.2615816 α      lambda       -0.4919560E-03
   maximum displ.:     0.1570227 α      in ANC's #2, #4, #7, ...

........................................................................
.............................. CYCLE   25 ..............................
........................................................................
   1    -38.2847813 -0.382848E+02  0.931E-02    1.55       0.0  T
   2    -38.2847824 -0.109858E-05  0.613E-02    1.56       1.0  T
   3    -38.2847466  0.358521E-04  0.448E-02    1.55       1.0  T
   4    -38.2847881 -0.415070E-04  0.120E-02    1.56       1.5  T
   5    -38.2847888 -0.695315E-06  0.521E-03    1.56       3.4  T
   6    -38.2847888  0.194314E-07  0.185E-03    1.56       9.7  T
   7    -38.2847888 -0.366243E-07  0.744E-04    1.56      24.1  T
   8    -38.2847888  0.309761E-09  0.602E-04    1.56      29.9  T
     SCC iter.                  ...        0 min,  0.241 sec
     gradient                   ...        0 min,  0.007 sec
 * total energy  :   -37.6396558 Eh     change       -0.3431159E-03 Eh
   gradient norm :     0.0034494 Eh/α   predicted    -0.2628097E-03 ( -23.40%)
   displ. norm   :     0.2953144 α      lambda       -0.2730610E-03
   maximum displ.:     0.1872783 α      in ANC's #2, #7, #6, ...

........................................................................
.............................. CYCLE   26 ..............................
........................................................................
   1    -38.2844187 -0.382844E+02  0.737E-02    1.55       0.0  T
   2    -38.2844177  0.105810E-05  0.492E-02    1.56       1.0  T
   3    -38.2844072  0.104888E-04  0.384E-02    1.54       1.0  T
   4    -38.2844246 -0.174636E-04  0.555E-03    1.55       3.2  T
   5    -38.2844249 -0.271126E-06  0.429E-03    1.55       4.2  T
   6    -38.2844250 -0.354986E-07  0.196E-03    1.55       9.2  T
   7    -38.2844250 -0.256493E-07  0.689E-04    1.55      26.1  T
   8    -38.2844250 -0.386424E-08  0.423E-04    1.55      42.5  T
     SCC iter.                  ...        0 min,  0.199 sec
     gradient                   ...        0 min,  0.010 sec
 * total energy  :   -37.6398455 Eh     change       -0.1896776E-03 Eh
   gradient norm :     0.0050772 Eh/α   predicted    -0.1484378E-03 ( -21.74%)
   displ. norm   :     0.3277426 α      lambda       -0.3626780E-03
   maximum displ.:     0.2525691 α      in ANC's #2, #3, #1, ...

........................................................................
.............................. CYCLE   27 ..............................
........................................................................
   1    -38.2868108 -0.382868E+02  0.786E-02    1.56       0.0  T
   2    -38.2868069  0.382270E-05  0.540E-02    1.54       1.0  T
   3    -38.2868221 -0.151124E-04  0.384E-02    1.55       1.0  T
   4    -38.2868312 -0.913865E-05  0.701E-03    1.55       2.6  T
   5    -38.2868321 -0.915778E-06  0.489E-03    1.55       3.7  T
   6    -38.2868322 -0.579921E-07  0.321E-03    1.55       5.6  T
   7    -38.2868322 -0.537393E-07  0.652E-04    1.55      27.5  T
   8    -38.2868322 -0.468090E-08  0.354E-04    1.55      50.8  T
     SCC iter.                  ...        0 min,  0.210 sec
     gradient                   ...        0 min,  0.068 sec
 * total energy  :   -37.6400492 Eh     change       -0.2037261E-03 Eh
   gradient norm :     0.0066394 Eh/α   predicted    -0.2008225E-03 (  -1.43%)
   displ. norm   :     0.3541516 α      lambda       -0.2861417E-03
   maximum displ.:     0.2557698 α      in ANC's #2, #7, #6, ...

........................................................................
.............................. CYCLE   28 ..............................
........................................................................
   1    -38.2835211 -0.382835E+02  0.719E-02    1.54       0.0  T
   2    -38.2835224 -0.134992E-05  0.385E-02    1.55       1.0  T
   3    -38.2835155  0.691554E-05  0.345E-02    1.54       1.0  T
   4    -38.2835237 -0.819472E-05  0.719E-03    1.54       2.5  T
   5    -38.2835237  0.250047E-07  0.741E-03    1.54       2.4  T
   6    -38.2835240 -0.250130E-06  0.312E-03    1.54       5.7  T
   7    -38.2835240 -0.534294E-07  0.654E-04    1.54      27.5  T
   8    -38.2835240 -0.436960E-08  0.274E-04    1.54      65.5  T
     SCC iter.                  ...        0 min,  0.216 sec
     gradient                   ...        0 min,  0.005 sec
 * total energy  :   -37.6402477 Eh     change       -0.1985034E-03 Eh
   gradient norm :     0.0058996 Eh/α   predicted    -0.1610154E-03 ( -18.89%)
   displ. norm   :     0.2345785 α      lambda       -0.2548893E-03
   maximum displ.:     0.1769426 α      in ANC's #2, #3, #1, ...

........................................................................
.............................. CYCLE   29 ..............................
........................................................................
   1    -38.2839693 -0.382840E+02  0.714E-02    1.55       0.0  T
   2    -38.2839696 -0.341260E-06  0.475E-02    1.54       1.0  T
   3    -38.2839472  0.223871E-04  0.375E-02    1.55       1.0  T
   4    -38.2839727 -0.254784E-04  0.826E-03    1.54       2.2  T
   5    -38.2839730 -0.304966E-06  0.496E-03    1.54       3.6  T
   6    -38.2839731 -0.769730E-07  0.137E-03    1.54      13.1  T
   7    -38.2839731 -0.360507E-08  0.108E-03    1.54      16.6  T
   8    -38.2839731 -0.627978E-09  0.683E-04    1.54      26.3  T
   9    -38.2839731 -0.424364E-08  0.216E-04    1.54      83.1  T
     SCC iter.                  ...        0 min,  0.205 sec
     gradient                   ...        0 min,  0.073 sec
 * total energy  :   -37.6404400 Eh     change       -0.1922612E-03 Eh
   gradient norm :     0.0043583 Eh/α   predicted    -0.1344576E-03 ( -30.07%)
   displ. norm   :     0.3189741 α      lambda       -0.3424071E-03
   maximum displ.:     0.2369390 α      in ANC's #2, #3, #1, ...

........................................................................
.............................. CYCLE   30 ..............................
........................................................................
   1    -38.2854235 -0.382854E+02  0.726E-02    1.55       0.0  T
   2    -38.2854232  0.248567E-06  0.523E-02    1.53       1.0  T
   3    -38.2854227  0.550936E-06  0.364E-02    1.55       1.0  T
   4    -38.2854340 -0.113530E-04  0.103E-02    1.54       1.7  T
   5    -38.2854348 -0.758369E-06  0.702E-03    1.54       2.6  T
   6    -38.2854349 -0.115187E-06  0.294E-03    1.54       6.1  T
   7    -38.2854349 -0.470154E-07  0.145E-03    1.54      12.4  T
   8    -38.2854349 -0.159547E-07  0.721E-04    1.54      24.9  T
   9    -38.2854349 -0.115411E-08  0.355E-04    1.54      50.6  T
     SCC iter.                  ...        0 min,  0.254 sec
     gradient                   ...        0 min,  0.005 sec
 * total energy  :   -37.6406932 Eh     change       -0.2531739E-03 Eh
   gradient norm :     0.0041098 Eh/α   predicted    -0.1886267E-03 ( -25.50%)
   displ. norm   :     0.3653071 α      lambda       -0.2609376E-03
   maximum displ.:     0.2864791 α      in ANC's #2, #3, #1, ...

........................................................................
.............................. CYCLE   31 ..............................
........................................................................
   1    -38.2840313 -0.382840E+02  0.670E-02    1.54       0.0  T
   2    -38.2840331 -0.182375E-05  0.390E-02    1.54       1.0  T
   3    -38.2840292  0.398895E-05  0.219E-02    1.54       1.0  T
   4    -38.2840341 -0.490703E-05  0.607E-03    1.54       3.0  T
   5    -38.2840343 -0.222629E-06  0.342E-03    1.54       5.3  T
   6    -38.2840343 -0.263364E-07  0.994E-04    1.54      18.1  T
   7    -38.2840343 -0.705296E-08  0.798E-04    1.54      22.5  T
     SCC iter.                  ...        0 min,  0.197 sec
     gradient                   ...        0 min,  0.007 sec
 * total energy  :   -37.6409211 Eh     change       -0.2279648E-03 Eh
   gradient norm :     0.0051110 Eh/α   predicted    -0.1478840E-03 ( -35.13%)
   displ. norm   :     0.2831214 α      lambda       -0.2426080E-03
   maximum displ.:     0.2288264 α      in ANC's #2, #1, #3, ...

........................................................................
.............................. CYCLE   32 ..............................
........................................................................
   1    -38.2848395 -0.382848E+02  0.415E-02    1.54       0.0  T
   2    -38.2848401 -0.600468E-06  0.252E-02    1.54       1.0  T
   3    -38.2848370  0.311747E-05  0.216E-02    1.54       1.0  T
   4    -38.2848421 -0.517511E-05  0.572E-03    1.54       3.1  T
   5    -38.2848425 -0.357631E-06  0.213E-03    1.54       8.4  T
   6    -38.2848425  0.229898E-08  0.814E-04    1.54      22.1  T
   7    -38.2848425 -0.439378E-08  0.461E-04    1.54      38.9  T
     SCC iter.                  ...        0 min,  0.183 sec
     gradient                   ...        0 min,  0.011 sec
 * total energy  :   -37.6411422 Eh     change       -0.2211153E-03 Eh
   gradient norm :     0.0050443 Eh/α   predicted    -0.1310282E-03 ( -40.74%)
   displ. norm   :     0.3697230 α      lambda       -0.3570048E-03
   maximum displ.:     0.3063942 α      in ANC's #2, #1, #3, ...

........................................................................
.............................. CYCLE   33 ..............................
........................................................................
   1    -38.2859026 -0.382859E+02  0.545E-02    1.54       0.0  T
   2    -38.2859015  0.107025E-05  0.425E-02    1.55       1.0  T
   3    -38.2859068 -0.530089E-05  0.250E-02    1.54       1.0  T
   4    -38.2859112 -0.439772E-05  0.741E-03    1.54       2.4  T
   5    -38.2859119 -0.684210E-06  0.287E-03    1.54       6.3  T
   6    -38.2859119 -0.551454E-08  0.105E-03    1.54      17.2  T
   7    -38.2859119 -0.830457E-08  0.425E-04    1.54      42.2  T
   8    -38.2859119 -0.791331E-10  0.295E-04    1.54      61.0  T
     SCC iter.                  ...        0 min,  0.208 sec
     gradient                   ...        0 min,  0.071 sec
 * total energy  :   -37.6414574 Eh     change       -0.3152099E-03 Eh
   gradient norm :     0.0047877 Eh/α   predicted    -0.2029034E-03 ( -35.63%)
   displ. norm   :     0.4820686 α      lambda       -0.4450391E-03
   maximum displ.:     0.4067658 α      in ANC's #2, #1, #3, ...

........................................................................
.............................. CYCLE   34 ..............................
........................................................................
   1    -38.2858675 -0.382859E+02  0.750E-02    1.54       0.0  T
   2    -38.2858649  0.258626E-05  0.640E-02    1.55       1.0  T
   3    -38.2858780 -0.131664E-04  0.331E-02    1.54       1.0  T
   4    -38.2858827 -0.467690E-05  0.129E-02    1.55       1.4  T
   5    -38.2858843 -0.155533E-05  0.631E-03    1.55       2.8  T
   6    -38.2858845 -0.190668E-06  0.187E-03    1.55       9.6  T
   7    -38.2858845 -0.263685E-07  0.844E-04    1.55      21.3  T
   8    -38.2858845 -0.404908E-08  0.287E-04    1.55      62.6  T
     SCC iter.                  ...        0 min,  0.168 sec
     gradient                   ...        0 min,  0.005 sec
 * total energy  :   -37.6418255 Eh     change       -0.3680900E-03 Eh
   gradient norm :     0.0055122 Eh/α   predicted    -0.2742338E-03 ( -25.50%)
   displ. norm   :     0.5789525 α      lambda       -0.4740473E-03
   maximum displ.:     0.5014859 α      in ANC's #2, #1, #55, ...

........................................................................
.............................. CYCLE   35 ..............................
........................................................................
   1    -38.2849513 -0.382850E+02  0.915E-02    1.55       0.0  T
   2    -38.2849507  0.569844E-06  0.654E-02    1.56       1.0  T
   3    -38.2849382  0.125355E-04  0.438E-02    1.54       1.0  T
   4    -38.2849631 -0.249659E-04  0.116E-02    1.55       1.6  T
   5    -38.2849649 -0.171555E-05  0.475E-03    1.55       3.8  T
   6    -38.2849649 -0.711526E-07  0.112E-03    1.55      16.1  T
   7    -38.2849649 -0.115281E-07  0.575E-04    1.55      31.3  T
   8    -38.2849649 -0.184563E-09  0.354E-04    1.55      50.7  T
     SCC iter.                  ...        0 min,  0.161 sec
     gradient                   ...        0 min,  0.084 sec
 * total energy  :   -37.6421671 Eh     change       -0.3415481E-03 Eh
   gradient norm :     0.0054515 Eh/α   predicted    -0.3164714E-03 (  -7.34%)
   displ. norm   :     0.3680257 α      lambda       -0.2871172E-03
   maximum displ.:     0.3160822 α      in ANC's #2, #1, #55, ...

........................................................................
.............................. CYCLE   36 ..............................
........................................................................
   1    -38.2880458 -0.382880E+02  0.607E-02    1.55       0.0  T
   2    -38.2880471 -0.133691E-05  0.366E-02    1.55       1.0  T
   3    -38.2880399  0.720460E-05  0.240E-02    1.55       1.0  T
   4    -38.2880481 -0.813092E-05  0.616E-03    1.55       2.9  T
   5    -38.2880486 -0.525455E-06  0.302E-03    1.55       6.0  T
   6    -38.2880486  0.204314E-08  0.138E-03    1.55      13.0  T
   7    -38.2880486 -0.861194E-08  0.555E-04    1.55      32.4  T
   8    -38.2880486 -0.939927E-09  0.352E-04    1.55      51.0  T
     SCC iter.                  ...        0 min,  0.167 sec
     gradient                   ...        0 min,  0.005 sec
 * total energy  :   -37.6423539 Eh     change       -0.1867867E-03 Eh
   gradient norm :     0.0032362 Eh/α   predicted    -0.1630037E-03 ( -12.73%)
   displ. norm   :     0.4227334 α      lambda       -0.1554303E-03
   maximum displ.:     0.3582199 α      in ANC's #2, #1, #55, ...

........................................................................
.............................. CYCLE   37 ..............................
........................................................................
   1    -38.2833207 -0.382833E+02  0.589E-02    1.55       0.0  T
   2    -38.2833213 -0.545978E-06  0.376E-02    1.55       1.0  T
   3    -38.2833082  0.130277E-04  0.293E-02    1.56       1.0  T
   4    -38.2833246 -0.163828E-04  0.503E-03    1.55       3.6  T
   5    -38.2833249 -0.321287E-06  0.207E-03    1.55       8.7  T
   6    -38.2833249  0.574029E-08  0.967E-04    1.55      18.6  T
   7    -38.2833249 -0.838782E-08  0.321E-04    1.55      55.9  T
     SCC iter.                  ...        0 min,  0.156 sec
     gradient                   ...        0 min,  0.005 sec
 * total energy  :   -37.6423994 Eh     change       -0.4548920E-04 Eh
   gradient norm :     0.0057285 Eh/α   predicted    -0.9160446E-04 ( 101.38%)
   displ. norm   :     0.0681101 α      lambda       -0.1277271E-03
   maximum displ.:     0.0333596 α      in ANC's #1, #7, #5, ...

........................................................................
.............................. CYCLE   38 ..............................
........................................................................
   1    -38.2884861 -0.382885E+02  0.416E-02    1.55       0.0  T
   2    -38.2884833  0.281544E-05  0.442E-02    1.54       1.0  T
   3    -38.2884937 -0.104244E-04  0.254E-02    1.55       1.0  T
   4    -38.2884935  0.237967E-06  0.832E-03    1.55       2.2  T
   5    -38.2884937 -0.233364E-06  0.588E-03    1.55       3.1  T
   6    -38.2884938 -0.102562E-06  0.111E-03    1.55      16.1  T
   7    -38.2884938 -0.301342E-07  0.448E-04    1.55      40.1  T
   8    -38.2884938 -0.263690E-09  0.241E-04    1.55      74.6  T
     SCC iter.                  ...        0 min,  0.165 sec
     gradient                   ...        0 min,  0.014 sec
 * total energy  :   -37.6424614 Eh     change       -0.6207687E-04 Eh
   gradient norm :     0.0025093 Eh/α   predicted    -0.6416224E-04 (   3.36%)
   displ. norm   :     0.0648381 α      lambda       -0.2013535E-04
   maximum displ.:     0.0551572 α      in ANC's #2, #3, #55, ...

........................................................................
.............................. CYCLE   39 ..............................
........................................................................
   1    -38.2879139 -0.382879E+02  0.165E-02    1.55       0.0  T
   2    -38.2879136  0.306896E-06  0.163E-02    1.54       1.1  T
   3    -38.2879150 -0.136025E-05  0.856E-03    1.55       2.1  T
   4    -38.2879149  0.233521E-07  0.228E-03    1.55       7.9  T
   5    -38.2879150 -0.598198E-07  0.982E-04    1.55      18.3  T
   6    -38.2879150 -0.173485E-08  0.402E-04    1.55      44.7  T
     SCC iter.                  ...        0 min,  0.146 sec
     gradient                   ...        0 min,  0.006 sec
 * total energy  :   -37.6424760 Eh     change       -0.1460944E-04 Eh
   gradient norm :     0.0014287 Eh/α   predicted    -0.1011553E-04 ( -30.76%)
   displ. norm   :     0.1423801 α      lambda       -0.1727086E-04
   maximum displ.:     0.1182397 α      in ANC's #2, #3, #55, ...

........................................................................
.............................. CYCLE   40 ..............................
........................................................................
   1    -38.2872456 -0.382872E+02  0.365E-02    1.55       0.0  T
   2    -38.2872434  0.214933E-05  0.404E-02    1.54       1.0  T
   3    -38.2872530 -0.955980E-05  0.231E-02    1.54       1.0  T
   4    -38.2872528  0.186391E-06  0.629E-03    1.54       2.9  T
   5    -38.2872532 -0.399775E-06  0.262E-03    1.54       6.9  T
   6    -38.2872533 -0.280703E-07  0.932E-04    1.54      19.3  T
   7    -38.2872533 -0.828938E-08  0.287E-04    1.54      62.6  T
     SCC iter.                  ...        0 min,  0.211 sec
     gradient                   ...        0 min,  0.078 sec
 * total energy  :   -37.6424859 Eh     change       -0.9830368E-05 Eh
   gradient norm :     0.0012947 Eh/α   predicted    -0.8716962E-05 ( -11.33%)
   displ. norm   :     0.0392535 α      lambda       -0.4476482E-05
   maximum displ.:     0.0284757 α      in ANC's #2, #1, #7, ...

........................................................................
.............................. CYCLE   41 ..............................
........................................................................
   1    -38.2881120 -0.382881E+02  0.105E-02    1.54       0.0  T
   2    -38.2881118  0.119772E-06  0.104E-02    1.55       1.7  T
   3    -38.2881124 -0.597192E-06  0.533E-03    1.54       3.4  T
   4    -38.2881124  0.145828E-07  0.171E-03    1.54      10.5  T
   5    -38.2881124 -0.236805E-07  0.801E-04    1.54      22.4  T
   6    -38.2881125 -0.217440E-08  0.339E-04    1.54      52.9  T
     SCC iter.                  ...        0 min,  0.126 sec
     gradient                   ...        0 min,  0.036 sec
 * total energy  :   -37.6424899 Eh     change       -0.3984455E-05 Eh
   gradient norm :     0.0008868 Eh/α   predicted    -0.2241956E-05 ( -43.73%)
   displ. norm   :     0.0250694 α      lambda       -0.2344190E-05
   maximum displ.:     0.0190561 α      in ANC's #2, #5, #12, ...

   *** GEOMETRY OPTIMIZATION CONVERGED AFTER 41 ITERATIONS ***

------------------------------------------------------------------------
 total energy gain   :        -0.2568926 Eh     -161.2026 kcal/mol
 total RMSD          :         1.4976427 a0        0.7925 Å
 total power (kW/mol):       -16.4505255 (step)  -75.4550 (real)
------------------------------------------------------------------------

 ANCopt (total)                0 d,  0 h,  0 min,  8.939 sec
 optimizer setup                ...        0 min,  0.001 sec (  0.008%)
 model hessian                  ...        0 min,  0.026 sec (  0.289%)
 ANC generation                 ...        0 min,  0.005 sec (  0.051%)
 coordinate transformation      ...        0 min,  0.000 sec (  0.006%)
 single point calculation       ...        0 min,  8.785 sec ( 98.284%)
 optimization log               ...        0 min,  0.006 sec (  0.063%)
 hessian update                 ...        0 min,  0.065 sec (  0.725%)
 rational function              ...        0 min,  0.049 sec (  0.543%)

================
 final structure:
================
31
 xtb: 6.5.1 (b24c23e)
Zr          -1.46852966853460       -0.06061702813170        0.44895064916689
C           -3.92277092454047        0.03883731997724        0.61965996477789
C           -0.74975195945118       -2.27620844320629        1.21716005130096
C            0.21935600968957       -1.83178282657726        0.28138403875455
C           -0.40626141671903       -1.73164689332187       -0.98440771573297
C           -1.76229075932062       -2.12613872700646       -0.83369403398492
C           -1.97131851786364       -2.46237120426195        0.52609241399352
H           -0.55212764610264       -2.58136905349065        2.23941854247266
H            1.28497966203992       -1.74472197112652        0.46340607865538
H            0.10933136727196       -1.57467315031353       -1.92591726770407
H           -2.46890125246051       -2.29388904335271       -1.63801561318720
H           -2.85841660799398       -2.93727268693140        0.92935021179867
C            0.11978415416266        0.53573543109982        2.22320342681166
C           -1.18362689541963        0.77605218166426        2.72171650145698
C           -1.74375803525565        1.84663984507057        1.97590601169082
C           -0.79549608025841        2.24690074289045        1.00579460141813
C            0.35052716101374        1.42138622736109        1.14090691817999
H            0.86177052443319       -0.10599223667767        2.68408648911153
H           -1.60332417099278        0.35005624232893        3.62777990111896
H           -2.66068775757356        2.37032582780575        2.21794370310390
H           -0.86453308983526        3.13713486088747        0.39132485519762
H            1.30270276925971        1.57207795103588        0.64133914391619
C           -1.78718875724987        0.92934290271466       -1.73242841282352
C           -2.99482270226771        1.18920818610278       -1.18852237526789
H           -3.87414303153905        0.76823504152988       -1.66327703953156
H           -3.16531416731001        2.14423614671351       -0.69272131868319
H           -1.70984187958935        0.21065074680184       -2.54650953930709
H           -0.94468222155969        1.62148590721914       -1.62558961205729
H           -3.77606074163943       -0.39419782615867        1.63720368591435
H           -4.55968732496382        0.91170329687772        0.74171701153898
H           -4.45839821942612       -0.69901731751832        0.01774303789850

 Bond Distances (Angstroems)
 ---------------------------
Zr1-C2=2.4622        Zr1-C3=2.4527        Zr1-C4=2.4524        Zr1-C5=2.4444        Zr1-C6=2.4491        Zr1-C7=2.4550        
Zr1-C13=2.4549       Zr1-C14=2.4386       Zr1-C15=2.4587       Zr1-C16=2.4673       Zr1-C17=2.4462       Zr1-C23=2.4166       
Zr1-C24=2.5638       C2-Zr1=2.4622        C2-H29=1.1155        C2-H30=1.0874        C2-H31=1.0925        C3-Zr1=2.4527        
C3-C4=1.4186         C3-C7=1.4158         C3-H8=1.0850         C4-Zr1=2.4524        C4-C3=1.4186         C4-C5=1.4155         
C4-H9=1.0846         C5-Zr1=2.4444        C5-C4=1.4155         C5-C6=1.4203         C5-H10=1.0849        C6-Zr1=2.4491        
C6-C5=1.4203         C6-C7=1.4163         C6-H11=1.0837        C7-Zr1=2.4550        C7-C3=1.4158         C7-C6=1.4163         
C7-H12=1.0840        H8-C3=1.0850         H9-C4=1.0846         H10-C5=1.0849        H11-C6=1.0837        H12-C7=1.0840        
C13-Zr1=2.4549       C13-C14=1.4160       C13-C17=1.4174       C13-H18=1.0839       C14-Zr1=2.4386       C14-C13=1.4160       
C14-C15=1.4199       C14-H19=1.0856       C15-Zr1=2.4587       C15-C14=1.4199       C15-C16=1.4144       C15-H20=1.0833       
C16-Zr1=2.4673       C16-C15=1.4144       C16-C17=1.4188       C16-H21=1.0839       C17-Zr1=2.4462       C17-C13=1.4174       
C17-C16=1.4188       C17-H22=1.0858       H18-C13=1.0839       H19-C14=1.0856       H20-C15=1.0833       H21-C16=1.0839       
H22-C17=1.0858       C23-Zr1=2.4166       C23-C24=1.3497       C23-H27=1.0887       C23-H28=1.0956       C24-Zr1=2.5638       
C24-C23=1.3497       C24-H25=1.0843       C24-H26=1.0895       H25-C24=1.0843       H26-C24=1.0895       H27-C23=1.0887       
H28-C23=1.0956       H29-C2=1.1155        H30-C2=1.0874        H31-C2=1.0925        
 C  H  Rav=1.0881 sigma=0.0076  Rmin=1.0833  Rmax=1.1155    17
 C  C  Rav=1.4112 sigma=0.0195  Rmin=1.3497  Rmax=1.4203    11
 Zr C  Rav=2.4586 sigma=0.0327  Rmin=2.4166  Rmax=2.5638    13

 selected bond angles (degree)
 --------------------
C3-Zr1-C2=107.87               C4-Zr1-C2=136.05               C4-Zr1-C3= 33.62               C5-Zr1-C2=120.09               
C5-Zr1-C3= 55.86               C5-Zr1-C4= 33.60               C6-Zr1-C2= 87.18               C6-Zr1-C3= 55.76               
C6-Zr1-C4= 55.78               C6-Zr1-C5= 33.74               C7-Zr1-C2= 80.40               C7-Zr1-C3= 33.53               
C7-Zr1-C4= 55.71               C7-Zr1-C5= 55.85               C7-Zr1-C6= 33.57               C13-Zr1-C2=125.80              
C13-Zr1-C3= 78.67              C13-Zr1-C4= 77.26              C13-Zr1-C5=107.98              C13-Zr1-C6=131.38              
C13-Zr1-C7=110.33              C14-Zr1-C2= 92.18              C14-Zr1-C3= 89.07              C14-Zr1-C4=103.36              
C14-Zr1-C5=136.91              C14-Zr1-C6=142.33              C14-Zr1-C7=109.29              C14-Zr1-C13= 33.64             
C15-Zr1-C2= 79.28              C15-Zr1-C3=122.62              C15-Zr1-C4=132.82              C15-Zr1-C5=160.58              
C15-Zr1-C6=165.04              C15-Zr1-C7=135.76              C15-Zr1-C13= 55.61             C15-Zr1-C14= 33.71             
C16-Zr1-C2=102.62              C16-Zr1-C3=133.96              C16-Zr1-C4=120.21              C16-Zr1-C5=130.78              
C16-Zr1-C6=160.00              C16-Zr1-C7=164.52              C16-Zr1-C13= 55.47             C16-Zr1-C14= 55.73             
C16-Zr1-C15= 33.37             C17-Zr1-C2=134.20              C17-Zr1-C3=103.93              C17-Zr1-C4= 86.85              
C17-Zr1-C5=104.88              C17-Zr1-C6=138.44              C17-Zr1-C7=137.40              C17-Zr1-C13= 33.62             
C17-Zr1-C14= 56.06             C17-Zr1-C15= 55.78             C17-Zr1-C16= 33.56             C23-Zr1-C2= 85.10              
C23-Zr1-C3=133.74              C23-Zr1-C4=108.96              C23-Zr1-C5= 78.93              C23-Zr1-C6= 81.77              
C23-Zr1-C7=113.71              C23-Zr1-C13=129.66             C23-Zr1-C14=135.74             C23-Zr1-C15=103.18             
C23-Zr1-C16= 81.75             C23-Zr1-C17= 96.04             C24-Zr1-C2= 55.33              C24-Zr1-C3=144.58              
C24-Zr1-C4=135.91              C24-Zr1-C5=102.56              C24-Zr1-C6= 90.30              C24-Zr1-C7=112.03              
C24-Zr1-C13=136.75             C24-Zr1-C14=119.84             C24-Zr1-C15= 87.24             C24-Zr1-C16= 81.41             
C24-Zr1-C17=109.15             C24-Zr1-C23= 31.27             H29-C2-Zr1= 85.21              H30-C2-Zr1=128.61              
H30-C2-H29=106.63              H31-C2-Zr1=115.04              H31-C2-H29=107.75              H31-C2-H30=108.47              
C4-C3-Zr1= 73.18               C7-C3-Zr1= 73.32               C7-C3-C4=107.98                H8-C3-Zr1=127.05               
H8-C3-C4=125.82                H8-C3-C7=125.46                C3-C4-Zr1= 73.20               C5-C4-Zr1= 72.89               
C5-C4-C3=108.07                H9-C4-Zr1=127.36               H9-C4-C3=125.85                H9-C4-C5=125.36                
C4-C5-Zr1= 73.51               C6-C5-Zr1= 73.31               C6-C5-C4=107.91                H10-C5-Zr1=128.06              
H10-C5-C4=125.19               H10-C5-C6=125.88               C5-C6-Zr1= 72.95               C7-C6-Zr1= 73.45               
C7-C6-C5=107.98                H11-C6-Zr1=126.69              H11-C6-C5=125.93               H11-C6-C7=125.42               
C3-C7-Zr1= 73.14               C6-C7-Zr1= 72.98               C6-C7-C3=108.06                H12-C7-Zr1=127.44              
H12-C7-C3=125.60               H12-C7-C6=125.59               

 selected dihedral angles (degree)
 ---------------------------------
H29-C2-Zr1-C3= 46.80          H29-C2-Zr1-C4= 68.95          H29-C2-Zr1-C5=107.15          H29-C2-Zr1-C6= 99.37          
H29-C2-Zr1-C7= 66.27          H29-C2-Zr1-C13=318.06         H29-C2-Zr1-C14=317.07         H29-C2-Zr1-C15=285.77         
H29-C2-Zr1-C16=261.75         H29-C2-Zr1-C17=275.01         H29-C2-Zr1-C23=181.35         H29-C2-Zr1-C24=191.68         
H30-C2-Zr1-C3=154.30          H30-C2-Zr1-C4=176.45          H30-C2-Zr1-C5=214.65          H30-C2-Zr1-C6=206.86          
H30-C2-Zr1-C7=173.77          H30-C2-Zr1-C13= 65.56         H30-C2-Zr1-C14= 64.57         H30-C2-Zr1-C15= 33.27         
H30-C2-Zr1-C16=  9.25         H30-C2-Zr1-C17= 22.51         H30-C2-Zr1-C23=288.84         H30-C2-Zr1-C24=299.18         
H31-C2-Zr1-C3=299.43          H31-C2-Zr1-C4=321.58          H31-C2-Zr1-C5=359.78          H31-C2-Zr1-C6=352.00          
H31-C2-Zr1-C7=318.90          H31-C2-Zr1-C13=210.69         H31-C2-Zr1-C14=209.71         H31-C2-Zr1-C15=178.41         
H31-C2-Zr1-C16=154.38         H31-C2-Zr1-C17=167.64         H31-C2-Zr1-C23= 73.98         H31-C2-Zr1-C24= 84.32         
C4-C3-Zr1-C2=151.80           C4-C3-Zr1-C5= 37.09           C4-C3-Zr1-C6= 78.17           C4-C3-Zr1-C7=115.29           
C4-C3-Zr1-C13=276.01          C4-C3-Zr1-C14=243.78          C4-C3-Zr1-C15=240.33          C4-C3-Zr1-C16=280.84          
C4-C3-Zr1-C17=298.38          C4-C3-Zr1-C23= 51.17          C4-C3-Zr1-C24= 97.09          C7-C3-Zr1-C2= 36.51           
C7-C3-Zr1-C4=244.71           C7-C3-Zr1-C5=281.80           C7-C3-Zr1-C6=322.89           C7-C3-Zr1-C13=160.72          
C7-C3-Zr1-C14=128.49          C7-C3-Zr1-C15=125.04          C7-C3-Zr1-C16=165.55          C7-C3-Zr1-C17=183.09          
C7-C3-Zr1-C23=295.88          C7-C3-Zr1-C24=341.80          H8-C3-Zr1-C2=274.33           H8-C3-Zr1-C4=122.53           
H8-C3-Zr1-C5=159.63           H8-C3-Zr1-C6=200.71           H8-C3-Zr1-C7=237.82           H8-C3-Zr1-C13= 38.54          
H8-C3-Zr1-C14=  6.32          H8-C3-Zr1-C15=  2.86          H8-C3-Zr1-C16= 43.37          H8-C3-Zr1-C17= 60.91          
H8-C3-Zr1-C23=173.70          H8-C3-Zr1-C24=219.62          C3-C4-Zr1-C2=319.60           C3-C4-Zr1-C5=244.41           
C3-C4-Zr1-C6=281.90           C3-C4-Zr1-C7=322.80           C3-C4-Zr1-C13= 88.63          C3-C4-Zr1-C14= 67.21          
C3-C4-Zr1-C15= 86.19          C3-C4-Zr1-C16=125.11          C3-C4-Zr1-C17=121.21          C3-C4-Zr1-C23=216.52          
C3-C4-Zr1-C24=235.75          C5-C4-Zr1-C2= 75.19           C5-C4-Zr1-C3=115.59           C5-C4-Zr1-C6= 37.48           
C5-C4-Zr1-C7= 78.38           C5-C4-Zr1-C13=204.21          C5-C4-Zr1-C14=182.80          C5-C4-Zr1-C15=201.77          
C5-C4-Zr1-C16=240.70          C5-C4-Zr1-C17=236.80          C5-C4-Zr1-C23=332.10          C5-C4-Zr1-C24=351.34          
H9-C4-Zr1-C2=196.97           H9-C4-Zr1-C3=237.37           H9-C4-Zr1-C5=121.78           H9-C4-Zr1-C6=159.27           
H9-C4-Zr1-C7=200.17           H9-C4-Zr1-C13=326.00          H9-C4-Zr1-C14=304.58          H9-C4-Zr1-C15=323.56          
H9-C4-Zr1-C16=  2.48          H9-C4-Zr1-C17=358.58          H9-C4-Zr1-C23= 93.89          H9-C4-Zr1-C24=113.12          
Zr1-C4-C3-C7= 65.59           Zr1-C4-C3-H8=236.08           C5-C4-C3-Zr1=294.94           C5-C4-C3-C7=  0.53            
C5-C4-C3-H8=171.02            H9-C4-C3-Zr1=124.32           H9-C4-C3-C7=189.91            H9-C4-C3-H8=  0.40            
C4-C5-Zr1-C2=230.85           C4-C5-Zr1-C3=322.89           C4-C5-Zr1-C6=244.94           C4-C5-Zr1-C7=282.09           
C4-C5-Zr1-C13= 24.87          C4-C5-Zr1-C14=  3.99          C4-C5-Zr1-C15= 54.92          C4-C5-Zr1-C16= 84.41          
C4-C5-Zr1-C17= 59.82          C4-C5-Zr1-C23=153.20          C4-C5-Zr1-C24=173.84          C6-C5-Zr1-C2=345.91           
C6-C5-Zr1-C3= 77.95           C6-C5-Zr1-C4=115.06           C6-C5-Zr1-C7= 37.15           C6-C5-Zr1-C13=139.93          
C6-C5-Zr1-C14=119.05          C6-C5-Zr1-C15=169.97          C6-C5-Zr1-C16=199.47          C6-C5-Zr1-C17=174.88          
C6-C5-Zr1-C23=268.26          C6-C5-Zr1-C24=288.89          H10-C5-Zr1-C2=108.75          H10-C5-Zr1-C3=200.78          
H10-C5-Zr1-C4=237.90          H10-C5-Zr1-C6=122.84          H10-C5-Zr1-C7=159.98          H10-C5-Zr1-C13=262.77         
H10-C5-Zr1-C14=241.89         H10-C5-Zr1-C15=292.81         H10-C5-Zr1-C16=322.30         H10-C5-Zr1-C17=297.72         
H10-C5-Zr1-C23= 31.10         H10-C5-Zr1-C24= 51.73         Zr1-C5-C4-C3= 65.26           Zr1-C5-C4-H9=235.94           
C6-C5-C4-Zr1=294.24           C6-C5-C4-C3=359.50            C6-C5-C4-H9=170.17            H10-C5-C4-Zr1=125.31          
H10-C5-C4-C3=190.57           H10-C5-C4-H9=  1.24           C5-C6-Zr1-C2=167.82           C5-C6-Zr1-C3=281.73           
C5-C6-Zr1-C4=322.68           C5-C6-Zr1-C7=244.66           C5-C6-Zr1-C13=305.32          C5-C6-Zr1-C14=257.73          
C5-C6-Zr1-C15=192.95          C5-C6-Zr1-C16= 47.54          C5-C6-Zr1-C17=352.53          C5-C6-Zr1-C23= 82.37          
C5-C6-Zr1-C24=112.56          C7-C6-Zr1-C2=283.17           C7-C6-Zr1-C3= 37.07           C7-C6-Zr1-C4= 78.02           
C7-C6-Zr1-C5=115.34           C7-C6-Zr1-C13= 60.66          C7-C6-Zr1-C14= 13.08          C7-C6-Zr1-C15=308.30          
C7-C6-Zr1-C16=162.89          C7-C6-Zr1-C17=107.88          C7-C6-Zr1-C23=197.72          C7-C6-Zr1-C24=227.90          
H11-C6-Zr1-C2= 45.35          H11-C6-Zr1-C3=159.25          H11-C6-Zr1-C4=200.20          H11-C6-Zr1-C5=237.53          
H11-C6-Zr1-C7=122.18          H11-C6-Zr1-C13=182.84         H11-C6-Zr1-C14=135.26         H11-C6-Zr1-C15= 70.48         
H11-C6-Zr1-C16=285.07         H11-C6-Zr1-C17=230.06         H11-C6-Zr1-C23=319.90         H11-C6-Zr1-C24=350.09         
Zr1-C6-C5-C4= 65.90           Zr1-C6-C5-H10=234.73          C7-C6-C5-Zr1=294.39           C7-C6-C5-C4=  0.28            
C7-C6-C5-H10=169.11           H11-C6-C5-Zr1=123.34          H11-C6-C5-C4=189.23           H11-C6-C5-H10=358.07          
C3-C7-Zr1-C2=215.05           C3-C7-Zr1-C4= 37.30           C3-C7-Zr1-C5= 78.22           C3-C7-Zr1-C6=115.57           
C3-C7-Zr1-C13=339.80          C3-C7-Zr1-C14=303.99          C3-C7-Zr1-C15=278.68          C3-C7-Zr1-C16=317.72          
C3-C7-Zr1-C17=  4.43          C3-C7-Zr1-C23=134.77          C3-C7-Zr1-C24=168.74          C6-C7-Zr1-C2= 99.48           
C6-C7-Zr1-C3=244.43           C6-C7-Zr1-C4=281.73           C6-C7-Zr1-C5=322.66           C6-C7-Zr1-C13=224.23          
C6-C7-Zr1-C14=188.43          C6-C7-Zr1-C15=163.11          C6-C7-Zr1-C16=202.15          C6-C7-Zr1-C17=248.86          
C6-C7-Zr1-C23= 19.20          C6-C7-Zr1-C24= 53.17          H12-C7-Zr1-C2=337.33          H12-C7-Zr1-C3=122.28          
H12-C7-Zr1-C4=159.58          H12-C7-Zr1-C5=200.50          H12-C7-Zr1-C6=237.85          H12-C7-Zr1-C13=102.08         
H12-C7-Zr1-C14= 66.27         H12-C7-Zr1-C15= 40.96         H12-C7-Zr1-C16= 80.00         H12-C7-Zr1-C17=126.71         
H12-C7-Zr1-C23=257.05         H12-C7-Zr1-C24=291.02         Zr1-C7-C3-C4=294.51           Zr1-C7-C3-H8=123.98           
C6-C7-C3-Zr1= 65.13           C6-C7-C3-C4=359.64            C6-C7-C3-H8=189.11            H12-C7-C3-Zr1=235.65          
H12-C7-C3-C4=170.16           H12-C7-C3-H8=359.63           Zr1-C7-C6-C5= 65.29           Zr1-C7-C6-H11=236.39          
C3-C7-C6-Zr1=294.76           C3-C7-C6-C5=  0.05            C3-C7-C6-H11=171.15           H12-C7-C6-Zr1=124.24          
H12-C7-C6-C5=189.53           H12-C7-C6-H11=  0.64          
           -------------------------------------------------
          |                Final Singlepoint                |
           -------------------------------------------------

          ...................................................
          :                      SETUP                      :
          :.................................................:
          :  # basis functions                  79          :
          :  # atomic orbitals                  78          :
          :  # shells                           46          :
          :  # electrons                        72          :
          :  max. iterations                   250          :
          :  Hamiltonian                  GFN2-xTB          :
          :  restarted?                      false          :
          :  GBSA solvation                  false          :
          :  PC potential                    false          :
          :  electronic temp.          300.0000000     K    :
          :  accuracy                    1.0000000          :
          :  -> integral cutoff          0.2500000E+02      :
          :  -> integral neglect         0.1000000E-07      :
          :  -> SCF convergence          0.1000000E-05 Eh   :
          :  -> wf. convergence          0.1000000E-03 e    :
          :  Broyden damping             0.4000000          :
          ...................................................

 iter      E             dE          RMSdq      gap      omega  full diag
   1    -38.2881125 -0.382881E+02  0.118E-04    1.54       0.0  T
   2    -38.2881125  0.907363E-11  0.587E-05    1.54     305.9  T
   3    -38.2881125 -0.404938E-10  0.741E-05    1.54     242.3  T

   *** convergence criteria satisfied after 3 iterations ***

         #    Occupation            Energy/Eh            Energy/eV
      -------------------------------------------------------------
         1        2.0000           -0.8737701             -23.7765
       ...           ...                  ...                  ...
        30        2.0000           -0.5806255             -15.7996
        31        2.0000           -0.5785298             -15.7426
        32        2.0000           -0.5228918             -14.2286
        33        2.0000           -0.5217407             -14.1973
        34        2.0000           -0.5117585             -13.9257
        35        2.0000           -0.5066629             -13.7870
        36        2.0000           -0.4864886             -13.2380 (HOMO)
        37                         -0.4297308             -11.6936 (LUMO)
        38                         -0.4100740             -11.1587
        39                         -0.4051653             -11.0251
        40                         -0.4034186             -10.9776
        41                         -0.3978773             -10.8268
       ...                                ...                  ...
        78                          2.5578979              69.6039
      -------------------------------------------------------------
                  HL-Gap            0.0567578 Eh            1.5445 eV
             Fermi-level           -0.4581097 Eh          -12.4658 eV

 SCC (total)                   0 d,  0 h,  0 min,  0.087 sec
 SCC setup                      ...        0 min,  0.003 sec (  3.938%)
 Dispersion                     ...        0 min,  0.000 sec (  0.353%)
 classical contributions        ...        0 min,  0.002 sec (  2.466%)
 integral evaluation            ...        0 min,  0.001 sec (  1.710%)
 iterations                     ...        0 min,  0.074 sec ( 84.933%)
 molecular gradient             ...        0 min,  0.006 sec (  6.394%)
 printout                       ...        0 min,  0.000 sec (  0.181%)

         :::::::::::::::::::::::::::::::::::::::::::::::::::::
         ::                     SUMMARY                     ::
         :::::::::::::::::::::::::::::::::::::::::::::::::::::
         :: total energy             -37.642489865166 Eh    ::
         :: gradient norm              0.000886444569 Eh/a0 ::
         :: HOMO-LUMO gap              1.544458393734 eV    ::
         ::.................................................::
         :: SCC energy               -38.288112451884 Eh    ::
         :: -> isotropic ES            0.089346227845 Eh    ::
         :: -> anisotropic ES         -0.014213321375 Eh    ::
         :: -> anisotropic XC          0.020862837028 Eh    ::
         :: -> dispersion             -0.028085368000 Eh    ::
         :: repulsion energy           0.644003953061 Eh    ::
         :: add. restraining           0.000924133462 Eh    ::
         :: total charge               1.000000000000 e     ::
         :::::::::::::::::::::::::::::::::::::::::::::::::::::

           -------------------------------------------------
          |                Property Printout                |
           -------------------------------------------------

    * Orbital Energies and Occupations

         #    Occupation            Energy/Eh            Energy/eV
      -------------------------------------------------------------
         1        2.0000           -0.8737701             -23.7765
       ...           ...                  ...                  ...
        24        2.0000           -0.5949123             -16.1884
        25        2.0000           -0.5942821             -16.1712
        26        2.0000           -0.5918349             -16.1046
        27        2.0000           -0.5913667             -16.0919
        28        2.0000           -0.5903397             -16.0640
        29        2.0000           -0.5891047             -16.0304
        30        2.0000           -0.5806255             -15.7996
        31        2.0000           -0.5785298             -15.7426
        32        2.0000           -0.5228918             -14.2286
        33        2.0000           -0.5217407             -14.1973
        34        2.0000           -0.5117585             -13.9257
        35        2.0000           -0.5066629             -13.7870
        36        2.0000           -0.4864886             -13.2380 (HOMO)
        37                         -0.4297308             -11.6936 (LUMO)
        38                         -0.4100740             -11.1587
        39                         -0.4051653             -11.0251
        40                         -0.4034186             -10.9776
        41                         -0.3978773             -10.8268
        42                         -0.3740735             -10.1791
        43                         -0.3076310              -8.3711
        44                         -0.3072275              -8.3601
        45                         -0.3059737              -8.3260
        46                         -0.3049535              -8.2982
        47                         -0.0517490              -1.4082
       ...                                ...                  ...
        78                          2.5578979              69.6039
      -------------------------------------------------------------
                  HL-Gap            0.0567578 Eh            1.5445 eV
             Fermi-level           -0.4581097 Eh          -12.4658 eV

     #   Z          covCN         q      C6AA      α(0)
     1  40 Zr       9.858     0.948   138.890    17.709
     2   6 C        3.559    -0.289    27.601     7.663
     3   6 C        3.760    -0.088    22.225     6.721
     4   6 C        3.760    -0.085    22.173     6.713
     5   6 C        3.761    -0.092    22.300     6.732
     6   6 C        3.762    -0.091    22.278     6.728
     7   6 C        3.758    -0.084    22.158     6.711
     8   1 H        0.925     0.081     1.965     2.192
     9   1 H        0.925     0.085     1.933     2.174
    10   1 H        0.925     0.077     2.006     2.215
    11   1 H        0.925     0.083     1.951     2.184
    12   1 H        0.925     0.084     1.938     2.177
    13   6 C        3.761    -0.082    22.107     6.703
    14   6 C        3.763    -0.090    22.255     6.724
    15   6 C        3.757    -0.087    22.222     6.721
    16   6 C        3.755    -0.093    22.332     6.738
    17   6 C        3.760    -0.092    22.308     6.733
    18   1 H        0.925     0.085     1.924     2.169
    19   1 H        0.925     0.080     1.975     2.198
    20   1 H        0.925     0.087     1.913     2.163
    21   1 H        0.925     0.075     2.035     2.231
    22   1 H        0.925     0.077     2.005     2.215
    23   6 C        3.599    -0.162    24.326     7.136
    24   6 C        3.565    -0.077    22.886     6.968
    25   1 H        0.925     0.131     1.527     1.933
    26   1 H        0.925     0.122     1.595     1.975
    27   1 H        0.925     0.105     1.741     2.064
    28   1 H        0.941     0.100     1.781     2.087
    29   1 H        0.971     0.067     2.118     2.274
    30   1 H        0.925     0.064     2.149     2.292
    31   1 H        0.924     0.060     2.195     2.317

 Mol. C6AA /au·bohr⁶  :       9481.142591
 Mol. C8AA /au·bohr⁸  :     321870.537836
 Mol. α(0) /au        :        143.559093


Wiberg/Mayer (AO) data.
largest (>0.10) Wiberg bond orders for each atom

 ---------------------------------------------------------------------------
     #   Z sym  total        # sym  WBO       # sym  WBO       # sym  WBO
 ---------------------------------------------------------------------------
     1  40 Zr   4.326 --     2 C    0.657    23 C    0.355    14 C    0.252
                            17 C    0.244     3 C    0.243     7 C    0.241
                             5 C    0.240     4 C    0.239     6 C    0.238
                            15 C    0.237    13 C    0.234    16 C    0.228
                            24 C    0.222
     2   6 C    3.878 --    30 H    0.960    31 H    0.948    29 H    0.857
                             1 Zr   0.657    24 C    0.202    23 C    0.156
     3   6 C    3.980 --     7 C    1.303     4 C    1.299     8 H    0.923
                             1 Zr   0.243
     4   6 C    3.980 --     5 C    1.306     3 C    1.299     9 H    0.923
                             1 Zr   0.239
     5   6 C    3.980 --     4 C    1.306     6 C    1.290    10 H    0.923
                             1 Zr   0.240
     6   6 C    3.979 --     7 C    1.304     5 C    1.290    11 H    0.926
                             1 Zr   0.238
     7   6 C    3.982 --     6 C    1.304     3 C    1.303    12 H    0.924
                             1 Zr   0.241
     8   1 H    0.991 --     3 C    0.923
     9   1 H    0.990 --     4 C    0.923
    10   1 H    0.992 --     5 C    0.923
    11   1 H    0.990 --     6 C    0.926
    12   1 H    0.991 --     7 C    0.924
    13   6 C    3.982 --    14 C    1.307    17 C    1.303    18 H    0.925
                             1 Zr   0.234
    14   6 C    3.979 --    13 C    1.307    15 C    1.288    19 H    0.920
                             1 Zr   0.252
    15   6 C    3.980 --    16 C    1.314    14 C    1.288    20 H    0.925
                             1 Zr   0.237
    16   6 C    3.978 --    15 C    1.314    17 C    1.295    21 H    0.928
                             1 Zr   0.228
    17   6 C    3.978 --    13 C    1.303    16 C    1.295    22 H    0.922
                             1 Zr   0.244
    18   1 H    0.991 --    13 C    0.925
    19   1 H    0.992 --    14 C    0.920
    20   1 H    0.990 --    15 C    0.925
    21   1 H    0.992 --    16 C    0.928
    22   1 H    0.992 --    17 C    0.922
    23   6 C    3.969 --    24 C    1.578    27 H    0.918    28 H    0.880
                             1 Zr   0.355     2 C    0.156
    24   6 C    3.979 --    23 C    1.578    25 H    0.934    26 H    0.917
                             1 Zr   0.222     2 C    0.202
    25   1 H    0.982 --    24 C    0.934
    26   1 H    0.983 --    24 C    0.917
    27   1 H    0.988 --    23 C    0.918
    28   1 H    0.989 --    23 C    0.880
    29   1 H    0.995 --     2 C    0.857
    30   1 H    0.994 --     2 C    0.960
    31   1 H    0.995 --     2 C    0.948
 ---------------------------------------------------------------------------

Topologies differ in total number of bonds
Writing topology from bond orders to xtbtopo.mol

molecular dipole:
                 x           y           z       tot (Debye)
 q only:       -3.100       0.361       0.085
   full:       -2.917       0.235       0.287       7.473
molecular quadrupole (traceless):
                xx          xy          yy          xz          yz          zz
 q only:       10.452      -3.883      -7.680       1.563      -3.959      -2.772
  q+dip:       13.707      -2.704     -11.269      -1.043      -5.799      -2.438
   full:       11.151      -1.884      -9.544      -1.671      -5.495      -1.606

           -------------------------------------------------
          |                Geometry Summary                 |
           -------------------------------------------------

      molecular mass/u    :      264.4982010
   center of mass at/Å    :       -1.3756224      -0.0836035       0.4924268
  moments of inertia/u·Å² :        0.5861912E+03   0.7279612E+03   0.9059053E+03
rotational constants/cm⁻¹ :        0.2875791E-01   0.2315732E-01   0.1860860E-01

 * 41 selected distances

     #   Z          #   Z                                           value/Å
     1  40 Zr       2   6 C                                       2.4621808
     1  40 Zr       3   6 C                                       2.4526788
     1  40 Zr       4   6 C                                       2.4523593
     3   6 C        4   6 C                                       1.4185773
     1  40 Zr       5   6 C                                       2.4444369
     4   6 C        5   6 C                                       1.4155047
     1  40 Zr       6   6 C                                       2.4490516
     5   6 C        6   6 C                                       1.4202656
     1  40 Zr       7   6 C                                       2.4550299
     3   6 C        7   6 C                                       1.4157882
     6   6 C        7   6 C                                       1.4162501
     3   6 C        8   1 H                                       1.0849843
     4   6 C        9   1 H                                       1.0845578
     5   6 C       10   1 H                                       1.0848581
     6   6 C       11   1 H                                       1.0836844
     7   6 C       12   1 H                                       1.0840164
     1  40 Zr      13   6 C                                       2.4548627
     1  40 Zr      14   6 C                                       2.4385755
    13   6 C       14   6 C                                       1.4160325
     1  40 Zr      15   6 C                                       2.4586527
    14   6 C       15   6 C                                       1.4199079
     1  40 Zr      16   6 C                                       2.4673242
    15   6 C       16   6 C                                       1.4143995
     1  40 Zr      17   6 C                                       2.4462432
    13   6 C       17   6 C                                       1.4173870
    16   6 C       17   6 C                                       1.4188373
    13   6 C       18   1 H                                       1.0838688
    14   6 C       19   1 H                                       1.0856194
    15   6 C       20   1 H                                       1.0833234 (min)
    16   6 C       21   1 H                                       1.0839078
    17   6 C       22   1 H                                       1.0857783
     1  40 Zr      23   6 C                                       2.4166051
     1  40 Zr      24   6 C                                       2.5637770 (max)
    23   6 C       24   6 C                                       1.3497199
    24   6 C       25   1 H                                       1.0843500
    24   6 C       26   1 H                                       1.0894791
    23   6 C       27   1 H                                       1.0886823
    23   6 C       28   1 H                                       1.0955793
     2   6 C       29   1 H                                       1.1155442
     2   6 C       30   1 H                                       1.0874078
     2   6 C       31   1 H                                       1.0925339

 * 3 distinct bonds (by element types)

   Z      Z             #   av. dist./Å        max./Å        min./Å
   1 H    6 C          17     1.0881280     1.1155442     1.0833234
   6 C    6 C          11     1.4111518     1.4202656     1.3497199
   6 C   40 Zr         13     2.4585983     2.5637770     2.4166051


optimized geometry written to: xtbopt.xyz


           -------------------------------------------------
          | TOTAL ENERGY              -37.642489865166 Eh   |
          | GRADIENT NORM               0.000886444569 Eh/α |
          | HOMO-LUMO GAP               1.544458393734 eV   |
           -------------------------------------------------

------------------------------------------------------------------------
 * finished run on 2026/07/21 at 15:00:29.439     
------------------------------------------------------------------------
 total:
 * wall-time:     0 d,  0 h,  0 min,  9.796 sec
 *  cpu-time:     0 d,  0 h,  1 min, 13.167 sec
 * ratio c/w:     7.469 speedup
 SCF:
 * wall-time:     0 d,  0 h,  0 min,  0.628 sec
 *  cpu-time:     0 d,  0 h,  0 min,  4.707 sec
 * ratio c/w:     7.491 speedup
 ANC optimizer:
 * wall-time:     0 d,  0 h,  0 min,  9.034 sec
 *  cpu-time:     0 d,  0 h,  1 min,  7.513 sec
 * ratio c/w:     7.473 speedup

