77
Co-porphyrin with phenyl groups replacing meso hydrogens; theta=70 signs=(-1, -1, -1, -1)
Co       0.00213612       0.13787848       0.09524498
 N      -1.98277208       0.27020450       0.12851130
 N       1.98698421       0.00559604       0.06164614
 N       0.13337154       2.12219088       0.03510295
 N      -0.12911804      -1.84635142       0.15548049
 C      -2.88845897      -0.76359753       0.17543220
 H      -5.13244254      -0.88651031       0.22059519
 C      -2.74447649       1.41499025       0.10918090
 C      -4.15126504       1.09686010       0.14451062
 H      -4.95253607       1.83443491       0.13782295
 C      -4.24109246      -0.26170451       0.18579335
 C      -2.24965136       2.70894874       0.06230173
 C       1.27802652       2.88308906      -0.00850144
 C       0.95904831       4.28968904      -0.04360884
 H       1.69636618       5.09036142      -0.08085817
 C      -0.39990775       4.38022203      -0.02080383
 H      -1.02538144       5.27166657      -0.03519997
 C      -0.90118557       3.02819900       0.02798516
 C      -2.56834625      -2.11188080       0.20906685
 H       1.02960706      -4.99581576       0.22656209
 C       0.40414276      -4.10437090       0.21200056
 C       0.90542573      -2.75237790       0.16263305
 H      -1.69213381      -4.81447120       0.27263218
 C      -1.27378045      -2.60722756       0.19946839
 C      -0.95480627      -4.01381857       0.23501181
 C       2.57258107       2.38771270      -0.01842927
 H       4.95673549      -1.55866098       0.05083505
 C       4.15546561      -0.82107541       0.04461107
 C       4.24528105       0.53749658       0.00355315
 H       5.13661938       1.16230354      -0.03148740
 C       2.89266143       1.03940517       0.01458137
 C       2.74869036      -1.13919981       0.08047596
 C       2.25388287      -2.43315432       0.12767337
 C      -3.23122535       3.82984402       0.04793908
 C      -3.98131713       4.11614589       1.19118120
 C      -4.90162509       5.16707925       1.17771501
 C      -5.07184127       5.93171073       0.02100668
 C      -4.32174950       5.64540886      -1.12223545
 C      -3.40144154       4.59447550      -1.10876925
 H      -3.84935998       3.52337861       2.08789925
 H      -5.48312072       5.38902981       2.06399362
 H      -5.78529405       6.74642857       0.01056725
 H      -4.45370664       6.23817614      -2.01895349
 H      -2.81994591       4.37252494      -1.99504786
 C       3.69319274       3.36846386      -0.06799365
 C       3.96719128       4.17262840       1.04099381
 C       5.01785874       5.09216489       0.99452306
 C       5.79452766       5.20753684      -0.16093516
 C       5.52052913       4.40337230      -1.26992263
 C       4.46986167       3.48383581      -1.22345187
 H       3.36509218       4.08318830       1.93674274
 H       5.23027135       5.71557949       1.85424633
 H       6.60903937       5.92039154      -0.19696081
 H       6.12262823       4.49281240      -2.16567155
 H       4.25744906       2.86042121      -2.08317515
 C       3.23544756      -3.55406056       0.14181433
 C       4.02819969      -3.77411626       1.27085310
 C       4.94849893      -4.82505990       1.28411143
 C       5.07604603      -5.65594784       0.16833100
 C       4.28329390      -5.43589213      -0.96070777
 C       3.36299466      -4.38494850      -0.97396610
 H       3.92932101      -3.12998482       2.13584251
 H       5.56306626      -4.99565427       2.15937914
 H       5.78949204      -6.47067365       0.17860929
 H       4.38217257      -6.08002358      -1.82569718
 H       2.74842733      -4.21435413      -1.84923381
 C      -3.68893220      -3.09265443       0.25876828
 C      -3.92029781      -3.83051511       1.42222888
 C      -4.97094114      -4.75007266       1.46882813
 C      -5.79021886      -4.93176954       0.35196679
 C      -5.55885325      -4.19390886      -0.81149381
 C      -4.50820992      -3.27435130      -0.85809307
 H      -3.28516698      -3.68965776       2.28805625
 H      -5.15030332      -5.32208635       2.37078077
 H      -6.60471187      -5.64464057       0.38809205
 H      -6.19398408      -4.33476621      -1.67732118
 H      -4.32884774      -2.70233762      -1.76004570
