59

C      6.062326   -1.908034    2.382559
C      6.156667   -0.712458    1.422351
C      7.639786   -0.453203    1.095246
C      5.526051    0.519788    2.099153
O      5.430462   -1.063630    0.234835
C      5.251674   -0.256536   -0.898524
O      5.767914    0.891747   -0.967160
N      4.472237   -0.759128   -1.989178
C      4.182440    0.028649   -3.186898
C      3.156941    1.131993   -2.894693
C      1.804290    0.559302   -2.458857
N      0.853756    1.656160   -2.233468
C     -0.344418    1.216061   -1.501246
C     -1.249300    0.299055   -2.348445
C     -2.616280    0.052617   -1.691580
C     -2.518177   -0.823889   -0.435649
N     -3.852834   -1.153949    0.060039
C     -4.677550   -0.209475    0.751502
O     -4.251912    0.956192    0.975145
O     -5.954113   -0.607273    1.176005
C     -6.910062    0.206365    1.872663
C     -7.312646    1.423215    1.017472
C     -8.153928   -0.661939    2.115924
C     -6.347221    0.660863    3.233035
H      6.499962   -2.815116    1.912615
H      6.606432   -1.703122    3.330123
H      4.999514   -2.124571    2.624927
H      8.065666   -1.315216    0.538441
H      7.765119    0.458288    0.476196
H      8.226182   -0.309296    2.028466
H      5.649524    1.430456    1.478406
H      4.439704    0.353220    2.262417
H      6.006805    0.714427    3.082231
H      4.126325   -1.743801   -1.941565
H      5.121555    0.481867   -3.571530
H      3.785599   -0.640196   -3.981586
H      3.016069    1.733805   -3.818864
H      3.544579    1.810646   -2.104866
H      1.947566   -0.024369   -1.522334
H      1.423547   -0.120841   -3.252779
H      0.567489    2.057307   -3.157691
H     -0.046679    0.706066   -0.559734
H     -0.918665    2.122102   -1.210310
H     -0.747780   -0.675854   -2.528244
H     -1.425740    0.776816   -3.336572
H     -3.268554   -0.462086   -2.430668
H     -3.094254    1.024973   -1.444517
H     -1.984735   -1.766407   -0.687463
H     -1.945093   -0.308334    0.363848
H     -4.200855   -2.133024   -0.048761
H     -7.645417    1.090829    0.010850
H     -8.144188    1.981530    1.499447
H     -6.465124    2.126955    0.889750
H     -8.940572   -0.090586    2.655065
H     -8.573049   -1.014184    1.148738
H     -7.887921   -1.555062    2.721533
H     -5.988145   -0.217025    3.811698
H     -5.500149    1.365284    3.106322
H     -7.130817    1.180095    3.826182
