      -----------------------------------------------------------      
     |                   =====================                   |     
     |                           x T B                           |     
     |                   =====================                   |     
     |                         S. Grimme                         |     
     |          Mulliken Center for Theoretical Chemistry        |     
     |                    University of Bonn                     |     
      -----------------------------------------------------------      

   * xtb version 6.5.1 (b24c23e) compiled by 'conda@728c89f4b128' on 2022-07-12

   xtb is free software: you can redistribute it and/or modify it under
   the terms of the GNU Lesser General Public License as published by
   the Free Software Foundation, either version 3 of the License, or
   (at your option) any later version.
   
   xtb is distributed in the hope that it will be useful,
   but WITHOUT ANY WARRANTY; without even the implied warranty of
   MERCHANTABILITY or FITNESS FOR A PARTICULAR PURPOSE.  See the
   GNU Lesser General Public License for more details.
   
   Cite this work as:
   * C. Bannwarth, E. Caldeweyher, S. Ehlert, A. Hansen, P. Pracht,
     J. Seibert, S. Spicher, S. Grimme, WIREs Comput. Mol. Sci., 2020, 11,
     e01493. DOI: 10.1002/wcms.1493
   
   for GFN2-xTB:
   * C. Bannwarth, S. Ehlert and S. Grimme., J. Chem. Theory Comput., 2019,
     15, 1652-1671. DOI: 10.1021/acs.jctc.8b01176
   for GFN1-xTB:
   * S. Grimme, C. Bannwarth, P. Shushkov, J. Chem. Theory Comput., 2017,
     13, 1989-2009. DOI: 10.1021/acs.jctc.7b00118
   for GFN0-xTB:
   * P. Pracht, E. Caldeweyher, S. Ehlert, S. Grimme, ChemRxiv, 2019, preprint.
     DOI: 10.26434/chemrxiv.8326202.v1
   for GFN-FF:
   * S. Spicher and S. Grimme, Angew. Chem. Int. Ed., 2020, 59, 15665-15673.
     DOI: 10.1002/anie.202004239
   
   for ALPB and GBSA implicit solvation:
   * S. Ehlert, M. Stahn, S. Spicher, S. Grimme, J. Chem. Theory Comput.,
     2021, 17, 4250-4261. DOI: 10.1021/acs.jctc.1c00471
   
   for DFT-D4:
   * E. Caldeweyher, C. Bannwarth and S. Grimme, J. Chem. Phys., 2017,
     147, 034112. DOI: 10.1063/1.4993215
   * E. Caldeweyher, S. Ehlert, A. Hansen, H. Neugebauer, S. Spicher,
     C. Bannwarth and S. Grimme, J. Chem. Phys., 2019, 150, 154122.
     DOI: 10.1063/1.5090222
   * E. Caldeweyher, J.-M. Mewes, S. Ehlert and S. Grimme, Phys. Chem. Chem. Phys.
     2020, 22, 8499-8512. DOI: 10.1039/D0CP00502A
   
   for sTDA-xTB:
   * S. Grimme and C. Bannwarth, J. Chem. Phys., 2016, 145, 054103.
     DOI: 10.1063/1.4959605
   
   in the mass-spec context:
   * V. Asgeirsson, C. Bauer and S. Grimme, Chem. Sci., 2017, 8, 4879.
     DOI: 10.1039/c7sc00601b
   * J. Koopman and S. Grimme, ACS Omega 2019, 4, 12, 15120-15133.
     DOI: 10.1021/acsomega.9b02011
   
   for metadynamics refer to:
   * S. Grimme, J. Chem. Theory Comput., 2019, 155, 2847-2862
     DOI: 10.1021/acs.jctc.9b00143
   
   for SPH calculations refer to:
   * S. Spicher and S. Grimme, J. Chem. Theory Comput., 2021, 17, 1701-1714
     DOI: 10.1021/acs.jctc.0c01306
   
   with help from (in alphabetical order)
   P. Atkinson, C. Bannwarth, F. Bohle, G. Brandenburg, E. Caldeweyher
   M. Checinski, S. Dohm, S. Ehlert, S. Ehrlich, I. Gerasimov, C. Hölzer
   A. Katbashev, J. Koopman, C. Lavigne, S. Lehtola, F. März, M. Müller,
   F. Musil, H. Neugebauer, J. Pisarek, C. Plett, P. Pracht, F. Pultar,
   J. Seibert, P. Shushkov, S. Spicher, M. Stahn, M. Steiner, T. Strunk,
   J. Stückrath, T. Rose, and J. Unsleber
   
 * started run on 2026/08/13 at 17:44:17.551     

           -------------------------------------------------
          |                Calculation Setup                |
           -------------------------------------------------

          program call               : /h/332/chchoi/miniconda3/envs/el-agente/bin/xtb CpRu_eta6_sumanene_convex.xyz --opt --gfn 2 -P 4 --chrg 1 --uhf 0 --input detailed_input.inp
          coordinate file            : CpRu_eta6_sumanene_convex.xyz
          omp threads                :                     4

   ID    Z sym.   atoms
    1    6 C      1-21, 35-39
    2    1 H      22-33, 40-44
    3   44 Ru     34
constraining bond 34 2 to    2.2090000 Å, actual value:    2.2091675 Å
constraining bond 34 3 to    2.1690000 Å, actual value:    2.1686394 Å
constraining bond 34 4 to    2.1690000 Å, actual value:    2.1686399 Å
constraining bond 34 5 to    2.2090000 Å, actual value:    2.2091670 Å
constraining bond 34 20 to    2.1820000 Å, actual value:    2.1817635 Å
constraining bond 34 21 to    2.1820000 Å, actual value:    2.1817635 Å
constraining bond 34 35 to    2.2080000 Å, actual value:    2.2079178 Å
constraining bond 34 36 to    2.2080000 Å, actual value:    2.2079117 Å
constraining bond 34 37 to    2.2080000 Å, actual value:    2.2079204 Å
constraining bond 34 38 to    2.2080000 Å, actual value:    2.2079204 Å
constraining bond 34 39 to    2.2080000 Å, actual value:    2.2079117 Å

           -------------------------------------------------
          |                 G F N 2 - x T B                 |
           -------------------------------------------------

        Reference                      10.1021/acs.jctc.8b01176
      * Hamiltonian:
        H0-scaling (s, p, d)           1.850000    2.230000    2.230000
        zeta-weighting                 0.500000
      * Dispersion:
        s8                             2.700000
        a1                             0.520000
        a2                             5.000000
        s9                             5.000000
      * Repulsion:
        kExp                           1.500000    1.000000
        rExp                           1.000000
      * Coulomb:
        alpha                          2.000000
        third order                    shell-resolved
        anisotropic                    true
        a3                             3.000000
        a5                             4.000000
        cn-shift                       1.200000
        cn-exp                         4.000000
        max-rad                        5.000000


          ...................................................
          :                      SETUP                      :
          :.................................................:
          :  # basis functions                 131          :
          :  # atomic orbitals                 130          :
          :  # shells                           72          :
          :  # electrons                       128          :
          :  max. iterations                   250          :
          :  Hamiltonian                  GFN2-xTB          :
          :  restarted?                      false          :
          :  GBSA solvation                  false          :
          :  PC potential                    false          :
          :  electronic temp.          300.0000000     K    :
          :  accuracy                    1.0000000          :
          :  -> integral cutoff          0.2500000E+02      :
          :  -> integral neglect         0.1000000E-07      :
          :  -> SCF convergence          0.1000000E-05 Eh   :
          :  -> wf. convergence          0.1000000E-03 e    :
          :  Broyden damping             0.4000000          :
          ...................................................

 iter      E             dE          RMSdq      gap      omega  full diag
   1    -66.3696073 -0.663696E+02  0.924E+00    1.39       0.0  T
   2    -59.0072639  0.736234E+01  0.118E+01    0.19       1.0  T
   3    -62.7137871 -0.370652E+01  0.753E+00    0.61       1.0  T
   4    -67.8613586 -0.514757E+01  0.330E+00    1.40       1.0  T
   5    -67.9879542 -0.126596E+00  0.231E+00    0.27       1.0  T
   6    -68.2077594 -0.219805E+00  0.117E+00    0.69       1.0  T
   7    -68.2635411 -0.557817E-01  0.718E-01    1.24       1.0  T
   8    -68.2894248 -0.258837E-01  0.290E-01    1.78       1.0  T
   9    -68.2932847 -0.385984E-02  0.187E-01    2.00       1.0  T
  10    -68.2941835 -0.898801E-03  0.141E-01    2.13       1.0  T
  11    -68.2945045 -0.321058E-03  0.690E-02    2.17       1.0  T
  12    -68.2945257 -0.211416E-04  0.406E-02    2.18       1.0  T
  13    -68.2945853 -0.595892E-04  0.162E-02    2.16       1.0  T
  14    -68.2945894 -0.419140E-05  0.102E-02    2.16       1.5  T
  15    -68.2945910 -0.151666E-05  0.373E-03    2.16       4.0  T
  16    -68.2945910 -0.757133E-07  0.247E-03    2.16       6.1  T
  17    -68.2945914 -0.309045E-06  0.639E-04    2.16      23.6  T
  18    -68.2945914 -0.787603E-08  0.311E-04    2.16      48.5  T

   *** convergence criteria satisfied after 18 iterations ***

         #    Occupation            Energy/Eh            Energy/eV
      -------------------------------------------------------------
         1        2.0000           -0.8489514             -23.1011
       ...           ...                  ...                  ...
        58        2.0000           -0.5306677             -14.4402
        59        2.0000           -0.5187694             -14.1164
        60        2.0000           -0.4961942             -13.5021
        61        2.0000           -0.4892951             -13.3144
        62        2.0000           -0.4889961             -13.3063
        63        2.0000           -0.4819052             -13.1133
        64        2.0000           -0.4816688             -13.1069 (HOMO)
        65                         -0.4023143             -10.9475 (LUMO)
        66                         -0.3993247             -10.8662
        67                         -0.3791002             -10.3158
        68                         -0.3788689             -10.3095
        69                         -0.3647061              -9.9242
       ...                                ...                  ...
       130                          4.0625465             110.5475
      -------------------------------------------------------------
                  HL-Gap            0.0793544 Eh            2.1593 eV
             Fermi-level           -0.4419916 Eh          -12.0272 eV

 SCC (total)                   0 d,  0 h,  0 min,  1.326 sec
 SCC setup                      ...        0 min,  0.002 sec (  0.135%)
 Dispersion                     ...        0 min,  0.001 sec (  0.095%)
 classical contributions        ...        0 min,  0.007 sec (  0.499%)
 integral evaluation            ...        0 min,  0.042 sec (  3.172%)
 iterations                     ...        0 min,  1.167 sec ( 87.964%)
 molecular gradient             ...        0 min,  0.107 sec (  8.038%)
 printout                       ...        0 min,  0.001 sec (  0.093%)

         :::::::::::::::::::::::::::::::::::::::::::::::::::::
         ::                     SUMMARY                     ::
         :::::::::::::::::::::::::::::::::::::::::::::::::::::
         :: total energy             -67.118431355445 Eh    ::
         :: gradient norm              0.187791994286 Eh/a0 ::
         :: HOMO-LUMO gap              2.159344362016 eV    ::
         ::.................................................::
         :: SCC energy               -68.294591358082 Eh    ::
         :: -> isotropic ES            0.053008976355 Eh    ::
         :: -> anisotropic ES         -0.007565117651 Eh    ::
         :: -> anisotropic XC          0.038400252008 Eh    ::
         :: -> dispersion             -0.063201623833 Eh    ::
         :: repulsion energy           1.174782014219 Eh    ::
         :: add. restraining           0.000000825879 Eh    ::
         :: total charge               1.000000000000 e     ::
         :::::::::::::::::::::::::::::::::::::::::::::::::::::

      ----------------------------------------------------------- 
     |                   =====================                   |
     |                        A N C O P T                        |
     |                   =====================                   |
     |               Approximate Normal Coordinate               |
     |                Rational Function Optimizer                |
      ----------------------------------------------------------- 

          ...................................................
          :                      SETUP                      :
          :.................................................:
          :   optimization level            normal          :
          :   max. optcycles                   200          :
          :   ANC micro-cycles                  20          :
          :   degrees of freedom               126          :
          :.................................................:
          :   RF solver                   davidson          :
          :   write xtbopt.log                true          :
          :   linear?                        false          :
          :   energy convergence         0.5000000E-05 Eh   :
          :   grad. convergence          0.1000000E-02 Eh/α :
          :   maximium RF displ.         1.0000000          :
          :   Hlow (freq-cutoff)         0.1000000E-01      :
          :   Hmax (freq-cutoff)         5.0000000          :
          :   S6 in model hess.         20.0000000          :
          ...................................................

generating ANC from model Hessian ...
Using Lindh-Hessian (1995)
 Shifting diagonal of input Hessian by    9.5650105980093110E-003
 Lowest  eigenvalues of input Hessian
    0.000000    0.000000    0.000000    0.000000    0.000000    0.000000
    0.010000    0.010548    0.010622    0.012978    0.013077    0.016409
    0.018853    0.022135    0.022967    0.025554    0.025994    0.029951
 Highest eigenvalues
    2.153090    2.489362    2.648100    3.611326    3.637146    8.713399


........................................................................
.............................. CYCLE    1 ..............................
........................................................................
   1    -68.2945914 -0.682946E+02  0.184E-04    2.16       0.0  T
   2    -68.2945914 -0.189883E-08  0.164E-04    2.16      91.9  T
   3    -68.2945914 -0.436998E-09  0.935E-05    2.16     161.2  T
     SCC iter.                  ...        0 min,  0.217 sec
     gradient                   ...        0 min,  0.033 sec
 * total energy  :   -67.1184314 Eh     change       -0.5066724E-08 Eh
   gradient norm :     0.1877940 Eh/α   predicted     0.0000000E+00 (-100.00%)
   displ. norm   :     0.3846370 α      lambda       -0.4345325E-01
   maximum displ.:     0.1674286 α      in ANC's #11, #71, #56, ...

........................................................................
.............................. CYCLE    2 ..............................
........................................................................
   1    -68.3291803 -0.683292E+02  0.355E-01    2.15       0.0  T
   2    -68.3290231  0.157170E-03  0.269E-01    2.14       1.0  T
   3    -68.3289387  0.844016E-04  0.181E-01    2.14       1.0  T
   4    -68.3264557  0.248297E-02  0.221E-01    2.14       1.0  T
   5    -68.3295864 -0.313070E-02  0.272E-02    2.14       1.0  T
   6    -68.3295945 -0.808106E-05  0.689E-03    2.14       2.2  T
   7    -68.3295950 -0.458015E-06  0.503E-03    2.14       3.0  T
   8    -68.3295953 -0.355635E-06  0.216E-03    2.14       7.0  T
   9    -68.3295954 -0.609090E-07  0.668E-04    2.14      22.6  T
  10    -68.3295954 -0.158902E-08  0.497E-04    2.14      30.3  T
     SCC iter.                  ...        0 min,  0.748 sec
     gradient                   ...        0 min,  0.167 sec
 * total energy  :   -67.1477324 Eh     change       -0.2930109E-01 Eh
   gradient norm :     0.0733267 Eh/α   predicted    -0.2503890E-01 ( -14.55%)
   displ. norm   :     0.3852363 α      lambda       -0.1132650E-01
   maximum displ.:     0.2395129 α      in ANC's #11, #7, #13, ...

........................................................................
.............................. CYCLE    3 ..............................
........................................................................
   1    -68.3377560 -0.683378E+02  0.242E-01    2.12       0.0  T
   2    -68.3372546  0.501363E-03  0.193E-01    2.11       1.0  T
   3    -68.3370436  0.210999E-03  0.158E-01    2.11       1.0  T
   4    -68.3371414 -0.977353E-04  0.125E-01    2.12       1.0  T
   5    -68.3379363 -0.794908E-03  0.148E-02    2.12       1.0  T
   6    -68.3379375 -0.118956E-05  0.266E-03    2.12       5.7  T
   7    -68.3379376 -0.145110E-06  0.161E-03    2.12       9.4  T
   8    -68.3379377 -0.307204E-07  0.855E-04    2.12      17.6  T
   9    -68.3379377 -0.842799E-08  0.311E-04    2.12      48.4  T
     SCC iter.                  ...        0 min,  0.613 sec
     gradient                   ...        0 min,  0.065 sec
 * total energy  :   -67.1542356 Eh     change       -0.6503192E-02 Eh
   gradient norm :     0.0533802 Eh/α   predicted    -0.6515023E-02 (   0.18%)
   displ. norm   :     0.3175533 α      lambda       -0.2742357E-02
   maximum displ.:     0.2516456 α      in ANC's #7, #11, #13, ...

........................................................................
.............................. CYCLE    4 ..............................
........................................................................
   1    -68.3316613 -0.683317E+02  0.163E-01    2.12       0.0  T
   2    -68.3316265  0.347386E-04  0.125E-01    2.12       1.0  T
   3    -68.3316166  0.989544E-05  0.810E-02    2.12       1.0  T
   4    -68.3312814  0.335244E-03  0.815E-02    2.12       1.0  T
   5    -68.3316887 -0.407365E-03  0.104E-02    2.12       1.5  T
   6    -68.3316898 -0.109447E-05  0.166E-03    2.12       9.1  T
   7    -68.3316899 -0.119043E-07  0.947E-04    2.12      15.9  T
   8    -68.3316899 -0.646679E-08  0.326E-04    2.12      46.2  T
     SCC iter.                  ...        0 min,  0.447 sec
     gradient                   ...        0 min,  0.073 sec
 * total energy  :   -67.1559844 Eh     change       -0.1748744E-02 Eh
   gradient norm :     0.0347661 Eh/α   predicted    -0.1509801E-02 ( -13.66%)
   displ. norm   :     0.3402068 α      lambda       -0.1582209E-02
   maximum displ.:     0.2990629 α      in ANC's #7, #11, #4, ...

........................................................................
.............................. CYCLE    5 ..............................
........................................................................
   1    -68.3257253 -0.683257E+02  0.158E-01    2.11       0.0  T
   2    -68.3256891  0.361368E-04  0.128E-01    2.11       1.0  T
   3    -68.3256905 -0.137799E-05  0.782E-02    2.11       1.0  T
   4    -68.3253990  0.291525E-03  0.757E-02    2.11       1.0  T
   5    -68.3257494 -0.350461E-03  0.698E-03    2.11       2.2  T
   6    -68.3257501 -0.640843E-06  0.266E-03    2.11       5.7  T
   7    -68.3257502 -0.789428E-07  0.106E-03    2.11      14.2  T
   8    -68.3257502 -0.265996E-08  0.298E-04    2.11      50.6  T
   9    -68.3257502 -0.663803E-09  0.213E-04    2.11      70.8  T
     SCC iter.                  ...        0 min,  0.429 sec
     gradient                   ...        0 min,  0.072 sec
 * total energy  :   -67.1570629 Eh     change       -0.1078567E-02 Eh
   gradient norm :     0.0121365 Eh/α   predicted    -0.8826768E-03 ( -18.16%)
   displ. norm   :     0.2572716 α      lambda       -0.6942825E-03
   maximum displ.:     0.2281182 α      in ANC's #7, #4, #2, ...

........................................................................
.............................. CYCLE    6 ..............................
........................................................................
   1    -68.3281783 -0.683282E+02  0.116E-01    2.12       0.0  T
   2    -68.3281759  0.245576E-05  0.950E-02    2.11       1.0  T
   3    -68.3281840 -0.813692E-05  0.541E-02    2.12       1.0  T
   4    -68.3281822  0.175858E-05  0.105E-02    2.12       1.4  T
   5    -68.3281853 -0.304177E-05  0.458E-03    2.12       3.3  T
   6    -68.3281863 -0.986313E-06  0.127E-03    2.12      11.8  T
   7    -68.3281863 -0.359834E-07  0.536E-04    2.12      28.2  T
   8    -68.3281863 -0.200139E-08  0.171E-04    2.12      88.2  T
     SCC iter.                  ...        0 min,  0.361 sec
     gradient                   ...        0 min,  0.057 sec
 * total energy  :   -67.1575305 Eh     change       -0.4675101E-03 Eh
   gradient norm :     0.0088848 Eh/α   predicted    -0.3701197E-03 ( -20.83%)
   displ. norm   :     0.1680739 α      lambda       -0.2827221E-03
   maximum displ.:     0.1335685 α      in ANC's #7, #4, #2, ...

........................................................................
.............................. CYCLE    7 ..............................
........................................................................
   1    -68.3325154 -0.683325E+02  0.760E-02    2.12       0.0  T
   2    -68.3325103  0.508792E-05  0.712E-02    2.12       1.0  T
   3    -68.3325178 -0.748368E-05  0.313E-02    2.12       1.0  T
   4    -68.3324893  0.284102E-04  0.224E-02    2.12       1.0  T
   5    -68.3325201 -0.307503E-04  0.271E-03    2.12       5.6  T
   6    -68.3325202 -0.805949E-07  0.669E-04    2.12      22.5  T
   7    -68.3325202 -0.748291E-08  0.367E-04    2.12      41.1  T
     SCC iter.                  ...        0 min,  0.318 sec
     gradient                   ...        0 min,  0.039 sec
 * total energy  :   -67.1577199 Eh     change       -0.1894164E-03 Eh
   gradient norm :     0.0059443 Eh/α   predicted    -0.1453550E-03 ( -23.26%)
   displ. norm   :     0.1100988 α      lambda       -0.9802773E-04
   maximum displ.:     0.0723230 α      in ANC's #7, #2, #4, ...

........................................................................
.............................. CYCLE    8 ..............................
........................................................................
   1    -68.3348107 -0.683348E+02  0.509E-02    2.12       0.0  T
   2    -68.3348029  0.776893E-05  0.553E-02    2.12       1.0  T
   3    -68.3348119 -0.903658E-05  0.176E-02    2.12       1.0  T
   4    -68.3347786  0.332980E-04  0.243E-02    2.12       1.0  T
   5    -68.3348147 -0.360846E-04  0.226E-03    2.12       6.7  T
   6    -68.3348148 -0.555188E-07  0.476E-04    2.12      31.7  T
   7    -68.3348148 -0.276225E-08  0.303E-04    2.12      49.7  T
     SCC iter.                  ...        0 min,  0.336 sec
     gradient                   ...        0 min,  0.082 sec
 * total energy  :   -67.1577835 Eh     change       -0.6358378E-04 Eh
   gradient norm :     0.0026330 Eh/α   predicted    -0.4960879E-04 ( -21.98%)
   displ. norm   :     0.0597572 α      lambda       -0.2744983E-04
   maximum displ.:     0.0406204 α      in ANC's #2, #4, #7, ...

........................................................................
.............................. CYCLE    9 ..............................
........................................................................
   1    -68.3349177 -0.683349E+02  0.282E-02    2.12       0.0  T
   2    -68.3349152  0.257055E-05  0.333E-02    2.12       1.0  T
   3    -68.3349186 -0.339134E-05  0.742E-03    2.12       2.0  T
   4    -68.3349125  0.608708E-05  0.106E-02    2.12       1.4  T
   5    -68.3349192 -0.676912E-05  0.151E-03    2.12      10.0  T
   6    -68.3349193 -0.333002E-07  0.219E-04    2.12      68.9  T
   7    -68.3349193 -0.832159E-09  0.144E-04    2.12     104.7  T
     SCC iter.                  ...        0 min,  0.348 sec
     gradient                   ...        0 min,  0.094 sec
 * total energy  :   -67.1578023 Eh     change       -0.1885237E-04 Eh
   gradient norm :     0.0015274 Eh/α   predicted    -0.1377498E-04 ( -26.93%)
   displ. norm   :     0.0578225 α      lambda       -0.1216650E-04
   maximum displ.:     0.0454054 α      in ANC's #2, #6, #4, ...

........................................................................
.............................. CYCLE   10 ..............................
........................................................................
   1    -68.3343436 -0.683343E+02  0.270E-02    2.13       0.0  T
   2    -68.3343419  0.174158E-05  0.308E-02    2.13       1.0  T
   3    -68.3343444 -0.250294E-05  0.745E-03    2.13       2.0  T
   4    -68.3343382  0.612737E-05  0.105E-02    2.13       1.4  T
   5    -68.3343448 -0.660152E-05  0.155E-03    2.13       9.7  T
   6    -68.3343449 -0.532045E-07  0.272E-04    2.13      55.3  T
   7    -68.3343449 -0.163085E-08  0.148E-04    2.13     102.1  T
     SCC iter.                  ...        0 min,  0.329 sec
     gradient                   ...        0 min,  0.049 sec
 * total energy  :   -67.1578128 Eh     change       -0.1051683E-04 Eh
   gradient norm :     0.0013342 Eh/α   predicted    -0.6094775E-05 ( -42.05%)
   displ. norm   :     0.0214319 α      lambda       -0.3447507E-05
   maximum displ.:     0.0173415 α      in ANC's #2, #7, #6, ...

........................................................................
.............................. CYCLE   11 ..............................
........................................................................
   1    -68.3341336 -0.683341E+02  0.992E-03    2.13       0.0  T
   2    -68.3341336  0.375305E-07  0.900E-03    2.13       1.7  T
   3    -68.3341337 -0.109252E-06  0.403E-03    2.13       3.7  T
   4    -68.3341333  0.424316E-06  0.285E-03    2.13       5.3  T
   5    -68.3341337 -0.453244E-06  0.572E-04    2.13      26.4  T
   6    -68.3341337 -0.447858E-08  0.232E-04    2.13      65.1  T
     SCC iter.                  ...        0 min,  0.270 sec
     gradient                   ...        0 min,  0.060 sec
 * total energy  :   -67.1578164 Eh     change       -0.3592921E-05 Eh
   gradient norm :     0.0005255 Eh/α   predicted    -0.1728318E-05 ( -51.90%)
   displ. norm   :     0.0164762 α      lambda       -0.1380512E-05
   maximum displ.:     0.0147435 α      in ANC's #2, #7, #4, ...

   *** GEOMETRY OPTIMIZATION CONVERGED AFTER 11 ITERATIONS ***

------------------------------------------------------------------------
 total energy gain   :        -0.0393851 Eh      -24.7145 kcal/mol
 total RMSD          :         0.2544676 a0        0.1347 Å
 total power (kW/mol):        -9.4004981 (step)  -16.7177 (real)
------------------------------------------------------------------------

 ANCopt (total)                0 d,  0 h,  0 min,  6.185 sec
 optimizer setup                ...        0 min,  0.001 sec (  0.009%)
 model hessian                  ...        0 min,  0.067 sec (  1.076%)
 ANC generation                 ...        0 min,  0.024 sec (  0.384%)
 coordinate transformation      ...        0 min,  0.026 sec (  0.413%)
 single point calculation       ...        0 min,  5.971 sec ( 96.533%)
 optimization log               ...        0 min,  0.001 sec (  0.024%)
 hessian update                 ...        0 min,  0.076 sec (  1.230%)
 rational function              ...        0 min,  0.014 sec (  0.234%)

================
 final structure:
================
44
 xtb: 6.5.1 (b24c23e)
C            2.06666162317475       -2.54141046819651       -0.06132147966776
C            2.41680255021796       -1.09036911527781        0.30559224820962
C            1.27401337582464       -0.56520822857608        0.96406463578452
C            1.04803834136976        0.81664042454598        1.05120105196848
C            1.95144513627696        1.75384810837902        0.48533885975730
C            1.15209180859516        3.05273599308235        0.29393299949580
C           -0.30230336320902        2.59605658555653        0.44827805241332
C           -0.28395165516973        1.32869090232166        1.03520266979833
C           -1.34237103920317        0.44612894278874        0.91845331297617
C           -2.50350992005571        0.78846138247459        0.22091968652012
C           -3.20379244823022       -0.51385264544772       -0.15553739229114
C           -2.11907861276063       -1.56268741822147        0.07139172270572
C           -1.11271917913745       -0.95853834779524        0.82917708345759
C            0.17310615924163       -1.46713007296225        0.85776151890305
C            0.54592283676092       -2.59215169253693        0.11864754272550
C           -0.48291338546324       -3.28466464761078       -0.50139738088648
C           -1.79951910283161       -2.77632664200308       -0.52010113018513
C           -2.59749791801813        2.10400443439403       -0.20968535250261
C           -1.51007431825904        2.99739346127373       -0.10194591365151
C            3.11533847522428        1.24884039750491       -0.13916519444589
C            3.34737418344907       -0.16914607996608       -0.22888011870028
H            2.56459406918444       -3.26066132577792        0.59401731619459
H            2.36134014386799       -2.76652686758038       -1.08682153860811
H            1.33923310424479        3.48495080562713       -0.68958415042680
H            1.41011823341821        3.80542471677850        1.04341146528502
H           -4.06993703405371       -0.69623037975716        0.48514358523721
H           -3.55053810434183       -0.50486132771970       -1.18835036525723
H           -0.27277331402571       -4.16273395575327       -1.09333402926375
H           -2.52650904441121       -3.29579066155826       -1.12659643237063
H           -3.46386848817018        2.43666537366298       -0.76189670865140
H           -1.60144892323732        3.96277276830262       -0.57654696915784
H            3.79258470232679        1.91690742809829       -0.66268803039278
H            4.19062145676948       -0.51817646275722       -0.81719543860391
Ru           3.01633183348665        0.37529513403935        1.85972740273511
C            2.96842787503061       -0.13666033606881        4.00798953882083
C            3.14260942323613        1.26965819029591        3.87544139638021
C            4.37256837789016        1.49847564370797        3.19347880651165
C            4.95768276085106        0.23387173950664        2.90458961028867
C            4.08984591780104       -0.77740411562538        3.40804822842971
H            2.18821723508878       -0.62653653728260        4.57555623131604
H            2.51822767783417        2.02888844419440        4.32773907525294
H            4.84124793136690        2.46177925221323        3.03992234124901
H            5.94720202048007        0.07298081700992        2.49701844344692
H            4.30840520756544       -1.83647151728384        3.44681903920000

 Bond Distances (Angstroems)
 ---------------------------
C1-C2=1.5371         C1-C15=1.5322        C1-H22=1.0930        C1-H23=1.0905        C2-C1=1.5371         C2-C3=1.4196         
C2-C21=1.4143        C2-Ru34=2.2188       C3-C2=1.4196         C3-C4=1.4029         C3-C14=1.4272        C3-Ru34=2.1731       
C4-C3=1.4029         C4-C5=1.4194         C4-C8=1.4271         C4-Ru34=2.1732       C5-C4=1.4194         C5-C6=1.5371         
C5-C20=1.4141        C5-Ru34=2.2189       C6-C5=1.5371         C6-C7=1.5322         C6-H24=1.0905        C6-H25=1.0931        
C7-C6=1.5322         C7-C8=1.3968         C7-C19=1.3866        C8-C4=1.4271         C8-C7=1.3968         C8-C9=1.3830         
C9-C8=1.3830         C9-C10=1.3971        C9-C13=1.4261        C10-C9=1.3971        C10-C11=1.5258       C10-C18=1.3874       
C11-C10=1.5258       C11-C12=1.5258       C11-H26=1.0927       C11-H27=1.0895       C12-C11=1.5258       C12-C13=1.3971       
C12-C17=1.3874       C13-C9=1.4261        C13-C12=1.3971       C13-C14=1.3831       C14-C3=1.4272        C14-C13=1.3831       
C14-C15=1.3968       C15-C1=1.5322        C15-C14=1.3968       C15-C16=1.3866       C16-C15=1.3866       C16-C17=1.4115       
C16-H28=1.0796       C17-C12=1.3874       C17-C16=1.4115       C17-H29=1.0799       C18-C10=1.3874       C18-C19=1.4115       
C18-H30=1.0799       C19-C7=1.3866        C19-C18=1.4115       C19-H31=1.0796       C20-C5=1.4141        C20-C21=1.4396       
C20-H32=1.0858       C20-Ru34=2.1837      C21-C2=1.4143        C21-C20=1.4396       C21-H33=1.0858       C21-Ru34=2.1836      
H22-C1=1.0930        H23-C1=1.0905        H24-C6=1.0905        H25-C6=1.0931        H26-C11=1.0927       H27-C11=1.0895       
H28-C16=1.0796       H29-C17=1.0799       H30-C18=1.0799       H31-C19=1.0796       H32-C20=1.0858       H33-C21=1.0858       
Ru34-C2=2.2188       Ru34-C3=2.1731       Ru34-C4=2.1732       Ru34-C5=2.2189       Ru34-C20=2.1837      Ru34-C21=2.1836      
Ru34-C35=2.2089      Ru34-C36=2.2088      Ru34-C37=2.2090      Ru34-C38=2.2092      Ru34-C39=2.2087      C35-Ru34=2.2089      
C35-C36=1.4232       C35-C39=1.4241       C35-H40=1.0821       C36-Ru34=2.2088      C36-C35=1.4232       C36-C37=1.4249       
C36-H41=1.0821       C37-Ru34=2.2090      C37-C36=1.4249       C37-C38=1.4230       C37-H42=1.0822       C38-Ru34=2.2092      
C38-C37=1.4230       C38-C39=1.4245       C38-H43=1.0822       C39-Ru34=2.2087      C39-C35=1.4241       C39-C38=1.4245       
C39-H44=1.0821       H40-C35=1.0821       H41-C36=1.0821       H42-C37=1.0822       H43-C38=1.0822       H44-C39=1.0821       
 C  H  Rav=1.0853 sigma=0.0050  Rmin=1.0796  Rmax=1.0931    17
 C  C  Rav=1.4320 sigma=0.0502  Rmin=1.3830  Rmax=1.5371    32
 Ru C  Rav=2.1996 sigma=0.0167  Rmin=2.1731  Rmax=2.2189    11

 selected bond angles (degree)
 --------------------
C15-C1-C2=103.26               H22-C1-C2=111.98               H22-C1-C15=111.10              H23-C1-C2=110.96               
H23-C1-C15=111.83              H23-C1-H22=107.75              C3-C2-C1=106.06                C21-C2-C1=132.42               
C21-C2-C3=117.64               Ru34-C2-C1=148.47              Ru34-C2-C3= 69.41              Ru34-C2-C21= 69.92             
C4-C3-C2=121.52                C14-C3-C2=110.65               C14-C3-C4=120.19               Ru34-C3-C2= 72.89              
Ru34-C3-C4= 71.17              Ru34-C3-C14=157.32             C5-C4-C3=121.54                C8-C4-C3=120.20                
C8-C4-C5=110.65                Ru34-C4-C3= 71.17              Ru34-C4-C5= 72.90              Ru34-C4-C8=157.28              
C6-C5-C4=106.06                C20-C5-C4=117.65               C20-C5-C6=132.44               Ru34-C5-C4= 69.41              
Ru34-C5-C6=148.40              Ru34-C5-C20= 69.92             C7-C6-C5=103.25                H24-C6-C5=110.98               
H24-C6-C7=111.83               H25-C6-C5=111.95               H25-C6-C7=111.11               H25-C6-H24=107.76              
C8-C7-C6=107.48                C19-C7-C6=134.47               C19-C7-C8=116.16               C7-C8-C4=110.03                
C9-C8-C4=119.10                C9-C8-C7=122.24                C10-C9-C8=121.45               C13-C9-C8=120.70               
C13-C9-C10=110.12              C11-C10-C9=107.19              C18-C10-C9=116.33              C18-C10-C11=134.56             

 selected dihedral angles (degree)
 ---------------------------------
C3-C2-C1-C15= 14.74           C3-C2-C1-H22=255.14           C3-C2-C1-H23=134.69           C21-C2-C1-C15=218.25          
C21-C2-C1-H22= 98.65          C21-C2-C1-H23=338.20          Ru34-C2-C1-C15= 91.39         Ru34-C2-C1-H22=331.79         
Ru34-C2-C1-H23=211.35         C4-C3-C2-C1=201.27            C4-C3-C2-C21=  1.86           C4-C3-C2-Ru34= 54.20          
C14-C3-C2-C1=350.76           C14-C3-C2-C21=151.35          C14-C3-C2-Ru34=203.69         Ru34-C3-C2-C1=147.07          
Ru34-C3-C2-C21=307.65         C5-C4-C3-C2=  0.00            C5-C4-C3-C14=213.33           C5-C4-C3-Ru34= 54.98          
C8-C4-C3-C2=146.71            C8-C4-C3-C14=  0.05           C8-C4-C3-Ru34=201.70          Ru34-C4-C3-C2=305.01          
Ru34-C4-C3-C14=158.35         C6-C5-C4-C3=158.81            C6-C5-C4-C8=  9.26            C6-C5-C4-Ru34=213.00          
C20-C5-C4-C3=358.15           C20-C5-C4-C8=208.60           C20-C5-C4-Ru34= 52.34         Ru34-C5-C4-C3=305.81          
Ru34-C5-C4-C8=156.26          C7-C6-C5-C4=345.24            C7-C6-C5-C20=141.81           C7-C6-C5-Ru34=268.57          
H24-C6-C5-C4=225.27           H24-C6-C5-C20= 21.85          H24-C6-C5-Ru34=148.60         H25-C6-C5-C4=104.83           
H25-C6-C5-C20=261.41          H25-C6-C5-Ru34= 28.16         C8-C7-C6-C5= 15.49            C8-C7-C6-H24=134.87           
C8-C7-C6-H25=255.33           C19-C7-C6-C5=212.41           C19-C7-C6-H24=331.78          C19-C7-C6-H25= 92.24          
C7-C8-C4-C3=210.80            C7-C8-C4-C5=  0.82            C7-C8-C4-Ru34= 95.78          C9-C8-C4-C3=359.31            
C9-C8-C4-C5=149.33            C9-C8-C4-Ru34=244.29          C4-C8-C7-C6=349.36            C4-C8-C7-C19=155.99           
C9-C8-C7-C6=202.02            C9-C8-C7-C19=  8.65           C10-C9-C8-C4=214.34           C10-C9-C8-C7=358.88           
C13-C9-C8-C4=  0.66           C13-C9-C8-C7=145.19           C11-C10-C9-C8=159.33          C11-C10-C9-C13=  9.85         
C18-C10-C9-C8=352.79          C18-C10-C9-C13=203.31         
           -------------------------------------------------
          |                Final Singlepoint                |
           -------------------------------------------------

          ...................................................
          :                      SETUP                      :
          :.................................................:
          :  # basis functions                 131          :
          :  # atomic orbitals                 130          :
          :  # shells                           72          :
          :  # electrons                       128          :
          :  max. iterations                   250          :
          :  Hamiltonian                  GFN2-xTB          :
          :  restarted?                      false          :
          :  GBSA solvation                  false          :
          :  PC potential                    false          :
          :  electronic temp.          300.0000000     K    :
          :  accuracy                    1.0000000          :
          :  -> integral cutoff          0.2500000E+02      :
          :  -> integral neglect         0.1000000E-07      :
          :  -> SCF convergence          0.1000000E-05 Eh   :
          :  -> wf. convergence          0.1000000E-03 e    :
          :  Broyden damping             0.4000000          :
          ...................................................

 iter      E             dE          RMSdq      gap      omega  full diag
   1    -68.3341338 -0.683341E+02  0.119E-04    2.13       0.0  T
   2    -68.3341338  0.158735E-10  0.148E-04    2.13     101.8  T
   3    -68.3341338 -0.823945E-10  0.501E-05    2.13     300.9  T

   *** convergence criteria satisfied after 3 iterations ***

         #    Occupation            Energy/Eh            Energy/eV
      -------------------------------------------------------------
         1        2.0000           -0.8445764             -22.9821
       ...           ...                  ...                  ...
        58        2.0000           -0.5261677             -14.3178
        59        2.0000           -0.5182150             -14.1013
        60        2.0000           -0.4967451             -13.5171
        61        2.0000           -0.4913631             -13.3707
        62        2.0000           -0.4893369             -13.3155
        63        2.0000           -0.4827918             -13.1374
        64        2.0000           -0.4821185             -13.1191 (HOMO)
        65                         -0.4039971             -10.9933 (LUMO)
        66                         -0.4012161             -10.9176
        67                         -0.3769832             -10.2582
        68                         -0.3769124             -10.2563
        69                         -0.3595326              -9.7834
       ...                                ...                  ...
       130                          3.9779671             108.2460
      -------------------------------------------------------------
                  HL-Gap            0.0781214 Eh            2.1258 eV
             Fermi-level           -0.4430578 Eh          -12.0562 eV

 SCC (total)                   0 d,  0 h,  0 min,  0.267 sec
 SCC setup                      ...        0 min,  0.003 sec (  1.194%)
 Dispersion                     ...        0 min,  0.001 sec (  0.240%)
 classical contributions        ...        0 min,  0.001 sec (  0.384%)
 integral evaluation            ...        0 min,  0.013 sec (  4.684%)
 iterations                     ...        0 min,  0.142 sec ( 53.077%)
 molecular gradient             ...        0 min,  0.107 sec ( 40.117%)
 printout                       ...        0 min,  0.001 sec (  0.294%)

         :::::::::::::::::::::::::::::::::::::::::::::::::::::
         ::                     SUMMARY                     ::
         :::::::::::::::::::::::::::::::::::::::::::::::::::::
         :: total energy             -67.157816423430 Eh    ::
         :: gradient norm              0.000525287575 Eh/a0 ::
         :: HOMO-LUMO gap              2.125792271084 eV    ::
         ::.................................................::
         :: SCC energy               -68.334133750262 Eh    ::
         :: -> isotropic ES            0.052116796332 Eh    ::
         :: -> anisotropic ES         -0.008191535666 Eh    ::
         :: -> anisotropic XC          0.036335144904 Eh    ::
         :: -> dispersion             -0.062252177525 Eh    ::
         :: repulsion energy           1.174608420338 Eh    ::
         :: add. restraining           0.000423434188 Eh    ::
         :: total charge               1.000000000000 e     ::
         :::::::::::::::::::::::::::::::::::::::::::::::::::::

           -------------------------------------------------
          |                Property Printout                |
           -------------------------------------------------

    * Orbital Energies and Occupations

         #    Occupation            Energy/Eh            Energy/eV
      -------------------------------------------------------------
         1        2.0000           -0.8445764             -22.9821
       ...           ...                  ...                  ...
        52        2.0000           -0.5470674             -14.8865
        53        2.0000           -0.5460665             -14.8592
        54        2.0000           -0.5405108             -14.7080
        55        2.0000           -0.5395150             -14.6809
        56        2.0000           -0.5361894             -14.5905
        57        2.0000           -0.5313824             -14.4597
        58        2.0000           -0.5261677             -14.3178
        59        2.0000           -0.5182150             -14.1013
        60        2.0000           -0.4967451             -13.5171
        61        2.0000           -0.4913631             -13.3707
        62        2.0000           -0.4893369             -13.3155
        63        2.0000           -0.4827918             -13.1374
        64        2.0000           -0.4821185             -13.1191 (HOMO)
        65                         -0.4039971             -10.9933 (LUMO)
        66                         -0.4012161             -10.9176
        67                         -0.3769832             -10.2582
        68                         -0.3769124             -10.2563
        69                         -0.3595326              -9.7834
        70                         -0.3326166              -9.0510
        71                         -0.3297961              -8.9742
        72                         -0.3115819              -8.4786
        73                         -0.3015656              -8.2060
        74                         -0.2996377              -8.1536
        75                         -0.2763092              -7.5188
       ...                                ...                  ...
       130                          3.9779671             108.2460
      -------------------------------------------------------------
                  HL-Gap            0.0781214 Eh            2.1258 eV
             Fermi-level           -0.4430578 Eh          -12.0562 eV

     #   Z          covCN         q      C6AA      α(0)
     1   6 C        3.850    -0.063    21.668     6.621
     2   6 C        3.822     0.033    19.997     6.364
     3   6 C        3.909     0.038    19.877     6.337
     4   6 C        3.909     0.038    19.875     6.337
     5   6 C        3.822     0.033    19.995     6.363
     6   6 C        3.850    -0.063    21.670     6.621
     7   6 C        3.018     0.004    27.920     8.668
     8   6 C        3.057    -0.006    28.112     8.695
     9   6 C        3.075     0.003    27.877     8.657
    10   6 C        3.023     0.013    27.700     8.633
    11   6 C        3.859    -0.068    21.770     6.636
    12   6 C        3.023     0.013    27.700     8.633
    13   6 C        3.075     0.003    27.879     8.657
    14   6 C        3.057    -0.006    28.112     8.695
    15   6 C        3.018     0.004    27.919     8.667
    16   6 C        2.922    -0.031    28.786     8.798
    17   6 C        2.922    -0.029    28.724     8.789
    18   6 C        2.922    -0.029    28.724     8.789
    19   6 C        2.922    -0.032    28.786     8.798
    20   6 C        3.752    -0.004    20.707     6.489
    21   6 C        3.752    -0.004    20.708     6.489
    22   1 H        0.924     0.087     1.910     2.161
    23   1 H        0.924     0.077     2.012     2.218
    24   1 H        0.924     0.077     2.012     2.218
    25   1 H        0.924     0.087     1.907     2.160
    26   1 H        0.924     0.088     1.895     2.152
    27   1 H        0.925     0.074     2.044     2.236
    28   1 H        0.926     0.059     2.209     2.324
    29   1 H        0.926     0.062     2.179     2.309
    30   1 H        0.926     0.062     2.179     2.309
    31   1 H        0.926     0.059     2.209     2.324
    32   1 H        0.925     0.081     1.966     2.193
    33   1 H        0.925     0.081     1.966     2.193
    34  44 Ru       9.235    -0.198   315.080    29.857
    35   6 C        3.823    -0.003    20.612     6.461
    36   6 C        3.824    -0.003    20.619     6.462
    37   6 C        3.824    -0.005    20.642     6.465
    38   6 C        3.823    -0.006    20.661     6.468
    39   6 C        3.824    -0.004    20.626     6.463
    40   1 H        0.925     0.096     1.821     2.110
    41   1 H        0.925     0.095     1.830     2.116
    42   1 H        0.925     0.095     1.830     2.116
    43   1 H        0.925     0.096     1.826     2.113
    44   1 H        0.925     0.094     1.838     2.120

 Mol. C6AA /au·bohr⁶  :      28474.077664
 Mol. C8AA /au·bohr⁸  :     893653.818753
 Mol. α(0) /au        :        262.282325


Wiberg/Mayer (AO) data.
largest (>0.10) Wiberg bond orders for each atom

 ---------------------------------------------------------------------------
     #   Z sym  total        # sym  WBO       # sym  WBO       # sym  WBO
 ---------------------------------------------------------------------------
     1   6 C    3.987 --    15 C    0.999     2 C    0.990    23 H    0.954
                            22 H    0.940
     2   6 C    3.983 --    21 C    1.264     3 C    1.157     1 C    0.990
                            34 Ru   0.392
     3   6 C    3.988 --     2 C    1.157     4 C    1.148    14 C    1.102
                            34 Ru   0.375
     4   6 C    3.988 --     5 C    1.157     3 C    1.148     8 C    1.102
                            34 Ru   0.374
     5   6 C    3.983 --    20 C    1.265     4 C    1.157     6 C    0.990
                            34 Ru   0.391
     6   6 C    3.987 --     7 C    0.999     5 C    0.990    24 H    0.954
                            25 H    0.940
     7   6 C    3.978 --    19 C    1.455     8 C    1.306     6 C    0.999
     8   6 C    3.978 --     9 C    1.311     7 C    1.306     4 C    1.102
     9   6 C    3.981 --     8 C    1.311    10 C    1.307    13 C    1.127
    10   6 C    3.979 --    18 C    1.453     9 C    1.307    11 C    1.008
    11   6 C    3.992 --    10 C    1.008    12 C    1.008    27 H    0.954
                            26 H    0.936
    12   6 C    3.979 --    17 C    1.453    13 C    1.307    11 C    1.008
    13   6 C    3.982 --    14 C    1.311    12 C    1.307     9 C    1.127
    14   6 C    3.978 --    13 C    1.311    15 C    1.306     3 C    1.102
    15   6 C    3.979 --    16 C    1.455    14 C    1.306     1 C    0.999
    16   6 C    3.974 --    15 C    1.455    17 C    1.386    28 H    0.967
    17   6 C    3.970 --    12 C    1.453    16 C    1.386    29 H    0.966
    18   6 C    3.970 --    10 C    1.453    19 C    1.386    30 H    0.966
    19   6 C    3.974 --     7 C    1.455    18 C    1.386    31 H    0.967
    20   6 C    3.982 --     5 C    1.265    21 C    1.204    32 H    0.938
                            34 Ru   0.428
    21   6 C    3.982 --     2 C    1.264    20 C    1.204    33 H    0.938
                            34 Ru   0.428
    22   1 H    0.991 --     1 C    0.940
    23   1 H    0.993 --     1 C    0.954
    24   1 H    0.992 --     6 C    0.954
    25   1 H    0.992 --     6 C    0.940
    26   1 H    0.991 --    11 C    0.936
    27   1 H    0.994 --    11 C    0.954
    28   1 H    0.995 --    16 C    0.967
    29   1 H    0.995 --    17 C    0.966
    30   1 H    0.995 --    18 C    0.966
    31   1 H    0.995 --    19 C    0.967
    32   1 H    0.992 --    20 C    0.938
    33   1 H    0.992 --    21 C    0.938
    34  44 Ru   5.239 --    39 C    0.496    37 C    0.492    36 C    0.491
                            38 C    0.489    35 C    0.485    21 C    0.428
                            20 C    0.428     2 C    0.392     5 C    0.391
                             3 C    0.375     4 C    0.374
    35   6 C    3.982 --    36 C    1.232    39 C    1.228    40 H    0.929
                            34 Ru   0.485
    36   6 C    3.979 --    35 C    1.232    37 C    1.225    41 H    0.930
                            34 Ru   0.491
    37   6 C    3.978 --    38 C    1.233    36 C    1.225    42 H    0.930
                            34 Ru   0.492
    38   6 C    3.978 --    37 C    1.233    39 C    1.227    43 H    0.930
                            34 Ru   0.489
    39   6 C    3.980 --    35 C    1.228    38 C    1.227    44 H    0.930
                            34 Ru   0.496
    40   1 H    0.990 --    35 C    0.929
    41   1 H    0.990 --    36 C    0.930
    42   1 H    0.991 --    37 C    0.930
    43   1 H    0.990 --    38 C    0.930
    44   1 H    0.991 --    39 C    0.930
 ---------------------------------------------------------------------------

Topologies differ in total number of bonds
Writing topology from bond orders to xtbtopo.mol

molecular dipole:
                 x           y           z       tot (Debye)
 q only:        3.275       0.414       1.956
   full:        3.402       0.457       1.612       9.639
molecular quadrupole (traceless):
                xx          xy          yy          xz          yz          zz
 q only:       23.310       3.950     -10.553      26.399       4.448     -12.758
  q+dip:       25.621       4.008      -7.063      22.396       4.379     -18.558
   full:       23.705       4.054      -9.430      22.922       4.040     -14.274

           -------------------------------------------------
          |                Geometry Summary                 |
           -------------------------------------------------

      molecular mass/u    :      430.4790663
   center of mass at/Å    :        1.2952060       0.1413791       1.1084410
  moments of inertia/u·Å² :        0.1410321E+04   0.2974989E+04   0.3722885E+04
rotational constants/cm⁻¹ :        0.1195305E-01   0.5666451E-02   0.4528109E-02

 * 56 selected distances

     #   Z          #   Z                                           value/Å
     1   6 C        2   6 C                                       1.5371226
     2   6 C        3   6 C                                       1.4196293
     3   6 C        4   6 C                                       1.4029125
     4   6 C        5   6 C                                       1.4194022
     5   6 C        6   6 C                                       1.5371116
     4   6 C        8   6 C                                       1.4271122
     7   6 C        8   6 C                                       1.3967940
     8   6 C        9   6 C                                       1.3830394
     9   6 C       10   6 C                                       1.3971358
     9   6 C       13   6 C                                       1.4261139
    12   6 C       13   6 C                                       1.3971379
     3   6 C       14   6 C                                       1.4271512
    13   6 C       14   6 C                                       1.3830509
    14   6 C       15   6 C                                       1.3967662
    15   6 C       16   6 C                                       1.3865548
    12   6 C       17   6 C                                       1.3874086
    16   6 C       17   6 C                                       1.4114561
    10   6 C       18   6 C                                       1.3874107
     7   6 C       19   6 C                                       1.3865528
    18   6 C       19   6 C                                       1.4114681
     5   6 C       20   6 C                                       1.4141026
     2   6 C       21   6 C                                       1.4143113
    20   6 C       21   6 C                                       1.4396442
     1   6 C       22   1 H                                       1.0930360
     1   6 C       23   1 H                                       1.0904877
     6   6 C       24   1 H                                       1.0904759
     6   6 C       25   1 H                                       1.0930856
    11   6 C       26   1 H                                       1.0926758
    11   6 C       27   1 H                                       1.0895028
    16   6 C       28   1 H                                       1.0796082
    17   6 C       29   1 H                                       1.0799046
    18   6 C       30   1 H                                       1.0799069
    19   6 C       31   1 H                                       1.0796078 (min)
    20   6 C       32   1 H                                       1.0858418
    21   6 C       33   1 H                                       1.0858192
     2   6 C       34  44 Ru                                      2.2187708
     3   6 C       34  44 Ru                                      2.1731159
     4   6 C       34  44 Ru                                      2.1731730
     5   6 C       34  44 Ru                                      2.2188593 (max)
    20   6 C       34  44 Ru                                      2.1836795
    21   6 C       34  44 Ru                                      2.1836409
    34  44 Ru      35   6 C                                       2.2089419
    34  44 Ru      36   6 C                                       2.2088312
    35   6 C       36   6 C                                       1.4232499
    34  44 Ru      37   6 C                                       2.2090282
    36   6 C       37   6 C                                       1.4248613
    34  44 Ru      38   6 C                                       2.2092039
    37   6 C       38   6 C                                       1.4230387
    34  44 Ru      39   6 C                                       2.2087205
    35   6 C       39   6 C                                       1.4241001
    38   6 C       39   6 C                                       1.4245317
    35   6 C       40   1 H                                       1.0820534
    36   6 C       41   1 H                                       1.0820613
    37   6 C       42   1 H                                       1.0822172
    38   6 C       43   1 H                                       1.0821963
    39   6 C       44   1 H                                       1.0820792

 * 3 distinct bonds (by element types)

   Z      Z             #   av. dist./Å        max./Å        min./Å
   1 H    6 C          17     1.0853270     1.0930856     1.0796078
   6 C    6 C          28     1.4181847     1.5371226     1.3830394
   6 C   44 Ru         11     2.1996332     2.2188593     2.1731159


optimized geometry written to: xtbopt.xyz


           -------------------------------------------------
          | TOTAL ENERGY              -67.157816423430 Eh   |
          | GRADIENT NORM               0.000525287575 Eh/α |
          | HOMO-LUMO GAP               2.125792271084 eV   |
           -------------------------------------------------

------------------------------------------------------------------------
 * finished run on 2026/08/13 at 17:44:25.422     
------------------------------------------------------------------------
 total:
 * wall-time:     0 d,  0 h,  0 min,  7.871 sec
 *  cpu-time:     0 d,  0 h,  0 min, 30.855 sec
 * ratio c/w:     3.920 speedup
 SCF:
 * wall-time:     0 d,  0 h,  0 min,  1.327 sec
 *  cpu-time:     0 d,  0 h,  0 min,  5.129 sec
 * ratio c/w:     3.864 speedup
 ANC optimizer:
 * wall-time:     0 d,  0 h,  0 min,  6.468 sec
 *  cpu-time:     0 d,  0 h,  0 min, 25.452 sec
 * ratio c/w:     3.935 speedup

