15
Properties=species:S:1:pos:R:3 pbc="F F F"
Fe       0.14050000      -0.22310000       0.00000000
O        0.14050000      -3.43850000       0.00000000
O        3.18590000      -0.22310000       0.00000000
O        0.14050000       2.99230000       0.00000000
O       -2.90490000      -0.22310000       0.00000000
C        0.14050000      -2.32310000       0.00000000
C        2.07050000      -0.22310000       0.00000000
C       -1.78950000      -0.22310000       0.00000000
C        0.14050000       1.87690000       0.00000000
O        0.14050000      -0.22310000       1.98000000
H        0.14050000      -1.12817848       2.30003461
H        0.92436285       0.22936666       2.30003461
O        0.14050000      -0.22310000      -1.98000000
H        0.14050000      -1.12817848      -2.30003461
H       -0.64336285       0.22936666      -2.30003461
