59

C     -2.524907    1.261441   -2.012297
C     -3.909958    0.623037   -1.798022
C     -4.241596   -0.259204   -3.011228
C     -4.994775    1.708969   -1.662117
O     -3.896463   -0.230254   -0.643887
C     -3.645644    0.164285    0.678787
O     -3.446333    1.374326    0.971079
N     -3.605471   -0.835255    1.701101
C     -3.361308   -0.495925    3.103897
C     -3.107981   -1.751581    3.955184
C     -1.680044   -2.292031    3.798438
N     -1.437493   -2.728747    2.416476
C     -0.011531   -2.990838    2.170629
C      0.728474   -1.709652    1.758956
C      0.162483   -1.107063    0.462551
C      0.913091    0.165840    0.050125
N      2.262976   -0.134850   -0.428528
C      3.162978    0.901608   -0.830683
O      2.804310    2.108628   -0.763573
O      4.438802    0.549902   -1.296432
C      5.463176    1.455025   -1.735262
C      6.671507    0.604201   -2.155058
C      4.983220    2.270739   -2.951216
C      5.888432    2.390320   -0.587221
H     -2.507813    1.850862   -2.954539
H     -2.260836    1.944733   -1.179780
H     -1.746705    0.471201   -2.075862
H     -4.265187    0.341431   -3.946698
H     -5.233000   -0.743658   -2.876135
H     -3.479436   -1.060540   -3.124990
H     -5.973303    1.244519   -1.415056
H     -4.742218    2.438231   -0.866113
H     -5.101668    2.275457   -2.612406
H     -3.759049   -1.829233    1.416711
H     -2.489783    0.191044    3.181861
H     -4.252855    0.036445    3.499871
H     -3.848410   -2.543898    3.709080
H     -3.256451   -1.483962    5.024070
H     -1.541920   -3.148858    4.495846
H     -0.965661   -1.494342    4.096442
H     -1.958374   -3.626095    2.273058
H      0.090042   -3.733352    1.347492
H      0.477286   -3.436284    3.066921
H      0.671213   -0.959406    2.575533
H      1.800680   -1.962339    1.614761
H     -0.904333   -0.841809    0.618614
H      0.210957   -1.852636   -0.361158
H      0.967124    0.865997    0.912237
H      0.348150    0.667576   -0.763828
H      2.589393   -1.124708   -0.506059
H      7.028388   -0.007449   -1.298397
H      7.509187    1.245820   -2.505172
H      6.388501   -0.087598   -2.977570
H      4.602674    1.590236   -3.742725
H      5.817712    2.872355   -3.372019
H      4.170660    2.972379   -2.673509
H      6.167531    1.795211    0.308304
H      5.069588    3.082328   -0.304549
H      6.761970    3.007423   -0.889198
