44
concave CpRu(eta6-sumanene)+ built from central ring [2, 3, 7, 8, 12, 13]; total charge +1
C     -3.09891400     0.73761500    -0.02153700
C     -1.96281500     1.69055500     0.29101800
C     -0.99984700     1.01402300     1.00714100
C      0.33868100     1.41167400     0.96682000
C      0.73531100     2.49212100     0.20974900
C      2.18795700     2.30824300    -0.18078800
C      2.43245300     0.89001100     0.29392300
C      1.33782600     0.46847800     1.01637600
C      1.01444500    -0.88747600     1.10703900
C      1.78060200    -1.84324300     0.47667800
C      0.91068000    -3.04745700     0.17731800
C     -0.45717200    -2.50804100     0.54409100
C     -0.30298100    -1.27885800     1.14672700
C     -1.31812900    -0.32055500     1.09638400
C     -2.50345400    -0.57635200     0.44261200
C     -2.71896800    -1.85051100    -0.12682700
C     -1.68563400    -2.82598700    -0.07557400
C      2.94708700    -1.44968900    -0.21514200
C      3.27626200    -0.06944300    -0.30742900
C     -0.23721700     3.24729100    -0.48169500
C     -1.59972500     2.84251700    -0.44065600
H     -4.00609300     0.99319400     0.56501200
H     -3.30826000     0.71458600    -1.11259300
H      2.31525100     2.38522800    -1.28198400
H      2.83962300     3.02691900     0.35881200
H      1.18574600    -3.90792400     0.82250300
H      0.95663300    -3.31149400    -0.90107700
H     -3.59904400    -2.03235300    -0.72965500
H     -1.78590300    -3.74394700    -0.63974500
H      3.50051900    -2.17346200    -0.79898300
H      4.07809100     0.24837500    -0.96092600
H      0.06885000     4.03309500    -1.15980400
H     -2.32185900     3.32286400    -1.08779000
Ru    -0.00706526    -0.04108434    -0.63965297
C     -1.09903012     0.82795328    -2.49881579
C     -1.27322205    -0.63111468    -2.49781989
C      0.05479675    -1.24707705    -2.62607349
C      1.04966916    -0.16868722    -2.70632703
C      0.33655653     1.11380137    -2.62767616
H     -1.89059655     1.56418711    -2.41857666
H     -2.21589739    -1.16023745    -2.41671309
H      0.26378329    -2.31035996    -2.65618855
H      2.12150136    -0.29669044    -2.80604540
H      0.78997955     2.09797642    -2.65918866
