44
concave CpRu(eta6-sumanene peripheral ring)+; eta6 ring indices [1, 2, 3, 4, 19, 20]; total charge +1
C     -3.09891400     0.73761500    -0.02153700
C     -1.96281500     1.69055500     0.29101800
C     -0.99984700     1.01402300     1.00714100
C      0.33868100     1.41167400     0.96682000
C      0.73531100     2.49212100     0.20974900
C      2.18795700     2.30824300    -0.18078800
C      2.43245300     0.89001100     0.29392300
C      1.33782600     0.46847800     1.01637600
C      1.01444500    -0.88747600     1.10703900
C      1.78060200    -1.84324300     0.47667800
C      0.91068000    -3.04745700     0.17731800
C     -0.45717200    -2.50804100     0.54409100
C     -0.30298100    -1.27885800     1.14672700
C     -1.31812900    -0.32055500     1.09638400
C     -2.50345400    -0.57635200     0.44261200
C     -2.71896800    -1.85051100    -0.12682700
C     -1.68563400    -2.82598700    -0.07557400
C      2.94708700    -1.44968900    -0.21514200
C      3.27626200    -0.06944300    -0.30742900
C     -0.23721700     3.24729100    -0.48169500
C     -1.59972500     2.84251700    -0.44065600
H     -4.00609300     0.99319400     0.56501200
H     -3.30826000     0.71458600    -1.11259300
H      2.31525100     2.38522800    -1.28198400
H      2.83962300     3.02691900     0.35881200
H      1.18574600    -3.90792400     0.82250300
H      0.95663300    -3.31149400    -0.90107700
H     -3.59904400    -2.03235300    -0.72965500
H     -1.78590300    -3.74394700    -0.63974500
H      3.50051900    -2.17346200    -0.79898300
H      4.07809100     0.24837500    -0.96092600
H      0.06885000     4.03309500    -1.15980400
H     -2.32185900     3.32286400    -1.08779000
Ru    -0.36732702     1.12505557    -1.09883870
C     -0.21156592     1.23133883    -3.41585021
C     -1.30178568     0.31055452    -3.06542156
C     -0.72221257    -0.81827437    -2.32425160
C      0.72614849    -0.59509705    -2.21664820
C      1.04177172     0.67167226    -2.89131114
H     -0.31392771     2.16037018    -3.96492107
H     -2.34965772     0.44107123    -3.31060634
H     -1.26747426    -1.66667848    -1.92669281
H      1.43703987    -1.24994108    -1.72576575
H      2.02637586     1.11537234    -2.98549673
