12
Properties=species:S:1:pos:R:3 H-Ru=T test=T core=T pbc="F F F"
Ru       0.00000000       0.00000000       0.00000000
H        0.00000000       0.00000000       1.70000000
C        1.42305618       0.31189498      -1.81155531
C        0.32993042       1.28932980      -1.90600307
C       -0.92985880       0.54833968      -2.05883414
C       -0.61527370      -0.88699045      -2.05883414
C        0.83895283      -1.03314258      -1.90600307
H        2.47557230       0.54257772      -1.69301719
H        0.43447296       2.36771511      -1.86936998
H       -1.91780575       0.98413371      -2.15473628
H       -1.33038328      -1.69604787      -2.15473628
H        1.38495070      -1.96894723      -1.86936998
