59

C      5.747872    2.743388   -1.405329
C      6.126157    1.474068   -0.620178
C      7.605055    1.562922   -0.217948
C      5.919246    0.217227   -1.486304
O      5.364562    1.381826    0.591954
C      3.968557    1.297870    0.694379
O      3.240575    1.315404   -0.333523
N      3.377622    1.192439    1.995336
C      1.934051    1.104253    2.217515
C      1.527261   -0.325489    2.589401
C      1.636268   -1.286254    1.402344
N      1.148217   -2.614321    1.810205
C      0.355042   -3.264876    0.757346
C     -1.104305   -2.794917    0.828139
C     -1.953670   -3.444712   -0.275927
C     -3.402817   -2.936478   -0.253160
N     -3.485650   -1.538351   -0.675112
C     -4.712717   -0.808127   -0.626069
O     -5.762415   -1.366257   -0.209594
O     -4.720033    0.531507   -1.040268
C     -5.833724    1.435546   -0.974856
C     -6.993106    0.938746   -1.859856
C     -5.348655    2.791317   -1.509294
C     -6.298445    1.613808    0.483921
H      6.450243    2.901759   -2.251621
H      4.727893    2.668481   -1.829805
H      5.786762    3.632985   -0.740625
H      8.261599    1.618243   -1.113900
H      7.895752    0.670631    0.378162
H      7.777831    2.467477    0.406395
H      4.877570    0.152697   -1.862331
H      6.595791    0.233215   -2.367472
H      6.128577   -0.693892   -0.891834
H      4.011475    1.123200    2.824476
H      1.365939    1.451010    1.326161
H      1.662921    1.782366    3.057074
H      0.471174   -0.309554    2.935910
H      2.156945   -0.687923    3.430812
H      1.042642   -0.865832    0.556611
H      2.697240   -1.356902    1.065371
H      1.979453   -3.219105    2.012841
H      0.786719   -3.066227   -0.250454
H      0.375332   -4.366770    0.914674
H     -1.142506   -1.689899    0.726773
H     -1.524395   -3.064092    1.823564
H     -1.507476   -3.240524   -1.275528
H     -1.962844   -4.548109   -0.122716
H     -4.014242   -3.557201   -0.943504
H     -3.819906   -3.047121    0.771347
H     -2.637046   -1.042714   -1.029823
H     -7.802377    1.699545   -1.903912
H     -7.435221    0.004545   -1.462071
H     -6.630062    0.742658   -2.892228
H     -6.168133    3.541618   -1.497254
H     -4.510507    3.173100   -0.887366
H     -4.981597    2.685974   -2.552406
H     -5.438366    1.891494    1.127682
H     -6.745665    0.682503    0.882484
H     -7.066465    2.411826    0.556189
