31
 energy: -37.660887772844 gnorm: 0.000368738336 xtb: 6.5.1 (b24c23e)
Zr          -1.18394962949674       -0.04730808899821        0.41181531495773
C           -1.04183903810123        1.15182355673315       -1.43649762870788
C            0.45114017529694       -1.90489556592108        0.73821562668175
C            0.36486974300109       -1.61513718097329       -0.64352645905528
C           -0.94032911656157       -1.96952663205584       -1.08216104727187
C           -1.65551477816086       -2.46368918971353        0.03787962059141
C           -0.79795675079596       -2.41413986070621        1.16164617745660
H            1.35764826303845       -1.88194628259108        1.33117658194283
H            1.19399803170264       -1.34069061263696       -1.28686048968336
H           -1.26090824636399       -2.02323965593074       -2.11590013444367
H           -2.60004678753975       -2.99311549816014       -0.00160702871379
H           -1.00399234112383       -2.86250813791019        2.12666676074993
C           -0.68054711909470        0.21672446420378        2.84024217299788
C           -1.88525215970553        0.90537525247881        2.56627043624123
C           -1.57785829429113        1.99349181201016        1.70679656931772
C           -0.18562087909389        1.95747519207091        1.43680767559845
C            0.36591604536584        0.85815420337588        2.13588002939469
H           -0.55417290192139       -0.56154701580800        3.58351525005921
H           -2.82543947717833        0.74898752042986        3.08563379459318
H           -2.23413645861129        2.81681620652130        1.45308083061546
H            0.37773196054783        2.72871462539895        0.92445284924516
H            1.42478941462570        0.65209516800531        2.24275638597425
H            0.01390928642981        1.21709177303476       -1.75479222392830
H           -1.59282450927485        0.71743636968653       -2.28605289820782
H           -1.39267802582425        2.18982341965997       -1.33187039383225
C           -3.86495276574673       -0.36466935621166       -0.05744912127634
C           -3.98088813540893        0.96253011015596        0.00974687520983
H           -4.29940934602523        1.45961436948041        0.91867968914283
H           -3.89923345062450        1.58196188537048       -0.87671375401705
H           -4.12573709853876       -0.98919846993130        0.79797665751751
H           -3.75179597050764       -0.85696943107048       -1.02272379914459
