31
 energy: -37.686558623029 gnorm: 0.000592145856 xtb: 6.5.1 (b24c23e)
Zr          -0.66576453002605        0.10196440931354        0.20862420351741
C           -0.15731975625716        1.16250565208723       -1.62782412918407
C           -0.11604691607873       -2.19061232072282        0.90566487479624
C            0.35209165508176       -1.99759402942156       -0.42027352893672
C           -0.78440983758340       -1.82262175899307       -1.25960085669414
C           -1.94611448829562       -1.86407757270388       -0.44358691014605
C           -1.52943743953073       -2.11029740446110        0.89029783808378
H            0.48887049732319       -2.50277257233921        1.75062045710194
H            1.36897718388376       -2.15888930112211       -0.76546282675521
H           -0.77086066006617       -1.82119283579748       -2.34318187101770
H           -2.96975481091226       -1.91176897284359       -0.80440540780602
H           -2.18375432053180       -2.36240681714649        1.71737919068409
C           -0.11609154768935        0.64365185883709        2.54272012058918
C           -1.52950142153406        0.61691207400890        2.46551741547866
C           -1.94622893117760        1.64932004634921        1.58575096187697
C           -0.78440001357378        2.33553948730163        1.14223764608395
C            0.35193327207940        1.69571118933435        1.71286705997053
H            0.48871937076285        0.06743292911190        3.23493073723442
H           -2.18380130299534        0.02644327833659        3.09715513495495
H           -2.96984749810347        1.98572698916600        1.44687184689055
H           -0.77082762330342        3.27338772341493        0.59947699897334
H            1.36921617810284        2.07549129328723        1.68040461773964
H            0.37587550493969        0.59127677701200       -2.40793641928923
H            0.37549932224958        2.12386072586810       -1.52263443823450
C           -1.58634057533735        1.46258551016245       -2.14784111979361
H           -2.14579520772915        0.52201065975378       -2.32090191891263
H           -2.14667091562430        2.08111418586037       -1.41903796604429
C           -1.55445437092886        2.23189837452419       -3.47780939228734
H           -1.03442695602366        1.65194264742725       -4.23677812514348
H           -2.56118552091899        2.43634748413533       -3.83271035299770
H           -1.03568052019699        3.17960367026062       -3.35315225073415
