      -----------------------------------------------------------      
     |                   =====================                   |     
     |                           x T B                           |     
     |                   =====================                   |     
     |                         S. Grimme                         |     
     |          Mulliken Center for Theoretical Chemistry        |     
     |                    University of Bonn                     |     
      -----------------------------------------------------------      

   * xtb version 6.5.1 (b24c23e) compiled by 'conda@728c89f4b128' on 2022-07-12

   xtb is free software: you can redistribute it and/or modify it under
   the terms of the GNU Lesser General Public License as published by
   the Free Software Foundation, either version 3 of the License, or
   (at your option) any later version.
   
   xtb is distributed in the hope that it will be useful,
   but WITHOUT ANY WARRANTY; without even the implied warranty of
   MERCHANTABILITY or FITNESS FOR A PARTICULAR PURPOSE.  See the
   GNU Lesser General Public License for more details.
   
   Cite this work as:
   * C. Bannwarth, E. Caldeweyher, S. Ehlert, A. Hansen, P. Pracht,
     J. Seibert, S. Spicher, S. Grimme, WIREs Comput. Mol. Sci., 2020, 11,
     e01493. DOI: 10.1002/wcms.1493
   
   for GFN2-xTB:
   * C. Bannwarth, S. Ehlert and S. Grimme., J. Chem. Theory Comput., 2019,
     15, 1652-1671. DOI: 10.1021/acs.jctc.8b01176
   for GFN1-xTB:
   * S. Grimme, C. Bannwarth, P. Shushkov, J. Chem. Theory Comput., 2017,
     13, 1989-2009. DOI: 10.1021/acs.jctc.7b00118
   for GFN0-xTB:
   * P. Pracht, E. Caldeweyher, S. Ehlert, S. Grimme, ChemRxiv, 2019, preprint.
     DOI: 10.26434/chemrxiv.8326202.v1
   for GFN-FF:
   * S. Spicher and S. Grimme, Angew. Chem. Int. Ed., 2020, 59, 15665-15673.
     DOI: 10.1002/anie.202004239
   
   for ALPB and GBSA implicit solvation:
   * S. Ehlert, M. Stahn, S. Spicher, S. Grimme, J. Chem. Theory Comput.,
     2021, 17, 4250-4261. DOI: 10.1021/acs.jctc.1c00471
   
   for DFT-D4:
   * E. Caldeweyher, C. Bannwarth and S. Grimme, J. Chem. Phys., 2017,
     147, 034112. DOI: 10.1063/1.4993215
   * E. Caldeweyher, S. Ehlert, A. Hansen, H. Neugebauer, S. Spicher,
     C. Bannwarth and S. Grimme, J. Chem. Phys., 2019, 150, 154122.
     DOI: 10.1063/1.5090222
   * E. Caldeweyher, J.-M. Mewes, S. Ehlert and S. Grimme, Phys. Chem. Chem. Phys.
     2020, 22, 8499-8512. DOI: 10.1039/D0CP00502A
   
   for sTDA-xTB:
   * S. Grimme and C. Bannwarth, J. Chem. Phys., 2016, 145, 054103.
     DOI: 10.1063/1.4959605
   
   in the mass-spec context:
   * V. Asgeirsson, C. Bauer and S. Grimme, Chem. Sci., 2017, 8, 4879.
     DOI: 10.1039/c7sc00601b
   * J. Koopman and S. Grimme, ACS Omega 2019, 4, 12, 15120-15133.
     DOI: 10.1021/acsomega.9b02011
   
   for metadynamics refer to:
   * S. Grimme, J. Chem. Theory Comput., 2019, 155, 2847-2862
     DOI: 10.1021/acs.jctc.9b00143
   
   for SPH calculations refer to:
   * S. Spicher and S. Grimme, J. Chem. Theory Comput., 2021, 17, 1701-1714
     DOI: 10.1021/acs.jctc.0c01306
   
   with help from (in alphabetical order)
   P. Atkinson, C. Bannwarth, F. Bohle, G. Brandenburg, E. Caldeweyher
   M. Checinski, S. Dohm, S. Ehlert, S. Ehrlich, I. Gerasimov, C. Hölzer
   A. Katbashev, J. Koopman, C. Lavigne, S. Lehtola, F. März, M. Müller,
   F. Musil, H. Neugebauer, J. Pisarek, C. Plett, P. Pracht, F. Pultar,
   J. Seibert, P. Shushkov, S. Spicher, M. Stahn, M. Steiner, T. Strunk,
   J. Stückrath, T. Rose, and J. Unsleber
   
 * started run on 2026/08/03 at 12:03:17.690     

           -------------------------------------------------
          |                Calculation Setup                |
           -------------------------------------------------

          program call               : /h/332/chchoi/miniconda3/envs/el-agente/bin/xtb reactant_opt.xyz --opt --gfn 2 -P 4 --chrg 1 --uhf 0 --input detailed_input.inp
          coordinate file            : reactant_opt.xyz
          omp threads                :                     4

   ID    Z sym.   atoms
    1   40 Zr     1
    2    6 C      2-7, 13-17, 26, 27
    3    1 H      8-12, 18-25, 28-31
constraining bond 2 27 to    2.1000000 Å, actual value:    3.2810763 Å
constraining bond 1 26 to    2.4000000 Å, actual value:    2.7402022 Å
constraining bond 1 2 to    2.4500000 Å, actual value:    2.2077984 Å

molecular fragmentation (1/2 indicates fragments):
1111111111111111111111111222222
# atoms in fragment 1/2:    25     6
 fragment masses (1/2) :      236.44       28.05
CMA distance (Bohr)    :   5.992
constraining FC (au)   :  1.0000

           -------------------------------------------------
          |                 G F N 2 - x T B                 |
           -------------------------------------------------

        Reference                      10.1021/acs.jctc.8b01176
      * Hamiltonian:
        H0-scaling (s, p, d)           1.850000    2.230000    2.230000
        zeta-weighting                 0.500000
      * Dispersion:
        s8                             2.700000
        a1                             0.520000
        a2                             5.000000
        s9                             5.000000
      * Repulsion:
        kExp                           1.500000    1.000000
        rExp                           1.000000
      * Coulomb:
        alpha                          2.000000
        third order                    shell-resolved
        anisotropic                    true
        a3                             3.000000
        a5                             4.000000
        cn-shift                       1.200000
        cn-exp                         4.000000
        max-rad                        5.000000


          ...................................................
          :                      SETUP                      :
          :.................................................:
          :  # basis functions                  79          :
          :  # atomic orbitals                  78          :
          :  # shells                           46          :
          :  # electrons                        72          :
          :  max. iterations                   250          :
          :  Hamiltonian                  GFN2-xTB          :
          :  restarted?                      false          :
          :  GBSA solvation                  false          :
          :  PC potential                    false          :
          :  electronic temp.          300.0000000     K    :
          :  accuracy                    1.0000000          :
          :  -> integral cutoff          0.2500000E+02      :
          :  -> integral neglect         0.1000000E-07      :
          :  -> SCF convergence          0.1000000E-05 Eh   :
          :  -> wf. convergence          0.1000000E-03 e    :
          :  Broyden damping             0.4000000          :
          ...................................................

 iter      E             dE          RMSdq      gap      omega  full diag
   1    -38.1881272 -0.381881E+02  0.436E+00    1.17       0.0  T
   2    -38.2931262 -0.104999E+00  0.332E+00    2.21       1.0  T
   3    -38.3113658 -0.182395E-01  0.230E+00    1.76       1.0  T
   4    -38.3091961  0.216964E-02  0.517E-01    1.90       1.0  T
   5    -38.3106047 -0.140858E-02  0.436E-01    1.80       1.0  T
   6    -38.3131829 -0.257824E-02  0.188E-01    1.83       1.0  T
   7    -38.3132000 -0.170469E-04  0.124E-01    1.85       1.0  T
   8    -38.3132128 -0.127880E-04  0.268E-02    1.86       1.0  T
   9    -38.3132170 -0.427257E-05  0.149E-02    1.87       1.2  T
  10    -38.3132174 -0.337366E-06  0.948E-03    1.87       1.9  T
  11    -38.3132177 -0.339747E-06  0.312E-03    1.87       5.7  T
  12    -38.3132178 -0.591880E-07  0.113E-03    1.87      15.8  T
  13    -38.3132178 -0.496237E-08  0.538E-04    1.87      33.4  T
  14    -38.3132178 -0.275377E-08  0.219E-04    1.87      82.1  T

   *** convergence criteria satisfied after 14 iterations ***

         #    Occupation            Energy/Eh            Energy/eV
      -------------------------------------------------------------
         1        2.0000           -0.8631287             -23.4869
       ...           ...                  ...                  ...
        30        2.0000           -0.5762671             -15.6810
        31        2.0000           -0.5750815             -15.6488
        32        2.0000           -0.5222336             -14.2107
        33        2.0000           -0.5172913             -14.0762
        34        2.0000           -0.5077799             -13.8174
        35        2.0000           -0.5017705             -13.6539
        36        2.0000           -0.4953228             -13.4784 (HOMO)
        37                         -0.4266149             -11.6088 (LUMO)
        38                         -0.4168421             -11.3429
        39                         -0.4101907             -11.1619
        40                         -0.4044101             -11.0046
        41                         -0.3939087             -10.7188
       ...                                ...                  ...
        78                          2.4715419              67.2541
      -------------------------------------------------------------
                  HL-Gap            0.0687079 Eh            1.8696 eV
             Fermi-level           -0.4609689 Eh          -12.5436 eV

 SCC (total)                   0 d,  0 h,  0 min,  0.940 sec
 SCC setup                      ...        0 min,  0.006 sec (  0.680%)
 Dispersion                     ...        0 min,  0.031 sec (  3.304%)
 classical contributions        ...        0 min,  0.013 sec (  1.414%)
 integral evaluation            ...        0 min,  0.036 sec (  3.826%)
 iterations                     ...        0 min,  0.809 sec ( 85.986%)
 molecular gradient             ...        0 min,  0.045 sec (  4.754%)
 printout                       ...        0 min,  0.000 sec (  0.030%)

         :::::::::::::::::::::::::::::::::::::::::::::::::::::
         ::                     SUMMARY                     ::
         :::::::::::::::::::::::::::::::::::::::::::::::::::::
         :: total energy             -32.056672482743 Eh    ::
         :: gradient norm              6.406993280512 Eh/a0 ::
         :: HOMO-LUMO gap              1.869636077001 eV    ::
         ::.................................................::
         :: SCC energy               -38.313217790515 Eh    ::
         :: -> isotropic ES            0.090971619437 Eh    ::
         :: -> anisotropic ES         -0.013151712168 Eh    ::
         :: -> anisotropic XC          0.022496052995 Eh    ::
         :: -> dispersion             -0.027967785647 Eh    ::
         :: repulsion energy           0.651599403108 Eh    ::
         :: add. restraining           5.604215289793 Eh    ::
         :: total charge               1.000000000000 e     ::
         :::::::::::::::::::::::::::::::::::::::::::::::::::::

      ----------------------------------------------------------- 
     |                   =====================                   |
     |                        A N C O P T                        |
     |                   =====================                   |
     |               Approximate Normal Coordinate               |
     |                Rational Function Optimizer                |
      ----------------------------------------------------------- 

          ...................................................
          :                      SETUP                      :
          :.................................................:
          :   optimization level            normal          :
          :   max. optcycles                   200          :
          :   ANC micro-cycles                  20          :
          :   degrees of freedom                87          :
          :.................................................:
          :   RF solver                   davidson          :
          :   write xtbopt.log                true          :
          :   linear?                        false          :
          :   energy convergence         0.5000000E-05 Eh   :
          :   grad. convergence          0.1000000E-02 Eh/α :
          :   maximium RF displ.         1.0000000          :
          :   Hlow (freq-cutoff)         0.1000000E-01      :
          :   Hmax (freq-cutoff)         5.0000000          :
          :   S6 in model hess.         20.0000000          :
          ...................................................

generating ANC from model Hessian ...
Using Lindh-Hessian (1995)
 Shifting diagonal of input Hessian by   0.14296467426569412     
 Lowest  eigenvalues of input Hessian
    0.010000    0.105621    0.000000    0.000000    0.000000    0.000000
    0.000000    0.000000    0.143426    0.143696    0.144565    0.144756
    0.145368    0.149763    0.150253    0.150627    0.150795    0.151145
 Highest eigenvalues
    1.875828    2.032888    2.647612    3.914082    4.124136    5.715602


........................................................................
.............................. CYCLE    1 ..............................
........................................................................
   1    -38.3132178 -0.383132E+02  0.107E-04    1.87       0.0  T
   2    -38.3132178 -0.621299E-10  0.883E-05    1.87     203.3  T
   3    -38.3132178 -0.616183E-10  0.562E-05    1.87     319.6  T
     SCC iter.                  ...        0 min,  0.146 sec
     gradient                   ...        0 min,  0.039 sec
 * total energy  :   -32.0566725 Eh     change       -0.9208634E-10 Eh
   gradient norm :     6.4069933 Eh/α   predicted     0.0000000E+00 (-100.00%)
   displ. norm   :     0.7322119 α      lambda       -0.4668662E+01
   maximum displ.:     0.5191185 α      in ANC's #85, #87, #86, ...

........................................................................
.............................. CYCLE    2 ..............................
........................................................................
   1    -38.2581779 -0.382582E+02  0.851E-01    1.66       0.0  T
   2    -38.2583333 -0.155408E-03  0.534E-01    1.67       1.0  T
   3    -38.2567776  0.155564E-02  0.330E-01    1.60       1.0  T
   4    -38.2585581 -0.178048E-02  0.102E-01    1.64       1.0  T
   5    -38.2585727 -0.146269E-04  0.519E-02    1.64       1.0  T
   6    -38.2585854 -0.126725E-04  0.187E-02    1.64       1.0  T
   7    -38.2585874 -0.198433E-05  0.132E-02    1.65       1.4  T
   8    -38.2585885 -0.113745E-05  0.591E-03    1.65       3.0  T
   9    -38.2585886 -0.526231E-07  0.352E-03    1.65       5.1  T
  10    -38.2585886 -0.347495E-07  0.159E-03    1.65      11.3  T
  11    -38.2585886 -0.927885E-08  0.519E-04    1.65      34.6  T
  12    -38.2585886 -0.234407E-08  0.227E-04    1.65      79.0  T
     SCC iter.                  ...        0 min,  0.644 sec
     gradient                   ...        0 min,  0.092 sec
 * total energy  :   -35.6793720 Eh     change       -0.3622699E+01 Eh
   gradient norm :     3.5507593 Eh/α   predicted    -0.3585847E+01 (  -1.02%)
   displ. norm   :     0.6135578 α      lambda       -0.2148372E+01
   maximum displ.:     0.4655137 α      in ANC's #85, #86, #87, ...

........................................................................
.............................. CYCLE    3 ..............................
........................................................................
   1    -38.1504472 -0.381504E+02  0.129E+00    1.22       0.0  T
   2    -38.1444741  0.597309E-02  0.133E+00    1.77       1.0  T
   3    -38.1670612 -0.225871E-01  0.585E-01    1.55       1.0  T
   4    -38.1656177  0.144355E-02  0.286E-01    1.40       1.0  T
   5    -38.1674021 -0.178448E-02  0.102E-01    1.49       1.0  T
   6    -38.1675142 -0.112076E-03  0.519E-02    1.51       1.0  T
   7    -38.1675060  0.825793E-05  0.384E-02    1.52       1.0  T
   8    -38.1675182 -0.122367E-04  0.923E-03    1.51       1.9  T
   9    -38.1675190 -0.812406E-06  0.515E-03    1.51       3.5  T
  10    -38.1675191 -0.510757E-07  0.244E-03    1.51       7.4  T
  11    -38.1675191 -0.725257E-08  0.129E-03    1.51      13.9  T
  12    -38.1675191 -0.128314E-07  0.804E-04    1.51      22.3  T
  13    -38.1675191 -0.223876E-08  0.310E-04    1.51      58.0  T
     SCC iter.                  ...        0 min,  0.830 sec
     gradient                   ...        0 min,  0.111 sec
 * total energy  :   -37.1769213 Eh     change       -0.1497549E+01 Eh
   gradient norm :     1.3961408 Eh/α   predicted    -0.1478569E+01 (  -1.27%)
   displ. norm   :     0.4068243 α      lambda       -0.5135195E+00
   maximum displ.:     0.2665999 α      in ANC's #85, #86, #65, ...

........................................................................
.............................. CYCLE    4 ..............................
........................................................................
   1    -38.0895065 -0.380895E+02  0.133E+00    1.43       0.0  T
   2    -38.0723206  0.171859E-01  0.147E+00    1.81       1.0  T
   3    -38.1131283 -0.408077E-01  0.553E-01    1.60       1.0  T
   4    -38.1115359  0.159236E-02  0.291E-01    1.50       1.0  T
   5    -38.1137090 -0.217311E-02  0.987E-02    1.57       1.0  T
   6    -38.1137530 -0.440087E-04  0.426E-02    1.57       1.0  T
   7    -38.1137517  0.131231E-05  0.329E-02    1.57       1.0  T
   8    -38.1137616 -0.989515E-05  0.760E-03    1.57       2.4  T
   9    -38.1137619 -0.341886E-06  0.316E-03    1.57       5.7  T
  10    -38.1137620 -0.567807E-07  0.147E-03    1.57      12.2  T
  11    -38.1137620 -0.159551E-07  0.659E-04    1.57      27.3  T
  12    -38.1137620  0.124249E-08  0.509E-04    1.57      35.3  T
     SCC iter.                  ...        0 min,  0.518 sec
     gradient                   ...        0 min,  0.004 sec
 * total energy  :   -37.4787968 Eh     change       -0.3018754E+00 Eh
   gradient norm :     0.2442358 Eh/α   predicted    -0.2992608E+00 (  -0.87%)
   displ. norm   :     0.3959896 α      lambda       -0.5005940E-01
   maximum displ.:     0.2009711 α      in ANC's #1, #22, #25, ...

........................................................................
.............................. CYCLE    5 ..............................
........................................................................
   1    -38.1308727 -0.381309E+02  0.457E-01    1.65       0.0  T
   2    -38.1295052  0.136750E-02  0.479E-01    1.71       1.0  T
   3    -38.1331417 -0.363645E-02  0.213E-01    1.67       1.0  T
   4    -38.1330376  0.104056E-03  0.829E-02    1.67       1.0  T
   5    -38.1331885 -0.150827E-03  0.414E-02    1.67       1.0  T
   6    -38.1331898 -0.135907E-05  0.217E-02    1.67       1.0  T
   7    -38.1331939 -0.408081E-05  0.816E-03    1.67       2.2  T
   8    -38.1331943 -0.388876E-06  0.276E-03    1.67       6.5  T
   9    -38.1331943 -0.139049E-07  0.189E-03    1.67       9.5  T
  10    -38.1331943 -0.137253E-07  0.118E-03    1.67      15.2  T
  11    -38.1331943 -0.352231E-08  0.270E-04    1.67      66.6  T
  12    -38.1331943 -0.751051E-09  0.154E-04    1.67     116.4  T
     SCC iter.                  ...        0 min,  0.588 sec
     gradient                   ...        0 min,  0.109 sec
 * total energy  :   -37.5163413 Eh     change       -0.3754451E-01 Eh
   gradient norm :     0.1383475 Eh/α   predicted    -0.2895460E-01 ( -22.88%)
   displ. norm   :     0.7126592 α      lambda       -0.6339894E-01
   maximum displ.:     0.2726761 α      in ANC's #1, #22, #25, ...

........................................................................
.............................. CYCLE    6 ..............................
........................................................................
   1    -38.1550019 -0.381550E+02  0.104E+00    1.56       0.0  T
   2    -38.1526204  0.238150E-02  0.812E-01    1.60       1.0  T
   3    -38.1620147 -0.939431E-02  0.458E-01    1.58       1.0  T
   4    -38.1634735 -0.145876E-02  0.242E-01    1.57       1.0  T
   5    -38.1641676 -0.694084E-03  0.106E-01    1.59       1.0  T
   6    -38.1641892 -0.216151E-04  0.456E-02    1.58       1.0  T
   7    -38.1642080 -0.187986E-04  0.204E-02    1.58       1.0  T
   8    -38.1642094 -0.146651E-05  0.105E-02    1.58       1.7  T
   9    -38.1642101 -0.684390E-06  0.479E-03    1.58       3.8  T
  10    -38.1642103 -0.143773E-06  0.273E-03    1.58       6.6  T
  11    -38.1642103 -0.470273E-07  0.862E-04    1.58      20.8  T
  12    -38.1642103 -0.400991E-08  0.361E-04    1.58      49.7  T
     SCC iter.                  ...        0 min,  0.543 sec
     gradient                   ...        0 min,  0.111 sec
 * total energy  :   -37.5450441 Eh     change       -0.2870281E-01 Eh
   gradient norm :     0.3719042 Eh/α   predicted    -0.4779912E-01 (  66.53%)
   displ. norm   :     0.7115702 α      lambda       -0.6687642E-01
   maximum displ.:     0.4601040 α      in ANC's #1, #22, #15, ...

........................................................................
.............................. CYCLE    7 ..............................
........................................................................
   1    -38.2057069 -0.382057E+02  0.747E-01    1.72       0.0  T
   2    -38.2060948 -0.387870E-03  0.489E-01    1.70       1.0  T
   3    -38.2053612  0.733630E-03  0.253E-01    1.72       1.0  T
   4    -38.2063355 -0.974347E-03  0.111E-01    1.71       1.0  T
   5    -38.2064334 -0.978936E-04  0.650E-02    1.70       1.0  T
   6    -38.2064387 -0.525517E-05  0.308E-02    1.71       1.0  T
   7    -38.2064454 -0.670660E-05  0.102E-02    1.71       1.8  T
   8    -38.2064466 -0.122138E-05  0.387E-03    1.71       4.6  T
   9    -38.2064467 -0.861511E-07  0.265E-03    1.71       6.8  T
  10    -38.2064467  0.139831E-08  0.159E-03    1.71      11.3  T
  11    -38.2064467 -0.249740E-07  0.439E-04    1.71      40.9  T
  12    -38.2064467 -0.327823E-09  0.193E-04    1.71      93.0  T
     SCC iter.                  ...        0 min,  0.561 sec
     gradient                   ...        0 min,  0.042 sec
 * total energy  :   -37.5875345 Eh     change       -0.4249044E-01 Eh
   gradient norm :     0.1899580 Eh/α   predicted    -0.5036913E-01 (  18.54%)
   displ. norm   :     0.3077670 α      lambda       -0.2294636E-01
   maximum displ.:     0.1298082 α      in ANC's #15, #60, #55, ...

........................................................................
.............................. CYCLE    8 ..............................
........................................................................
   1    -38.2257738 -0.382258E+02  0.433E-01    1.67       0.0  T
   2    -38.2258830 -0.109176E-03  0.221E-01    1.62       1.0  T
   3    -38.2257109  0.172130E-03  0.212E-01    1.67       1.0  T
   4    -38.2263161 -0.605227E-03  0.489E-02    1.65       1.0  T
   5    -38.2263365 -0.204316E-04  0.167E-02    1.65       1.1  T
   6    -38.2263359  0.612648E-06  0.936E-03    1.65       1.9  T
   7    -38.2263371 -0.119964E-05  0.493E-03    1.65       3.6  T
   8    -38.2263371 -0.272934E-07  0.258E-03    1.65       7.0  T
   9    -38.2263372 -0.494920E-07  0.123E-03    1.65      14.6  T
  10    -38.2263372 -0.412526E-08  0.720E-04    1.65      25.0  T
  11    -38.2263372 -0.276235E-08  0.438E-04    1.65      41.0  T
     SCC iter.                  ...        0 min,  0.477 sec
     gradient                   ...        0 min,  0.065 sec
 * total energy  :   -37.6036793 Eh     change       -0.1614477E-01 Eh
   gradient norm :     0.1003082 Eh/α   predicted    -0.1255996E-01 ( -22.20%)
   displ. norm   :     0.4012305 α      lambda       -0.1805021E-01
   maximum displ.:     0.1848153 α      in ANC's #60, #15, #26, ...

........................................................................
.............................. CYCLE    9 ..............................
........................................................................
   1    -38.2441547 -0.382442E+02  0.585E-01    1.62       0.0  T
   2    -38.2443672 -0.212475E-03  0.310E-01    1.55       1.0  T
   3    -38.2439920  0.375231E-03  0.216E-01    1.63       1.0  T
   4    -38.2444804 -0.488451E-03  0.504E-02    1.58       1.0  T
   5    -38.2445293 -0.488702E-04  0.267E-02    1.58       1.0  T
   6    -38.2445321 -0.277599E-05  0.122E-02    1.59       1.5  T
   7    -38.2445332 -0.113017E-05  0.803E-03    1.58       2.2  T
   8    -38.2445333 -0.135753E-06  0.366E-03    1.58       4.9  T
   9    -38.2445334 -0.977311E-07  0.126E-03    1.58      14.2  T
  10    -38.2445334 -0.578382E-08  0.599E-04    1.58      30.0  T
  11    -38.2445334 -0.149944E-08  0.380E-04    1.58      47.3  T
     SCC iter.                  ...        0 min,  0.469 sec
     gradient                   ...        0 min,  0.049 sec
 * total energy  :   -37.6172885 Eh     change       -0.1360920E-01 Eh
   gradient norm :     0.1109327 Eh/α   predicted    -0.1047819E-01 ( -23.01%)
   displ. norm   :     0.3501959 α      lambda       -0.1277815E-01
   maximum displ.:     0.1780635 α      in ANC's #60, #26, #13, ...

........................................................................
.............................. CYCLE   10 ..............................
........................................................................
   1    -38.2564490 -0.382564E+02  0.550E-01    1.57       0.0  T
   2    -38.2565927 -0.143778E-03  0.351E-01    1.50       1.0  T
   3    -38.2564357  0.157004E-03  0.160E-01    1.58       1.0  T
   4    -38.2566563 -0.220552E-03  0.489E-02    1.52       1.0  T
   5    -38.2566740 -0.176842E-04  0.209E-02    1.53       1.0  T
   6    -38.2566738  0.146307E-06  0.147E-02    1.53       1.2  T
   7    -38.2566755 -0.165407E-05  0.741E-03    1.53       2.4  T
   8    -38.2566757 -0.198265E-06  0.334E-03    1.53       5.4  T
   9    -38.2566758 -0.116653E-06  0.983E-04    1.53      18.3  T
  10    -38.2566758 -0.604530E-08  0.425E-04    1.53      42.2  T
     SCC iter.                  ...        0 min,  0.447 sec
     gradient                   ...        0 min,  0.035 sec
 * total energy  :   -37.6229709 Eh     change       -0.5682402E-02 Eh
   gradient norm :     0.1171263 Eh/α   predicted    -0.7172653E-02 (  26.23%)
   displ. norm   :     0.1100978 α      lambda       -0.5473464E-02
   maximum displ.:     0.0558997 α      in ANC's #8, #15, #1, ...

........................................................................
.............................. CYCLE   11 ..............................
........................................................................
   1    -38.2547060 -0.382547E+02  0.191E-01    1.53       0.0  T
   2    -38.2547463 -0.402396E-04  0.163E-01    1.55       1.0  T
   3    -38.2549700 -0.223726E-03  0.821E-02    1.54       1.0  T
   4    -38.2549696  0.426775E-06  0.290E-02    1.54       1.0  T
   5    -38.2549818 -0.122907E-04  0.109E-02    1.54       1.6  T
   6    -38.2549819 -0.933520E-07  0.684E-03    1.54       2.6  T
   7    -38.2549823 -0.347208E-06  0.214E-03    1.54       8.4  T
   8    -38.2549823 -0.191064E-07  0.104E-03    1.54      17.2  T
   9    -38.2549823 -0.358050E-08  0.592E-04    1.54      30.3  T
  10    -38.2549823 -0.170532E-08  0.234E-04    1.54      76.8  T
     SCC iter.                  ...        0 min,  0.467 sec
     gradient                   ...        0 min,  0.108 sec
 * total energy  :   -37.6264922 Eh     change       -0.3521332E-02 Eh
   gradient norm :     0.0370134 Eh/α   predicted    -0.2769912E-02 ( -21.34%)
   displ. norm   :     0.1676245 α      lambda       -0.3209877E-02
   maximum displ.:     0.0814932 α      in ANC's #8, #15, #6, ...

........................................................................
.............................. CYCLE   12 ..............................
........................................................................
   1    -38.2555751 -0.382556E+02  0.231E-01    1.55       0.0  T
   2    -38.2556091 -0.339723E-04  0.226E-01    1.53       1.0  T
   3    -38.2558593 -0.250169E-03  0.128E-01    1.54       1.0  T
   4    -38.2558465  0.127675E-04  0.283E-02    1.54       1.0  T
   5    -38.2558615 -0.149647E-04  0.155E-02    1.54       1.2  T
   6    -38.2558620 -0.520017E-06  0.621E-03    1.54       2.9  T
   7    -38.2558622 -0.235768E-06  0.259E-03    1.54       6.9  T
   8    -38.2558622 -0.163304E-07  0.102E-03    1.54      17.6  T
   9    -38.2558622 -0.572647E-08  0.424E-04    1.54      42.4  T
  10    -38.2558622 -0.856780E-09  0.299E-04    1.54      60.1  T
     SCC iter.                  ...        0 min,  0.468 sec
     gradient                   ...        0 min,  0.049 sec
 * total energy  :   -37.6288063 Eh     change       -0.2314094E-02 Eh
   gradient norm :     0.0273517 Eh/α   predicted    -0.1650044E-02 ( -28.70%)
   displ. norm   :     0.2376678 α      lambda       -0.2667562E-02
   maximum displ.:     0.1346948 α      in ANC's #8, #23, #2, ...

........................................................................
.............................. CYCLE   13 ..............................
........................................................................
   1    -38.2557685 -0.382558E+02  0.239E-01    1.55       0.0  T
   2    -38.2558070 -0.385229E-04  0.241E-01    1.53       1.0  T
   3    -38.2561052 -0.298237E-03  0.139E-01    1.54       1.0  T
   4    -38.2560924  0.128256E-04  0.284E-02    1.53       1.0  T
   5    -38.2561081 -0.157321E-04  0.155E-02    1.53       1.2  T
   6    -38.2561086 -0.478762E-06  0.578E-03    1.53       3.1  T
   7    -38.2561088 -0.182506E-06  0.270E-03    1.53       6.7  T
   8    -38.2561088 -0.133897E-07  0.100E-03    1.53      17.9  T
   9    -38.2561088 -0.980891E-08  0.679E-04    1.53      26.4  T
  10    -38.2561088 -0.754078E-09  0.370E-04    1.53      48.6  T
     SCC iter.                  ...        0 min,  0.441 sec
     gradient                   ...        0 min,  0.006 sec
 * total energy  :   -37.6308144 Eh     change       -0.2008021E-02 Eh
   gradient norm :     0.0451897 Eh/α   predicted    -0.1409125E-02 ( -29.83%)
   displ. norm   :     0.3287418 α      lambda       -0.2820960E-02
   maximum displ.:     0.1942521 α      in ANC's #8, #23, #2, ...

........................................................................
.............................. CYCLE   14 ..............................
........................................................................
   1    -38.2547861 -0.382548E+02  0.274E-01    1.54       0.0  T
   2    -38.2548354 -0.492782E-04  0.284E-01    1.52       1.0  T
   3    -38.2552164 -0.381039E-03  0.172E-01    1.53       1.0  T
   4    -38.2552037  0.126917E-04  0.337E-02    1.52       1.0  T
   5    -38.2552243 -0.205674E-04  0.168E-02    1.53       1.1  T
   6    -38.2552248 -0.542086E-06  0.653E-03    1.53       2.7  T
   7    -38.2552250 -0.210738E-06  0.340E-03    1.53       5.3  T
   8    -38.2552250 -0.143013E-07  0.165E-03    1.53      10.9  T
   9    -38.2552251 -0.199121E-07  0.111E-03    1.53      16.2  T
  10    -38.2552251 -0.368698E-08  0.593E-04    1.53      30.3  T
  11    -38.2552251 -0.980833E-10  0.177E-04    1.53     101.2  T
     SCC iter.                  ...        0 min,  0.525 sec
     gradient                   ...        0 min,  0.112 sec
 * total energy  :   -37.6329595 Eh     change       -0.2145143E-02 Eh
   gradient norm :     0.0445383 Eh/α   predicted    -0.1562922E-02 ( -27.14%)
   displ. norm   :     0.3685447 α      lambda       -0.2632252E-02
   maximum displ.:     0.2043457 α      in ANC's #8, #23, #2, ...

........................................................................
.............................. CYCLE   15 ..............................
........................................................................
   1    -38.2540897 -0.382541E+02  0.254E-01    1.54       0.0  T
   2    -38.2541249 -0.351250E-04  0.255E-01    1.52       1.0  T
   3    -38.2543544 -0.229506E-03  0.156E-01    1.53       1.0  T
   4    -38.2543431  0.112204E-04  0.334E-02    1.52       1.0  T
   5    -38.2543582 -0.150121E-04  0.174E-02    1.53       1.0  T
   6    -38.2543591 -0.951186E-06  0.619E-03    1.52       2.9  T
   7    -38.2543593 -0.185234E-06  0.353E-03    1.52       5.1  T
   8    -38.2543593  0.602074E-08  0.200E-03    1.52       9.0  T
   9    -38.2543593 -0.292764E-07  0.125E-03    1.52      14.4  T
  10    -38.2543593 -0.338767E-08  0.579E-04    1.52      31.0  T
  11    -38.2543593 -0.379970E-09  0.152E-04    1.52     118.5  T
     SCC iter.                  ...        0 min,  0.490 sec
     gradient                   ...        0 min,  0.116 sec
 * total energy  :   -37.6348095 Eh     change       -0.1849996E-02 Eh
   gradient norm :     0.0262113 Eh/α   predicted    -0.1494929E-02 ( -19.19%)
   displ. norm   :     0.2369330 α      lambda       -0.1539586E-02
   maximum displ.:     0.1160450 α      in ANC's #23, #8, #16, ...

........................................................................
.............................. CYCLE   16 ..............................
........................................................................
   1    -38.2569162 -0.382569E+02  0.141E-01    1.53       0.0  T
   2    -38.2569207 -0.454032E-05  0.106E-01    1.52       1.0  T
   3    -38.2568719  0.487980E-04  0.478E-02    1.54       1.0  T
   4    -38.2569257 -0.537971E-04  0.200E-02    1.53       1.0  T
   5    -38.2569271 -0.136508E-05  0.103E-02    1.53       1.7  T
   6    -38.2569279 -0.833684E-06  0.262E-03    1.53       6.9  T
   7    -38.2569280 -0.348014E-07  0.165E-03    1.53      10.9  T
   8    -38.2569280 -0.754312E-08  0.126E-03    1.53      14.3  T
   9    -38.2569280 -0.627026E-08  0.698E-04    1.53      25.7  T
  10    -38.2569280 -0.219892E-08  0.270E-04    1.53      66.6  T
     SCC iter.                  ...        0 min,  0.413 sec
     gradient                   ...        0 min,  0.038 sec
 * total energy  :   -37.6359001 Eh     change       -0.1090564E-02 Eh
   gradient norm :     0.0151990 Eh/α   predicted    -0.8130164E-03 ( -25.45%)
   displ. norm   :     0.1820938 α      lambda       -0.1139433E-02
   maximum displ.:     0.0996199 α      in ANC's #23, #16, #2, ...

........................................................................
.............................. CYCLE   17 ..............................
........................................................................
   1    -38.2607987 -0.382608E+02  0.113E-01    1.54       0.0  T
   2    -38.2608030 -0.434986E-05  0.627E-02    1.53       1.0  T
   3    -38.2607744  0.286095E-04  0.622E-02    1.54       1.0  T
   4    -38.2608150 -0.405795E-04  0.153E-02    1.54       1.2  T
   5    -38.2608149  0.615486E-07  0.135E-02    1.53       1.3  T
   6    -38.2608161 -0.117411E-05  0.192E-03    1.53       9.4  T
   7    -38.2608162 -0.474003E-07  0.915E-04    1.53      19.6  T
   8    -38.2608162 -0.520583E-08  0.560E-04    1.53      32.0  T
     SCC iter.                  ...        0 min,  0.371 sec
     gradient                   ...        0 min,  0.006 sec
 * total energy  :   -37.6367400 Eh     change       -0.8399453E-03 Eh
   gradient norm :     0.0227884 Eh/α   predicted    -0.5886196E-03 ( -29.92%)
   displ. norm   :     0.2094399 α      lambda       -0.1097935E-02
   maximum displ.:     0.1130440 α      in ANC's #23, #16, #2, ...

........................................................................
.............................. CYCLE   18 ..............................
........................................................................
   1    -38.2636043 -0.382636E+02  0.127E-01    1.55       0.0  T
   2    -38.2636135 -0.923238E-05  0.745E-02    1.55       1.0  T
   3    -38.2635889  0.245966E-04  0.660E-02    1.55       1.0  T
   4    -38.2636315 -0.426183E-04  0.147E-02    1.55       1.2  T
   5    -38.2636317 -0.185109E-06  0.141E-02    1.55       1.3  T
   6    -38.2636331 -0.132845E-05  0.232E-03    1.55       7.7  T
   7    -38.2636331 -0.830805E-07  0.629E-04    1.55      28.5  T
   8    -38.2636331 -0.687145E-09  0.355E-04    1.55      50.6  T
     SCC iter.                  ...        0 min,  0.319 sec
     gradient                   ...        0 min,  0.028 sec
 * total energy  :   -37.6375546 Eh     change       -0.8145879E-03 Eh
   gradient norm :     0.0238922 Eh/α   predicted    -0.5730521E-03 ( -29.65%)
   displ. norm   :     0.2362896 α      lambda       -0.1071624E-02
   maximum displ.:     0.1226917 α      in ANC's #16, #23, #2, ...

........................................................................
.............................. CYCLE   19 ..............................
........................................................................
   1    -38.2649316 -0.382649E+02  0.138E-01    1.58       0.0  T
   2    -38.2649431 -0.114916E-04  0.884E-02    1.57       1.0  T
   3    -38.2649145  0.286001E-04  0.602E-02    1.58       1.0  T
   4    -38.2649550 -0.404600E-04  0.108E-02    1.57       1.7  T
   5    -38.2649553 -0.275711E-06  0.113E-02    1.57       1.6  T
   6    -38.2649562 -0.908142E-06  0.229E-03    1.57       7.8  T
   7    -38.2649563 -0.761644E-07  0.785E-04    1.57      22.9  T
   8    -38.2649563 -0.211779E-08  0.439E-04    1.57      40.9  T
     SCC iter.                  ...        0 min,  0.403 sec
     gradient                   ...        0 min,  0.110 sec
 * total energy  :   -37.6383649 Eh     change       -0.8103091E-03 Eh
   gradient norm :     0.0188083 Eh/α   predicted    -0.5657402E-03 ( -30.18%)
   displ. norm   :     0.2899997 α      lambda       -0.1200518E-02
   maximum displ.:     0.1565109 α      in ANC's #16, #23, #2, ...

........................................................................
.............................. CYCLE   20 ..............................
........................................................................
   1    -38.2651436 -0.382651E+02  0.168E-01    1.60       0.0  T
   2    -38.2651540 -0.104650E-04  0.116E-01    1.59       1.0  T
   3    -38.2651177  0.363644E-04  0.485E-02    1.61       1.0  T
   4    -38.2651612 -0.435472E-04  0.112E-02    1.60       1.6  T
   5    -38.2651614 -0.173878E-06  0.562E-03    1.60       3.2  T
   6    -38.2651616 -0.204673E-06  0.243E-03    1.60       7.4  T
   7    -38.2651616 -0.365217E-07  0.135E-03    1.60      13.3  T
   8    -38.2651616 -0.105712E-07  0.645E-04    1.60      27.8  T
   9    -38.2651616 -0.959233E-10  0.519E-04    1.60      34.6  T
     SCC iter.                  ...        0 min,  0.460 sec
     gradient                   ...        0 min,  0.021 sec
 * total energy  :   -37.6392947 Eh     change       -0.9297659E-03 Eh
   gradient norm :     0.0175470 Eh/α   predicted    -0.6507525E-03 ( -30.01%)
   displ. norm   :     0.3472405 α      lambda       -0.1452240E-02
   maximum displ.:     0.1901663 α      in ANC's #16, #23, #2, ...
 * RMSD in coord.:     0.7587403 α      energy gain  -0.5582622E+01 Eh

generating ANC from model Hessian ...
Using Lindh-Hessian (1995)
 Shifting diagonal of input Hessian by    1.1188365281244488E-002
 Lowest  eigenvalues of input Hessian
    0.010000    0.010695    0.000000    0.000000    0.000000    0.000000
    0.000000    0.000000    0.011586    0.011921    0.012203    0.012565
    0.013162    0.015475    0.016045    0.017346    0.018891    0.019110
 Highest eigenvalues
    1.736414    1.737314    1.745797    3.605704    4.330115    5.127877


........................................................................
.............................. CYCLE   21 ..............................
........................................................................
   1    -38.2647825 -0.382648E+02  0.199E-01    1.64       0.0  T
   2    -38.2647903 -0.777217E-05  0.147E-01    1.62       1.0  T
   3    -38.2646927  0.976160E-04  0.743E-02    1.64       1.0  T
   4    -38.2648031 -0.110399E-03  0.139E-02    1.63       1.3  T
   5    -38.2648049 -0.183746E-05  0.937E-03    1.63       1.9  T
   6    -38.2648053 -0.374368E-06  0.298E-03    1.63       6.0  T
   7    -38.2648053 -0.617377E-07  0.171E-03    1.63      10.5  T
   8    -38.2648053 -0.978865E-08  0.834E-04    1.63      21.5  T
   9    -38.2648054 -0.836081E-09  0.507E-04    1.63      35.4  T
     SCC iter.                  ...        0 min,  0.328 sec
     gradient                   ...        0 min,  0.037 sec
 * total energy  :   -37.6403965 Eh     change       -0.1101853E-02 Eh
   gradient norm :     0.0228571 Eh/α   predicted     0.0000000E+00 (-100.00%)
   displ. norm   :     0.2851519 α      lambda       -0.2391321E-02
   maximum displ.:     0.2055699 α      in ANC's #4, #16, #15, ...

........................................................................
.............................. CYCLE   22 ..............................
........................................................................
   1    -38.2663331 -0.382663E+02  0.173E-01    1.65       0.0  T
   2    -38.2663468 -0.136629E-04  0.110E-01    1.65       1.0  T
   3    -38.2662847  0.621085E-04  0.896E-02    1.65       1.0  T
   4    -38.2663615 -0.767694E-04  0.322E-02    1.65       1.0  T
   5    -38.2663570  0.441761E-05  0.247E-02    1.65       1.0  T
   6    -38.2663643 -0.725512E-05  0.484E-03    1.65       3.7  T
   7    -38.2663644 -0.872027E-07  0.239E-03    1.65       7.5  T
   8    -38.2663644 -0.392635E-08  0.153E-03    1.65      11.7  T
   9    -38.2663644 -0.901895E-08  0.721E-04    1.65      24.9  T
  10    -38.2663644 -0.133056E-08  0.269E-04    1.65      66.7  T
     SCC iter.                  ...        0 min,  0.449 sec
     gradient                   ...        0 min,  0.123 sec
 * total energy  :   -37.6418922 Eh     change       -0.1495730E-02 Eh
   gradient norm :     0.0068534 Eh/α   predicted    -0.1299348E-02 ( -13.13%)
   displ. norm   :     0.3132464 α      lambda       -0.9773781E-03
   maximum displ.:     0.2426051 α      in ANC's #4, #6, #1, ...

........................................................................
.............................. CYCLE   23 ..............................
........................................................................
   1    -38.2668642 -0.382669E+02  0.185E-01    1.67       0.0  T
   2    -38.2668685 -0.429381E-05  0.119E-01    1.66       1.0  T
   3    -38.2667847  0.837584E-04  0.668E-02    1.67       1.0  T
   4    -38.2668770 -0.923045E-04  0.133E-02    1.67       1.4  T
   5    -38.2668777 -0.660306E-06  0.891E-03    1.66       2.0  T
   6    -38.2668780 -0.252782E-06  0.251E-03    1.67       7.2  T
   7    -38.2668780 -0.751949E-07  0.128E-03    1.66      14.0  T
   8    -38.2668780 -0.347558E-08  0.861E-04    1.66      20.9  T
   9    -38.2668780 -0.294163E-08  0.388E-04    1.66      46.3  T
     SCC iter.                  ...        0 min,  0.376 sec
     gradient                   ...        0 min,  0.108 sec
 * total energy  :   -37.6425877 Eh     change       -0.6954977E-03 Eh
   gradient norm :     0.0103213 Eh/α   predicted    -0.5366907E-03 ( -22.83%)
   displ. norm   :     0.3310170 α      lambda       -0.8089265E-03
   maximum displ.:     0.2557457 α      in ANC's #4, #6, #2, ...

........................................................................
.............................. CYCLE   24 ..............................
........................................................................
   1    -38.2671285 -0.382671E+02  0.156E-01    1.69       0.0  T
   2    -38.2671387 -0.102062E-04  0.102E-01    1.67       1.0  T
   3    -38.2671102  0.284957E-04  0.597E-02    1.69       1.0  T
   4    -38.2671462 -0.360723E-04  0.169E-02    1.68       1.1  T
   5    -38.2671505 -0.428497E-05  0.925E-03    1.68       1.9  T
   6    -38.2671507 -0.220867E-06  0.397E-03    1.68       4.5  T
   7    -38.2671508 -0.109866E-06  0.176E-03    1.68      10.2  T
   8    -38.2671509 -0.577109E-08  0.131E-03    1.68      13.7  T
   9    -38.2671509 -0.505760E-08  0.534E-04    1.68      33.7  T
  10    -38.2671509 -0.154186E-08  0.262E-04    1.68      68.5  T
     SCC iter.                  ...        0 min,  0.425 sec
     gradient                   ...        0 min,  0.012 sec
 * total energy  :   -37.6431703 Eh     change       -0.5825694E-03 Eh
   gradient norm :     0.0089516 Eh/α   predicted    -0.4487821E-03 ( -22.97%)
   displ. norm   :     0.3421849 α      lambda       -0.6194268E-03
   maximum displ.:     0.2539643 α      in ANC's #4, #6, #3, ...

........................................................................
.............................. CYCLE   25 ..............................
........................................................................
   1    -38.2670609 -0.382671E+02  0.192E-01    1.70       0.0  T
   2    -38.2670657 -0.480358E-05  0.119E-01    1.69       1.0  T
   3    -38.2670507  0.149430E-04  0.473E-02    1.70       1.0  T
   4    -38.2670684 -0.176660E-04  0.104E-02    1.69       1.7  T
   5    -38.2670684 -0.549335E-09  0.481E-03    1.69       3.7  T
   6    -38.2670686 -0.234978E-06  0.202E-03    1.69       8.9  T
   7    -38.2670687 -0.424779E-07  0.101E-03    1.69      17.7  T
   8    -38.2670687  0.169557E-08  0.757E-04    1.69      23.7  T
   9    -38.2670687 -0.400071E-08  0.395E-04    1.69      45.5  T
     SCC iter.                  ...        0 min,  0.354 sec
     gradient                   ...        0 min,  0.112 sec
 * total energy  :   -37.6436296 Eh     change       -0.4592690E-03 Eh
   gradient norm :     0.0070068 Eh/α   predicted    -0.3459809E-03 ( -24.67%)
   displ. norm   :     0.3316767 α      lambda       -0.4596157E-03
   maximum displ.:     0.2517828 α      in ANC's #4, #6, #2, ...

........................................................................
.............................. CYCLE   26 ..............................
........................................................................
   1    -38.2673083 -0.382673E+02  0.168E-01    1.71       0.0  T
   2    -38.2673118 -0.342147E-05  0.104E-01    1.70       1.0  T
   3    -38.2673011  0.106704E-04  0.426E-02    1.71       1.0  T
   4    -38.2673137 -0.126237E-04  0.883E-03    1.70       2.0  T
   5    -38.2673133  0.367009E-06  0.585E-03    1.70       3.1  T
   6    -38.2673139 -0.545312E-06  0.159E-03    1.70      11.3  T
   7    -38.2673139 -0.130149E-07  0.849E-04    1.70      21.2  T
   8    -38.2673139 -0.123287E-08  0.553E-04    1.70      32.5  T
     SCC iter.                  ...        0 min,  0.375 sec
     gradient                   ...        0 min,  0.029 sec
 * total energy  :   -37.6439712 Eh     change       -0.3415880E-03 Eh
   gradient norm :     0.0062318 Eh/α   predicted    -0.2550901E-03 ( -25.32%)
   displ. norm   :     0.3100408 α      lambda       -0.3629687E-03
   maximum displ.:     0.2220012 α      in ANC's #4, #6, #2, ...

........................................................................
.............................. CYCLE   27 ..............................
........................................................................
   1    -38.2687877 -0.382688E+02  0.152E-01    1.71       0.0  T
   2    -38.2687900 -0.232686E-05  0.919E-02    1.71       1.0  T
   3    -38.2687717  0.183022E-04  0.464E-02    1.71       1.0  T
   4    -38.2687920 -0.203443E-04  0.941E-03    1.71       1.9  T
   5    -38.2687921 -0.885379E-07  0.644E-03    1.71       2.8  T
   6    -38.2687924 -0.266152E-06  0.161E-03    1.71      11.1  T
   7    -38.2687924 -0.248099E-07  0.641E-04    1.71      28.0  T
   8    -38.2687924  0.395090E-09  0.408E-04    1.71      44.0  T
     SCC iter.                  ...        0 min,  0.343 sec
     gradient                   ...        0 min,  0.106 sec
 * total energy  :   -37.6442237 Eh     change       -0.2525578E-03 Eh
   gradient norm :     0.0049051 Eh/α   predicted    -0.1989300E-03 ( -21.23%)
   displ. norm   :     0.2687063 α      lambda       -0.2089072E-03
   maximum displ.:     0.1950094 α      in ANC's #4, #2, #6, ...

........................................................................
.............................. CYCLE   28 ..............................
........................................................................
   1    -38.2690563 -0.382691E+02  0.111E-01    1.72       0.0  T
   2    -38.2690572 -0.979937E-06  0.703E-02    1.71       1.0  T
   3    -38.2690541  0.311892E-05  0.179E-02    1.71       1.0  T
   4    -38.2690577 -0.358828E-05  0.578E-03    1.71       3.1  T
   5    -38.2690577  0.370445E-07  0.286E-03    1.71       6.3  T
   6    -38.2690577 -0.635428E-07  0.737E-04    1.71      24.4  T
   7    -38.2690577 -0.729496E-08  0.369E-04    1.71      48.7  T
     SCC iter.                  ...        0 min,  0.321 sec
     gradient                   ...        0 min,  0.048 sec
 * total energy  :   -37.6443740 Eh     change       -0.1502412E-03 Eh
   gradient norm :     0.0044010 Eh/α   predicted    -0.1119971E-03 ( -25.46%)
   displ. norm   :     0.2871731 α      lambda       -0.2209945E-03
   maximum displ.:     0.1679811 α      in ANC's #4, #2, #5, ...

........................................................................
.............................. CYCLE   29 ..............................
........................................................................
   1    -38.2708192 -0.382708E+02  0.115E-01    1.72       0.0  T
   2    -38.2708211 -0.186657E-05  0.750E-02    1.72       1.0  T
   3    -38.2708138  0.726835E-05  0.203E-02    1.72       1.0  T
   4    -38.2708219 -0.806550E-05  0.898E-03    1.72       2.0  T
   5    -38.2708221 -0.156343E-06  0.432E-03    1.72       4.2  T
   6    -38.2708221 -0.257388E-07  0.174E-03    1.72      10.3  T
   7    -38.2708221 -0.557700E-07  0.622E-04    1.72      28.9  T
   8    -38.2708222 -0.582837E-09  0.454E-04    1.72      39.6  T
     SCC iter.                  ...        0 min,  0.371 sec
     gradient                   ...        0 min,  0.111 sec
 * total energy  :   -37.6445165 Eh     change       -0.1424869E-03 Eh
   gradient norm :     0.0038274 Eh/α   predicted    -0.1196117E-03 ( -16.05%)
   displ. norm   :     0.3995652 α      lambda       -0.1730833E-03
   maximum displ.:     0.2651697 α      in ANC's #4, #2, #5, ...

........................................................................
.............................. CYCLE   30 ..............................
........................................................................
   1    -38.2672842 -0.382673E+02  0.152E-01    1.72       0.0  T
   2    -38.2672864 -0.224789E-05  0.962E-02    1.72       1.0  T
   3    -38.2672830  0.337533E-05  0.203E-02    1.72       1.0  T
   4    -38.2672871 -0.411301E-05  0.993E-03    1.72       1.8  T
   5    -38.2672871  0.255440E-07  0.428E-03    1.72       4.2  T
   6    -38.2672872 -0.107172E-06  0.212E-03    1.72       8.5  T
   7    -38.2672873 -0.671478E-07  0.747E-04    1.72      24.0  T
   8    -38.2672873  0.847599E-09  0.508E-04    1.72      35.4  T
     SCC iter.                  ...        0 min,  0.370 sec
     gradient                   ...        0 min,  0.068 sec
 * total energy  :   -37.6445927 Eh     change       -0.7622246E-04 Eh
   gradient norm :     0.0079830 Eh/α   predicted    -0.1003591E-03 (  31.67%)
   displ. norm   :     0.1651450 α      lambda       -0.1773545E-03
   maximum displ.:     0.1070040 α      in ANC's #5, #2, #1, ...

........................................................................
.............................. CYCLE   31 ..............................
........................................................................
   1    -38.2698168 -0.382698E+02  0.535E-02    1.72       0.0  T
   2    -38.2698186 -0.182008E-05  0.336E-02    1.72       1.0  T
   3    -38.2698126  0.605659E-05  0.204E-02    1.72       1.0  T
   4    -38.2698203 -0.773990E-05  0.710E-03    1.72       2.5  T
   5    -38.2698206 -0.250502E-06  0.405E-03    1.72       4.4  T
   6    -38.2698206  0.190340E-07  0.139E-03    1.72      12.9  T
   7    -38.2698206 -0.285762E-07  0.939E-04    1.72      19.1  T
   8    -38.2698206 -0.349419E-08  0.559E-04    1.72      32.1  T
     SCC iter.                  ...        0 min,  0.351 sec
     gradient                   ...        0 min,  0.127 sec
 * total energy  :   -37.6447029 Eh     change       -0.1102574E-03 Eh
   gradient norm :     0.0050966 Eh/α   predicted    -0.9109747E-04 ( -17.38%)
   displ. norm   :     0.3002609 α      lambda       -0.1556857E-03
   maximum displ.:     0.2085567 α      in ANC's #2, #5, #4, ...

........................................................................
.............................. CYCLE   32 ..............................
........................................................................
   1    -38.2700167 -0.382700E+02  0.865E-02    1.72       0.0  T
   2    -38.2700183 -0.158052E-05  0.573E-02    1.72       1.0  T
   3    -38.2700006  0.176833E-04  0.277E-02    1.72       1.0  T
   4    -38.2700203 -0.196411E-04  0.891E-03    1.72       2.0  T
   5    -38.2700207 -0.482486E-06  0.456E-03    1.72       3.9  T
   6    -38.2700208 -0.367294E-07  0.120E-03    1.72      14.9  T
   7    -38.2700208 -0.801824E-08  0.753E-04    1.72      23.8  T
   8    -38.2700208 -0.377099E-09  0.516E-04    1.72      34.8  T
     SCC iter.                  ...        0 min,  0.402 sec
     gradient                   ...        0 min,  0.121 sec
 * total energy  :   -37.6448240 Eh     change       -0.1210904E-03 Eh
   gradient norm :     0.0044827 Eh/α   predicted    -0.8486116E-04 ( -29.92%)
   displ. norm   :     0.3895656 α      lambda       -0.1661729E-03
   maximum displ.:     0.2706563 α      in ANC's #2, #5, #4, ...

........................................................................
.............................. CYCLE   33 ..............................
........................................................................
   1    -38.2690906 -0.382691E+02  0.956E-02    1.73       0.0  T
   2    -38.2690922 -0.155437E-05  0.599E-02    1.72       1.0  T
   3    -38.2690865  0.561525E-05  0.197E-02    1.73       1.0  T
   4    -38.2690929 -0.639413E-05  0.742E-03    1.72       2.4  T
   5    -38.2690930 -0.542811E-07  0.509E-03    1.72       3.5  T
   6    -38.2690932 -0.244384E-06  0.120E-03    1.72      15.0  T
   7    -38.2690932 -0.682925E-08  0.873E-04    1.72      20.6  T
   8    -38.2690932 -0.403347E-09  0.546E-04    1.72      32.9  T
     SCC iter.                  ...        0 min,  0.318 sec
     gradient                   ...        0 min,  0.034 sec
 * total energy  :   -37.6449597 Eh     change       -0.1356749E-03 Eh
   gradient norm :     0.0060749 Eh/α   predicted    -0.9569725E-04 ( -29.47%)
   displ. norm   :     0.3406099 α      lambda       -0.1842040E-03
   maximum displ.:     0.2552969 α      in ANC's #2, #5, #4, ...

........................................................................
.............................. CYCLE   34 ..............................
........................................................................
   1    -38.2713480 -0.382713E+02  0.762E-02    1.72       0.0  T
   2    -38.2713493 -0.137185E-05  0.490E-02    1.72       1.0  T
   3    -38.2713390  0.103615E-04  0.228E-02    1.72       1.0  T
   4    -38.2713505 -0.114988E-04  0.920E-03    1.72       2.0  T
   5    -38.2713512 -0.735209E-06  0.481E-03    1.72       3.7  T
   6    -38.2713513 -0.410363E-07  0.162E-03    1.72      11.1  T
   7    -38.2713513 -0.157300E-07  0.958E-04    1.72      18.7  T
   8    -38.2713513 -0.571625E-09  0.662E-04    1.72      27.1  T
     SCC iter.                  ...        0 min,  0.383 sec
     gradient                   ...        0 min,  0.043 sec
 * total energy  :   -37.6451021 Eh     change       -0.1424326E-03 Eh
   gradient norm :     0.0053507 Eh/α   predicted    -0.1027905E-03 ( -27.83%)
   displ. norm   :     0.4870754 α      lambda       -0.2048753E-03
   maximum displ.:     0.3640690 α      in ANC's #2, #5, #4, ...

........................................................................
.............................. CYCLE   35 ..............................
........................................................................
   1    -38.2692439 -0.382692E+02  0.972E-02    1.72       0.0  T
   2    -38.2692458 -0.196915E-05  0.629E-02    1.72       1.0  T
   3    -38.2692296  0.161861E-04  0.256E-02    1.72       1.0  T
   4    -38.2692473 -0.176942E-04  0.862E-03    1.72       2.1  T
   5    -38.2692478 -0.507597E-06  0.497E-03    1.72       3.6  T
   6    -38.2692479 -0.747221E-07  0.145E-03    1.72      12.4  T
   7    -38.2692479 -0.545980E-08  0.768E-04    1.72      23.4  T
   8    -38.2692479  0.850712E-09  0.523E-04    1.72      34.3  T
     SCC iter.                  ...        0 min,  0.332 sec
     gradient                   ...        0 min,  0.100 sec
 * total energy  :   -37.6452520 Eh     change       -0.1499067E-03 Eh
   gradient norm :     0.0089878 Eh/α   predicted    -0.1267414E-03 ( -15.45%)
   displ. norm   :     0.4749233 α      lambda       -0.2389849E-03
   maximum displ.:     0.3625834 α      in ANC's #2, #5, #3, ...

........................................................................
.............................. CYCLE   36 ..............................
........................................................................
   1    -38.2698276 -0.382698E+02  0.902E-02    1.72       0.0  T
   2    -38.2698317 -0.411798E-05  0.576E-02    1.72       1.0  T
   3    -38.2698229  0.883322E-05  0.289E-02    1.71       1.0  T
   4    -38.2698338 -0.108943E-04  0.629E-03    1.72       2.9  T
   5    -38.2698340 -0.167613E-06  0.556E-03    1.72       3.2  T
   6    -38.2698341 -0.142593E-06  0.217E-03    1.72       8.3  T
   7    -38.2698342 -0.546923E-07  0.794E-04    1.72      22.6  T
   8    -38.2698342  0.196498E-08  0.569E-04    1.72      31.5  T
     SCC iter.                  ...        0 min,  0.356 sec
     gradient                   ...        0 min,  0.087 sec
 * total energy  :   -37.6454000 Eh     change       -0.1479920E-03 Eh
   gradient norm :     0.0081588 Eh/α   predicted    -0.1464464E-03 (  -1.04%)
   displ. norm   :     0.3525030 α      lambda       -0.1959097E-03
   maximum displ.:     0.2682154 α      in ANC's #2, #5, #8, ...

........................................................................
.............................. CYCLE   37 ..............................
........................................................................
   1    -38.2702519 -0.382703E+02  0.806E-02    1.72       0.0  T
   2    -38.2702558 -0.389767E-05  0.588E-02    1.72       1.0  T
   3    -38.2702444  0.113720E-04  0.267E-02    1.71       1.0  T
   4    -38.2702590 -0.145606E-04  0.919E-03    1.72       2.0  T
   5    -38.2702598 -0.792830E-06  0.424E-03    1.72       4.2  T
   6    -38.2702598 -0.853932E-08  0.176E-03    1.72      10.2  T
   7    -38.2702598 -0.334846E-07  0.815E-04    1.72      22.0  T
   8    -38.2702598 -0.632952E-08  0.479E-04    1.72      37.5  T
     SCC iter.                  ...        0 min,  0.346 sec
     gradient                   ...        0 min,  0.066 sec
 * total energy  :   -37.6455165 Eh     change       -0.1164515E-03 Eh
   gradient norm :     0.0076396 Eh/α   predicted    -0.1101275E-03 (  -5.43%)
   displ. norm   :     0.2435854 α      lambda       -0.1573510E-03
   maximum displ.:     0.1567240 α      in ANC's #2, #5, #8, ...

........................................................................
.............................. CYCLE   38 ..............................
........................................................................
   1    -38.2738200 -0.382738E+02  0.717E-02    1.72       0.0  T
   2    -38.2738239 -0.391557E-05  0.529E-02    1.72       1.0  T
   3    -38.2738188  0.503927E-05  0.219E-02    1.72       1.0  T
   4    -38.2738259 -0.706542E-05  0.778E-03    1.72       2.3  T
   5    -38.2738263 -0.410499E-06  0.415E-03    1.72       4.3  T
   6    -38.2738264 -0.478541E-07  0.114E-03    1.72      15.7  T
   7    -38.2738264 -0.540414E-08  0.519E-04    1.72      34.6  T
   8    -38.2738264  0.111974E-08  0.407E-04    1.72      44.1  T
     SCC iter.                  ...        0 min,  0.312 sec
     gradient                   ...        0 min,  0.045 sec
 * total energy  :   -37.6455932 Eh     change       -0.7672969E-04 Eh
   gradient norm :     0.0056681 Eh/α   predicted    -0.8334439E-04 (   8.62%)
   displ. norm   :     0.4119471 α      lambda       -0.1306210E-03
   maximum displ.:     0.2952072 α      in ANC's #2, #5, #3, ...

........................................................................
.............................. CYCLE   39 ..............................
........................................................................
   1    -38.2674044 -0.382674E+02  0.795E-02    1.72       0.0  T
   2    -38.2674076 -0.318244E-05  0.511E-02    1.72       1.0  T
   3    -38.2673980  0.960466E-05  0.268E-02    1.71       1.0  T
   4    -38.2674101 -0.121510E-04  0.600E-03    1.72       3.0  T
   5    -38.2674103 -0.202211E-06  0.443E-03    1.72       4.1  T
   6    -38.2674103 -0.193700E-07  0.194E-03    1.72       9.2  T
   7    -38.2674104 -0.475292E-07  0.571E-04    1.72      31.5  T
   8    -38.2674104 -0.265420E-08  0.338E-04    1.72      53.1  T
     SCC iter.                  ...        0 min,  0.336 sec
     gradient                   ...        0 min,  0.105 sec
 * total energy  :   -37.6456285 Eh     change       -0.3532192E-04 Eh
   gradient norm :     0.0077663 Eh/α   predicted    -0.7639441E-04 ( 116.28%)
   displ. norm   :     0.1361052 α      lambda       -0.1195984E-03
   maximum displ.:     0.1029242 α      in ANC's #2, #4, #5, ...

........................................................................
.............................. CYCLE   40 ..............................
........................................................................
   1    -38.2720669 -0.382721E+02  0.522E-02    1.73       0.0  T
   2    -38.2720678 -0.920287E-06  0.338E-02    1.72       1.0  T
   3    -38.2720657  0.217375E-05  0.132E-02    1.73       1.4  T
   4    -38.2720683 -0.259394E-05  0.399E-03    1.73       4.5  T
   5    -38.2720682  0.194498E-07  0.351E-03    1.73       5.1  T
   6    -38.2720683 -0.920004E-07  0.132E-03    1.73      13.6  T
   7    -38.2720683 -0.185775E-08  0.721E-04    1.73      24.9  T
   8    -38.2720683 -0.122791E-08  0.371E-04    1.73      48.4  T
     SCC iter.                  ...        0 min,  0.377 sec
     gradient                   ...        0 min,  0.116 sec
 * total energy  :   -37.6456467 Eh     change       -0.1814582E-04 Eh
   gradient norm :     0.0117139 Eh/α   predicted    -0.6090884E-04 ( 235.66%)
   displ. norm   :     0.0721930 α      lambda       -0.8201171E-04
   maximum displ.:     0.0472885 α      in ANC's #2, #7, #3, ...

........................................................................
.............................. CYCLE   41 ..............................
........................................................................
   1    -38.2728200 -0.382728E+02  0.490E-02    1.72       0.0  T
   2    -38.2728208 -0.763799E-06  0.359E-02    1.72       1.0  T
   3    -38.2728171  0.370097E-05  0.220E-02    1.72       1.0  T
   4    -38.2728238 -0.667058E-05  0.583E-03    1.72       3.1  T
   5    -38.2728239 -0.173762E-06  0.311E-03    1.72       5.8  T
   6    -38.2728240 -0.234980E-07  0.161E-03    1.72      11.2  T
   7    -38.2728240 -0.173018E-07  0.846E-04    1.72      21.2  T
   8    -38.2728240 -0.132398E-08  0.389E-04    1.72      46.2  T
     SCC iter.                  ...        0 min,  0.409 sec
     gradient                   ...        0 min,  0.096 sec
 * total energy  :   -37.6456874 Eh     change       -0.4069288E-04 Eh
   gradient norm :     0.0035233 Eh/α   predicted    -0.4122023E-04 (   1.30%)
   displ. norm   :     0.1265517 α      lambda       -0.3301561E-04
   maximum displ.:     0.0925635 α      in ANC's #2, #5, #3, ...

........................................................................
.............................. CYCLE   42 ..............................
........................................................................
   1    -38.2715601 -0.382716E+02  0.274E-02    1.72       0.0  T
   2    -38.2715604 -0.310205E-06  0.153E-02    1.72       1.2  T
   3    -38.2715591  0.132312E-05  0.133E-02    1.72       1.4  T
   4    -38.2715609 -0.185018E-05  0.193E-03    1.72       9.3  T
   5    -38.2715610 -0.382289E-07  0.147E-03    1.72      12.2  T
   6    -38.2715610 -0.102382E-07  0.382E-04    1.72      47.0  T
   7    -38.2715610 -0.177016E-08  0.117E-04    1.72     153.8  T
     SCC iter.                  ...        0 min,  0.344 sec
     gradient                   ...        0 min,  0.004 sec
 * total energy  :   -37.6457074 Eh     change       -0.2002993E-04 Eh
   gradient norm :     0.0025934 Eh/α   predicted    -0.1677369E-04 ( -16.26%)
   displ. norm   :     0.1880064 α      lambda       -0.3460069E-04
   maximum displ.:     0.1356890 α      in ANC's #2, #5, #3, ...
 * RMSD in coord.:     0.8739474 α      energy gain  -0.6412741E-02 Eh

generating ANC from model Hessian ...
Using Lindh-Hessian (1995)
 Shifting diagonal of input Hessian by    1.0544643066418790E-002
 Lowest  eigenvalues of input Hessian
    0.010000    0.010350    0.000000    0.000000    0.000000    0.000000
    0.000000    0.000000    0.010973    0.011456    0.011683    0.011803
    0.012107    0.015002    0.015266    0.017051    0.018546    0.018670
 Highest eigenvalues
    1.731487    1.734846    1.737015    3.708619    4.324121    5.040234


........................................................................
.............................. CYCLE   43 ..............................
........................................................................
   1    -38.2706208 -0.382706E+02  0.355E-02    1.72       0.0  T
   2    -38.2706211 -0.259474E-06  0.219E-02    1.72       1.0  T
   3    -38.2706198  0.122120E-05  0.788E-03    1.72       2.3  T
   4    -38.2706212 -0.137535E-05  0.305E-03    1.72       5.9  T
   5    -38.2706212 -0.449458E-07  0.159E-03    1.72      11.3  T
   6    -38.2706213 -0.892060E-08  0.624E-04    1.72      28.8  T
   7    -38.2706213 -0.147290E-08  0.402E-04    1.72      44.7  T
     SCC iter.                  ...        0 min,  0.300 sec
     gradient                   ...        0 min,  0.064 sec
 * total energy  :   -37.6457329 Eh     change       -0.2552953E-04 Eh
   gradient norm :     0.0025928 Eh/α   predicted     0.0000000E+00 (-100.00%)
   displ. norm   :     0.0340477 α      lambda       -0.1381787E-05
   maximum displ.:     0.0179820 α      in ANC's #4, #9, #1, ...

........................................................................
.............................. CYCLE   44 ..............................
........................................................................
   1    -38.2717813 -0.382718E+02  0.108E-02    1.72       0.0  T
   2    -38.2717813 -0.706202E-07  0.756E-03    1.72       2.4  T
   3    -38.2717812  0.114605E-06  0.382E-03    1.72       4.7  T
   4    -38.2717814 -0.168395E-06  0.161E-03    1.72      11.2  T
   5    -38.2717814 -0.113896E-07  0.109E-03    1.72      16.5  T
   6    -38.2717814  0.205793E-08  0.639E-04    1.72      28.1  T
   7    -38.2717814 -0.386489E-08  0.210E-04    1.72      85.5  T
     SCC iter.                  ...        0 min,  0.307 sec
     gradient                   ...        0 min,  0.072 sec
 * total energy  :   -37.6457528 Eh     change       -0.1985979E-04 Eh
   gradient norm :     0.0007192 Eh/α   predicted    -0.1237422E-04 ( -37.69%)
   displ. norm   :     0.1759465 α      lambda       -0.5256217E-04
   maximum displ.:     0.0894086 α      in ANC's #4, #9, #1, ...

........................................................................
.............................. CYCLE   45 ..............................
........................................................................
   1    -38.2742195 -0.382742E+02  0.489E-02    1.72       0.0  T
   2    -38.2742203 -0.796902E-06  0.308E-02    1.72       1.0  T
   3    -38.2742169  0.338799E-05  0.168E-02    1.72       1.1  T
   4    -38.2742210 -0.410737E-05  0.488E-03    1.72       3.7  T
   5    -38.2742211 -0.124045E-06  0.322E-03    1.72       5.6  T
   6    -38.2742211  0.307768E-07  0.196E-03    1.72       9.2  T
   7    -38.2742211 -0.381204E-07  0.706E-04    1.72      25.4  T
   8    -38.2742211 -0.122949E-08  0.390E-04    1.72      46.1  T
     SCC iter.                  ...        0 min,  0.350 sec
     gradient                   ...        0 min,  0.050 sec
 * total energy  :   -37.6458009 Eh     change       -0.4815243E-04 Eh
   gradient norm :     0.0047177 Eh/α   predicted    -0.2666425E-04 ( -44.63%)
   displ. norm   :     0.1823809 α      lambda       -0.6707639E-04
   maximum displ.:     0.0962303 α      in ANC's #9, #4, #1, ...

........................................................................
.............................. CYCLE   46 ..............................
........................................................................
   1    -38.2742980 -0.382743E+02  0.365E-02    1.72       0.0  T
   2    -38.2742984 -0.309422E-06  0.227E-02    1.72       1.0  T
   3    -38.2742959  0.244795E-05  0.124E-02    1.72       1.5  T
   4    -38.2742988 -0.284226E-05  0.253E-03    1.72       7.1  T
   5    -38.2742988 -0.506140E-07  0.156E-03    1.72      11.5  T
   6    -38.2742988  0.113840E-08  0.836E-04    1.72      21.5  T
   7    -38.2742988 -0.676334E-08  0.417E-04    1.72      43.1  T
     SCC iter.                  ...        0 min,  0.299 sec
     gradient                   ...        0 min,  0.023 sec
 * total energy  :   -37.6458554 Eh     change       -0.5447861E-04 Eh
   gradient norm :     0.0068097 Eh/α   predicted    -0.3465502E-04 ( -36.39%)
   displ. norm   :     0.5363945 α      lambda       -0.1975615E-03
   maximum displ.:     0.2864890 α      in ANC's #9, #4, #1, ...

........................................................................
.............................. CYCLE   47 ..............................
........................................................................
   1    -38.2698508 -0.382699E+02  0.117E-01    1.71       0.0  T
   2    -38.2698546 -0.374728E-05  0.689E-02    1.71       1.0  T
   3    -38.2698258  0.287633E-04  0.463E-02    1.71       1.0  T
   4    -38.2698604 -0.345861E-04  0.850E-03    1.71       2.1  T
   5    -38.2698607 -0.290413E-06  0.562E-03    1.71       3.2  T
   6    -38.2698607 -0.319226E-07  0.270E-03    1.71       6.7  T
   7    -38.2698608 -0.701868E-07  0.950E-04    1.71      18.9  T
   8    -38.2698608 -0.105315E-08  0.580E-04    1.71      30.9  T
     SCC iter.                  ...        0 min,  0.355 sec
     gradient                   ...        0 min,  0.049 sec
 * total energy  :   -37.6459129 Eh     change       -0.5750150E-04 Eh
   gradient norm :     0.0179715 Eh/α   predicted    -0.1272030E-03 ( 121.22%)
   displ. norm   :     0.1161370 α      lambda       -0.2358220E-03
   maximum displ.:     0.0670543 α      in ANC's #9, #4, #1, ...

........................................................................
.............................. CYCLE   48 ..............................
........................................................................
   1    -38.2717596 -0.382718E+02  0.386E-02    1.71       0.0  T
   2    -38.2717610 -0.146239E-05  0.240E-02    1.71       1.0  T
   3    -38.2717595  0.156395E-05  0.175E-02    1.71       1.0  T
   4    -38.2717631 -0.365700E-05  0.657E-03    1.71       2.7  T
   5    -38.2717633 -0.133248E-06  0.408E-03    1.71       4.4  T
   6    -38.2717632  0.277698E-07  0.200E-03    1.71       9.0  T
   7    -38.2717633 -0.386393E-07  0.547E-04    1.71      32.9  T
   8    -38.2717633 -0.361659E-09  0.395E-04    1.71      45.5  T
     SCC iter.                  ...        0 min,  0.370 sec
     gradient                   ...        0 min,  0.062 sec
 * total energy  :   -37.6460501 Eh     change       -0.1371302E-03 Eh
   gradient norm :     0.0049439 Eh/α   predicted    -0.1195059E-03 ( -12.85%)
   displ. norm   :     0.2272468 α      lambda       -0.1453490E-03
   maximum displ.:     0.1019237 α      in ANC's #1, #2, #3, ...

........................................................................
.............................. CYCLE   49 ..............................
........................................................................
   1    -38.2705589 -0.382706E+02  0.537E-02    1.71       0.0  T
   2    -38.2705594 -0.442852E-06  0.353E-02    1.71       1.0  T
   3    -38.2705536  0.572191E-05  0.143E-02    1.70       1.3  T
   4    -38.2705598 -0.615994E-05  0.642E-03    1.71       2.8  T
   5    -38.2705600 -0.167695E-06  0.419E-03    1.71       4.3  T
   6    -38.2705600 -0.509877E-07  0.107E-03    1.71      16.9  T
   7    -38.2705600 -0.158848E-07  0.394E-04    1.71      45.6  T
   8    -38.2705600 -0.363656E-10  0.206E-04    1.71      87.1  T
     SCC iter.                  ...        0 min,  0.356 sec
     gradient                   ...        0 min,  0.023 sec
 * total energy  :   -37.6461644 Eh     change       -0.1143085E-03 Eh
   gradient norm :     0.0019331 Eh/α   predicted    -0.7642792E-04 ( -33.14%)
   displ. norm   :     0.6277434 α      lambda       -0.1697014E-03
   maximum displ.:     0.2981292 α      in ANC's #1, #4, #3, ...

........................................................................
.............................. CYCLE   50 ..............................
........................................................................
   1    -38.2644883 -0.382645E+02  0.145E-01    1.69       0.0  T
   2    -38.2644916 -0.324157E-05  0.965E-02    1.70       1.0  T
   3    -38.2644680  0.235775E-04  0.313E-02    1.68       1.0  T
   4    -38.2644933 -0.252863E-04  0.142E-02    1.69       1.3  T
   5    -38.2644944 -0.108796E-05  0.795E-03    1.69       2.3  T
   6    -38.2644945 -0.164177E-06  0.211E-03    1.69       8.5  T
   7    -38.2644946 -0.266590E-07  0.913E-04    1.69      19.7  T
   8    -38.2644946 -0.629208E-08  0.448E-04    1.69      40.1  T
     SCC iter.                  ...        0 min,  0.360 sec
     gradient                   ...        0 min,  0.005 sec
 * total energy  :   -37.6462353 Eh     change       -0.7092360E-04 Eh
   gradient norm :     0.0144249 Eh/α   predicted    -0.9971307E-04 (  40.59%)
   displ. norm   :     0.0884127 α      lambda       -0.1676748E-03
   maximum displ.:     0.0598231 α      in ANC's #9, #4, #1, ...

........................................................................
.............................. CYCLE   51 ..............................
........................................................................
   1    -38.2692123 -0.382692E+02  0.316E-02    1.70       0.0  T
   2    -38.2692132 -0.947929E-06  0.195E-02    1.69       1.0  T
   3    -38.2692119  0.136645E-05  0.136E-02    1.69       1.3  T
   4    -38.2692143 -0.240468E-05  0.492E-03    1.70       3.7  T
   5    -38.2692144 -0.137511E-06  0.255E-03    1.69       7.0  T
   6    -38.2692144  0.971997E-08  0.104E-03    1.69      17.2  T
   7    -38.2692144 -0.119723E-07  0.245E-04    1.69      73.2  T
   8    -38.2692144 -0.351264E-09  0.177E-04    1.69     101.5  T
     SCC iter.                  ...        0 min,  0.396 sec
     gradient                   ...        0 min,  0.123 sec
 * total energy  :   -37.6463343 Eh     change       -0.9904218E-04 Eh
   gradient norm :     0.0060126 Eh/α   predicted    -0.8449322E-04 ( -14.69%)
   displ. norm   :     0.1010202 α      lambda       -0.5951449E-04
   maximum displ.:     0.0503753 α      in ANC's #2, #4, #3, ...

........................................................................
.............................. CYCLE   52 ..............................
........................................................................
   1    -38.2713116 -0.382713E+02  0.263E-02    1.69       0.0  T
   2    -38.2713119 -0.271829E-06  0.175E-02    1.69       1.0  T
   3    -38.2713106  0.132419E-05  0.702E-03    1.69       2.6  T
   4    -38.2713120 -0.146585E-05  0.327E-03    1.69       5.5  T
   5    -38.2713121 -0.722710E-07  0.169E-03    1.69      10.6  T
   6    -38.2713121 -0.646660E-08  0.601E-04    1.69      29.9  T
   7    -38.2713121 -0.207225E-08  0.178E-04    1.69     101.1  T
     SCC iter.                  ...        0 min,  0.344 sec
     gradient                   ...        0 min,  0.109 sec
 * total energy  :   -37.6463811 Eh     change       -0.4680612E-04 Eh
   gradient norm :     0.0029924 Eh/α   predicted    -0.3006381E-04 ( -35.77%)
   displ. norm   :     0.2747853 α      lambda       -0.8580086E-04
   maximum displ.:     0.1366742 α      in ANC's #2, #3, #4, ...

........................................................................
.............................. CYCLE   53 ..............................
........................................................................
   1    -38.2727566 -0.382728E+02  0.624E-02    1.69       0.0  T
   2    -38.2727576 -0.992193E-06  0.424E-02    1.69       1.0  T
   3    -38.2727525  0.507980E-05  0.131E-02    1.69       1.4  T
   4    -38.2727580 -0.555092E-05  0.579E-03    1.69       3.1  T
   5    -38.2727582 -0.180127E-06  0.299E-03    1.69       6.0  T
   6    -38.2727583 -0.337437E-07  0.121E-03    1.69      14.9  T
   7    -38.2727583 -0.873545E-08  0.341E-04    1.69      52.6  T
   8    -38.2727583 -0.216635E-08  0.165E-04    1.69     108.6  T
     SCC iter.                  ...        0 min,  0.412 sec
     gradient                   ...        0 min,  0.092 sec
 * total energy  :   -37.6464430 Eh     change       -0.6190636E-04 Eh
   gradient norm :     0.0014911 Eh/α   predicted    -0.4614854E-04 ( -25.45%)
   displ. norm   :     0.4855095 α      lambda       -0.6284519E-04
   maximum displ.:     0.2691485 α      in ANC's #2, #3, #4, ...

........................................................................
.............................. CYCLE   54 ..............................
........................................................................
   1    -38.2711054 -0.382711E+02  0.108E-01    1.68       0.0  T
   2    -38.2711073 -0.199061E-05  0.723E-02    1.68       1.0  T
   3    -38.2710957  0.116349E-04  0.215E-02    1.67       1.0  T
   4    -38.2711085 -0.128118E-04  0.926E-03    1.68       1.9  T
   5    -38.2711086 -0.636878E-07  0.436E-03    1.68       4.1  T
   6    -38.2711088 -0.199897E-06  0.139E-03    1.68      12.9  T
   7    -38.2711088 -0.972658E-08  0.653E-04    1.68      27.5  T
   8    -38.2711088 -0.339980E-08  0.412E-04    1.68      43.6  T
     SCC iter.                  ...        0 min,  0.354 sec
     gradient                   ...        0 min,  0.004 sec
 * total energy  :   -37.6464835 Eh     change       -0.4045001E-04 Eh
   gradient norm :     0.0062331 Eh/α   predicted    -0.3472221E-04 ( -14.16%)
   displ. norm   :     0.0954869 α      lambda       -0.6668217E-04
   maximum displ.:     0.0609650 α      in ANC's #2, #3, #5, ...

........................................................................
.............................. CYCLE   55 ..............................
........................................................................
   1    -38.2722031 -0.382722E+02  0.289E-02    1.68       0.0  T
   2    -38.2722034 -0.315053E-06  0.166E-02    1.68       1.1  T
   3    -38.2722015  0.186765E-05  0.157E-02    1.68       1.1  T
   4    -38.2722041 -0.260314E-05  0.241E-03    1.68       7.4  T
   5    -38.2722042 -0.409637E-07  0.166E-03    1.68      10.8  T
   6    -38.2722042 -0.906112E-08  0.472E-04    1.68      38.1  T
   7    -38.2722042 -0.356165E-08  0.231E-04    1.68      77.7  T
     SCC iter.                  ...        0 min,  0.339 sec
     gradient                   ...        0 min,  0.019 sec
 * total energy  :   -37.6465251 Eh     change       -0.4162055E-04 Eh
   gradient norm :     0.0047214 Eh/α   predicted    -0.3364379E-04 ( -19.17%)
   displ. norm   :     0.1477852 α      lambda       -0.7221581E-04
   maximum displ.:     0.0991647 α      in ANC's #2, #3, #9, ...

........................................................................
.............................. CYCLE   56 ..............................
........................................................................
   1    -38.2739830 -0.382740E+02  0.326E-02    1.68       0.0  T
   2    -38.2739835 -0.443941E-06  0.200E-02    1.68       1.0  T
   3    -38.2739819  0.155042E-05  0.122E-02    1.68       1.5  T
   4    -38.2739839 -0.201597E-05  0.301E-03    1.68       6.0  T
   5    -38.2739840 -0.525226E-07  0.162E-03    1.68      11.1  T
   6    -38.2739840  0.103323E-07  0.861E-04    1.68      20.9  T
   7    -38.2739840 -0.111549E-07  0.208E-04    1.68      86.2  T
     SCC iter.                  ...        0 min,  0.284 sec
     gradient                   ...        0 min,  0.026 sec
 * total energy  :   -37.6465669 Eh     change       -0.4182341E-04 Eh
   gradient norm :     0.0069620 Eh/α   predicted    -0.3689351E-04 ( -11.79%)
   displ. norm   :     0.2170179 α      lambda       -0.5751176E-04
   maximum displ.:     0.1539722 α      in ANC's #2, #3, #5, ...

........................................................................
.............................. CYCLE   57 ..............................
........................................................................
   1    -38.2732602 -0.382733E+02  0.520E-02    1.68       0.0  T
   2    -38.2732605 -0.228636E-06  0.313E-02    1.68       1.0  T
   3    -38.2732560  0.450152E-05  0.185E-02    1.68       1.0  T
   4    -38.2732609 -0.496405E-05  0.349E-03    1.68       5.1  T
   5    -38.2732609 -0.144846E-07  0.208E-03    1.68       8.6  T
   6    -38.2732610 -0.210452E-07  0.500E-04    1.68      35.9  T
   7    -38.2732610 -0.179932E-08  0.337E-04    1.68      53.2  T
     SCC iter.                  ...        0 min,  0.332 sec
     gradient                   ...        0 min,  0.053 sec
 * total energy  :   -37.6466160 Eh     change       -0.4910032E-04 Eh
   gradient norm :     0.0079464 Eh/α   predicted    -0.3010677E-04 ( -38.68%)
   displ. norm   :     0.2159902 α      lambda       -0.7280234E-04
   maximum displ.:     0.1534145 α      in ANC's #2, #3, #5, ...

........................................................................
.............................. CYCLE   58 ..............................
........................................................................
   1    -38.2724096 -0.382724E+02  0.553E-02    1.68       0.0  T
   2    -38.2724100 -0.379679E-06  0.336E-02    1.68       1.0  T
   3    -38.2724026  0.731257E-05  0.233E-02    1.68       1.0  T
   4    -38.2724108 -0.813185E-05  0.414E-03    1.68       4.3  T
   5    -38.2724108 -0.383184E-07  0.274E-03    1.68       6.6  T
   6    -38.2724108 -0.150054E-07  0.876E-04    1.68      20.5  T
   7    -38.2724108 -0.995787E-08  0.409E-04    1.68      43.9  T
     SCC iter.                  ...        0 min,  0.211 sec
     gradient                   ...        0 min,  0.017 sec
 * total energy  :   -37.6466719 Eh     change       -0.5583794E-04 Eh
   gradient norm :     0.0041657 Eh/α   predicted    -0.3809791E-04 ( -31.77%)
   displ. norm   :     0.2513987 α      lambda       -0.5671340E-04
   maximum displ.:     0.1756358 α      in ANC's #2, #3, #5, ...

........................................................................
.............................. CYCLE   59 ..............................
........................................................................
   1    -38.2704891 -0.382705E+02  0.670E-02    1.68       0.0  T
   2    -38.2704894 -0.314408E-06  0.449E-02    1.68       1.0  T
   3    -38.2704880  0.137694E-05  0.959E-03    1.68       1.9  T
   4    -38.2704895 -0.150383E-05  0.325E-03    1.68       5.5  T
   5    -38.2704896 -0.138714E-07  0.265E-03    1.68       6.8  T
   6    -38.2704896 -0.406229E-07  0.730E-04    1.68      24.6  T
   7    -38.2704896 -0.622094E-08  0.338E-04    1.68      53.2  T
     SCC iter.                  ...        0 min,  0.190 sec
     gradient                   ...        0 min,  0.079 sec
 * total energy  :   -37.6467085 Eh     change       -0.3661249E-04 Eh
   gradient norm :     0.0033593 Eh/α   predicted    -0.3014613E-04 ( -17.66%)
   displ. norm   :     0.1833311 α      lambda       -0.4058637E-04
   maximum displ.:     0.1292906 α      in ANC's #2, #3, #5, ...

........................................................................
.............................. CYCLE   60 ..............................
........................................................................
   1    -38.2710496 -0.382710E+02  0.509E-02    1.68       0.0  T
   2    -38.2710499 -0.300012E-06  0.375E-02    1.68       1.0  T
   3    -38.2710418  0.814084E-05  0.177E-02    1.68       1.0  T
   4    -38.2710504 -0.857284E-05  0.442E-03    1.68       4.1  T
   5    -38.2710505 -0.111625E-06  0.258E-03    1.68       7.0  T
   6    -38.2710505 -0.201201E-07  0.767E-04    1.68      23.4  T
   7    -38.2710505 -0.140196E-08  0.401E-04    1.68      44.8  T
     SCC iter.                  ...        0 min,  0.026 sec
     gradient                   ...        0 min,  0.004 sec
 * total energy  :   -37.6467314 Eh     change       -0.2290890E-04 Eh
   gradient norm :     0.0038959 Eh/α   predicted    -0.2097721E-04 (  -8.43%)
   displ. norm   :     0.0977116 α      lambda       -0.2919533E-04
   maximum displ.:     0.0652359 α      in ANC's #2, #3, #5, ...

........................................................................
.............................. CYCLE   61 ..............................
........................................................................
   1    -38.2715376 -0.382715E+02  0.343E-02    1.68       0.0  T
   2    -38.2715380 -0.398260E-06  0.283E-02    1.68       1.0  T
   3    -38.2715361  0.190021E-05  0.130E-02    1.68       1.4  T
   4    -38.2715392 -0.315678E-05  0.278E-03    1.68       6.5  T
   5    -38.2715393 -0.109916E-06  0.143E-03    1.68      12.6  T
   6    -38.2715393 -0.303962E-08  0.526E-04    1.68      34.1  T
   7    -38.2715393 -0.356017E-08  0.226E-04    1.68      79.5  T
     SCC iter.                  ...        0 min,  0.025 sec
     gradient                   ...        0 min,  0.007 sec
 * total energy  :   -37.6467527 Eh     change       -0.2125655E-04 Eh
   gradient norm :     0.0023263 Eh/α   predicted    -0.1474121E-04 ( -30.65%)
   displ. norm   :     0.1552616 α      lambda       -0.3174907E-04
   maximum displ.:     0.1100282 α      in ANC's #2, #3, #5, ...

........................................................................
.............................. CYCLE   62 ..............................
........................................................................
   1    -38.2717802 -0.382718E+02  0.576E-02    1.68       0.0  T
   2    -38.2717815 -0.126276E-05  0.499E-02    1.69       1.0  T
   3    -38.2717820 -0.524898E-06  0.235E-02    1.68       1.0  T
   4    -38.2717870 -0.494375E-05  0.588E-03    1.68       3.1  T
   5    -38.2717873 -0.356333E-06  0.231E-03    1.68       7.8  T
   6    -38.2717873 -0.723591E-08  0.101E-03    1.68      17.7  T
   7    -38.2717873 -0.882725E-08  0.430E-04    1.68      41.8  T
   8    -38.2717873  0.299586E-09  0.322E-04    1.68      55.8  T
     SCC iter.                  ...        0 min,  0.030 sec
     gradient                   ...        0 min,  0.004 sec
 * total energy  :   -37.6467708 Eh     change       -0.1816370E-04 Eh
   gradient norm :     0.0022468 Eh/α   predicted    -0.1626071E-04 ( -10.48%)
   displ. norm   :     0.0375381 α      lambda       -0.1299342E-04
   maximum displ.:     0.0194457 α      in ANC's #6, #2, #4, ...

........................................................................
.............................. CYCLE   63 ..............................
........................................................................
   1    -38.2731825 -0.382732E+02  0.220E-02    1.68       0.0  T
   2    -38.2731827 -0.206303E-06  0.175E-02    1.68       1.0  T
   3    -38.2731824  0.287919E-06  0.922E-03    1.68       1.9  T
   4    -38.2731834 -0.105298E-05  0.247E-03    1.68       7.3  T
   5    -38.2731835 -0.497103E-07  0.133E-03    1.68      13.5  T
   6    -38.2731835 -0.143754E-08  0.619E-04    1.68      29.0  T
   7    -38.2731835 -0.404665E-08  0.243E-04    1.68      74.0  T
     SCC iter.                  ...        0 min,  0.019 sec
     gradient                   ...        0 min,  0.006 sec
 * total energy  :   -37.6467778 Eh     change       -0.6978894E-05 Eh
   gradient norm :     0.0013156 Eh/α   predicted    -0.6508556E-05 (  -6.74%)
   displ. norm   :     0.1658257 α      lambda       -0.1233443E-04
   maximum displ.:     0.1286961 α      in ANC's #2, #3, #5, ...

........................................................................
.............................. CYCLE   64 ..............................
........................................................................
   1    -38.2725316 -0.382725E+02  0.502E-02    1.68       0.0  T
   2    -38.2725319 -0.294594E-06  0.366E-02    1.68       1.0  T
   3    -38.2725261  0.579635E-05  0.159E-02    1.68       1.1  T
   4    -38.2725322 -0.604111E-05  0.437E-03    1.68       4.1  T
   5    -38.2725323 -0.114343E-06  0.208E-03    1.68       8.6  T
   6    -38.2725323 -0.133831E-07  0.860E-04    1.68      20.9  T
   7    -38.2725323 -0.658884E-08  0.364E-04    1.68      49.3  T
     SCC iter.                  ...        0 min,  0.021 sec
     gradient                   ...        0 min,  0.004 sec
 * total energy  :   -37.6467907 Eh     change       -0.1286003E-04 Eh
   gradient norm :     0.0012389 Eh/α   predicted    -0.6244538E-05 ( -51.44%)
   displ. norm   :     0.1419653 α      lambda       -0.1431991E-04
   maximum displ.:     0.1108052 α      in ANC's #2, #5, #3, ...

........................................................................
.............................. CYCLE   65 ..............................
........................................................................
   1    -38.2723839 -0.382724E+02  0.345E-02    1.68       0.0  T
   2    -38.2723842 -0.313437E-06  0.204E-02    1.68       1.0  T
   3    -38.2723816  0.268722E-05  0.153E-02    1.68       1.2  T
   4    -38.2723847 -0.315552E-05  0.237E-03    1.68       7.6  T
   5    -38.2723848 -0.422031E-07  0.200E-03    1.68       9.0  T
   6    -38.2723848 -0.191114E-07  0.383E-04    1.68      46.9  T
   7    -38.2723848 -0.166995E-08  0.238E-04    1.68      75.6  T
     SCC iter.                  ...        0 min,  0.021 sec
     gradient                   ...        0 min,  0.007 sec
 * total energy  :   -37.6468024 Eh     change       -0.1175005E-04 Eh
   gradient norm :     0.0022306 Eh/α   predicted    -0.7227520E-05 ( -38.49%)
   displ. norm   :     0.0537412 α      lambda       -0.5549548E-05
   maximum displ.:     0.0457264 α      in ANC's #2, #5, #3, ...

........................................................................
.............................. CYCLE   66 ..............................
........................................................................
   1    -38.2723492 -0.382723E+02  0.102E-02    1.68       0.0  T
   2    -38.2723492 -0.445115E-07  0.584E-03    1.68       3.1  T
   3    -38.2723492 -0.166896E-07  0.541E-03    1.68       3.3  T
   4    -38.2723495 -0.253453E-06  0.127E-03    1.68      14.1  T
   5    -38.2723495 -0.161376E-08  0.781E-04    1.68      23.0  T
   6    -38.2723495 -0.390746E-08  0.222E-04    1.68      80.8  T
     SCC iter.                  ...        0 min,  0.035 sec
     gradient                   ...        0 min,  0.006 sec
 * total energy  :   -37.6468066 Eh     change       -0.4148058E-05 Eh
   gradient norm :     0.0014047 Eh/α   predicted    -0.2783940E-05 ( -32.89%)
   displ. norm   :     0.1170104 α      lambda       -0.7696201E-05
   maximum displ.:     0.0985962 α      in ANC's #2, #5, #3, ...
 * RMSD in coord.:     0.6704845 α      energy gain  -0.1099150E-02 Eh

generating ANC from model Hessian ...
Using Lindh-Hessian (1995)
 Shifting diagonal of input Hessian by    1.0633555663496518E-002
 Lowest  eigenvalues of input Hessian
    0.010000    0.010389    0.000000    0.000000    0.000000    0.000000
    0.000000    0.000000    0.011098    0.011631    0.011751    0.011932
    0.012242    0.015220    0.015575    0.017026    0.018702    0.018788
 Highest eigenvalues
    1.733893    1.737519    1.738138    3.672267    4.327950    5.073230


........................................................................
.............................. CYCLE   67 ..............................
........................................................................
   1    -38.2727204 -0.382727E+02  0.211E-02    1.68       0.0  T
   2    -38.2727209 -0.414327E-06  0.166E-02    1.68       1.1  T
   3    -38.2727223 -0.140716E-05  0.906E-03    1.68       2.0  T
   4    -38.2727225 -0.238878E-06  0.246E-03    1.68       7.3  T
   5    -38.2727226 -0.777439E-07  0.122E-03    1.68      14.7  T
   6    -38.2727226  0.429004E-09  0.789E-04    1.68      22.8  T
   7    -38.2727226 -0.228836E-08  0.559E-04    1.68      32.1  T
     SCC iter.                  ...        0 min,  0.202 sec
     gradient                   ...        0 min,  0.073 sec
 * total energy  :   -37.6468116 Eh     change       -0.5003966E-05 Eh
   gradient norm :     0.0010034 Eh/α   predicted     0.0000000E+00 (-100.00%)
   displ. norm   :     0.0108489 α      lambda       -0.1257445E-06
   maximum displ.:     0.0058364 α      in ANC's #13, #2, #3, ...

........................................................................
.............................. CYCLE   68 ..............................
........................................................................
   1    -38.2727186 -0.382727E+02  0.800E-03    1.68       0.0  T
   2    -38.2727187 -0.694734E-07  0.491E-03    1.68       3.7  T
   3    -38.2727186  0.865941E-07  0.364E-03    1.68       4.9  T
   4    -38.2727188 -0.149756E-06  0.121E-03    1.68      14.8  T
   5    -38.2727188 -0.126598E-07  0.585E-04    1.68      30.7  T
   6    -38.2727188  0.850093E-10  0.300E-04    1.68      59.9  T
     SCC iter.                  ...        0 min,  0.161 sec
     gradient                   ...        0 min,  0.036 sec
 * total energy  :   -37.6468129 Eh     change       -0.1326740E-05 Eh
   gradient norm :     0.0003241 Eh/α   predicted    -0.9528830E-06 ( -28.18%)
   displ. norm   :     0.0093648 α      lambda       -0.6447785E-06
   maximum displ.:     0.0049194 α      in ANC's #13, #8, #3, ...

   *** GEOMETRY OPTIMIZATION CONVERGED AFTER 68 ITERATIONS ***

------------------------------------------------------------------------
 total energy gain   :        -5.5901404 Eh    -3507.8661 kcal/mol
 total RMSD          :         1.5069892 a0        0.7975 Å
 total power (kW/mol):      -215.8369356 (step) -488.9934 (real)
------------------------------------------------------------------------

 ANCopt (total)                0 d,  0 h,  0 min, 30.015 sec
 optimizer setup                ...        0 min,  0.000 sec (  0.002%)
 model hessian                  ...        0 min,  0.131 sec (  0.436%)
 ANC generation                 ...        0 min,  0.017 sec (  0.058%)
 coordinate transformation      ...        0 min,  0.014 sec (  0.047%)
 single point calculation       ...        0 min, 29.366 sec ( 97.839%)
 optimization log               ...        0 min,  0.008 sec (  0.027%)
 hessian update                 ...        0 min,  0.301 sec (  1.004%)
 rational function              ...        0 min,  0.163 sec (  0.543%)

================
 final structure:
================
31
 xtb: 6.5.1 (b24c23e)
Zr          -1.28130746517851       -0.14727172623625        0.58243366089961
C           -1.10678871835533        1.22633707387795       -1.43656371016693
C            0.39219347303571       -1.94731717431959        0.59163357263911
C            0.07677713046793       -1.70598889196634       -0.76691181344262
C           -1.28161084583833       -2.04575278021729       -0.97001931876437
C           -1.81054751039964       -2.50105888350255        0.26665638158914
C           -0.77249676878725       -2.44586001758067        1.22978425807961
H            1.38763177275152       -1.91839229634396        1.02173751599845
H            0.79225177194568       -1.46249138563840       -1.54534120336277
H           -1.78728396757941       -2.09523704622431       -1.92710269416030
H           -2.77146342381007       -2.98416529983192        0.40616056466559
H           -0.81952337253393       -2.86909651751521        2.22749506478843
C           -0.27687802161581        0.14285864457892        2.79972849994722
C           -1.67502552316821        0.34316661147421        2.92755958877452
C           -2.00420586217803        1.53683084708289        2.23103666090433
C           -0.82317258992932        2.04561269259887        1.64780562323832
C            0.24516096807052        1.17544961091707        1.98447546962990
H            0.31015830955544       -0.58259544858093        3.35088389327053
H           -2.33394878199402       -0.20006534955470        3.59848318876872
H           -2.95224894177223        2.05741304352136        2.28542062233670
H           -0.72493721607428        3.00970800555130        1.16233759801361
H            1.29903734097144        1.36954270865136        1.80952192603752
H           -0.19461788562829        1.04821097821203       -0.81091527021105
H           -1.07366803007661        0.61771850427752       -2.34136254838823
H           -1.12337004497576        2.27630467056065       -1.71707011198833
C           -3.58594962192257        0.04769417859552       -0.03753150704701
C           -3.12160143558656        1.12521553916436       -0.87361935580909
H           -3.21576266015561        2.13038134363611       -0.46267082947906
H           -3.40270703650334        1.08226956479763       -1.92277022324195
H           -4.11997101976028        0.33369111607990        0.87118118678890
H           -4.02920438296869       -0.79357736606866       -0.56937237031443

 Bond Distances (Angstroems)
 ---------------------------
Zr1-C2=2.4482        Zr1-C3=2.4578        Zr1-C4=2.4688        Zr1-C5=2.4524        Zr1-C6=2.4331        Zr1-C7=2.4416        
Zr1-C13=2.4514       Zr1-C14=2.4280       Zr1-C15=2.4651       Zr1-C16=2.4807       Zr1-C17=2.4587       Zr1-H23=2.1334       
Zr1-C26=2.3945       Zr1-C27=2.6695       C2-Zr1=2.4482        C2-H23=1.1204        C2-H24=1.0910        C2-H25=1.0869        
C3-Zr1=2.4578        C3-C4=1.4154         C3-C7=1.4186         C3-H8=1.0848         C4-Zr1=2.4688        C4-C3=1.4154         
C4-C5=1.4149         C4-H9=1.0850         C5-Zr1=2.4524        C5-C4=1.4149         C5-C6=1.4200         C5-H10=1.0836        
C6-Zr1=2.4331        C6-C5=1.4200         C6-C7=1.4171         C6-H11=1.0845        C7-Zr1=2.4416        C7-C3=1.4186         
C7-C6=1.4171         C7-H12=1.0848        H8-C3=1.0848         H9-C4=1.0850         H10-C5=1.0836        H11-C6=1.0845        
H12-C7=1.0848        C13-Zr1=2.4514       C13-C14=1.4182       C13-C17=1.4154       C13-H18=1.0838       C14-Zr1=2.4280       
C14-C13=1.4182       C14-C15=1.4207       C14-H19=1.0860       C15-Zr1=2.4651       C15-C14=1.4207       C15-C16=1.4120       
C15-H20=1.0829       C16-Zr1=2.4807       C16-C15=1.4120       C16-C17=1.4184       C16-H21=1.0839       C17-Zr1=2.4587       
C17-C13=1.4154       C17-C16=1.4184       C17-H22=1.0858       H18-C13=1.0838       H19-C14=1.0860       H20-C15=1.0829       
H21-C16=1.0839       H22-C17=1.0858       H23-Zr1=2.1334       H23-C2=1.1204        H24-C2=1.0910        H25-C2=1.0869        
C26-Zr1=2.3945       C26-C27=1.4407       C26-H30=1.0921       C26-H31=1.0895       C27-Zr1=2.6695       C27-C26=1.4407       
C27-H28=1.0900       C27-H29=1.0870       H28-C27=1.0900       H29-C27=1.0870       H30-C26=1.0921       H31-C26=1.0895       
 C  H  Rav=1.0884 sigma=0.0084  Rmin=1.0829  Rmax=1.1204    17
 C  C  Rav=1.4192 sigma=0.0072  Rmin=1.4120  Rmax=1.4407    11
 Zr H  Rav=2.1334 sigma=0.0000  Rmin=2.1334  Rmax=2.1334     1
 Zr C  Rav=2.4654 sigma=0.0624  Rmin=2.3945  Rmax=2.6695    13

 selected bond angles (degree)
 --------------------
C3-Zr1-C2=111.44               C4-Zr1-C2= 82.20               C4-Zr1-C3= 33.39               C5-Zr1-C2= 84.97               
C5-Zr1-C3= 55.63               C5-Zr1-C4= 33.42               C6-Zr1-C2=116.82               C6-Zr1-C3= 55.95               
C6-Zr1-C4= 55.80               C6-Zr1-C5= 33.79               C7-Zr1-C2=137.05               C7-Zr1-C3= 33.66               
C7-Zr1-C4= 55.66               C7-Zr1-C5= 55.88               C7-Zr1-C6= 33.80               C13-Zr1-C2=130.57              
C13-Zr1-C3= 78.71              C13-Zr1-C4=110.10              C13-Zr1-C5=131.62              C13-Zr1-C6=108.72              
C13-Zr1-C7= 77.66              C14-Zr1-C2=134.01              C14-Zr1-C3=104.76              C14-Zr1-C4=138.13              
C14-Zr1-C5=140.15              C14-Zr1-C6=106.59              C14-Zr1-C7= 88.16              C14-Zr1-C13= 33.79             
C15-Zr1-C2=100.90              C15-Zr1-C3=134.23              C15-Zr1-C4=163.38              C15-Zr1-C5=162.21              
C15-Zr1-C6=133.15              C15-Zr1-C7=121.80              C15-Zr1-C13= 55.56             C15-Zr1-C14= 33.75             
C16-Zr1-C2= 81.09              C16-Zr1-C3=121.34              C16-Zr1-C4=133.73              C16-Zr1-C5=162.98              
C16-Zr1-C6=162.00              C16-Zr1-C7=132.83              C16-Zr1-C13= 55.34             C16-Zr1-C14= 55.71             
C16-Zr1-C15= 33.18             C17-Zr1-C2= 97.13              C17-Zr1-C3= 88.23              C17-Zr1-C4=108.05              
C17-Zr1-C5=141.03              C17-Zr1-C6=136.84              C17-Zr1-C7=103.06              C17-Zr1-C13= 33.51             
C17-Zr1-C14= 56.03             C17-Zr1-C15= 55.47             C17-Zr1-C16= 33.37             H23-Zr1-C2= 27.21              
H23-Zr1-C3= 93.79              H23-Zr1-C4= 73.54              H23-Zr1-C5= 91.17              H23-Zr1-C6=124.62              
H23-Zr1-C7=126.48              H23-Zr1-C13=108.40             H23-Zr1-C14=126.89             H23-Zr1-C15=101.73             
H23-Zr1-C16= 72.00             H23-Zr1-C17= 75.80             C26-Zr1-C2= 79.01              C26-Zr1-C3=135.72              
C26-Zr1-C4=116.06              C26-Zr1-C5= 84.20              C26-Zr1-C6= 80.55              C26-Zr1-C7=110.23              
C26-Zr1-C13=128.24             C26-Zr1-C14= 94.45             C26-Zr1-C15= 80.52             C26-Zr1-C16=102.53             
C26-Zr1-C17=134.54             C26-Zr1-H23=105.99             C27-Zr1-C2= 48.08              C27-Zr1-C3=145.14              
C27-Zr1-C4=112.46              C27-Zr1-C5= 91.35              C27-Zr1-C6=103.91              C27-Zr1-C7=137.48              
C27-Zr1-C13=136.01             C27-Zr1-C14=108.59             C27-Zr1-C15= 80.62             C27-Zr1-C16= 86.57             
C27-Zr1-C17=118.85             C27-Zr1-H23= 74.20             C27-Zr1-C26= 32.48             H23-C2-Zr1= 60.55              
H24-C2-Zr1=111.91              H24-C2-H23=110.47              H25-C2-Zr1=138.92              H25-C2-H23=108.07              
H25-C2-H24=108.99              C4-C3-Zr1= 73.73               C7-C3-Zr1= 72.54               C7-C3-C4=107.98                
H8-C3-Zr1=127.36               H8-C3-C4=125.49                H8-C3-C7=125.76                C3-C4-Zr1= 72.88               
C5-C4-Zr1= 72.66               C5-C4-C3=108.11                H9-C4-Zr1=127.82               H9-C4-C3=125.45                
H9-C4-C5=125.73                C4-C5-Zr1= 73.93               C6-C5-Zr1= 72.36               C6-C5-C4=108.03                
H10-C5-Zr1=126.48              H10-C5-C4=125.86               H10-C5-C6=125.50               C5-C6-Zr1= 73.85               
C7-C6-Zr1= 73.43               C7-C6-C5=107.85                H11-C6-Zr1=127.37              H11-C6-C5=125.79               
H11-C6-C7=125.38               C3-C7-Zr1= 73.80               C6-C7-Zr1= 72.77               C6-C7-C3=108.02                
H12-C7-Zr1=127.02              H12-C7-C3=125.91               H12-C7-C6=125.32               

 selected dihedral angles (degree)
 ---------------------------------
H23-C2-Zr1-C3=307.48          H23-C2-Zr1-C4=291.04          H23-C2-Zr1-C5=257.52          H23-C2-Zr1-C6=245.87          
H23-C2-Zr1-C7=280.44          H23-C2-Zr1-C13= 40.88         H23-C2-Zr1-C14= 86.92         H23-C2-Zr1-C15= 94.49         
H23-C2-Zr1-C16= 67.74         H23-C2-Zr1-C17= 38.38         H23-C2-Zr1-C26=172.47         H23-C2-Zr1-C27=161.15         
H24-C2-Zr1-C3= 49.36          H24-C2-Zr1-C4= 32.92          H24-C2-Zr1-C5=359.40          H24-C2-Zr1-C6=347.75          
H24-C2-Zr1-C7= 22.31          H24-C2-Zr1-C13=142.76         H24-C2-Zr1-C14=188.80         H24-C2-Zr1-C15=196.36         
H24-C2-Zr1-C16=169.62         H24-C2-Zr1-C17=140.26         H24-C2-Zr1-H23=101.88         H24-C2-Zr1-C26=274.34         
H24-C2-Zr1-C27=263.03         H25-C2-Zr1-C3=223.55          H25-C2-Zr1-C4=207.11          H25-C2-Zr1-C5=173.59          
H25-C2-Zr1-C6=161.94          H25-C2-Zr1-C7=196.51          H25-C2-Zr1-C13=316.95         H25-C2-Zr1-C14=  2.99         
H25-C2-Zr1-C15= 10.56         H25-C2-Zr1-C16=343.81         H25-C2-Zr1-C17=314.45         H25-C2-Zr1-H23=276.07         
H25-C2-Zr1-C26= 88.53         H25-C2-Zr1-C27= 77.22         C4-C3-Zr1-C2=329.38           C4-C3-Zr1-C5= 36.88           
C4-C3-Zr1-C6= 78.03           C4-C3-Zr1-C7=115.40           C4-C3-Zr1-C13=200.03          C4-C3-Zr1-C14=178.30          
C4-C3-Zr1-C15=197.64          C4-C3-Zr1-C16=236.85          C4-C3-Zr1-C17=232.41          C4-C3-Zr1-H23=308.05          
C4-C3-Zr1-C26= 65.66          C4-C3-Zr1-C27= 15.58          C7-C3-Zr1-C2=213.98           C7-C3-Zr1-C4=244.60           
C7-C3-Zr1-C5=281.48           C7-C3-Zr1-C6=322.63           C7-C3-Zr1-C13= 84.63          C7-C3-Zr1-C14= 62.90          
C7-C3-Zr1-C15= 82.24          C7-C3-Zr1-C16=121.45          C7-C3-Zr1-C17=117.01          C7-C3-Zr1-H23=192.65          
C7-C3-Zr1-C26=310.26          C7-C3-Zr1-C27=260.18          H8-C3-Zr1-C2= 91.93           H8-C3-Zr1-C4=122.55           
H8-C3-Zr1-C5=159.43           H8-C3-Zr1-C6=200.57           H8-C3-Zr1-C7=237.95           H8-C3-Zr1-C13=322.57          
H8-C3-Zr1-C14=300.85          H8-C3-Zr1-C15=320.19          H8-C3-Zr1-C16=359.39          H8-C3-Zr1-C17=354.96          
H8-C3-Zr1-H23= 70.60          H8-C3-Zr1-C26=188.20          H8-C3-Zr1-C27=138.12          C3-C4-Zr1-C2=151.41           
C3-C4-Zr1-C5=244.10           C3-C4-Zr1-C6=281.48           C3-C4-Zr1-C7=322.67           C3-C4-Zr1-C13= 20.96          
C3-C4-Zr1-C14=357.54          C3-C4-Zr1-C15= 49.38          C3-C4-Zr1-C16= 81.74          C3-C4-Zr1-C17= 56.41          
C3-C4-Zr1-H23=124.98          C3-C4-Zr1-C26=225.08          C3-C4-Zr1-C27=189.56          C5-C4-Zr1-C2=267.31           
C5-C4-Zr1-C3=115.90           C5-C4-Zr1-C6= 37.39           C5-C4-Zr1-C7= 78.58           C5-C4-Zr1-C13=136.86          
C5-C4-Zr1-C14=113.44          C5-C4-Zr1-C15=165.28          C5-C4-Zr1-C16=197.65          C5-C4-Zr1-C17=172.31          
C5-C4-Zr1-H23=240.89          C5-C4-Zr1-C26=340.98          C5-C4-Zr1-C27=305.46          H9-C4-Zr1-C2= 29.46           
H9-C4-Zr1-C3=238.05           H9-C4-Zr1-C5=122.15           H9-C4-Zr1-C6=159.54           H9-C4-Zr1-C7=200.73           
H9-C4-Zr1-C13=259.01          H9-C4-Zr1-C14=235.59          H9-C4-Zr1-C15=287.43          H9-C4-Zr1-C16=319.80          
H9-C4-Zr1-C17=294.46          H9-C4-Zr1-H23=  3.04          H9-C4-Zr1-C26=103.13          H9-C4-Zr1-C27= 67.61          
Zr1-C4-C3-C7= 64.96           Zr1-C4-C3-H8=235.38           C5-C4-C3-Zr1=295.39           C5-C4-C3-C7=  0.35            
C5-C4-C3-H8=170.77            H9-C4-C3-Zr1=124.64           H9-C4-C3-C7=189.59            H9-C4-C3-H8=  0.00            
C4-C5-Zr1-C2= 83.46           C4-C5-Zr1-C3=323.15           C4-C5-Zr1-C6=244.55           C4-C5-Zr1-C7=282.15           
C4-C5-Zr1-C13=300.79          C4-C5-Zr1-C14=252.89          C4-C5-Zr1-C15=193.76          C4-C5-Zr1-C16= 48.46          
C4-C5-Zr1-C17=348.33          C4-C5-Zr1-H23= 56.93          C4-C5-Zr1-C26=162.89          C4-C5-Zr1-C27=131.16          
C6-C5-Zr1-C2=198.91           C6-C5-Zr1-C3= 78.60           C6-C5-Zr1-C4=115.45           C6-C5-Zr1-C7= 37.60           
C6-C5-Zr1-C13= 56.24          C6-C5-Zr1-C14=  8.34          C6-C5-Zr1-C15=309.21          C6-C5-Zr1-C16=163.91          
C6-C5-Zr1-C17=103.78          C6-C5-Zr1-H23=172.38          C6-C5-Zr1-C26=278.34          C6-C5-Zr1-C27=246.61          
H10-C5-Zr1-C2=320.42          H10-C5-Zr1-C3=200.11          H10-C5-Zr1-C4=236.97          H10-C5-Zr1-C6=121.52          
H10-C5-Zr1-C7=159.11          H10-C5-Zr1-C13=177.76         H10-C5-Zr1-C14=129.86         H10-C5-Zr1-C15= 70.73         
H10-C5-Zr1-C16=285.43         H10-C5-Zr1-C17=225.30         H10-C5-Zr1-H23=293.90         H10-C5-Zr1-C26= 39.86         
H10-C5-Zr1-C27=  8.13         Zr1-C5-C4-C3= 64.75           Zr1-C5-C4-H9=235.48           C6-C5-C4-Zr1=295.18           
C6-C5-C4-C3=359.93            C6-C5-C4-H9=170.66            H10-C5-C4-Zr1=123.72          H10-C5-C4-C3=188.47           
H10-C5-C4-H9=359.20           C5-C6-Zr1-C2= 21.20           C5-C6-Zr1-C3=282.43           C5-C6-Zr1-C4=323.04           
C5-C6-Zr1-C7=245.22           C5-C6-Zr1-C13=221.01          C5-C6-Zr1-C14=185.57          C5-C6-Zr1-C15=161.07          
C5-C6-Zr1-C16=195.22          C5-C6-Zr1-C17=243.24          C5-C6-Zr1-H23=350.73          C5-C6-Zr1-C26= 93.71          
C5-C6-Zr1-C27= 70.96          C7-C6-Zr1-C2=135.99           C7-C6-Zr1-C3= 37.21           C7-C6-Zr1-C4= 77.82           
C7-C6-Zr1-C5=114.78           C7-C6-Zr1-C13=335.79          C7-C6-Zr1-C14=300.35          C7-C6-Zr1-C15=275.85          
C7-C6-Zr1-C16=310.00          C7-C6-Zr1-C17=358.03          C7-C6-Zr1-H23=105.51          C7-C6-Zr1-C26=208.49          
C7-C6-Zr1-C27=185.74          H11-C6-Zr1-C2=258.18          H11-C6-Zr1-C3=159.40          H11-C6-Zr1-C4=200.02          
H11-C6-Zr1-C5=236.97          H11-C6-Zr1-C7=122.19          H11-C6-Zr1-C13= 97.99         H11-C6-Zr1-C14= 62.54         
H11-C6-Zr1-C15= 38.04         H11-C6-Zr1-C16= 72.19         H11-C6-Zr1-C17=120.22         H11-C6-Zr1-H23=227.71         
H11-C6-Zr1-C26=330.68         H11-C6-Zr1-C27=307.93         Zr1-C6-C5-C4= 65.85           Zr1-C6-C5-H10=237.35          
C7-C6-C5-Zr1=293.91           C7-C6-C5-C4=359.76            C7-C6-C5-H10=171.26           H11-C6-C5-Zr1=124.76          
H11-C6-C5-C4=190.62           H11-C6-C5-H10=  2.12          C3-C7-Zr1-C2= 49.78           C3-C7-Zr1-C4= 37.02           
C3-C7-Zr1-C5= 77.72           C3-C7-Zr1-C6=115.30           C3-C7-Zr1-C13=271.88          C3-C7-Zr1-C14=239.46          
C3-C7-Zr1-C15=236.66          C3-C7-Zr1-C16=276.47          C3-C7-Zr1-C17=293.92          C3-C7-Zr1-H23= 15.77          
C3-C7-Zr1-C26=145.40          C3-C7-Zr1-C27=123.56          C6-C7-Zr1-C2=294.48           C6-C7-Zr1-C3=244.70           
C6-C7-Zr1-C4=281.72           C6-C7-Zr1-C5=322.41           C6-C7-Zr1-C13=156.58          C6-C7-Zr1-C14=124.16          
C6-C7-Zr1-C15=121.36          C6-C7-Zr1-C16=161.17          C6-C7-Zr1-C17=178.61          C6-C7-Zr1-H23=260.47          
C6-C7-Zr1-C26= 30.10          C6-C7-Zr1-C27=  8.26          H12-C7-Zr1-C2=172.86          H12-C7-Zr1-C3=123.08          
H12-C7-Zr1-C4=160.10          H12-C7-Zr1-C5=200.80          H12-C7-Zr1-C6=238.38          H12-C7-Zr1-C13= 34.96         
H12-C7-Zr1-C14=  2.54         H12-C7-Zr1-C15=359.74         H12-C7-Zr1-C16= 39.55         H12-C7-Zr1-C17= 56.99         
H12-C7-Zr1-H23=138.85         H12-C7-Zr1-C26=268.48         H12-C7-Zr1-C27=246.64         Zr1-C7-C3-C4=294.26           
Zr1-C7-C3-H8=123.88           C6-C7-C3-Zr1= 65.24           C6-C7-C3-C4=359.50            C6-C7-C3-H8=189.11            
H12-C7-C3-Zr1=235.69          H12-C7-C3-C4=169.95           H12-C7-C3-H8=359.56           Zr1-C7-C6-C5= 66.38           
Zr1-C7-C6-H11=235.57          C3-C7-C6-Zr1=294.08           C3-C7-C6-C5=  0.46            C3-C7-C6-H11=169.66           
H12-C7-C6-Zr1=123.57          H12-C7-C6-C5=189.94           H12-C7-C6-H11=359.14          

 CMA Distance (Angstroems)
 ---------------------------
R(CMA):  2.8525
           -------------------------------------------------
          |                Final Singlepoint                |
           -------------------------------------------------

          ...................................................
          :                      SETUP                      :
          :.................................................:
          :  # basis functions                  79          :
          :  # atomic orbitals                  78          :
          :  # shells                           46          :
          :  # electrons                        72          :
          :  max. iterations                   250          :
          :  Hamiltonian                  GFN2-xTB          :
          :  restarted?                      false          :
          :  GBSA solvation                  false          :
          :  PC potential                    false          :
          :  electronic temp.          300.0000000     K    :
          :  accuracy                    1.0000000          :
          :  -> integral cutoff          0.2500000E+02      :
          :  -> integral neglect         0.1000000E-07      :
          :  -> SCF convergence          0.1000000E-05 Eh   :
          :  -> wf. convergence          0.1000000E-03 e    :
          :  Broyden damping             0.4000000          :
          ...................................................

 iter      E             dE          RMSdq      gap      omega  full diag
   1    -38.2727188 -0.382727E+02  0.173E-04    1.68       0.0  T
   2    -38.2727188 -0.295657E-10  0.812E-05    1.68     221.3  T
   3    -38.2727188 -0.263896E-10  0.955E-05    1.68     188.1  T

   *** convergence criteria satisfied after 3 iterations ***

         #    Occupation            Energy/Eh            Energy/eV
      -------------------------------------------------------------
         1        2.0000           -0.8736279             -23.7726
       ...           ...                  ...                  ...
        30        2.0000           -0.5881230             -16.0036
        31        2.0000           -0.5729908             -15.5919
        32        2.0000           -0.5222133             -14.2101
        33        2.0000           -0.5219028             -14.2017
        34        2.0000           -0.5114701             -13.9178
        35        2.0000           -0.5063402             -13.7782
        36        2.0000           -0.4849801             -13.1970 (HOMO)
        37                         -0.4232303             -11.5167 (LUMO)
        38                         -0.4092363             -11.1359
        39                         -0.4036454             -10.9837
        40                         -0.4027458             -10.9593
        41                         -0.3999681             -10.8837
       ...                                ...                  ...
        78                          2.5042565              68.1443
      -------------------------------------------------------------
                  HL-Gap            0.0617499 Eh            1.6803 eV
             Fermi-level           -0.4541052 Eh          -12.3568 eV

 SCC (total)                   0 d,  0 h,  0 min,  0.173 sec
 SCC setup                      ...        0 min,  0.002 sec (  1.372%)
 Dispersion                     ...        0 min,  0.000 sec (  0.064%)
 classical contributions        ...        0 min,  0.000 sec (  0.017%)
 integral evaluation            ...        0 min,  0.001 sec (  0.770%)
 iterations                     ...        0 min,  0.086 sec ( 49.414%)
 molecular gradient             ...        0 min,  0.084 sec ( 48.248%)
 printout                       ...        0 min,  0.000 sec (  0.103%)

         :::::::::::::::::::::::::::::::::::::::::::::::::::::
         ::                     SUMMARY                     ::
         :::::::::::::::::::::::::::::::::::::::::::::::::::::
         :: total energy             -37.646812886833 Eh    ::
         :: gradient norm              0.000323136571 Eh/a0 ::
         :: HOMO-LUMO gap              1.680298996513 eV    ::
         ::.................................................::
         :: SCC energy               -38.272718776662 Eh    ::
         :: -> isotropic ES            0.087378517170 Eh    ::
         :: -> anisotropic ES         -0.012795492994 Eh    ::
         :: -> anisotropic XC          0.020211708649 Eh    ::
         :: -> dispersion             -0.027876386459 Eh    ::
         :: repulsion energy           0.625002374139 Eh    ::
         :: add. restraining           0.000229965165 Eh    ::
         :: total charge               1.000000000000 e     ::
         :::::::::::::::::::::::::::::::::::::::::::::::::::::

           -------------------------------------------------
          |                Property Printout                |
           -------------------------------------------------

    * Orbital Energies and Occupations

         #    Occupation            Energy/Eh            Energy/eV
      -------------------------------------------------------------
         1        2.0000           -0.8736279             -23.7726
       ...           ...                  ...                  ...
        24        2.0000           -0.5952894             -16.1987
        25        2.0000           -0.5934857             -16.1496
        26        2.0000           -0.5912551             -16.0889
        27        2.0000           -0.5910535             -16.0834
        28        2.0000           -0.5895942             -16.0437
        29        2.0000           -0.5892474             -16.0342
        30        2.0000           -0.5881230             -16.0036
        31        2.0000           -0.5729908             -15.5919
        32        2.0000           -0.5222133             -14.2101
        33        2.0000           -0.5219028             -14.2017
        34        2.0000           -0.5114701             -13.9178
        35        2.0000           -0.5063402             -13.7782
        36        2.0000           -0.4849801             -13.1970 (HOMO)
        37                         -0.4232303             -11.5167 (LUMO)
        38                         -0.4092363             -11.1359
        39                         -0.4036454             -10.9837
        40                         -0.4027458             -10.9593
        41                         -0.3999681             -10.8837
        42                         -0.3608840              -9.8202
        43                         -0.3071946              -8.3592
        44                         -0.3061069              -8.3296
        45                         -0.3057212              -8.3191
        46                         -0.3046628              -8.2903
        47                         -0.0674889              -1.8365
       ...                                ...                  ...
        78                          2.5042565              68.1443
      -------------------------------------------------------------
                  HL-Gap            0.0617499 Eh            1.6803 eV
             Fermi-level           -0.4541052 Eh          -12.3568 eV

     #   Z          covCN         q      C6AA      α(0)
     1  40 Zr      10.354     0.949   138.856    17.706
     2   6 C        3.830    -0.237    25.217     7.145
     3   6 C        3.758    -0.088    22.230     6.722
     4   6 C        3.753    -0.089    22.251     6.727
     5   6 C        3.761    -0.090    22.274     6.728
     6   6 C        3.765    -0.087    22.205     6.716
     7   6 C        3.764    -0.086    22.193     6.715
     8   1 H        0.925     0.082     1.963     2.191
     9   1 H        0.925     0.073     2.055     2.242
    10   1 H        0.925     0.084     1.937     2.176
    11   1 H        0.925     0.088     1.896     2.153
    12   1 H        0.925     0.086     1.921     2.167
    13   6 C        3.763    -0.083    22.122     6.704
    14   6 C        3.766    -0.092    22.287     6.729
    15   6 C        3.757    -0.088    22.226     6.722
    16   6 C        3.749    -0.090    22.284     6.733
    17   6 C        3.756    -0.092    22.317     6.736
    18   1 H        0.925     0.086     1.914     2.164
    19   1 H        0.925     0.084     1.943     2.180
    20   1 H        0.925     0.083     1.945     2.181
    21   1 H        0.925     0.076     2.020     2.223
    22   1 H        0.925     0.074     2.039     2.233
    23   1 H        1.565     0.090     1.870     2.135
    24   1 H        0.925     0.083     1.948     2.183
    25   1 H        0.925     0.086     1.918     2.166
    26   6 C        3.605    -0.227    25.704     7.328
    27   6 C        3.743    -0.065    21.825     6.665
    28   1 H        0.925     0.102     1.771     2.081
    29   1 H        0.925     0.107     1.719     2.050
    30   1 H        0.926     0.093     1.853     2.128
    31   1 H        0.925     0.089     1.891     2.151

 Mol. C6AA /au·bohr⁶  :       9434.055137
 Mol. C8AA /au·bohr⁸  :     320460.355138
 Mol. α(0) /au        :        142.878819


Wiberg/Mayer (AO) data.
largest (>0.10) Wiberg bond orders for each atom

 ---------------------------------------------------------------------------
     #   Z sym  total        # sym  WBO       # sym  WBO       # sym  WBO
 ---------------------------------------------------------------------------
     1  40 Zr   4.329 --    26 C    0.599     2 C    0.421    14 C    0.263
                             6 C    0.257     7 C    0.249     3 C    0.237
                            17 C    0.236     5 C    0.236    13 C    0.233
                            15 C    0.233     4 C    0.228    16 C    0.224
                            27 C    0.192    23 H    0.138
     2   6 C    3.924 --    25 H    0.966    24 H    0.949    23 H    0.805
                            27 C    0.538     1 Zr   0.421    26 C    0.140
     3   6 C    3.979 --     4 C    1.307     7 C    1.300     8 H    0.924
                             1 Zr   0.237
     4   6 C    3.980 --     5 C    1.313     3 C    1.307     9 H    0.926
                             1 Zr   0.228
     5   6 C    3.978 --     4 C    1.313     6 C    1.290    10 H    0.925
                             1 Zr   0.236
     6   6 C    3.982 --     7 C    1.297     5 C    1.290    11 H    0.919
                             1 Zr   0.257
     7   6 C    3.980 --     3 C    1.300     6 C    1.297    12 H    0.921
                             1 Zr   0.249
     8   1 H    0.991 --     3 C    0.924
     9   1 H    0.992 --     4 C    0.926
    10   1 H    0.990 --     5 C    0.925
    11   1 H    0.990 --     6 C    0.919
    12   1 H    0.990 --     7 C    0.921
    13   6 C    3.982 --    17 C    1.312    14 C    1.299    18 H    0.924
                             1 Zr   0.233
    14   6 C    3.979 --    13 C    1.299    15 C    1.284    19 H    0.917
                             1 Zr   0.263
    15   6 C    3.980 --    16 C    1.322    14 C    1.284    20 H    0.926
                             1 Zr   0.233
    16   6 C    3.979 --    15 C    1.322    17 C    1.296    21 H    0.929
                             1 Zr   0.224
    17   6 C    3.978 --    13 C    1.312    16 C    1.296    22 H    0.923
                             1 Zr   0.236
    18   1 H    0.990 --    13 C    0.924
    19   1 H    0.991 --    14 C    0.917
    20   1 H    0.991 --    15 C    0.926
    21   1 H    0.992 --    16 C    0.929
    22   1 H    0.992 --    17 C    0.923
    23   1 H    0.992 --     2 C    0.805     1 Zr   0.138
    24   1 H    0.992 --     2 C    0.949
    25   1 H    0.991 --     2 C    0.966
    26   6 C    3.894 --    27 C    1.251    31 H    0.918    30 H    0.888
                             1 Zr   0.599     2 C    0.140
    27   6 C    3.974 --    26 C    1.251    29 H    0.949    28 H    0.936
                             2 C    0.538     1 Zr   0.192
    28   1 H    0.988 --    27 C    0.936
    29   1 H    0.987 --    27 C    0.949
    30   1 H    0.991 --    26 C    0.888
    31   1 H    0.991 --    26 C    0.918
 ---------------------------------------------------------------------------

Topologies differ in total number of bonds
Writing topology from bond orders to xtbtopo.mol

molecular dipole:
                 x           y           z       tot (Debye)
 q only:       -2.901       0.137       0.580
   full:       -2.415       0.238       0.534       6.316
molecular quadrupole (traceless):
                xx          xy          yy          xz          yz          zz
 q only:        9.820      -1.596      -6.374      -1.095      -4.855      -3.445
  q+dip:        9.740      -0.956      -7.685      -0.987      -7.892      -2.055
   full:        8.899      -0.364      -6.781      -2.329      -6.649      -2.118

           -------------------------------------------------
          |                Geometry Summary                 |
           -------------------------------------------------

      molecular mass/u    :      264.4982010
   center of mass at/Å    :       -1.2512016      -0.1832638       0.6572556
  moments of inertia/u·Å² :        0.5910155E+03   0.7191158E+03   0.9258961E+03
rotational constants/cm⁻¹ :        0.2852316E-01   0.2344217E-01   0.1820683E-01

 * 40 selected distances

     #   Z          #   Z                                           value/Å
     1  40 Zr       2   6 C                                       2.4481849
     1  40 Zr       3   6 C                                       2.4578150
     1  40 Zr       4   6 C                                       2.4687502
     3   6 C        4   6 C                                       1.4154055
     1  40 Zr       5   6 C                                       2.4524155
     4   6 C        5   6 C                                       1.4148888
     1  40 Zr       6   6 C                                       2.4331308
     5   6 C        6   6 C                                       1.4200158
     1  40 Zr       7   6 C                                       2.4416102
     3   6 C        7   6 C                                       1.4185503
     6   6 C        7   6 C                                       1.4171139
     3   6 C        8   1 H                                       1.0847690
     4   6 C        9   1 H                                       1.0849643
     5   6 C       10   1 H                                       1.0835879
     6   6 C       11   1 H                                       1.0845335
     7   6 C       12   1 H                                       1.0847892
     1  40 Zr      13   6 C                                       2.4514183
     1  40 Zr      14   6 C                                       2.4279951
    13   6 C       14   6 C                                       1.4181963
     1  40 Zr      15   6 C                                       2.4650916
    14   6 C       15   6 C                                       1.4206824
     1  40 Zr      16   6 C                                       2.4806548 (max)
    15   6 C       16   6 C                                       1.4120401
     1  40 Zr      17   6 C                                       2.4587436
    13   6 C       17   6 C                                       1.4154175
    16   6 C       17   6 C                                       1.4184031
    13   6 C       18   1 H                                       1.0838209
    14   6 C       19   1 H                                       1.0860108
    15   6 C       20   1 H                                       1.0829355 (min)
    16   6 C       21   1 H                                       1.0838862
    17   6 C       22   1 H                                       1.0857884
     2   6 C       23   1 H                                       1.1203663
     2   6 C       24   1 H                                       1.0909513
     2   6 C       25   1 H                                       1.0869181
     1  40 Zr      26   6 C                                       2.3945240
    26   6 C       27   6 C                                       1.4407341
    27   6 C       28   1 H                                       1.0900016
    27   6 C       29   1 H                                       1.0870062
    26   6 C       30   1 H                                       1.0921227
    26   6 C       31   1 H                                       1.0895263

 * 3 distinct bonds (by element types)

   Z      Z             #   av. dist./Å        max./Å        min./Å
   1 H    6 C          17     1.0883517     1.1203663     1.0829355
   6 C    6 C          11     1.4192225     1.4407341     1.4120401
   6 C   40 Zr         12     2.4483612     2.4806548     2.3945240


optimized geometry written to: xtbopt.xyz


           -------------------------------------------------
          | TOTAL ENERGY              -37.646812886833 Eh   |
          | GRADIENT NORM               0.000323136571 Eh/α |
          | HOMO-LUMO GAP               1.680298996513 eV   |
           -------------------------------------------------

------------------------------------------------------------------------
 * finished run on 2026/08/03 at 12:03:49.040     
------------------------------------------------------------------------
 total:
 * wall-time:     0 d,  0 h,  0 min, 31.349 sec
 *  cpu-time:     0 d,  0 h,  2 min, 11.677 sec
 * ratio c/w:     4.200 speedup
 SCF:
 * wall-time:     0 d,  0 h,  0 min,  0.941 sec
 *  cpu-time:     0 d,  0 h,  0 min,  3.638 sec
 * ratio c/w:     3.868 speedup
 ANC optimizer:
 * wall-time:     0 d,  0 h,  0 min, 30.315 sec
 *  cpu-time:     0 d,  0 h,  2 min,  7.631 sec
 * ratio c/w:     4.210 speedup

