31
 energy: -37.646812886833 gnorm: 0.000323136571 xtb: 6.5.1 (b24c23e)
Zr          -1.28130746517851       -0.14727172623625        0.58243366089961
C           -1.10678871835533        1.22633707387795       -1.43656371016693
C            0.39219347303571       -1.94731717431959        0.59163357263911
C            0.07677713046793       -1.70598889196634       -0.76691181344262
C           -1.28161084583833       -2.04575278021729       -0.97001931876437
C           -1.81054751039964       -2.50105888350255        0.26665638158914
C           -0.77249676878725       -2.44586001758067        1.22978425807961
H            1.38763177275152       -1.91839229634396        1.02173751599845
H            0.79225177194568       -1.46249138563840       -1.54534120336277
H           -1.78728396757941       -2.09523704622431       -1.92710269416030
H           -2.77146342381007       -2.98416529983192        0.40616056466559
H           -0.81952337253393       -2.86909651751521        2.22749506478843
C           -0.27687802161581        0.14285864457892        2.79972849994722
C           -1.67502552316821        0.34316661147421        2.92755958877452
C           -2.00420586217803        1.53683084708289        2.23103666090433
C           -0.82317258992932        2.04561269259887        1.64780562323832
C            0.24516096807052        1.17544961091707        1.98447546962990
H            0.31015830955544       -0.58259544858093        3.35088389327053
H           -2.33394878199402       -0.20006534955470        3.59848318876872
H           -2.95224894177223        2.05741304352136        2.28542062233670
H           -0.72493721607428        3.00970800555130        1.16233759801361
H            1.29903734097144        1.36954270865136        1.80952192603752
H           -0.19461788562829        1.04821097821203       -0.81091527021105
H           -1.07366803007661        0.61771850427752       -2.34136254838823
H           -1.12337004497576        2.27630467056065       -1.71707011198833
C           -3.58594962192257        0.04769417859552       -0.03753150704701
C           -3.12160143558656        1.12521553916436       -0.87361935580909
H           -3.21576266015561        2.13038134363611       -0.46267082947906
H           -3.40270703650334        1.08226956479763       -1.92277022324195
H           -4.11997101976028        0.33369111607990        0.87118118678890
H           -4.02920438296869       -0.79357736606866       -0.56937237031443
