11
Properties=species:S:1:pos:R:3 pbc="F F F"
Ru       0.15950000       0.11960000       0.00000000
C        2.31496947       1.37051461       0.00000000
C        2.31533591       0.50681469      -1.18880000
C        2.31592887      -0.89078519      -0.73470000
C        2.31592887      -0.89078519       0.73470000
C        2.31533591       0.50681469       1.18880000
H        2.31450956       2.45451451       0.00000000
H        2.31519378       0.84181466      -2.21980000
H        2.31630095      -1.76778511      -1.37190000
H        2.31630095      -1.76778511       1.37190000
H        2.31519378       0.84181466       2.21980000
