      -----------------------------------------------------------      
     |                   =====================                   |     
     |                           x T B                           |     
     |                   =====================                   |     
     |                         S. Grimme                         |     
     |          Mulliken Center for Theoretical Chemistry        |     
     |                    University of Bonn                     |     
      -----------------------------------------------------------      

   * xtb version 6.5.1 (b24c23e) compiled by 'conda@728c89f4b128' on 2022-07-12

   xtb is free software: you can redistribute it and/or modify it under
   the terms of the GNU Lesser General Public License as published by
   the Free Software Foundation, either version 3 of the License, or
   (at your option) any later version.
   
   xtb is distributed in the hope that it will be useful,
   but WITHOUT ANY WARRANTY; without even the implied warranty of
   MERCHANTABILITY or FITNESS FOR A PARTICULAR PURPOSE.  See the
   GNU Lesser General Public License for more details.
   
   Cite this work as:
   * C. Bannwarth, E. Caldeweyher, S. Ehlert, A. Hansen, P. Pracht,
     J. Seibert, S. Spicher, S. Grimme, WIREs Comput. Mol. Sci., 2020, 11,
     e01493. DOI: 10.1002/wcms.1493
   
   for GFN2-xTB:
   * C. Bannwarth, S. Ehlert and S. Grimme., J. Chem. Theory Comput., 2019,
     15, 1652-1671. DOI: 10.1021/acs.jctc.8b01176
   for GFN1-xTB:
   * S. Grimme, C. Bannwarth, P. Shushkov, J. Chem. Theory Comput., 2017,
     13, 1989-2009. DOI: 10.1021/acs.jctc.7b00118
   for GFN0-xTB:
   * P. Pracht, E. Caldeweyher, S. Ehlert, S. Grimme, ChemRxiv, 2019, preprint.
     DOI: 10.26434/chemrxiv.8326202.v1
   for GFN-FF:
   * S. Spicher and S. Grimme, Angew. Chem. Int. Ed., 2020, 59, 15665-15673.
     DOI: 10.1002/anie.202004239
   
   for ALPB and GBSA implicit solvation:
   * S. Ehlert, M. Stahn, S. Spicher, S. Grimme, J. Chem. Theory Comput.,
     2021, 17, 4250-4261. DOI: 10.1021/acs.jctc.1c00471
   
   for DFT-D4:
   * E. Caldeweyher, C. Bannwarth and S. Grimme, J. Chem. Phys., 2017,
     147, 034112. DOI: 10.1063/1.4993215
   * E. Caldeweyher, S. Ehlert, A. Hansen, H. Neugebauer, S. Spicher,
     C. Bannwarth and S. Grimme, J. Chem. Phys., 2019, 150, 154122.
     DOI: 10.1063/1.5090222
   * E. Caldeweyher, J.-M. Mewes, S. Ehlert and S. Grimme, Phys. Chem. Chem. Phys.
     2020, 22, 8499-8512. DOI: 10.1039/D0CP00502A
   
   for sTDA-xTB:
   * S. Grimme and C. Bannwarth, J. Chem. Phys., 2016, 145, 054103.
     DOI: 10.1063/1.4959605
   
   in the mass-spec context:
   * V. Asgeirsson, C. Bauer and S. Grimme, Chem. Sci., 2017, 8, 4879.
     DOI: 10.1039/c7sc00601b
   * J. Koopman and S. Grimme, ACS Omega 2019, 4, 12, 15120-15133.
     DOI: 10.1021/acsomega.9b02011
   
   for metadynamics refer to:
   * S. Grimme, J. Chem. Theory Comput., 2019, 155, 2847-2862
     DOI: 10.1021/acs.jctc.9b00143
   
   for SPH calculations refer to:
   * S. Spicher and S. Grimme, J. Chem. Theory Comput., 2021, 17, 1701-1714
     DOI: 10.1021/acs.jctc.0c01306
   
   with help from (in alphabetical order)
   P. Atkinson, C. Bannwarth, F. Bohle, G. Brandenburg, E. Caldeweyher
   M. Checinski, S. Dohm, S. Ehlert, S. Ehrlich, I. Gerasimov, C. Hölzer
   A. Katbashev, J. Koopman, C. Lavigne, S. Lehtola, F. März, M. Müller,
   F. Musil, H. Neugebauer, J. Pisarek, C. Plett, P. Pracht, F. Pultar,
   J. Seibert, P. Shushkov, S. Spicher, M. Stahn, M. Steiner, T. Strunk,
   J. Stückrath, T. Rose, and J. Unsleber
   
 * started run on 2026/08/13 at 17:44:17.549     

           -------------------------------------------------
          |                Calculation Setup                |
           -------------------------------------------------

          program call               : /h/332/chchoi/miniconda3/envs/el-agente/bin/xtb CpRu_eta6_sumanene_concave.xyz --opt --gfn 2 -P 4 --chrg 1 --uhf 0 --input detailed_input.inp
          coordinate file            : CpRu_eta6_sumanene_concave.xyz
          omp threads                :                     4

   ID    Z sym.   atoms
    1    6 C      1-21, 35-39
    2    1 H      22-33, 40-44
    3   44 Ru     34
constraining bond 34 2 to    2.1750000 Å, actual value:    2.1749408 Å
constraining bond 34 3 to    2.1860000 Å, actual value:    2.1862068 Å
constraining bond 34 4 to    2.1860000 Å, actual value:    2.1862060 Å
constraining bond 34 5 to    2.1750000 Å, actual value:    2.1749408 Å
constraining bond 34 20 to    2.1990000 Å, actual value:    2.1985549 Å
constraining bond 34 21 to    2.1990000 Å, actual value:    2.1985549 Å
constraining bond 34 35 to    2.2080000 Å, actual value:    2.2079178 Å
constraining bond 34 36 to    2.2080000 Å, actual value:    2.2079117 Å
constraining bond 34 37 to    2.2080000 Å, actual value:    2.2079204 Å
constraining bond 34 38 to    2.2080000 Å, actual value:    2.2079204 Å
constraining bond 34 39 to    2.2080000 Å, actual value:    2.2079117 Å

           -------------------------------------------------
          |                 G F N 2 - x T B                 |
           -------------------------------------------------

        Reference                      10.1021/acs.jctc.8b01176
      * Hamiltonian:
        H0-scaling (s, p, d)           1.850000    2.230000    2.230000
        zeta-weighting                 0.500000
      * Dispersion:
        s8                             2.700000
        a1                             0.520000
        a2                             5.000000
        s9                             5.000000
      * Repulsion:
        kExp                           1.500000    1.000000
        rExp                           1.000000
      * Coulomb:
        alpha                          2.000000
        third order                    shell-resolved
        anisotropic                    true
        a3                             3.000000
        a5                             4.000000
        cn-shift                       1.200000
        cn-exp                         4.000000
        max-rad                        5.000000


          ...................................................
          :                      SETUP                      :
          :.................................................:
          :  # basis functions                 131          :
          :  # atomic orbitals                 130          :
          :  # shells                           72          :
          :  # electrons                       128          :
          :  max. iterations                   250          :
          :  Hamiltonian                  GFN2-xTB          :
          :  restarted?                      false          :
          :  GBSA solvation                  false          :
          :  PC potential                    false          :
          :  electronic temp.          300.0000000     K    :
          :  accuracy                    1.0000000          :
          :  -> integral cutoff          0.2500000E+02      :
          :  -> integral neglect         0.1000000E-07      :
          :  -> SCF convergence          0.1000000E-05 Eh   :
          :  -> wf. convergence          0.1000000E-03 e    :
          :  Broyden damping             0.4000000          :
          ...................................................

 iter      E             dE          RMSdq      gap      omega  full diag
   1    -66.4784445 -0.664784E+02  0.936E+00    1.24       0.0  T
   2    -59.5149478  0.696350E+01  0.127E+01    0.77       1.0  T
   3    -64.1315854 -0.461664E+01  0.726E+00    0.55       1.0  T
   4    -67.8218207 -0.369024E+01  0.334E+00    1.76       1.0  T
   5    -68.0692287 -0.247408E+00  0.210E+00    1.03       1.0  T
   6    -68.1961560 -0.126927E+00  0.990E-01    1.61       1.0  T
   7    -68.2148805 -0.187245E-01  0.720E-01    1.98       1.0  T
   8    -68.2349639 -0.200835E-01  0.341E-01    2.08       1.0  T
   9    -68.2388189 -0.385496E-02  0.176E-01    2.08       1.0  T
  10    -68.2396578 -0.838948E-03  0.104E-01    2.05       1.0  T
  11    -68.2397162 -0.583917E-04  0.518E-02    2.04       1.0  T
  12    -68.2397886 -0.723424E-04  0.262E-02    2.05       1.0  T
  13    -68.2398063 -0.176871E-04  0.812E-03    2.05       1.9  T
  14    -68.2398062  0.371093E-07  0.697E-03    2.05       2.2  T
  15    -68.2398067 -0.487847E-06  0.355E-03    2.05       4.3  T
  16    -68.2398069 -0.224384E-06  0.168E-03    2.05       8.9  T
  17    -68.2398071 -0.163449E-06  0.708E-04    2.05      21.3  T
  18    -68.2398071 -0.274072E-07  0.261E-04    2.05      57.8  T

   *** convergence criteria satisfied after 18 iterations ***

         #    Occupation            Energy/Eh            Energy/eV
      -------------------------------------------------------------
         1        2.0000           -0.8543012             -23.2467
       ...           ...                  ...                  ...
        58        2.0000           -0.5328375             -14.4992
        59        2.0000           -0.5256444             -14.3035
        60        2.0000           -0.5108870             -13.9019
        61        2.0000           -0.5067776             -13.7901
        62        2.0000           -0.4896474             -13.3240
        63        2.0000           -0.4874207             -13.2634
        64        2.0000           -0.4847512             -13.1908 (HOMO)
        65                         -0.4092583             -11.1365 (LUMO)
        66                         -0.4009837             -10.9113
        67                         -0.3912763             -10.6472
        68                         -0.3865009             -10.5172
        69                         -0.3812656             -10.3748
       ...                                ...                  ...
       130                          4.1660623             113.3643
      -------------------------------------------------------------
                  HL-Gap            0.0754929 Eh            2.0543 eV
             Fermi-level           -0.4470048 Eh          -12.1636 eV

 SCC (total)                   0 d,  0 h,  0 min,  1.534 sec
 SCC setup                      ...        0 min,  0.015 sec (  0.986%)
 Dispersion                     ...        0 min,  0.022 sec (  1.444%)
 classical contributions        ...        0 min,  0.016 sec (  1.047%)
 integral evaluation            ...        0 min,  0.046 sec (  3.007%)
 iterations                     ...        0 min,  1.322 sec ( 86.141%)
 molecular gradient             ...        0 min,  0.108 sec (  7.041%)
 printout                       ...        0 min,  0.005 sec (  0.329%)

         :::::::::::::::::::::::::::::::::::::::::::::::::::::
         ::                     SUMMARY                     ::
         :::::::::::::::::::::::::::::::::::::::::::::::::::::
         :: total energy             -67.062367394811 Eh    ::
         :: gradient norm              0.196750271994 Eh/a0 ::
         :: HOMO-LUMO gap              2.054266281186 eV    ::
         ::.................................................::
         :: SCC energy               -68.239807128936 Eh    ::
         :: -> isotropic ES            0.061347892481 Eh    ::
         :: -> anisotropic ES         -0.009960183458 Eh    ::
         :: -> anisotropic XC          0.038221539070 Eh    ::
         :: -> dispersion             -0.077079861584 Eh    ::
         :: repulsion energy           1.174991566524 Eh    ::
         :: add. restraining           0.000000934661 Eh    ::
         :: total charge               1.000000000000 e     ::
         :::::::::::::::::::::::::::::::::::::::::::::::::::::

      ----------------------------------------------------------- 
     |                   =====================                   |
     |                        A N C O P T                        |
     |                   =====================                   |
     |               Approximate Normal Coordinate               |
     |                Rational Function Optimizer                |
      ----------------------------------------------------------- 

          ...................................................
          :                      SETUP                      :
          :.................................................:
          :   optimization level            normal          :
          :   max. optcycles                   200          :
          :   ANC micro-cycles                  20          :
          :   degrees of freedom               126          :
          :.................................................:
          :   RF solver                   davidson          :
          :   write xtbopt.log                true          :
          :   linear?                        false          :
          :   energy convergence         0.5000000E-05 Eh   :
          :   grad. convergence          0.1000000E-02 Eh/α :
          :   maximium RF displ.         1.0000000          :
          :   Hlow (freq-cutoff)         0.1000000E-01      :
          :   Hmax (freq-cutoff)         5.0000000          :
          :   S6 in model hess.         20.0000000          :
          ...................................................

generating ANC from model Hessian ...
Using Lindh-Hessian (1995)
 Shifting diagonal of input Hessian by    7.6922550677287040E-003
 Lowest  eigenvalues of input Hessian
    0.000000    0.000000    0.000000    0.000000    0.000000    0.000000
    0.010000    0.011540    0.012403    0.013444    0.014619    0.015789
    0.017191    0.021467    0.022444    0.022960    0.025603    0.028444
 Highest eigenvalues
    2.100883    2.290097    2.303833    3.485837    3.523830    8.684877


........................................................................
.............................. CYCLE    1 ..............................
........................................................................
   1    -68.2398071 -0.682398E+02  0.874E-05    2.05       0.0  T
   2    -68.2398071  0.222656E-09  0.899E-05    2.05     167.8  T
   3    -68.2398071 -0.247496E-09  0.570E-05    2.05     264.3  T
     SCC iter.                  ...        0 min,  0.254 sec
     gradient                   ...        0 min,  0.198 sec
 * total energy  :   -67.0623674 Eh     change       -0.3712870E-08 Eh
   gradient norm :     0.1967489 Eh/α   predicted     0.0000000E+00 (-100.00%)
   displ. norm   :     0.5327658 α      lambda       -0.6378735E-01
   maximum displ.:     0.2204774 α      in ANC's #7, #56, #5, ...

........................................................................
.............................. CYCLE    2 ..............................
........................................................................
   1    -68.2864761 -0.682865E+02  0.360E-01    2.08       0.0  T
   2    -68.2866822 -0.206118E-03  0.299E-01    2.08       1.0  T
   3    -68.2867217 -0.394818E-04  0.191E-01    2.07       1.0  T
   4    -68.2867986 -0.769291E-04  0.161E-01    2.09       1.0  T
   5    -68.2869094 -0.110807E-03  0.843E-02    2.06       1.0  T
   6    -68.2872544 -0.345009E-03  0.173E-02    2.07       1.0  T
   7    -68.2872565 -0.212298E-05  0.118E-02    2.07       1.3  T
   8    -68.2872587 -0.213095E-05  0.508E-03    2.07       3.0  T
   9    -68.2872587 -0.412110E-07  0.180E-03    2.07       8.4  T
  10    -68.2872588 -0.562040E-07  0.622E-04    2.07      24.2  T
  11    -68.2872588 -0.809194E-09  0.469E-04    2.07      32.1  T
     SCC iter.                  ...        0 min,  0.669 sec
     gradient                   ...        0 min,  0.134 sec
 * total energy  :   -67.1072866 Eh     change       -0.4491921E-01 Eh
   gradient norm :     0.0747143 Eh/α   predicted    -0.4094636E-01 (  -8.84%)
   displ. norm   :     0.6065125 α      lambda       -0.2304944E-01
   maximum displ.:     0.3903089 α      in ANC's #7, #5, #13, ...

........................................................................
.............................. CYCLE    3 ..............................
........................................................................
   1    -68.3064869 -0.683065E+02  0.273E-01    2.08       0.0  T
   2    -68.3062863  0.200618E-03  0.285E-01    2.09       1.0  T
   3    -68.3067009 -0.414572E-03  0.138E-01    2.07       1.0  T
   4    -68.3061139  0.586935E-03  0.109E-01    2.10       1.0  T
   5    -68.3065053 -0.391331E-03  0.733E-02    2.07       1.0  T
   6    -68.3068037 -0.298443E-03  0.975E-03    2.08       1.5  T
   7    -68.3068056 -0.189714E-05  0.527E-03    2.08       2.9  T
   8    -68.3068059 -0.317143E-06  0.363E-03    2.08       4.2  T
   9    -68.3068060 -0.911507E-07  0.106E-03    2.08      14.2  T
  10    -68.3068060 -0.952622E-08  0.504E-04    2.08      29.9  T
  11    -68.3068060 -0.164654E-08  0.207E-04    2.08      72.9  T
     SCC iter.                  ...        0 min,  0.732 sec
     gradient                   ...        0 min,  0.112 sec
 * total energy  :   -67.1240526 Eh     change       -0.1676597E-01 Eh
   gradient norm :     0.0355238 Eh/α   predicted    -0.1576417E-01 (  -5.98%)
   displ. norm   :     0.6760701 α      lambda       -0.1237600E-01
   maximum displ.:     0.4635844 α      in ANC's #7, #5, #4, ...

........................................................................
.............................. CYCLE    4 ..............................
........................................................................
   1    -68.3057875 -0.683058E+02  0.330E-01    2.09       0.0  T
   2    -68.3056560  0.131488E-03  0.375E-01    2.09       1.0  T
   3    -68.3059922 -0.336167E-03  0.106E-01    2.08       1.0  T
   4    -68.3057141  0.278046E-03  0.786E-02    2.10       1.0  T
   5    -68.3058289 -0.114788E-03  0.578E-02    2.08       1.0  T
   6    -68.3060200 -0.191035E-03  0.659E-03    2.08       2.3  T
   7    -68.3060204 -0.456787E-06  0.348E-03    2.08       4.3  T
   8    -68.3060206 -0.177636E-06  0.254E-03    2.08       5.9  T
   9    -68.3060207 -0.731625E-07  0.750E-04    2.08      20.1  T
  10    -68.3060207  0.299238E-09  0.458E-04    2.08      32.9  T
     SCC iter.                  ...        0 min,  0.479 sec
     gradient                   ...        0 min,  0.062 sec
 * total energy  :   -67.1339546 Eh     change       -0.9902039E-02 Eh
   gradient norm :     0.0318268 Eh/α   predicted    -0.9016365E-02 (  -8.94%)
   displ. norm   :     0.7046316 α      lambda       -0.8625832E-02
   maximum displ.:     0.4790968 α      in ANC's #7, #5, #4, ...

........................................................................
.............................. CYCLE    5 ..............................
........................................................................
   1    -68.3066106 -0.683066E+02  0.321E-01    2.09       0.0  T
   2    -68.3064835  0.127029E-03  0.367E-01    2.09       1.0  T
   3    -68.3067856 -0.302057E-03  0.983E-02    2.08       1.0  T
   4    -68.3065230  0.262587E-03  0.700E-02    2.09       1.0  T
   5    -68.3067430 -0.219946E-03  0.330E-02    2.08       1.0  T
   6    -68.3068033 -0.603122E-04  0.544E-03    2.08       2.8  T
   7    -68.3068037 -0.387364E-06  0.283E-03    2.08       5.3  T
   8    -68.3068037 -0.852703E-07  0.147E-03    2.08      10.3  T
   9    -68.3068038 -0.110811E-07  0.536E-04    2.08      28.1  T
  10    -68.3068038 -0.112492E-08  0.303E-04    2.08      49.8  T
     SCC iter.                  ...        0 min,  0.456 sec
     gradient                   ...        0 min,  0.080 sec
 * total energy  :   -67.1406744 Eh     change       -0.6719748E-02 Eh
   gradient norm :     0.0365072 Eh/α   predicted    -0.6454324E-02 (  -3.95%)
   displ. norm   :     0.6620577 α      lambda       -0.5547943E-02
   maximum displ.:     0.4636898 α      in ANC's #7, #5, #6, ...

........................................................................
.............................. CYCLE    6 ..............................
........................................................................
   1    -68.3115731 -0.683116E+02  0.308E-01    2.09       0.0  T
   2    -68.3114953  0.778741E-04  0.343E-01    2.08       1.0  T
   3    -68.3117268 -0.231561E-03  0.964E-02    2.08       1.0  T
   4    -68.3117183  0.854333E-05  0.308E-02    2.08       1.0  T
   5    -68.3117248 -0.647332E-05  0.121E-02    2.08       1.2  T
   6    -68.3117308 -0.603978E-05  0.519E-03    2.08       2.9  T
   7    -68.3117311 -0.259331E-06  0.324E-03    2.08       4.7  T
   8    -68.3117313 -0.263453E-06  0.192E-03    2.08       7.9  T
   9    -68.3117314 -0.383586E-07  0.625E-04    2.08      24.1  T
  10    -68.3117314 -0.177992E-08  0.319E-04    2.08      47.3  T
     SCC iter.                  ...        0 min,  0.437 sec
     gradient                   ...        0 min,  0.076 sec
 * total energy  :   -67.1447109 Eh     change       -0.4036499E-02 Eh
   gradient norm :     0.0420048 Eh/α   predicted    -0.3989868E-02 (  -1.16%)
   displ. norm   :     0.5917767 α      lambda       -0.3258182E-02
   maximum displ.:     0.3488085 α      in ANC's #7, #5, #4, ...

........................................................................
.............................. CYCLE    7 ..............................
........................................................................
   1    -68.3172199 -0.683172E+02  0.264E-01    2.09       0.0  T
   2    -68.3171476  0.722734E-04  0.303E-01    2.08       1.0  T
   3    -68.3173380 -0.190402E-03  0.788E-02    2.08       1.0  T
   4    -68.3173142  0.238539E-04  0.260E-02    2.09       1.0  T
   5    -68.3173256 -0.114138E-04  0.172E-02    2.08       1.0  T
   6    -68.3173406 -0.150073E-04  0.547E-03    2.08       2.8  T
   7    -68.3173413 -0.703972E-06  0.225E-03    2.08       6.7  T
   8    -68.3173414 -0.620415E-07  0.834E-04    2.08      18.1  T
   9    -68.3173414 -0.679705E-09  0.322E-04    2.08      46.8  T
     SCC iter.                  ...        0 min,  0.381 sec
     gradient                   ...        0 min,  0.076 sec
 * total energy  :   -67.1469820 Eh     change       -0.2271132E-02 Eh
   gradient norm :     0.0228425 Eh/α   predicted    -0.2199598E-02 (  -3.15%)
   displ. norm   :     0.4789303 α      lambda       -0.1447683E-02
   maximum displ.:     0.2947223 α      in ANC's #7, #5, #6, ...

........................................................................
.............................. CYCLE    8 ..............................
........................................................................
   1    -68.3214100 -0.683214E+02  0.225E-01    2.09       0.0  T
   2    -68.3213541  0.559396E-04  0.259E-01    2.08       1.0  T
   3    -68.3214981 -0.144032E-03  0.665E-02    2.08       1.0  T
   4    -68.3214713  0.268391E-04  0.253E-02    2.08       1.0  T
   5    -68.3214822 -0.108946E-04  0.182E-02    2.09       1.0  T
   6    -68.3215004 -0.182297E-04  0.483E-03    2.08       3.1  T
   7    -68.3215009 -0.447974E-06  0.250E-03    2.08       6.0  T
   8    -68.3215009 -0.316743E-07  0.106E-03    2.08      14.3  T
   9    -68.3215009 -0.453693E-08  0.372E-04    2.08      40.5  T
  10    -68.3215009 -0.209415E-08  0.182E-04    2.08      82.9  T
     SCC iter.                  ...        0 min,  0.390 sec
     gradient                   ...        0 min,  0.071 sec
 * total energy  :   -67.1479716 Eh     change       -0.9896017E-03 Eh
   gradient norm :     0.0078094 Eh/α   predicted    -0.8898732E-03 ( -10.08%)
   displ. norm   :     0.3322147 α      lambda       -0.4769764E-03
   maximum displ.:     0.1739998 α      in ANC's #7, #5, #3, ...

........................................................................
.............................. CYCLE    9 ..............................
........................................................................
   1    -68.3235511 -0.683236E+02  0.153E-01    2.09       0.0  T
   2    -68.3235225  0.285051E-04  0.180E-01    2.08       1.0  T
   3    -68.3235920 -0.694072E-04  0.426E-02    2.09       1.0  T
   4    -68.3235799  0.120143E-04  0.159E-02    2.08       1.0  T
   5    -68.3235869 -0.699931E-05  0.104E-02    2.09       1.4  T
   6    -68.3235928 -0.588501E-05  0.302E-03    2.09       5.0  T
   7    -68.3235930 -0.194198E-06  0.131E-03    2.09      11.5  T
   8    -68.3235930 -0.105645E-07  0.585E-04    2.09      25.8  T
   9    -68.3235930 -0.955097E-09  0.194E-04    2.09      77.6  T
     SCC iter.                  ...        0 min,  0.324 sec
     gradient                   ...        0 min,  0.060 sec
 * total energy  :   -67.1482814 Eh     change       -0.3098169E-03 Eh
   gradient norm :     0.0057260 Eh/α   predicted    -0.2648301E-03 ( -14.52%)
   displ. norm   :     0.1697283 α      lambda       -0.1157812E-03
   maximum displ.:     0.0747343 α      in ANC's #7, #2, #5, ...

........................................................................
.............................. CYCLE   10 ..............................
........................................................................
   1    -68.3241970 -0.683242E+02  0.839E-02    2.09       0.0  T
   2    -68.3241877  0.929091E-05  0.102E-01    2.09       1.0  T
   3    -68.3242088 -0.210997E-04  0.207E-02    2.09       1.0  T
   4    -68.3242068  0.198821E-05  0.710E-03    2.09       2.1  T
   5    -68.3242077 -0.872377E-06  0.482E-03    2.09       3.1  T
   6    -68.3242090 -0.129265E-05  0.126E-03    2.09      12.0  T
   7    -68.3242090 -0.304228E-07  0.577E-04    2.09      26.1  T
   8    -68.3242090 -0.122101E-08  0.264E-04    2.09      57.0  T
     SCC iter.                  ...        0 min,  0.380 sec
     gradient                   ...        0 min,  0.078 sec
 * total energy  :   -67.1483579 Eh     change       -0.7647386E-04 Eh
   gradient norm :     0.0032005 Eh/α   predicted    -0.5955917E-04 ( -22.12%)
   displ. norm   :     0.0974640 α      lambda       -0.4709517E-04
   maximum displ.:     0.0561348 α      in ANC's #2, #3, #4, ...

........................................................................
.............................. CYCLE   11 ..............................
........................................................................
   1    -68.3243776 -0.683244E+02  0.456E-02    2.09       0.0  T
   2    -68.3243747  0.285287E-05  0.562E-02    2.09       1.0  T
   3    -68.3243809 -0.616079E-05  0.104E-02    2.09       1.4  T
   4    -68.3243802  0.733063E-06  0.402E-03    2.09       3.8  T
   5    -68.3243807 -0.564537E-06  0.204E-03    2.09       7.4  T
   6    -68.3243810 -0.223302E-06  0.392E-04    2.09      38.5  T
   7    -68.3243810 -0.185051E-08  0.166E-04    2.09      90.8  T
     SCC iter.                  ...        0 min,  0.216 sec
     gradient                   ...        0 min,  0.088 sec
 * total energy  :   -67.1483921 Eh     change       -0.3419041E-04 Eh
   gradient norm :     0.0020706 Eh/α   predicted    -0.2377418E-04 ( -30.47%)
   displ. norm   :     0.0890543 α      lambda       -0.4094105E-04
   maximum displ.:     0.0574388 α      in ANC's #2, #3, #4, ...

........................................................................
.............................. CYCLE   12 ..............................
........................................................................
   1    -68.3243833 -0.683244E+02  0.346E-02    2.09       0.0  T
   2    -68.3243819  0.145298E-05  0.418E-02    2.09       1.0  T
   3    -68.3243851 -0.324023E-05  0.849E-03    2.09       1.8  T
   4    -68.3243848  0.310778E-06  0.282E-03    2.09       5.3  T
   5    -68.3243850 -0.219654E-06  0.153E-03    2.09       9.9  T
   6    -68.3243851 -0.126060E-06  0.255E-04    2.09      59.0  T
   7    -68.3243851 -0.567553E-09  0.154E-04    2.09      98.1  T
     SCC iter.                  ...        0 min,  0.204 sec
     gradient                   ...        0 min,  0.082 sec
 * total energy  :   -67.1484217 Eh     change       -0.2959207E-04 Eh
   gradient norm :     0.0021412 Eh/α   predicted    -0.2064451E-04 ( -30.24%)
   displ. norm   :     0.0829339 α      lambda       -0.3153440E-04
   maximum displ.:     0.0488969 α      in ANC's #2, #3, #1, ...

........................................................................
.............................. CYCLE   13 ..............................
........................................................................
   1    -68.3239310 -0.683239E+02  0.235E-02    2.10       0.0  T
   2    -68.3239307  0.305128E-06  0.244E-02    2.10       1.0  T
   3    -68.3239318 -0.105272E-05  0.823E-03    2.10       1.8  T
   4    -68.3239317  0.119188E-06  0.204E-03    2.10       7.4  T
   5    -68.3239317 -0.702692E-07  0.132E-03    2.10      11.4  T
   6    -68.3239318 -0.847006E-07  0.361E-04    2.10      41.8  T
   7    -68.3239318 -0.144196E-08  0.243E-04    2.10      62.1  T
     SCC iter.                  ...        0 min,  0.196 sec
     gradient                   ...        0 min,  0.086 sec
 * total energy  :   -67.1484426 Eh     change       -0.2093594E-04 Eh
   gradient norm :     0.0020636 Eh/α   predicted    -0.1587600E-04 ( -24.17%)
   displ. norm   :     0.0590480 α      lambda       -0.1583528E-04
   maximum displ.:     0.0322054 α      in ANC's #1, #7, #2, ...

........................................................................
.............................. CYCLE   14 ..............................
........................................................................
   1    -68.3238139 -0.683238E+02  0.129E-02    2.10       0.0  T
   2    -68.3238139 -0.335288E-07  0.930E-03    2.10       1.6  T
   3    -68.3238140 -0.984842E-07  0.655E-03    2.10       2.3  T
   4    -68.3238140  0.454989E-07  0.216E-03    2.10       7.0  T
   5    -68.3238140 -0.418537E-07  0.123E-03    2.10      12.3  T
   6    -68.3238141 -0.832257E-07  0.241E-04    2.10      62.6  T
   7    -68.3238141 -0.631957E-10  0.174E-04    2.10      86.5  T
     SCC iter.                  ...        0 min,  0.219 sec
     gradient                   ...        0 min,  0.087 sec
 * total energy  :   -67.1484533 Eh     change       -0.1070943E-04 Eh
   gradient norm :     0.0015510 Eh/α   predicted    -0.7953453E-05 ( -25.73%)
   displ. norm   :     0.0589655 α      lambda       -0.9901139E-05
   maximum displ.:     0.0459208 α      in ANC's #1, #7, #3, ...

........................................................................
.............................. CYCLE   15 ..............................
........................................................................
   1    -68.3236505 -0.683237E+02  0.130E-02    2.09       0.0  T
   2    -68.3236505 -0.418180E-07  0.819E-03    2.09       1.8  T
   3    -68.3236504  0.156743E-06  0.760E-03    2.09       2.0  T
   4    -68.3236505 -0.173569E-06  0.178E-03    2.09       8.5  T
   5    -68.3236506 -0.246025E-07  0.894E-04    2.09      16.9  T
   6    -68.3236506 -0.454299E-07  0.224E-04    2.09      67.4  T
     SCC iter.                  ...        0 min,  0.196 sec
     gradient                   ...        0 min,  0.090 sec
 * total energy  :   -67.1484619 Eh     change       -0.8551927E-05 Eh
   gradient norm :     0.0010380 Eh/α   predicted    -0.4961494E-05 ( -41.98%)
   displ. norm   :     0.0321147 α      lambda       -0.5182029E-05
   maximum displ.:     0.0264520 α      in ANC's #1, #7, #4, ...

........................................................................
.............................. CYCLE   16 ..............................
........................................................................
   1    -68.3238352 -0.683238E+02  0.710E-03    2.09       0.0  T
   2    -68.3238353 -0.259356E-07  0.443E-03    2.09       3.4  T
   3    -68.3238352  0.524613E-07  0.367E-03    2.09       4.1  T
   4    -68.3238353 -0.893419E-07  0.109E-03    2.09      13.8  T
   5    -68.3238353 -0.875336E-08  0.490E-04    2.09      30.7  T
   6    -68.3238353 -0.722649E-08  0.176E-04    2.09      85.7  T
     SCC iter.                  ...        0 min,  0.204 sec
     gradient                   ...        0 min,  0.117 sec
 * total energy  :   -67.1484672 Eh     change       -0.5370184E-05 Eh
   gradient norm :     0.0011121 Eh/α   predicted    -0.2595754E-05 ( -51.66%)
   displ. norm   :     0.0357373 α      lambda       -0.4508366E-05
   maximum displ.:     0.0278211 α      in ANC's #1, #7, #4, ...

........................................................................
.............................. CYCLE   17 ..............................
........................................................................
   1    -68.3241358 -0.683241E+02  0.801E-03    2.09       0.0  T
   2    -68.3241358  0.471722E-08  0.677E-03    2.09       2.2  T
   3    -68.3241359 -0.122399E-06  0.368E-03    2.09       4.1  T
   4    -68.3241359  0.839374E-08  0.131E-03    2.09      11.5  T
   5    -68.3241359 -0.906350E-08  0.555E-04    2.09      27.1  T
   6    -68.3241359 -0.139246E-07  0.198E-04    2.09      76.2  T
     SCC iter.                  ...        0 min,  0.177 sec
     gradient                   ...        0 min,  0.086 sec
 * total energy  :   -67.1484720 Eh     change       -0.4769963E-05 Eh
   gradient norm :     0.0007556 Eh/α   predicted    -0.2255999E-05 ( -52.70%)
   displ. norm   :     0.0352528 α      lambda       -0.3651740E-05
   maximum displ.:     0.0306382 α      in ANC's #1, #4, #7, ...

   *** GEOMETRY OPTIMIZATION CONVERGED AFTER 17 ITERATIONS ***

------------------------------------------------------------------------
 total energy gain   :        -0.0861046 Eh      -54.0315 kcal/mol
 total RMSD          :         0.6908952 a0        0.3656 Å
 total power (kW/mol):       -13.2980963 (step)  -25.4625 (real)
------------------------------------------------------------------------

 ANCopt (total)                0 d,  0 h,  0 min,  8.878 sec
 optimizer setup                ...        0 min,  0.001 sec (  0.006%)
 model hessian                  ...        0 min,  0.133 sec (  1.503%)
 ANC generation                 ...        0 min,  0.033 sec (  0.373%)
 coordinate transformation      ...        0 min,  0.048 sec (  0.543%)
 single point calculation       ...        0 min,  8.548 sec ( 96.282%)
 optimization log               ...        0 min,  0.002 sec (  0.027%)
 hessian update                 ...        0 min,  0.086 sec (  0.964%)
 rational function              ...        0 min,  0.019 sec (  0.214%)

================
 final structure:
================
44
 xtb: 6.5.1 (b24c23e)
C            1.99304670479912       -2.60580706227112       -0.02766848519202
C            2.33937116376823       -1.12490268754329        0.20182578457357
C            1.21352648560949       -0.56156133954085        0.84220387613071
C            0.98473449486850        0.80783119593773        0.93198699425097
C            1.85255210195819        1.78231776297424        0.39176357492719
C            1.03926322406579        3.08690599631714        0.33967144715994
C           -0.40892457582440        2.60561654498011        0.54389597995727
C           -0.34221728543779        1.30798446147819        1.05000257925061
C           -1.39953932033256        0.42083736859452        1.01007264148008
C           -2.61762151368495        0.75546244489351        0.42002657667796
C           -3.32815315035326       -0.56230531638114        0.10000775703673
C           -2.22374891298046       -1.61095006532885        0.26237015920030
C           -1.16606555820719       -0.98035793456474        0.91753332185877
C            0.12191933325812       -1.47472131208512        0.86346419389750
C            0.46849970734763       -2.64422607467383        0.18664685822809
C           -0.60317371699014       -3.35947621245089       -0.33446418281571
C           -1.92314274850920       -2.84818726386236       -0.29840006330267
C           -2.74896325944307        2.08694717079420        0.04005409433331
C           -1.66807833745800        2.99926346215842        0.10445342475413
C            3.09640490287732        1.25840523868698       -0.07303222873594
C            3.33578745490090       -0.17128446392509       -0.16619508716050
H            2.49581550028076       -3.23192881881409        0.71531752232417
H            2.28970394277102       -2.96112617177504       -1.01466319606536
H            1.16912719858985        3.62410882146961       -0.60055842302909
H            1.33905319149499        3.75684492074749        1.15049188341198
H           -4.14315788637330       -0.74489450432846        0.80429749600094
H           -3.75426815886245       -0.56461653575022       -0.90301255233478
H           -0.43914674699079       -4.27520595600871       -0.88223969932226
H           -2.68155346211239       -3.40472536397969       -0.82949004917516
H           -3.65954556942969        2.43361314373470       -0.42643045917688
H           -1.82196014063962        3.98485115421754       -0.30911964151080
H            3.88430887716422        1.91664109974433       -0.42635758018542
H            4.28735531265812       -0.48834241370533       -0.58201789540213
Ru           1.43371924673932        0.31278798461459       -1.15695580931615
C           -0.20147487086126        1.05046205776705       -2.44642043725711
C           -0.25982991019687       -0.36789673338710       -2.40234481822682
C            0.94543596221116       -0.87641493837007       -2.95350373572238
C            1.75349786278529        0.22891870564539       -3.34081338328415
C            1.04161151077456        1.42178430857644       -3.02642328977298
H           -1.01221299637725        1.72199060616248       -2.20298863977332
H           -1.11882993775942       -0.95768303844993       -2.11846263191511
H            1.15307285678356       -1.91534384842106       -3.16945123037232
H            2.68396967547361        0.17396594582774       -3.89077819778293
H            1.34129971764545        2.42404887029378       -3.30194606862206

 Bond Distances (Angstroems)
 ---------------------------
C1-C2=1.5381         C1-C15=1.5400        C1-H22=1.0940        C1-H23=1.0901        C2-C1=1.5381         C2-C3=1.4124         
C2-C21=1.4275        C2-Ru34=2.1756       C3-C2=1.4124         C3-C4=1.3913         C3-C14=1.4233        C3-Ru34=2.1931       
C4-C3=1.3913         C4-C5=1.4123         C4-C8=1.4230         C4-Ru34=2.1932       C5-C4=1.4123         C5-C6=1.5382         
C5-C20=1.4275        C5-Ru34=2.1757       C6-C5=1.5382         C6-C7=1.5397         C6-H24=1.0906        C6-H25=1.0937        
C7-C6=1.5397         C7-C8=1.3944         C7-C19=1.3905        C8-C4=1.4230         C8-C7=1.3944         C8-C9=1.3808         
C9-C8=1.3808         C9-C10=1.3942        C9-C13=1.4235        C10-C9=1.3942        C10-C11=1.5309       C10-C18=1.3909       
C11-C10=1.5309       C11-C12=1.5316       C11-H26=1.0925       C11-H27=1.0898       C12-C11=1.5316       C12-C13=1.3948       
C12-C17=1.3913       C13-C9=1.4235        C13-C12=1.3948       C13-C14=1.3807       C14-C3=1.4233        C14-C13=1.3807       
C14-C15=1.3950       C15-C1=1.5400        C15-C14=1.3950       C15-C16=1.3898       C16-C15=1.3898       C16-C17=1.4160       
C16-H28=1.0796       C17-C12=1.3913       C17-C16=1.4160       C17-H29=1.0803       C18-C10=1.3909       C18-C19=1.4159       
C18-H30=1.0803       C19-C7=1.3905        C19-C18=1.4159       C19-H31=1.0799       C20-C5=1.4275        C20-C21=1.4526       
C20-H32=1.0858       C20-Ru34=2.1985      C21-C2=1.4275        C21-C20=1.4526       C21-H33=1.0858       C21-Ru34=2.1986      
H22-C1=1.0940        H23-C1=1.0901        H24-C6=1.0906        H25-C6=1.0937        H26-C11=1.0925       H27-C11=1.0898       
H28-C16=1.0796       H29-C17=1.0803       H30-C18=1.0803       H31-C19=1.0799       H32-C20=1.0858       H33-C21=1.0858       
Ru34-C2=2.1756       Ru34-C3=2.1931       Ru34-C4=2.1932       Ru34-C5=2.1757       Ru34-C20=2.1985      Ru34-C21=2.1986      
Ru34-C35=2.2092      Ru34-C36=2.2096      Ru34-C37=2.2091      Ru34-C38=2.2087      Ru34-C39=2.2087      C35-Ru34=2.2092      
C35-C36=1.4202       C35-C39=1.4211       C35-H40=1.0805       C36-Ru34=2.2096      C36-C35=1.4202       C36-C37=1.4195       
C36-H41=1.0800       C37-Ru34=2.2091      C37-C36=1.4195       C37-C38=1.4229       C37-H42=1.0813       C38-Ru34=2.2087      
C38-C37=1.4229       C38-C39=1.4243       C38-H43=1.0822       C39-Ru34=2.2087      C39-C35=1.4211       C39-C38=1.4243       
C39-H44=1.0818       H40-C35=1.0805       H41-C36=1.0800       H42-C37=1.0813       H43-C38=1.0822       H44-C39=1.0818       
 C  H  Rav=1.0852 sigma=0.0053  Rmin=1.0796  Rmax=1.0940    17
 C  C  Rav=1.4329 sigma=0.0523  Rmin=1.3807  Rmax=1.5400    32
 Ru C  Rav=2.1982 sigma=0.0123  Rmin=2.1756  Rmax=2.2096    11

 selected bond angles (degree)
 --------------------
C15-C1-C2=103.07               H22-C1-C2=110.26               H22-C1-C15=110.25              H23-C1-C2=112.81               
H23-C1-C15=112.78              H23-C1-H22=107.65              C3-C2-C1=105.79                C21-C2-C1=139.63               
C21-C2-C3=114.01               Ru34-C2-C1=116.70              Ru34-C2-C3= 71.81              Ru34-C2-C21= 71.83             
C4-C3-C2=123.57                C14-C3-C2=111.24               C14-C3-C4=120.29               Ru34-C3-C2= 70.47              
Ru34-C3-C4= 71.51              Ru34-C3-C14=110.27             C5-C4-C3=123.60                C8-C4-C3=120.31                
C8-C4-C5=111.24                Ru34-C4-C3= 71.50              Ru34-C4-C5= 70.47              Ru34-C4-C8=110.44              
C6-C5-C4=105.86                C20-C5-C4=114.00               C20-C5-C6=139.55               Ru34-C5-C4= 71.82              
Ru34-C5-C6=116.55              Ru34-C5-C20= 71.82             C7-C6-C5=103.16                H24-C6-C5=112.58               
H24-C6-C7=112.35               H25-C6-C5=110.46               H25-C6-C7=110.55               H25-C6-H24=107.74              
C8-C7-C6=107.10                C19-C7-C6=136.16               C19-C7-C8=114.93               C7-C8-C4=109.97                
C9-C8-C4=119.07                C9-C8-C7=123.42                C10-C9-C8=121.81               C13-C9-C8=120.58               
C13-C9-C10=110.61              C11-C10-C9=106.70              C18-C10-C9=115.33              C18-C10-C11=136.31             

 selected dihedral angles (degree)
 ---------------------------------
C3-C2-C1-C15= 15.37           C3-C2-C1-H22=257.69           C3-C2-C1-H23=137.30           C21-C2-C1-C15=205.11          
C21-C2-C1-H22= 87.44          C21-C2-C1-H23=327.05          Ru34-C2-C1-C15=298.13         Ru34-C2-C1-H22=180.45         
Ru34-C2-C1-H23= 60.06         C4-C3-C2-C1=196.24            C4-C3-C2-C21=  9.35           C4-C3-C2-Ru34=309.73          
C14-C3-C2-C1=351.37           C14-C3-C2-C21=164.48          C14-C3-C2-Ru34=104.86         Ru34-C3-C2-C1=246.51          
Ru34-C3-C2-C21= 59.62         C5-C4-C3-C2=  0.06            C5-C4-C3-C14=207.05           C5-C4-C3-Ru34=310.21          
C8-C4-C3-C2=153.20            C8-C4-C3-C14=  0.19           C8-C4-C3-Ru34=103.35          Ru34-C4-C3-C2= 49.84          
Ru34-C4-C3-C14=256.84         C6-C5-C4-C3=163.53            C6-C5-C4-C8=  8.26            C6-C5-C4-Ru34=113.31          
C20-C5-C4-C3=350.59           C20-C5-C4-C8=195.32           C20-C5-C4-Ru34=300.37         Ru34-C5-C4-C3= 50.21          
Ru34-C5-C4-C8=254.95          C7-C6-C5-C4=345.45            C7-C6-C5-C20=155.48           C7-C6-C5-Ru34= 62.70          
H24-C6-C5-C4=224.10           H24-C6-C5-C20= 34.13          H24-C6-C5-Ru34=301.35         H25-C6-C5-C4=103.61           
H25-C6-C5-C20=273.64          H25-C6-C5-Ru34=180.86         C8-C7-C6-C5= 16.19            C8-C7-C6-H24=137.69           
C8-C7-C6-H25=258.09           C19-C7-C6-C5=213.04           C19-C7-C6-H24=334.55          C19-C7-C6-H25= 94.95          
C7-C8-C4-C3=206.20            C7-C8-C4-C5=  2.39            C7-C8-C4-Ru34=286.16          C9-C8-C4-C3=356.95            
C9-C8-C4-C5=153.14            C9-C8-C4-Ru34= 76.91          C4-C8-C7-C6=348.00            C4-C8-C7-C19=155.21           
C9-C8-C7-C6=198.78            C9-C8-C7-C19=  5.98           C10-C9-C8-C4=215.08           C10-C9-C8-C7=  1.69           
C13-C9-C8-C4=  3.02           C13-C9-C8-C7=149.64           C11-C10-C9-C8=159.62          C11-C10-C9-C13=  8.83         
C18-C10-C9-C8=351.86          C18-C10-C9-C13=201.07         
           -------------------------------------------------
          |                Final Singlepoint                |
           -------------------------------------------------

          ...................................................
          :                      SETUP                      :
          :.................................................:
          :  # basis functions                 131          :
          :  # atomic orbitals                 130          :
          :  # shells                           72          :
          :  # electrons                       128          :
          :  max. iterations                   250          :
          :  Hamiltonian                  GFN2-xTB          :
          :  restarted?                      false          :
          :  GBSA solvation                  false          :
          :  PC potential                    false          :
          :  electronic temp.          300.0000000     K    :
          :  accuracy                    1.0000000          :
          :  -> integral cutoff          0.2500000E+02      :
          :  -> integral neglect         0.1000000E-07      :
          :  -> SCF convergence          0.1000000E-05 Eh   :
          :  -> wf. convergence          0.1000000E-03 e    :
          :  Broyden damping             0.4000000          :
          ...................................................

 iter      E             dE          RMSdq      gap      omega  full diag
   1    -68.3241359 -0.683241E+02  0.109E-04    2.09       0.0  T
   2    -68.3241359  0.803027E-09  0.151E-04    2.09      99.6  T
   3    -68.3241359 -0.964690E-09  0.586E-05    2.09     257.2  T

   *** convergence criteria satisfied after 3 iterations ***

         #    Occupation            Energy/Eh            Energy/eV
      -------------------------------------------------------------
         1        2.0000           -0.8449020             -22.9910
       ...           ...                  ...                  ...
        58        2.0000           -0.5354130             -14.5693
        59        2.0000           -0.5261559             -14.3174
        60        2.0000           -0.5058865             -13.7659
        61        2.0000           -0.5032892             -13.6952
        62        2.0000           -0.4923338             -13.3971
        63        2.0000           -0.4886304             -13.2963
        64        2.0000           -0.4852794             -13.2051 (HOMO)
        65                         -0.4083322             -11.1113 (LUMO)
        66                         -0.3978041             -10.8248
        67                         -0.3850496             -10.4777
        68                         -0.3797423             -10.3333
        69                         -0.3666802              -9.9779
       ...                                ...                  ...
       130                          4.0495405             110.1936
      -------------------------------------------------------------
                  HL-Gap            0.0769473 Eh            2.0938 eV
             Fermi-level           -0.4468058 Eh          -12.1582 eV

 SCC (total)                   0 d,  0 h,  0 min,  0.261 sec
 SCC setup                      ...        0 min,  0.007 sec (  2.847%)
 Dispersion                     ...        0 min,  0.018 sec (  6.726%)
 classical contributions        ...        0 min,  0.009 sec (  3.385%)
 integral evaluation            ...        0 min,  0.031 sec ( 11.991%)
 iterations                     ...        0 min,  0.093 sec ( 35.519%)
 molecular gradient             ...        0 min,  0.100 sec ( 38.424%)
 printout                       ...        0 min,  0.003 sec (  1.099%)

         :::::::::::::::::::::::::::::::::::::::::::::::::::::
         ::                     SUMMARY                     ::
         :::::::::::::::::::::::::::::::::::::::::::::::::::::
         :: total energy             -67.148472011469 Eh    ::
         :: gradient norm              0.000755503482 Eh/a0 ::
         :: HOMO-LUMO gap              2.093842112383 eV    ::
         ::.................................................::
         :: SCC energy               -68.324135921034 Eh    ::
         :: -> isotropic ES            0.056866091452 Eh    ::
         :: -> anisotropic ES         -0.009771383433 Eh    ::
         :: -> anisotropic XC          0.035727055337 Eh    ::
         :: -> dispersion             -0.071275588434 Eh    ::
         :: repulsion energy           1.173098122540 Eh    ::
         :: add. restraining           0.000197204592 Eh    ::
         :: total charge               1.000000000000 e     ::
         :::::::::::::::::::::::::::::::::::::::::::::::::::::

           -------------------------------------------------
          |                Property Printout                |
           -------------------------------------------------

    * Orbital Energies and Occupations

         #    Occupation            Energy/Eh            Energy/eV
      -------------------------------------------------------------
         1        2.0000           -0.8449020             -22.9910
       ...           ...                  ...                  ...
        52        2.0000           -0.5563273             -15.1384
        53        2.0000           -0.5562443             -15.1362
        54        2.0000           -0.5462407             -14.8640
        55        2.0000           -0.5421145             -14.7517
        56        2.0000           -0.5395741             -14.6826
        57        2.0000           -0.5390845             -14.6692
        58        2.0000           -0.5354130             -14.5693
        59        2.0000           -0.5261559             -14.3174
        60        2.0000           -0.5058865             -13.7659
        61        2.0000           -0.5032892             -13.6952
        62        2.0000           -0.4923338             -13.3971
        63        2.0000           -0.4886304             -13.2963
        64        2.0000           -0.4852794             -13.2051 (HOMO)
        65                         -0.4083322             -11.1113 (LUMO)
        66                         -0.3978041             -10.8248
        67                         -0.3850496             -10.4777
        68                         -0.3797423             -10.3333
        69                         -0.3666802              -9.9779
        70                         -0.3408950              -9.2762
        71                         -0.3339409              -9.0870
        72                         -0.3217411              -8.7550
        73                         -0.3027818              -8.2391
        74                         -0.3008053              -8.1853
        75                         -0.2710341              -7.3752
       ...                                ...                  ...
       130                          4.0495405             110.1936
      -------------------------------------------------------------
                  HL-Gap            0.0769473 Eh            2.0938 eV
             Fermi-level           -0.4468058 Eh          -12.1582 eV

     #   Z          covCN         q      C6AA      α(0)
     1   6 C        3.855    -0.059    21.599     6.610
     2   6 C        3.847     0.034    19.976     6.357
     3   6 C        3.915     0.037    19.886     6.338
     4   6 C        3.914     0.038    19.884     6.338
     5   6 C        3.847     0.034    19.977     6.358
     6   6 C        3.854    -0.059    21.604     6.611
     7   6 C        3.016     0.008    27.824     8.653
     8   6 C        3.083    -0.001    27.955     8.668
     9   6 C        3.080     0.007    27.786     8.642
    10   6 C        3.016     0.012    27.723     8.637
    11   6 C        3.861    -0.068    21.767     6.635
    12   6 C        3.016     0.011    27.751     8.641
    13   6 C        3.080     0.006    27.791     8.643
    14   6 C        3.083    -0.001    27.953     8.667
    15   6 C        3.017     0.008    27.817     8.651
    16   6 C        2.925    -0.031    28.784     8.798
    17   6 C        2.924    -0.032    28.787     8.799
    18   6 C        2.924    -0.031    28.779     8.797
    19   6 C        2.925    -0.032    28.806     8.802
    20   6 C        3.749    -0.005    20.723     6.493
    21   6 C        3.749    -0.004    20.722     6.492
    22   1 H        0.924     0.094     1.843     2.123
    23   1 H        0.925     0.082     1.959     2.189
    24   1 H        0.924     0.083     1.944     2.180
    25   1 H        0.924     0.094     1.841     2.122
    26   1 H        0.924     0.092     1.862     2.134
    27   1 H        0.925     0.071     2.077     2.254
    28   1 H        0.926     0.059     2.206     2.323
    29   1 H        0.926     0.060     2.193     2.316
    30   1 H        0.926     0.061     2.190     2.314
    31   1 H        0.926     0.059     2.213     2.326
    32   1 H        0.925     0.085     1.924     2.169
    33   1 H        0.925     0.085     1.925     2.169
    34  44 Ru       9.287    -0.180   314.103    29.810
    35   6 C        3.828    -0.015    20.819     6.492
    36   6 C        3.828    -0.015    20.815     6.492
    37   6 C        3.828    -0.012    20.764     6.484
    38   6 C        3.827    -0.009    20.716     6.476
    39   6 C        3.828    -0.010    20.740     6.480
    40   1 H        0.926     0.084     1.943     2.180
    41   1 H        0.926     0.080     1.977     2.199
    42   1 H        0.925     0.089     1.886     2.147
    43   1 H        0.925     0.098     1.802     2.099
    44   1 H        0.925     0.093     1.849     2.126

 Mol. C6AA /au·bohr⁶  :      28470.361406
 Mol. C8AA /au·bohr⁸  :     893296.525457
 Mol. α(0) /au        :        262.234586


Wiberg/Mayer (AO) data.
largest (>0.10) Wiberg bond orders for each atom

 ---------------------------------------------------------------------------
     #   Z sym  total        # sym  WBO       # sym  WBO       # sym  WBO
 ---------------------------------------------------------------------------
     1   6 C    3.988 --    15 C    0.994     2 C    0.984    23 H    0.948
                            22 H    0.937
     2   6 C    3.980 --    21 C    1.246     3 C    1.172     1 C    0.984
                            34 Ru   0.407
     3   6 C    3.983 --     4 C    1.188     2 C    1.172    14 C    1.100
                            34 Ru   0.324
     4   6 C    3.983 --     3 C    1.188     5 C    1.172     8 C    1.101
                            34 Ru   0.323
     5   6 C    3.980 --    20 C    1.246     4 C    1.172     6 C    0.984
                            34 Ru   0.407
     6   6 C    3.988 --     7 C    0.994     5 C    0.984    24 H    0.947
                            25 H    0.937
     7   6 C    3.978 --    19 C    1.448     8 C    1.303     6 C    0.994
     8   6 C    3.982 --     9 C    1.304     7 C    1.303     4 C    1.101
     9   6 C    3.985 --    10 C    1.311     8 C    1.304    13 C    1.125
    10   6 C    3.980 --    18 C    1.448     9 C    1.311    11 C    1.008
    11   6 C    3.992 --    10 C    1.008    12 C    1.008    27 H    0.955
                            26 H    0.936
    12   6 C    3.980 --    17 C    1.448    13 C    1.309    11 C    1.008
    13   6 C    3.984 --    12 C    1.309    14 C    1.306     9 C    1.125
    14   6 C    3.982 --    13 C    1.306    15 C    1.301     3 C    1.100
    15   6 C    3.978 --    16 C    1.451    14 C    1.301     1 C    0.994
    16   6 C    3.977 --    15 C    1.451    17 C    1.386    28 H    0.967
    17   6 C    3.983 --    12 C    1.448    16 C    1.386    29 H    0.967
    18   6 C    3.983 --    10 C    1.448    19 C    1.388    30 H    0.967
    19   6 C    3.977 --     7 C    1.448    18 C    1.388    31 H    0.967
    20   6 C    3.982 --     5 C    1.246    21 C    1.236    32 H    0.939
                            34 Ru   0.410
    21   6 C    3.982 --     2 C    1.246    20 C    1.236    33 H    0.939
                            34 Ru   0.410
    22   1 H    0.990 --     1 C    0.937
    23   1 H    0.992 --     1 C    0.948
    24   1 H    0.992 --     6 C    0.947
    25   1 H    0.990 --     6 C    0.937
    26   1 H    0.991 --    11 C    0.936
    27   1 H    0.995 --    11 C    0.955
    28   1 H    0.996 --    16 C    0.967
    29   1 H    0.995 --    17 C    0.967
    30   1 H    0.995 --    18 C    0.967
    31   1 H    0.996 --    19 C    0.967
    32   1 H    0.992 --    20 C    0.939
    33   1 H    0.992 --    21 C    0.939
    34  44 Ru   5.156 --    38 C    0.479    39 C    0.466    35 C    0.456
                            37 C    0.454    36 C    0.452    20 C    0.410
                            21 C    0.410     5 C    0.407     2 C    0.407
                             3 C    0.324     4 C    0.323
    35   6 C    3.984 --    39 C    1.239    36 C    1.237    40 H    0.931
                            34 Ru   0.456
    36   6 C    3.985 --    37 C    1.242    35 C    1.237    41 H    0.931
                            34 Ru   0.452
    37   6 C    3.983 --    36 C    1.242    38 C    1.231    42 H    0.931
                            34 Ru   0.454
    38   6 C    3.979 --    37 C    1.231    39 C    1.227    43 H    0.927
                            34 Ru   0.479
    39   6 C    3.983 --    35 C    1.239    38 C    1.227    44 H    0.930
                            34 Ru   0.466
    40   1 H    0.993 --    35 C    0.931
    41   1 H    0.993 --    36 C    0.931
    42   1 H    0.991 --    37 C    0.931
    43   1 H    0.990 --    38 C    0.927
    44   1 H    0.991 --    39 C    0.930
 ---------------------------------------------------------------------------

Topologies differ in total number of bonds
Writing topology from bond orders to xtbtopo.mol

molecular dipole:
                 x           y           z       tot (Debye)
 q only:        1.129       0.317      -1.945
   full:        1.420       0.336      -1.563       5.435
molecular quadrupole (traceless):
                xx          xy          yy          xz          yz          zz
 q only:        8.333       1.121       3.785      -5.301       0.153     -12.117
  q+dip:       13.668       1.492       6.301      -4.063       1.060     -19.969
   full:       11.140       1.502       3.650      -3.756       0.578     -14.790

           -------------------------------------------------
          |                Geometry Summary                 |
           -------------------------------------------------

      molecular mass/u    :      430.4790663
   center of mass at/Å    :        0.3774360       0.0943563      -0.5052303
  moments of inertia/u·Å² :        0.1664903E+04   0.1917700E+04   0.2465754E+04
rotational constants/cm⁻¹ :        0.1012529E-01   0.8790549E-02   0.6836706E-02

 * 56 selected distances

     #   Z          #   Z                                           value/Å
     1   6 C        2   6 C                                       1.5380788
     2   6 C        3   6 C                                       1.4124320
     3   6 C        4   6 C                                       1.3912739
     4   6 C        5   6 C                                       1.4122936
     5   6 C        6   6 C                                       1.5382143
     4   6 C        8   6 C                                       1.4229836
     7   6 C        8   6 C                                       1.3944329
     8   6 C        9   6 C                                       1.3807804
     9   6 C       10   6 C                                       1.3942212
     9   6 C       13   6 C                                       1.4235246
    12   6 C       13   6 C                                       1.3948404
     3   6 C       14   6 C                                       1.4233481
    13   6 C       14   6 C                                       1.3806607
    14   6 C       15   6 C                                       1.3949700
    15   6 C       16   6 C                                       1.3898287
    12   6 C       17   6 C                                       1.3912525
    16   6 C       17   6 C                                       1.4159928
    10   6 C       18   6 C                                       1.3908565
     7   6 C       19   6 C                                       1.3905165
    18   6 C       19   6 C                                       1.4159028
     5   6 C       20   6 C                                       1.4274767
     2   6 C       21   6 C                                       1.4274708
    20   6 C       21   6 C                                       1.4525827
     1   6 C       22   1 H                                       1.0939988
     1   6 C       23   1 H                                       1.0901449
     6   6 C       24   1 H                                       1.0906347
     6   6 C       25   1 H                                       1.0936737
    11   6 C       26   1 H                                       1.0925181
    11   6 C       27   1 H                                       1.0897841
    16   6 C       28   1 H                                       1.0795944 (min)
    17   6 C       29   1 H                                       1.0802677
    18   6 C       30   1 H                                       1.0802525
    19   6 C       31   1 H                                       1.0798637
    20   6 C       32   1 H                                       1.0857744
    21   6 C       33   1 H                                       1.0857790
     2   6 C       34  44 Ru                                      2.1756489
     3   6 C       34  44 Ru                                      2.1930827
     4   6 C       34  44 Ru                                      2.1932483
     5   6 C       34  44 Ru                                      2.1756542
    20   6 C       34  44 Ru                                      2.1985465
    21   6 C       34  44 Ru                                      2.1985898
    34  44 Ru      35   6 C                                       2.2092403
    34  44 Ru      36   6 C                                       2.2096233 (max)
    35   6 C       36   6 C                                       1.4202429
    34  44 Ru      37   6 C                                       2.2091196
    36   6 C       37   6 C                                       1.4195186
    34  44 Ru      38   6 C                                       2.2087388
    37   6 C       38   6 C                                       1.4229321
    34  44 Ru      39   6 C                                       2.2087397
    35   6 C       39   6 C                                       1.4211079
    38   6 C       39   6 C                                       1.4242725
    35   6 C       40   1 H                                       1.0805120
    36   6 C       41   1 H                                       1.0799621
    37   6 C       42   1 H                                       1.0812585
    38   6 C       43   1 H                                       1.0822473
    39   6 C       44   1 H                                       1.0817857

 * 3 distinct bonds (by element types)

   Z      Z             #   av. dist./Å        max./Å        min./Å
   1 H    6 C          17     1.0851795     1.0939988     1.0795944
   6 C    6 C          28     1.4182860     1.5382143     1.3806607
   6 C   44 Ru         11     2.1982029     2.2096233     2.1756489


optimized geometry written to: xtbopt.xyz


           -------------------------------------------------
          | TOTAL ENERGY              -67.148472011469 Eh   |
          | GRADIENT NORM               0.000755503482 Eh/α |
          | HOMO-LUMO GAP               2.093842112383 eV   |
           -------------------------------------------------

------------------------------------------------------------------------
 * finished run on 2026/08/13 at 17:44:28.354     
------------------------------------------------------------------------
 total:
 * wall-time:     0 d,  0 h,  0 min, 10.805 sec
 *  cpu-time:     0 d,  0 h,  0 min, 52.492 sec
 * ratio c/w:     4.858 speedup
 SCF:
 * wall-time:     0 d,  0 h,  0 min,  1.535 sec
 *  cpu-time:     0 d,  0 h,  0 min,  5.657 sec
 * ratio c/w:     3.685 speedup
 ANC optimizer:
 * wall-time:     0 d,  0 h,  0 min,  9.147 sec
 *  cpu-time:     0 d,  0 h,  0 min, 46.278 sec
 * ratio c/w:     5.059 speedup

