44
 energy: -67.157816423430 gnorm: 0.000525287575 xtb: 6.5.1 (b24c23e)
C            2.06666162317475       -2.54141046819651       -0.06132147966776
C            2.41680255021796       -1.09036911527781        0.30559224820962
C            1.27401337582464       -0.56520822857608        0.96406463578452
C            1.04803834136976        0.81664042454598        1.05120105196848
C            1.95144513627696        1.75384810837902        0.48533885975730
C            1.15209180859516        3.05273599308235        0.29393299949580
C           -0.30230336320902        2.59605658555653        0.44827805241332
C           -0.28395165516973        1.32869090232166        1.03520266979833
C           -1.34237103920317        0.44612894278874        0.91845331297617
C           -2.50350992005571        0.78846138247459        0.22091968652012
C           -3.20379244823022       -0.51385264544772       -0.15553739229114
C           -2.11907861276063       -1.56268741822147        0.07139172270572
C           -1.11271917913745       -0.95853834779524        0.82917708345759
C            0.17310615924163       -1.46713007296225        0.85776151890305
C            0.54592283676092       -2.59215169253693        0.11864754272550
C           -0.48291338546324       -3.28466464761078       -0.50139738088648
C           -1.79951910283161       -2.77632664200308       -0.52010113018513
C           -2.59749791801813        2.10400443439403       -0.20968535250261
C           -1.51007431825904        2.99739346127373       -0.10194591365151
C            3.11533847522428        1.24884039750491       -0.13916519444589
C            3.34737418344907       -0.16914607996608       -0.22888011870028
H            2.56459406918444       -3.26066132577792        0.59401731619459
H            2.36134014386799       -2.76652686758038       -1.08682153860811
H            1.33923310424479        3.48495080562713       -0.68958415042680
H            1.41011823341821        3.80542471677850        1.04341146528502
H           -4.06993703405371       -0.69623037975716        0.48514358523721
H           -3.55053810434183       -0.50486132771970       -1.18835036525723
H           -0.27277331402571       -4.16273395575327       -1.09333402926375
H           -2.52650904441121       -3.29579066155826       -1.12659643237063
H           -3.46386848817018        2.43666537366298       -0.76189670865140
H           -1.60144892323732        3.96277276830262       -0.57654696915784
H            3.79258470232679        1.91690742809829       -0.66268803039278
H            4.19062145676948       -0.51817646275722       -0.81719543860391
Ru           3.01633183348665        0.37529513403935        1.85972740273511
C            2.96842787503061       -0.13666033606881        4.00798953882083
C            3.14260942323613        1.26965819029591        3.87544139638021
C            4.37256837789016        1.49847564370797        3.19347880651165
C            4.95768276085106        0.23387173950664        2.90458961028867
C            4.08984591780104       -0.77740411562538        3.40804822842971
H            2.18821723508878       -0.62653653728260        4.57555623131604
H            2.51822767783417        2.02888844419440        4.32773907525294
H            4.84124793136690        2.46177925221323        3.03992234124901
H            5.94720202048007        0.07298081700992        2.49701844344692
H            4.30840520756544       -1.83647151728384        3.44681903920000
