44
 energy: -67.148472011469 gnorm: 0.000755503482 xtb: 6.5.1 (b24c23e)
C            1.99304670479912       -2.60580706227112       -0.02766848519202
C            2.33937116376823       -1.12490268754329        0.20182578457357
C            1.21352648560949       -0.56156133954085        0.84220387613071
C            0.98473449486850        0.80783119593773        0.93198699425097
C            1.85255210195819        1.78231776297424        0.39176357492719
C            1.03926322406579        3.08690599631714        0.33967144715994
C           -0.40892457582440        2.60561654498011        0.54389597995727
C           -0.34221728543779        1.30798446147819        1.05000257925061
C           -1.39953932033256        0.42083736859452        1.01007264148008
C           -2.61762151368495        0.75546244489351        0.42002657667796
C           -3.32815315035326       -0.56230531638114        0.10000775703673
C           -2.22374891298046       -1.61095006532885        0.26237015920030
C           -1.16606555820719       -0.98035793456474        0.91753332185877
C            0.12191933325812       -1.47472131208512        0.86346419389750
C            0.46849970734763       -2.64422607467383        0.18664685822809
C           -0.60317371699014       -3.35947621245089       -0.33446418281571
C           -1.92314274850920       -2.84818726386236       -0.29840006330267
C           -2.74896325944307        2.08694717079420        0.04005409433331
C           -1.66807833745800        2.99926346215842        0.10445342475413
C            3.09640490287732        1.25840523868698       -0.07303222873594
C            3.33578745490090       -0.17128446392509       -0.16619508716050
H            2.49581550028076       -3.23192881881409        0.71531752232417
H            2.28970394277102       -2.96112617177504       -1.01466319606536
H            1.16912719858985        3.62410882146961       -0.60055842302909
H            1.33905319149499        3.75684492074749        1.15049188341198
H           -4.14315788637330       -0.74489450432846        0.80429749600094
H           -3.75426815886245       -0.56461653575022       -0.90301255233478
H           -0.43914674699079       -4.27520595600871       -0.88223969932226
H           -2.68155346211239       -3.40472536397969       -0.82949004917516
H           -3.65954556942969        2.43361314373470       -0.42643045917688
H           -1.82196014063962        3.98485115421754       -0.30911964151080
H            3.88430887716422        1.91664109974433       -0.42635758018542
H            4.28735531265812       -0.48834241370533       -0.58201789540213
Ru           1.43371924673932        0.31278798461459       -1.15695580931615
C           -0.20147487086126        1.05046205776705       -2.44642043725711
C           -0.25982991019687       -0.36789673338710       -2.40234481822682
C            0.94543596221116       -0.87641493837007       -2.95350373572238
C            1.75349786278529        0.22891870564539       -3.34081338328415
C            1.04161151077456        1.42178430857644       -3.02642328977298
H           -1.01221299637725        1.72199060616248       -2.20298863977332
H           -1.11882993775942       -0.95768303844993       -2.11846263191511
H            1.15307285678356       -1.91534384842106       -3.16945123037232
H            2.68396967547361        0.17396594582774       -3.89077819778293
H            1.34129971764545        2.42404887029378       -3.30194606862206
