44
CpRu(eta6-sumanene)+ convex face; ring=[1, 2, 3, 4, 19, 20]; ru_arene_centroid=1.68A; Cp centroid=1.82A; rot=288 deg; min_contact=3.50A
C      2.01534700    -2.46497300    -0.10025100
C      2.34286000    -1.07159900     0.39750300
C      1.25044900    -0.57287700     1.07259900
C      1.02545600     0.80303100     1.16011500
C      1.88933400     1.70187800     0.57391400
C      1.12668100     2.96954000     0.24542100
C     -0.29320900     2.53240600     0.54432200
C     -0.25945400     1.29198200     1.14269500
C     -1.33994900     0.41285400     1.03748300
C     -2.47121000     0.76031000     0.33224200
C     -3.14102400    -0.50281000    -0.17014500
C     -2.09506400    -1.53996200     0.18594000
C     -1.11850200    -0.94136500     0.95135000
C      0.18698700    -1.43814600     0.96904500
C      0.53646700    -2.54134300     0.22161000
C     -0.45663900    -3.21776300    -0.52027200
C     -1.78551700    -2.71208500    -0.53828300
C     -2.56422100     2.05000400    -0.23540900
C     -1.46436800     2.94488100    -0.12831300
C      3.05399000     1.22550400    -0.06704600
C      3.28301400    -0.17505500    -0.15613100
H      2.58573800    -3.23335200     0.46240100
H      2.18749000    -2.54552100    -1.19507400
H      1.24225200     3.23502200    -0.82739000
H      1.43503900     3.80355100     0.91000500
H     -4.09101400    -0.69263000     0.37190600
H     -3.29719800    -0.45843300    -1.26941700
H     -0.17901800    -4.02078300    -1.19041000
H     -2.51071900    -3.13349400    -1.22201500
H     -3.39929300     2.30052400    -0.87641600
H     -1.46944900     3.87071000    -0.68850100
H      3.68644600     1.90873300    -0.61858300
H      4.08830000    -0.54874100    -0.77489500
Ru     3.00228054     0.36765516     1.93832493
C      2.98945176    -0.14959297     4.08476146
C      3.16129119     1.30179561     3.93255921
C      4.40309876     1.53585946     3.18247878
C      4.99866999     0.22914473     2.87114635
C      4.12497034    -0.81256736     3.42879986
H      2.16904183    -0.64434866     4.59191071
H      2.48987050     2.06574840     4.30773436
H      4.80857638     2.50278902     2.90718263
H      5.92068222     0.06277004     2.32583383
H      4.28931110    -1.88231933     3.36708412
