31
Properties=species:S:1:pos:R:3 energy:=T -42.299130210761=T gnorm:=T 0.000184517527=T xtb:=T 6.5.1=T (b24c23e)=T pbc="F F F"
Zr      -1.28916419       0.06409589       0.27348119
C       -0.38590910       1.14701980      -1.60487301
C       -0.10968893      -2.02983195       0.93482442
C        0.26644504      -1.70871475      -0.39448939
C       -0.88942308      -1.85647931      -1.21682057
C       -1.96195409      -2.25970406      -0.38867390
C       -1.49107665      -2.33801622       0.94118573
H        0.57661586      -2.19904281       1.75423837
H        1.28491904      -1.58820955      -0.74599083
H       -0.90248330      -1.85639355      -2.30078714
H       -2.94321233      -2.56206601      -0.73147605
H       -2.05028302      -2.72777706       1.78516560
C       -0.11395042       0.53735501       2.41915596
C       -1.49546227       0.68789380       2.68654122
C       -1.96329368       1.80126640       1.95288148
C       -0.88855611       2.31537651       1.19181836
C        0.26543391       1.52768365       1.47683621
H        0.57047823      -0.08842043       2.97691584
H       -2.05697576       0.15260635       3.44488668
H       -2.94410711       2.25064747       2.04145576
H       -0.89936981       3.25386177       0.64934748
H        1.28481079       1.77029014       1.19864130
H        0.21258829       0.47663191      -2.23342916
H        0.21518343       2.02427736      -1.33662055
C       -1.66482305       1.55549730      -2.30666663
H       -2.27015087       0.67881007      -2.58186362
H       -2.26788269       2.23183720      -1.68243614
C       -1.30666652       2.30854749      -3.60797648
H       -0.72943849       1.67221488      -4.27387196
H       -2.22015195       2.60418699      -4.11647879
H       -0.72739679       3.20169120      -3.38826439
