31
 energy: -37.686541077709 gnorm: 0.000662851092 xtb: 6.5.1 (b24c23e)
Zr          -0.69794655321808        0.09333556122043        0.22335444696537
C           -0.15597670845361        1.14975202561460       -1.60537231426958
C           -0.10213325966882       -2.19994341093523        0.87245337889171
C            0.28552370799268       -1.99954237695594       -0.47844246613263
C           -0.89904795569910       -1.82158922603661       -1.24747288887105
C           -2.01049689493499       -1.87222801238916       -0.36422035321112
C           -1.51453829175461       -2.12768880564512        0.94020573137187
H            0.55306766534314       -2.51486957196185        1.67807721024878
H            1.28050106862160       -2.15442203703367       -0.88502972723910
H           -0.94827789496626       -1.81266337388662       -2.33006668398702
H           -3.05395010747007       -1.91910553940615       -0.66375910558765
H           -2.11770563703484       -2.38891705071192        1.80247859857109
C           -0.10698623213877        0.67512836464458        2.53587158046325
C           -1.51951246601305        0.58320333949770        2.50334918794796
C           -2.01108078501751        1.58681596748618        1.62936162356819
C           -0.89683264552477        2.32440822468143        1.14725480490120
C            0.28514116645890        1.74451346309528        1.68851796316177
H            0.54531883511182        0.13302417292114        3.21271613235487
H           -2.12573565601366       -0.03202744325933        3.15876506511894
H           -3.05364655495733        1.87192382399472        1.51771155084114
H           -0.94270670106198        3.25797117525317        0.59875298441661
H            1.28119280895280        2.17208870791766        1.62224356525407
H            0.38627403296559        0.57035874918907       -2.37333965758111
H            0.38723899042159        2.10392640586997       -1.48729232684852
C           -1.56828560466390        1.46968480556006       -2.15768812581085
H           -2.13799246562816        0.53798277657340       -2.34282567039983
H           -2.13686965911365        2.09637687479700       -1.44299490389143
C           -1.49154388764217        2.23716655335059       -3.48681235458464
H           -0.96178974491023        1.64831979224317       -4.23223827861555
H           -2.48552500229141        2.45764246164891       -3.86724515688624
H           -0.96062318769051        3.17650909266414       -3.34965682015991
