      -----------------------------------------------------------      
     |                   =====================                   |     
     |                           x T B                           |     
     |                   =====================                   |     
     |                         S. Grimme                         |     
     |          Mulliken Center for Theoretical Chemistry        |     
     |                    University of Bonn                     |     
      -----------------------------------------------------------      

   * xtb version 6.5.1 (b24c23e) compiled by 'conda@728c89f4b128' on 2022-07-12

   xtb is free software: you can redistribute it and/or modify it under
   the terms of the GNU Lesser General Public License as published by
   the Free Software Foundation, either version 3 of the License, or
   (at your option) any later version.
   
   xtb is distributed in the hope that it will be useful,
   but WITHOUT ANY WARRANTY; without even the implied warranty of
   MERCHANTABILITY or FITNESS FOR A PARTICULAR PURPOSE.  See the
   GNU Lesser General Public License for more details.
   
   Cite this work as:
   * C. Bannwarth, E. Caldeweyher, S. Ehlert, A. Hansen, P. Pracht,
     J. Seibert, S. Spicher, S. Grimme, WIREs Comput. Mol. Sci., 2020, 11,
     e01493. DOI: 10.1002/wcms.1493
   
   for GFN2-xTB:
   * C. Bannwarth, S. Ehlert and S. Grimme., J. Chem. Theory Comput., 2019,
     15, 1652-1671. DOI: 10.1021/acs.jctc.8b01176
   for GFN1-xTB:
   * S. Grimme, C. Bannwarth, P. Shushkov, J. Chem. Theory Comput., 2017,
     13, 1989-2009. DOI: 10.1021/acs.jctc.7b00118
   for GFN0-xTB:
   * P. Pracht, E. Caldeweyher, S. Ehlert, S. Grimme, ChemRxiv, 2019, preprint.
     DOI: 10.26434/chemrxiv.8326202.v1
   for GFN-FF:
   * S. Spicher and S. Grimme, Angew. Chem. Int. Ed., 2020, 59, 15665-15673.
     DOI: 10.1002/anie.202004239
   
   for ALPB and GBSA implicit solvation:
   * S. Ehlert, M. Stahn, S. Spicher, S. Grimme, J. Chem. Theory Comput.,
     2021, 17, 4250-4261. DOI: 10.1021/acs.jctc.1c00471
   
   for DFT-D4:
   * E. Caldeweyher, C. Bannwarth and S. Grimme, J. Chem. Phys., 2017,
     147, 034112. DOI: 10.1063/1.4993215
   * E. Caldeweyher, S. Ehlert, A. Hansen, H. Neugebauer, S. Spicher,
     C. Bannwarth and S. Grimme, J. Chem. Phys., 2019, 150, 154122.
     DOI: 10.1063/1.5090222
   * E. Caldeweyher, J.-M. Mewes, S. Ehlert and S. Grimme, Phys. Chem. Chem. Phys.
     2020, 22, 8499-8512. DOI: 10.1039/D0CP00502A
   
   for sTDA-xTB:
   * S. Grimme and C. Bannwarth, J. Chem. Phys., 2016, 145, 054103.
     DOI: 10.1063/1.4959605
   
   in the mass-spec context:
   * V. Asgeirsson, C. Bauer and S. Grimme, Chem. Sci., 2017, 8, 4879.
     DOI: 10.1039/c7sc00601b
   * J. Koopman and S. Grimme, ACS Omega 2019, 4, 12, 15120-15133.
     DOI: 10.1021/acsomega.9b02011
   
   for metadynamics refer to:
   * S. Grimme, J. Chem. Theory Comput., 2019, 155, 2847-2862
     DOI: 10.1021/acs.jctc.9b00143
   
   for SPH calculations refer to:
   * S. Spicher and S. Grimme, J. Chem. Theory Comput., 2021, 17, 1701-1714
     DOI: 10.1021/acs.jctc.0c01306
   
   with help from (in alphabetical order)
   P. Atkinson, C. Bannwarth, F. Bohle, G. Brandenburg, E. Caldeweyher
   M. Checinski, S. Dohm, S. Ehlert, S. Ehrlich, I. Gerasimov, C. Hölzer
   A. Katbashev, J. Koopman, C. Lavigne, S. Lehtola, F. März, M. Müller,
   F. Musil, H. Neugebauer, J. Pisarek, C. Plett, P. Pracht, F. Pultar,
   J. Seibert, P. Shushkov, S. Spicher, M. Stahn, M. Steiner, T. Strunk,
   J. Stückrath, T. Rose, and J. Unsleber
   
 * started run on 2026/08/03 at 11:35:19.674     

           -------------------------------------------------
          |                Calculation Setup                |
           -------------------------------------------------

          program call               : /h/332/chchoi/miniconda3/envs/el-agente/bin/xtb product_noCl.xyz --opt --gfn 2 -P 4 --chrg 1
          coordinate file            : product_noCl.xyz
          omp threads                :                     4

   ID    Z sym.   atoms
    1   40 Zr     1
    2    6 C      2-7, 13-17, 25, 28
    3    1 H      8-12, 18-24, 26, 27, 29-31

molecular fragmentation (1/2 indicates fragments):
1111111111111111111111111112222
# atoms in fragment 1/2:    27     4
 fragment masses (1/2) :      249.46       15.03
CMA distance (Bohr)    :   8.866
constraining FC (au)   :  0.0500

           -------------------------------------------------
          |                 G F N 2 - x T B                 |
           -------------------------------------------------

        Reference                      10.1021/acs.jctc.8b01176
      * Hamiltonian:
        H0-scaling (s, p, d)           1.850000    2.230000    2.230000
        zeta-weighting                 0.500000
      * Dispersion:
        s8                             2.700000
        a1                             0.520000
        a2                             5.000000
        s9                             5.000000
      * Repulsion:
        kExp                           1.500000    1.000000
        rExp                           1.000000
      * Coulomb:
        alpha                          2.000000
        third order                    shell-resolved
        anisotropic                    true
        a3                             3.000000
        a5                             4.000000
        cn-shift                       1.200000
        cn-exp                         4.000000
        max-rad                        5.000000


          ...................................................
          :                      SETUP                      :
          :.................................................:
          :  # basis functions                  79          :
          :  # atomic orbitals                  78          :
          :  # shells                           46          :
          :  # electrons                        72          :
          :  max. iterations                   250          :
          :  Hamiltonian                  GFN2-xTB          :
          :  restarted?                      false          :
          :  GBSA solvation                  false          :
          :  PC potential                    false          :
          :  electronic temp.          300.0000000     K    :
          :  accuracy                    1.0000000          :
          :  -> integral cutoff          0.2500000E+02      :
          :  -> integral neglect         0.1000000E-07      :
          :  -> SCF convergence          0.1000000E-05 Eh   :
          :  -> wf. convergence          0.1000000E-03 e    :
          :  Broyden damping             0.4000000          :
          ...................................................

 iter      E             dE          RMSdq      gap      omega  full diag
   1    -38.1270821 -0.381271E+02  0.981E+00    0.97       0.0  T
   2    -38.2346134 -0.107531E+00  0.494E+00    2.12       1.0  T
   3    -38.1320507  0.102563E+00  0.502E+00    0.59       1.0  T
   4    -38.2742644 -0.142214E+00  0.118E+00    1.77       1.0  T
   5    -38.2888008 -0.145364E-01  0.319E-01    1.47       1.0  T
   6    -38.2891718 -0.371043E-03  0.325E-01    1.44       1.0  T
   7    -38.2889587  0.213132E-03  0.292E-01    1.42       1.0  T
   8    -38.2892766 -0.317907E-03  0.590E-02    1.47       1.0  T
   9    -38.2892767 -0.986460E-07  0.343E-02    1.47       1.0  T
  10    -38.2892782 -0.147101E-05  0.937E-03    1.47       1.9  T
  11    -38.2892792 -0.104792E-05  0.298E-03    1.48       6.0  T
  12    -38.2892793 -0.472428E-07  0.159E-03    1.48      11.3  T
  13    -38.2892793 -0.461758E-08  0.995E-04    1.48      18.1  T
  14    -38.2892793 -0.428204E-08  0.507E-04    1.48      35.4  T

   *** convergence criteria satisfied after 14 iterations ***

         #    Occupation            Energy/Eh            Energy/eV
      -------------------------------------------------------------
         1        2.0000           -0.8668919             -23.5893
       ...           ...                  ...                  ...
        30        2.0000           -0.5589186             -15.2089
        31        2.0000           -0.5511147             -14.9966
        32        2.0000           -0.5303170             -14.4307
        33        2.0000           -0.5254718             -14.2988
        34        2.0000           -0.5144498             -13.9989
        35        2.0000           -0.5096022             -13.8670
        36        2.0000           -0.4838670             -13.1667 (HOMO)
        37                         -0.4296203             -11.6906 (LUMO)
        38                         -0.4221649             -11.4877
        39                         -0.4169400             -11.3455
        40                         -0.4098836             -11.1535
        41                         -0.3943620             -10.7311
       ...                                ...                  ...
        78                          2.2269324              60.5979
      -------------------------------------------------------------
                  HL-Gap            0.0542467 Eh            1.4761 eV
             Fermi-level           -0.4567437 Eh          -12.4286 eV

 SCC (total)                   0 d,  0 h,  0 min,  1.536 sec
 SCC setup                      ...        0 min,  0.046 sec (  3.005%)
 Dispersion                     ...        0 min,  0.000 sec (  0.023%)
 classical contributions        ...        0 min,  0.001 sec (  0.041%)
 integral evaluation            ...        0 min,  0.002 sec (  0.130%)
 iterations                     ...        0 min,  1.319 sec ( 85.910%)
 molecular gradient             ...        0 min,  0.167 sec ( 10.876%)
 printout                       ...        0 min,  0.000 sec (  0.013%)

         :::::::::::::::::::::::::::::::::::::::::::::::::::::
         ::                     SUMMARY                     ::
         :::::::::::::::::::::::::::::::::::::::::::::::::::::
         :: total energy             -37.665916423493 Eh    ::
         :: gradient norm              0.058077226969 Eh/a0 ::
         :: HOMO-LUMO gap              1.476127410229 eV    ::
         ::.................................................::
         :: SCC energy               -38.289279268019 Eh    ::
         :: -> isotropic ES            0.085422566487 Eh    ::
         :: -> anisotropic ES         -0.009427782692 Eh    ::
         :: -> anisotropic XC          0.008332834938 Eh    ::
         :: -> dispersion             -0.025406621016 Eh    ::
         :: repulsion energy           0.622895669440 Eh    ::
         :: add. restraining           0.000000000000 Eh    ::
         :: total charge               1.000000000000 e     ::
         :::::::::::::::::::::::::::::::::::::::::::::::::::::

      ----------------------------------------------------------- 
     |                   =====================                   |
     |                        A N C O P T                        |
     |                   =====================                   |
     |               Approximate Normal Coordinate               |
     |                Rational Function Optimizer                |
      ----------------------------------------------------------- 

          ...................................................
          :                      SETUP                      :
          :.................................................:
          :   optimization level            normal          :
          :   max. optcycles                   200          :
          :   ANC micro-cycles                  20          :
          :   degrees of freedom                87          :
          :.................................................:
          :   RF solver                   davidson          :
          :   write xtbopt.log                true          :
          :   linear?                        false          :
          :   energy convergence         0.5000000E-05 Eh   :
          :   grad. convergence          0.1000000E-02 Eh/α :
          :   maximium RF displ.         1.0000000          :
          :   Hlow (freq-cutoff)         0.1000000E-01      :
          :   Hmax (freq-cutoff)         5.0000000          :
          :   S6 in model hess.         20.0000000          :
          ...................................................

generating ANC from model Hessian ...
Using Lindh-Hessian (1995)
 Shifting diagonal of input Hessian by    9.6738043734748858E-003
 Lowest  eigenvalues of input Hessian
    0.000000    0.000000    0.000000    0.000000    0.000000    0.000000
    0.010000    0.010045    0.010174    0.010361    0.010890    0.011053
    0.011611    0.011696    0.016128    0.016878    0.016964    0.017217
 Highest eigenvalues
    1.677006    1.677343    1.731340    1.731433    1.741567    1.741656


........................................................................
.............................. CYCLE    1 ..............................
........................................................................
   1    -38.2892793 -0.382893E+02  0.191E-04    1.48       0.0  T
   2    -38.2892793 -0.741096E-10  0.858E-05    1.48     209.4  T
   3    -38.2892793 -0.573976E-10  0.744E-05    1.48     241.3  T
     SCC iter.                  ...        0 min,  0.327 sec
     gradient                   ...        0 min,  0.066 sec
 * total energy  :   -37.6659164 Eh     change       -0.9285159E-09 Eh
   gradient norm :     0.0580777 Eh/α   predicted     0.0000000E+00 (-100.00%)
   displ. norm   :     0.4614455 α      lambda       -0.1896849E-01
   maximum displ.:     0.2176179 α      in ANC's #26, #6, #8, ...

........................................................................
.............................. CYCLE    2 ..............................
........................................................................
   1    -38.2991264 -0.382991E+02  0.961E-01    1.98       0.0  T
   2    -38.2999193 -0.792945E-03  0.546E-01    1.77       1.0  T
   3    -38.2999483 -0.289920E-04  0.424E-01    1.92       1.0  T
   4    -38.3002993 -0.350980E-03  0.106E-01    1.82       1.0  T
   5    -38.3004114 -0.112080E-03  0.649E-02    1.83       1.0  T
   6    -38.3004165 -0.515383E-05  0.210E-02    1.83       1.0  T
   7    -38.3004177 -0.118427E-05  0.796E-03    1.84       2.3  T
   8    -38.3004180 -0.272914E-06  0.306E-03    1.84       5.9  T
   9    -38.3004180 -0.225548E-07  0.152E-03    1.84      11.8  T
  10    -38.3004180 -0.878621E-08  0.542E-04    1.84      33.1  T
  11    -38.3004180 -0.132032E-08  0.158E-04    1.84     114.0  T
     SCC iter.                  ...        0 min,  1.207 sec
     gradient                   ...        0 min,  0.053 sec
 * total energy  :   -37.6760489 Eh     change       -0.1013245E-01 Eh
   gradient norm :     0.0191640 Eh/α   predicted    -0.1150377E-01 (  13.53%)
   displ. norm   :     0.4435248 α      lambda       -0.4200785E-02
   maximum displ.:     0.3250466 α      in ANC's #6, #8, #4, ...

........................................................................
.............................. CYCLE    3 ..............................
........................................................................
   1    -38.2972160 -0.382972E+02  0.336E-01    1.78       0.0  T
   2    -38.2972822 -0.662445E-04  0.248E-01    1.77       1.0  T
   3    -38.2970293  0.252893E-03  0.122E-01    1.75       1.0  T
   4    -38.2973374 -0.308060E-03  0.369E-02    1.76       1.0  T
   5    -38.2973392 -0.183716E-05  0.291E-02    1.75       1.0  T
   6    -38.2973422 -0.301990E-05  0.531E-03    1.76       3.4  T
   7    -38.2973425 -0.255593E-06  0.397E-03    1.76       4.5  T
   8    -38.2973426 -0.106759E-06  0.171E-03    1.76      10.5  T
   9    -38.2973426 -0.153717E-07  0.120E-03    1.76      15.0  T
  10    -38.2973426 -0.305242E-08  0.402E-04    1.76      44.7  T
  11    -38.2973426 -0.533646E-09  0.177E-04    1.76     101.3  T
     SCC iter.                  ...        0 min,  1.014 sec
     gradient                   ...        0 min,  0.228 sec
 * total energy  :   -37.6790956 Eh     change       -0.3046752E-02 Eh
   gradient norm :     0.0123628 Eh/α   predicted    -0.2513940E-02 ( -17.49%)
   displ. norm   :     0.5587276 α      lambda       -0.3087009E-02
   maximum displ.:     0.3917098 α      in ANC's #6, #4, #8, ...

........................................................................
.............................. CYCLE    4 ..............................
........................................................................
   1    -38.2958233 -0.382958E+02  0.274E-01    1.79       0.0  T
   2    -38.2958905 -0.672162E-04  0.178E-01    1.77       1.0  T
   3    -38.2958252  0.652998E-04  0.105E-01    1.78       1.0  T
   4    -38.2959439 -0.118685E-03  0.391E-02    1.77       1.0  T
   5    -38.2959505 -0.652730E-05  0.249E-02    1.77       1.0  T
   6    -38.2959524 -0.198746E-05  0.412E-03    1.77       4.4  T
   7    -38.2959525 -0.610028E-07  0.256E-03    1.77       7.0  T
   8    -38.2959525 -0.124531E-07  0.799E-04    1.77      22.5  T
   9    -38.2959525 -0.746918E-08  0.553E-04    1.77      32.5  T
     SCC iter.                  ...        0 min,  0.848 sec
     gradient                   ...        0 min,  0.067 sec
 * total energy  :   -37.6815421 Eh     change       -0.2446503E-02 Eh
   gradient norm :     0.0135268 Eh/α   predicted    -0.2025352E-02 ( -17.21%)
   displ. norm   :     0.5626230 α      lambda       -0.2367704E-02
   maximum displ.:     0.3912970 α      in ANC's #6, #4, #8, ...

........................................................................
.............................. CYCLE    5 ..............................
........................................................................
   1    -38.2986199 -0.382986E+02  0.234E-01    1.80       0.0  T
   2    -38.2986564 -0.364722E-04  0.151E-01    1.78       1.0  T
   3    -38.2986194  0.369441E-04  0.761E-02    1.79       1.0  T
   4    -38.2986810 -0.615803E-04  0.331E-02    1.78       1.0  T
   5    -38.2986851 -0.405048E-05  0.192E-02    1.78       1.0  T
   6    -38.2986865 -0.142841E-05  0.347E-03    1.78       5.2  T
   7    -38.2986865 -0.657086E-07  0.220E-03    1.78       8.2  T
   8    -38.2986866 -0.792922E-08  0.655E-04    1.78      27.4  T
   9    -38.2986866 -0.798053E-09  0.488E-04    1.78      36.8  T
     SCC iter.                  ...        0 min,  0.938 sec
     gradient                   ...        0 min,  0.185 sec
 * total energy  :   -37.6834470 Eh     change       -0.1904858E-02 Eh
   gradient norm :     0.0105040 Eh/α   predicted    -0.1558596E-02 ( -18.18%)
   displ. norm   :     0.5691238 α      lambda       -0.1835344E-02
   maximum displ.:     0.3954981 α      in ANC's #6, #4, #8, ...

........................................................................
.............................. CYCLE    6 ..............................
........................................................................
   1    -38.3023404 -0.383023E+02  0.229E-01    1.80       0.0  T
   2    -38.3023663 -0.259442E-04  0.150E-01    1.79       1.0  T
   3    -38.3023590  0.729693E-05  0.578E-02    1.81       1.0  T
   4    -38.3023840 -0.249169E-04  0.303E-02    1.79       1.0  T
   5    -38.3023856 -0.166991E-05  0.124E-02    1.79       1.4  T
   6    -38.3023867 -0.104791E-05  0.413E-03    1.79       4.4  T
   7    -38.3023869 -0.199855E-06  0.192E-03    1.79       9.3  T
   8    -38.3023869 -0.149644E-07  0.908E-04    1.79      19.8  T
   9    -38.3023869 -0.351609E-08  0.458E-04    1.79      39.2  T
     SCC iter.                  ...        0 min,  0.907 sec
     gradient                   ...        0 min,  0.188 sec
 * total energy  :   -37.6848956 Eh     change       -0.1448663E-02 Eh
   gradient norm :     0.0097706 Eh/α   predicted    -0.1214914E-02 ( -16.14%)
   displ. norm   :     0.5467253 α      lambda       -0.1294676E-02
   maximum displ.:     0.3614531 α      in ANC's #6, #4, #8, ...

........................................................................
.............................. CYCLE    7 ..............................
........................................................................
   1    -38.3055659 -0.383056E+02  0.209E-01    1.81       0.0  T
   2    -38.3055877 -0.217376E-04  0.138E-01    1.80       1.0  T
   3    -38.3055888 -0.114798E-05  0.466E-02    1.81       1.0  T
   4    -38.3056029 -0.141052E-04  0.259E-02    1.79       1.0  T
   5    -38.3056038 -0.891080E-06  0.980E-03    1.80       1.8  T
   6    -38.3056045 -0.679927E-06  0.328E-03    1.80       5.5  T
   7    -38.3056047 -0.161696E-06  0.160E-03    1.80      11.2  T
   8    -38.3056047 -0.112065E-07  0.726E-04    1.80      24.7  T
   9    -38.3056047 -0.120367E-08  0.489E-04    1.80      36.8  T
     SCC iter.                  ...        0 min,  0.938 sec
     gradient                   ...        0 min,  0.157 sec
 * total energy  :   -37.6858797 Eh     change       -0.9840591E-03 Eh
   gradient norm :     0.0074729 Eh/α   predicted    -0.8408417E-03 ( -14.55%)
   displ. norm   :     0.4460257 α      lambda       -0.6702478E-03
   maximum displ.:     0.3138147 α      in ANC's #4, #6, #8, ...

........................................................................
.............................. CYCLE    8 ..............................
........................................................................
   1    -38.3075273 -0.383075E+02  0.168E-01    1.80       0.0  T
   2    -38.3075406 -0.133302E-04  0.116E-01    1.80       1.0  T
   3    -38.3075461 -0.554924E-05  0.297E-02    1.79       1.0  T
   4    -38.3075508 -0.466259E-05  0.189E-02    1.79       1.0  T
   5    -38.3075504  0.361769E-06  0.856E-03    1.79       2.1  T
   6    -38.3075514 -0.956454E-06  0.200E-03    1.79       9.0  T
   7    -38.3075514 -0.127650E-07  0.120E-03    1.79      15.0  T
   8    -38.3075514 -0.164276E-07  0.435E-04    1.79      41.2  T
   9    -38.3075514  0.473364E-10  0.281E-04    1.79      64.0  T
     SCC iter.                  ...        0 min,  0.592 sec
     gradient                   ...        0 min,  0.149 sec
 * total energy  :   -37.6863427 Eh     change       -0.4629832E-03 Eh
   gradient norm :     0.0041994 Eh/α   predicted    -0.4017936E-03 ( -13.22%)
   displ. norm   :     0.2559456 α      lambda       -0.2138072E-03
   maximum displ.:     0.1987946 α      in ANC's #4, #6, #8, ...

........................................................................
.............................. CYCLE    9 ..............................
........................................................................
   1    -38.3099262 -0.383099E+02  0.105E-01    1.79       0.0  T
   2    -38.3099296 -0.348309E-05  0.688E-02    1.79       1.0  T
   3    -38.3099301 -0.447604E-06  0.170E-02    1.79       1.1  T
   4    -38.3099319 -0.183703E-05  0.980E-03    1.79       1.8  T
   5    -38.3099321 -0.127420E-06  0.314E-03    1.79       5.7  T
   6    -38.3099321 -0.454601E-07  0.111E-03    1.79      16.2  T
   7    -38.3099321 -0.194218E-08  0.624E-04    1.79      28.8  T
   8    -38.3099321 -0.266053E-08  0.404E-04    1.79      44.5  T
     SCC iter.                  ...        0 min,  0.453 sec
     gradient                   ...        0 min,  0.146 sec
 * total energy  :   -37.6864760 Eh     change       -0.1333044E-03 Eh
   gradient norm :     0.0026360 Eh/α   predicted    -0.1139082E-03 ( -14.55%)
   displ. norm   :     0.1248151 α      lambda       -0.5749929E-04
   maximum displ.:     0.1013108 α      in ANC's #4, #6, #8, ...

........................................................................
.............................. CYCLE   10 ..............................
........................................................................
   1    -38.3096425 -0.383096E+02  0.502E-02    1.79       0.0  T
   2    -38.3096435 -0.989716E-06  0.366E-02    1.79       1.0  T
   3    -38.3096405  0.296091E-05  0.137E-02    1.79       1.3  T
   4    -38.3096444 -0.381870E-05  0.525E-03    1.79       3.4  T
   5    -38.3096444 -0.705448E-09  0.203E-03    1.79       8.9  T
   6    -38.3096444 -0.490073E-07  0.889E-04    1.79      20.2  T
   7    -38.3096444 -0.601519E-08  0.482E-04    1.79      37.2  T
     SCC iter.                  ...        0 min,  0.465 sec
     gradient                   ...        0 min,  0.170 sec
 * total energy  :   -37.6865063 Eh     change       -0.3033096E-04 Eh
   gradient norm :     0.0017313 Eh/α   predicted    -0.2919790E-04 (  -3.74%)
   displ. norm   :     0.0687869 α      lambda       -0.2274828E-04
   maximum displ.:     0.0535709 α      in ANC's #4, #6, #1, ...

........................................................................
.............................. CYCLE   11 ..............................
........................................................................
   1    -38.3113279 -0.383113E+02  0.361E-02    1.79       0.0  T
   2    -38.3113281 -0.220729E-06  0.236E-02    1.79       1.0  T
   3    -38.3113278  0.376641E-06  0.445E-03    1.79       4.0  T
   4    -38.3113282 -0.472784E-06  0.206E-03    1.79       8.7  T
   5    -38.3113283 -0.132712E-07  0.119E-03    1.79      15.0  T
   6    -38.3113283 -0.338763E-08  0.719E-04    1.79      25.0  T
   7    -38.3113283 -0.309674E-08  0.340E-04    1.79      52.8  T
     SCC iter.                  ...        0 min,  0.471 sec
     gradient                   ...        0 min,  0.153 sec
 * total energy  :   -37.6865229 Eh     change       -0.1654068E-04 Eh
   gradient norm :     0.0017939 Eh/α   predicted    -0.1139962E-04 ( -31.08%)
   displ. norm   :     0.0462189 α      lambda       -0.1220009E-04
   maximum displ.:     0.0306054 α      in ANC's #4, #1, #6, ...

........................................................................
.............................. CYCLE   12 ..............................
........................................................................
   1    -38.3098805 -0.383099E+02  0.281E-02    1.79       0.0  T
   2    -38.3098807 -0.237461E-06  0.172E-02    1.79       1.0  T
   3    -38.3098801  0.618978E-06  0.682E-03    1.79       2.6  T
   4    -38.3098808 -0.733336E-06  0.190E-03    1.79       9.5  T
   5    -38.3098808 -0.245888E-07  0.111E-03    1.79      16.1  T
   6    -38.3098808 -0.660783E-09  0.437E-04    1.79      41.1  T
   7    -38.3098808 -0.128885E-08  0.286E-04    1.79      62.9  T
     SCC iter.                  ...        0 min,  0.453 sec
     gradient                   ...        0 min,  0.012 sec
 * total energy  :   -37.6865329 Eh     change       -0.1004206E-04 Eh
   gradient norm :     0.0010275 Eh/α   predicted    -0.6108183E-05 ( -39.17%)
   displ. norm   :     0.0520508 α      lambda       -0.8008971E-05
   maximum displ.:     0.0342447 α      in ANC's #6, #1, #4, ...

........................................................................
.............................. CYCLE   13 ..............................
........................................................................
   1    -38.3100537 -0.383101E+02  0.198E-02    1.79       0.0  T
   2    -38.3100538 -0.135604E-06  0.120E-02    1.79       1.5  T
   3    -38.3100533  0.475000E-06  0.592E-03    1.79       3.0  T
   4    -38.3100539 -0.590154E-06  0.181E-03    1.79       9.9  T
   5    -38.3100539 -0.254414E-08  0.970E-04    1.79      18.5  T
   6    -38.3100539 -0.334506E-08  0.216E-04    1.79      83.0  T
     SCC iter.                  ...        0 min,  0.329 sec
     gradient                   ...        0 min,  0.004 sec
 * total energy  :   -37.6865380 Eh     change       -0.5135391E-05 Eh
   gradient norm :     0.0010807 Eh/α   predicted    -0.4010618E-05 ( -21.90%)
   displ. norm   :     0.0204896 α      lambda       -0.3349073E-05
   maximum displ.:     0.0168509 α      in ANC's #1, #12, #9, ...

........................................................................
.............................. CYCLE   14 ..............................
........................................................................
   1    -38.3099448 -0.383099E+02  0.834E-03    1.79       0.0  T
   2    -38.3099449 -0.460922E-07  0.585E-03    1.79       3.1  T
   3    -38.3099448  0.643991E-07  0.211E-03    1.79       8.5  T
   4    -38.3099449 -0.833868E-07  0.780E-04    1.79      23.0  T
   5    -38.3099449 -0.239454E-08  0.375E-04    1.79      48.0  T
     SCC iter.                  ...        0 min,  0.345 sec
     gradient                   ...        0 min,  0.077 sec
 * total energy  :   -37.6865411 Eh     change       -0.3033349E-05 Eh
   gradient norm :     0.0006651 Eh/α   predicted    -0.1676665E-05 ( -44.73%)
   displ. norm   :     0.0274262 α      lambda       -0.3071665E-05
   maximum displ.:     0.0232010 α      in ANC's #1, #8, #12, ...

   *** GEOMETRY OPTIMIZATION CONVERGED AFTER 14 ITERATIONS ***

------------------------------------------------------------------------
 total energy gain   :        -0.0206247 Eh      -12.9422 kcal/mol
 total RMSD          :         0.6547808 a0        0.3465 Å
 total power (kW/mol):        -3.8678586 (step)   -4.2425 (real)
------------------------------------------------------------------------

 ANCopt (total)                0 d,  0 h,  0 min, 12.764 sec
 optimizer setup                ...        0 min,  0.000 sec (  0.004%)
 model hessian                  ...        0 min,  0.050 sec (  0.388%)
 ANC generation                 ...        0 min,  0.024 sec (  0.189%)
 coordinate transformation      ...        0 min,  0.000 sec (  0.002%)
 single point calculation       ...        0 min, 12.435 sec ( 97.424%)
 optimization log               ...        0 min,  0.030 sec (  0.238%)
 hessian update                 ...        0 min,  0.191 sec (  1.499%)
 rational function              ...        0 min,  0.013 sec (  0.102%)

================
 final structure:
================
31
 xtb: 6.5.1 (b24c23e)
Zr          -0.69794655321808        0.09333556122043        0.22335444696537
C           -0.15597670845361        1.14975202561460       -1.60537231426958
C           -0.10213325966882       -2.19994341093523        0.87245337889171
C            0.28552370799268       -1.99954237695594       -0.47844246613263
C           -0.89904795569910       -1.82158922603661       -1.24747288887105
C           -2.01049689493499       -1.87222801238916       -0.36422035321112
C           -1.51453829175461       -2.12768880564512        0.94020573137187
H            0.55306766534314       -2.51486957196185        1.67807721024878
H            1.28050106862160       -2.15442203703367       -0.88502972723910
H           -0.94827789496626       -1.81266337388662       -2.33006668398702
H           -3.05395010747007       -1.91910553940615       -0.66375910558765
H           -2.11770563703484       -2.38891705071192        1.80247859857109
C           -0.10698623213877        0.67512836464458        2.53587158046325
C           -1.51951246601305        0.58320333949770        2.50334918794796
C           -2.01108078501751        1.58681596748618        1.62936162356819
C           -0.89683264552477        2.32440822468143        1.14725480490120
C            0.28514116645890        1.74451346309528        1.68851796316177
H            0.54531883511182        0.13302417292114        3.21271613235487
H           -2.12573565601366       -0.03202744325933        3.15876506511894
H           -3.05364655495733        1.87192382399472        1.51771155084114
H           -0.94270670106198        3.25797117525317        0.59875298441661
H            1.28119280895280        2.17208870791766        1.62224356525407
H            0.38627403296559        0.57035874918907       -2.37333965758111
H            0.38723899042159        2.10392640586997       -1.48729232684852
C           -1.56828560466390        1.46968480556006       -2.15768812581085
H           -2.13799246562816        0.53798277657340       -2.34282567039983
H           -2.13686965911365        2.09637687479700       -1.44299490389143
C           -1.49154388764217        2.23716655335059       -3.48681235458464
H           -0.96178974491023        1.64831979224317       -4.23223827861555
H           -2.48552500229141        2.45764246164891       -3.86724515688624
H           -0.96062318769051        3.17650909266414       -3.34965682015991

 Bond Distances (Angstroems)
 ---------------------------
Zr1-C2=2.1804        Zr1-C3=2.4567        Zr1-C4=2.4166        Zr1-C5=2.4230        Zr1-C6=2.4355        Zr1-C7=2.4726        
Zr1-C13=2.4567       Zr1-C14=2.4725       Zr1-C15=2.4355       Zr1-C16=2.4230       Zr1-C17=2.4165       Zr1-C25=2.8846       
C2-Zr1=2.1804        C2-H23=1.1043        C2-H24=1.1043        C2-C25=1.5498        C3-Zr1=2.4567        C3-C4=1.4196         
C3-C7=1.4159         C3-H8=1.0851         C4-Zr1=2.4166        C4-C3=1.4196         C4-C5=1.4235         C4-H9=1.0859         
C5-Zr1=2.4230        C5-C4=1.4235         C5-C6=1.4206         C5-H10=1.0837        C6-Zr1=2.4355        C6-C5=1.4206         
C6-C7=1.4187         C6-H11=1.0866        C7-Zr1=2.4726        C7-C3=1.4159         C7-C6=1.4187         C7-H12=1.0842        
H8-C3=1.0851         H9-C4=1.0859         H10-C5=1.0837        H11-C6=1.0866        H12-C7=1.0842        C13-Zr1=2.4567       
C13-C14=1.4159       C13-C17=1.4196       C13-H18=1.0851       C14-Zr1=2.4725       C14-C13=1.4159       C14-C15=1.4187       
C14-H19=1.0842       C15-Zr1=2.4355       C15-C14=1.4187       C15-C16=1.4206       C15-H20=1.0866       C16-Zr1=2.4230       
C16-C15=1.4206       C16-C17=1.4235       C16-H21=1.0837       C17-Zr1=2.4165       C17-C13=1.4196       C17-C16=1.4235       
C17-H22=1.0860       H18-C13=1.0851       H19-C14=1.0842       H20-C15=1.0866       H21-C16=1.0837       H22-C17=1.0860       
H23-C2=1.1043        H24-C2=1.1043        C25-Zr1=2.8846       C25-C2=1.5498        C25-H26=1.1077       C25-H27=1.1076       
C25-C28=1.5367       H26-C25=1.1077       H27-C25=1.1076       C28-C25=1.5367       C28-H29=1.0877       C28-H30=1.0869       
C28-H31=1.0877       H29-C28=1.0877       H30-C28=1.0869       H31-C28=1.0877       
 C  H  Rav=1.0904 sigma=0.0087  Rmin=1.0837  Rmax=1.1077    17
 C  C  Rav=1.4403 sigma=0.0462  Rmin=1.4159  Rmax=1.5498    12
 Zr C  Rav=2.4561 sigma=0.1490  Rmin=2.1804  Rmax=2.8846    12

 selected bond angles (degree)
 --------------------
C3-Zr1-C2=127.85               C4-Zr1-C2= 94.29               C4-Zr1-C3= 33.86               C5-Zr1-C2= 83.94               
C5-Zr1-C3= 56.14               C5-Zr1-C4= 34.21               C6-Zr1-C2=108.82               C6-Zr1-C3= 56.02               
C6-Zr1-C4= 56.65               C6-Zr1-C5= 34.00               C7-Zr1-C2=139.51               C7-Zr1-C3= 33.38               
C7-Zr1-C4= 55.99               C7-Zr1-C5= 55.85               C7-Zr1-C6= 33.59               C13-Zr1-C2=127.95              
C13-Zr1-C3= 85.07              C13-Zr1-C4=112.37              C13-Zr1-C5=141.13              C13-Zr1-C6=123.22              
C13-Zr1-C7= 91.10              C14-Zr1-C2=139.47              C14-Zr1-C3= 91.25              C14-Zr1-C4=125.07              
C14-Zr1-C5=133.53              C14-Zr1-C6=101.73              C14-Zr1-C7= 78.51              C14-Zr1-C13= 33.38             
C15-Zr1-C2=108.73              C15-Zr1-C3=123.41              C15-Zr1-C4=156.66              C15-Zr1-C5=142.22              
C15-Zr1-C6=110.10              C15-Zr1-C7=101.85              C15-Zr1-C13= 56.02             C15-Zr1-C14= 33.59             
C16-Zr1-C2= 83.92              C16-Zr1-C3=141.14              C16-Zr1-C4=160.32              C16-Zr1-C5=162.25              
C16-Zr1-C6=142.27              C16-Zr1-C7=133.59              C16-Zr1-C13= 56.13             C16-Zr1-C14= 55.85             
C16-Zr1-C15= 34.00             C17-Zr1-C2= 94.38              C17-Zr1-C3=112.27              C17-Zr1-C4=127.03              
C17-Zr1-C5=160.36              C17-Zr1-C6=156.49              C17-Zr1-C7=124.91              C17-Zr1-C13= 33.86             
C17-Zr1-C14= 55.99             C17-Zr1-C15= 56.65             C17-Zr1-C16= 34.21             C25-Zr1-C2= 31.95              
C25-Zr1-C3=137.45              C25-Zr1-C4=107.24              C25-Zr1-C5= 81.43              C25-Zr1-C6= 91.34              
C25-Zr1-C7=124.63              C25-Zr1-C13=137.44             C25-Zr1-C14=124.50             C25-Zr1-C15= 91.22             
C25-Zr1-C16= 81.41             C25-Zr1-C17=107.29             H23-C2-Zr1=116.82              H24-C2-Zr1=116.82              
H24-C2-H23=106.63              C25-C2-Zr1= 99.93              C25-C2-H23=107.93              C25-C2-H24=107.94              
C4-C3-Zr1= 71.52               C7-C3-Zr1= 73.92               C7-C3-C4=108.10                H8-C3-Zr1=127.84               
H8-C3-C4=125.63                H8-C3-C7=125.56                C3-C4-Zr1= 74.62               C5-C4-Zr1= 73.14               
C5-C4-C3=107.73                H9-C4-Zr1=127.24               H9-C4-C3=125.90                H9-C4-C5=125.31                
C4-C5-Zr1= 72.65               C6-C5-Zr1= 73.48               C6-C5-C4=108.10                H10-C5-Zr1=127.13              
H10-C5-C4=125.35               H10-C5-C6=125.86               C5-C6-Zr1= 72.52               C7-C6-Zr1= 74.64               
C7-C6-C5=107.73                H11-C6-Zr1=128.23              H11-C6-C5=125.55               H11-C6-C7=125.55               
C3-C7-Zr1= 72.69               C6-C7-Zr1= 71.77               C6-C7-C3=108.30                H12-C7-Zr1=129.10              
H12-C7-C3=125.50               H12-C7-C6=125.46               

 selected dihedral angles (degree)
 ---------------------------------
H23-C2-Zr1-C3=  5.10          H23-C2-Zr1-C4=  0.15          H23-C2-Zr1-C5=327.49          H23-C2-Zr1-C6=303.98          
H23-C2-Zr1-C7=321.03          H23-C2-Zr1-C13=123.00         H23-C2-Zr1-C14=167.17         H23-C2-Zr1-C15=184.05         
H23-C2-Zr1-C16=160.47         H23-C2-Zr1-C17=127.84         H23-C2-Zr1-C25=243.98         H24-C2-Zr1-C3=237.16          
H24-C2-Zr1-C4=232.20          H24-C2-Zr1-C5=199.55          H24-C2-Zr1-C6=176.04          H24-C2-Zr1-C7=193.09          
H24-C2-Zr1-C13=355.06         H24-C2-Zr1-C14= 39.22         H24-C2-Zr1-C15= 56.11         H24-C2-Zr1-C16= 32.52         
H24-C2-Zr1-C17=359.90         H24-C2-Zr1-C25=116.03         C25-C2-Zr1-C3=121.13          C25-C2-Zr1-C4=116.17          
C25-C2-Zr1-C5= 83.52          C25-C2-Zr1-C6= 60.00          C25-C2-Zr1-C7= 77.05          C25-C2-Zr1-C13=239.03         
C25-C2-Zr1-C14=283.19         C25-C2-Zr1-C15=300.08         C25-C2-Zr1-C16=276.49         C25-C2-Zr1-C17=243.87         
C4-C3-Zr1-C2=351.11           C4-C3-Zr1-C5= 38.06           C4-C3-Zr1-C6= 79.33           C4-C3-Zr1-C7=115.93           
C4-C3-Zr1-C13=215.49          C4-C3-Zr1-C14=182.65          C4-C3-Zr1-C15=172.30          C4-C3-Zr1-C16=212.46          
C4-C3-Zr1-C17=236.10          C4-C3-Zr1-C25= 33.16          C7-C3-Zr1-C2=235.18           C7-C3-Zr1-C4=244.07           
C7-C3-Zr1-C5=282.13           C7-C3-Zr1-C6=323.40           C7-C3-Zr1-C13= 99.56          C7-C3-Zr1-C14= 66.72          
C7-C3-Zr1-C15= 56.37          C7-C3-Zr1-C16= 96.53          C7-C3-Zr1-C17=120.17          C7-C3-Zr1-C25=277.23          
H8-C3-Zr1-C2=112.32           H8-C3-Zr1-C4=121.21           H8-C3-Zr1-C5=159.28           H8-C3-Zr1-C6=200.54           
H8-C3-Zr1-C7=237.14           H8-C3-Zr1-C13=336.70          H8-C3-Zr1-C14=303.86          H8-C3-Zr1-C15=293.51          
H8-C3-Zr1-C16=333.67          H8-C3-Zr1-C17=357.31          H8-C3-Zr1-C25=154.37          C3-C4-Zr1-C2=172.97           
C3-C4-Zr1-C5=245.58           C3-C4-Zr1-C6=282.72           C3-C4-Zr1-C7=323.35           C3-C4-Zr1-C13= 38.72          
C3-C4-Zr1-C14=  3.24          C3-C4-Zr1-C15=343.60          C3-C4-Zr1-C16= 89.02          C3-C4-Zr1-C17= 74.19          
C3-C4-Zr1-C25=202.79          C5-C4-Zr1-C2=287.38           C5-C4-Zr1-C3=114.42           C5-C4-Zr1-C6= 37.13           
C5-C4-Zr1-C7= 77.76           C5-C4-Zr1-C13=153.13          C5-C4-Zr1-C14=117.66          C5-C4-Zr1-C15= 98.01          
C5-C4-Zr1-C16=203.44          C5-C4-Zr1-C17=188.61          C5-C4-Zr1-C25=317.21          H9-C4-Zr1-C2= 49.27           
H9-C4-Zr1-C3=236.31           H9-C4-Zr1-C5=121.89           H9-C4-Zr1-C6=159.02           H9-C4-Zr1-C7=199.65           
H9-C4-Zr1-C13=275.02          H9-C4-Zr1-C14=239.55          H9-C4-Zr1-C15=219.90          H9-C4-Zr1-C16=325.33          
H9-C4-Zr1-C17=310.50          H9-C4-Zr1-C25= 79.09          Zr1-C4-C3-C7= 65.39           Zr1-C4-C3-H8=236.20           
C5-C4-C3-Zr1=293.81           C5-C4-C3-C7=359.20            C5-C4-C3-H8=170.01            H9-C4-C3-Zr1=125.15           
H9-C4-C3-C7=190.54            H9-C4-C3-H8=  1.34            C4-C5-Zr1-C2=106.86           C4-C5-Zr1-C3=322.34           
C4-C5-Zr1-C6=244.39           C4-C5-Zr1-C7=281.80           C4-C5-Zr1-C13=318.25          C4-C5-Zr1-C14=269.30          
C4-C5-Zr1-C15=219.82          C4-C5-Zr1-C16=153.94          C4-C5-Zr1-C17= 20.83          C4-C5-Zr1-C25=138.99          
C6-C5-Zr1-C2=222.47           C6-C5-Zr1-C3= 77.95           C6-C5-Zr1-C4=115.61           C6-C5-Zr1-C7= 37.40           
C6-C5-Zr1-C13= 73.86          C6-C5-Zr1-C14= 24.90          C6-C5-Zr1-C15=335.43          C6-C5-Zr1-C16=269.55          
C6-C5-Zr1-C17=136.44          C6-C5-Zr1-C25=254.60          H10-C5-Zr1-C2=345.29          H10-C5-Zr1-C3=200.76          
H10-C5-Zr1-C4=238.42          H10-C5-Zr1-C6=122.81          H10-C5-Zr1-C7=160.22          H10-C5-Zr1-C13=196.67         
H10-C5-Zr1-C14=147.72         H10-C5-Zr1-C15= 98.25         H10-C5-Zr1-C16= 32.36         H10-C5-Zr1-C17=259.25         
H10-C5-Zr1-C25= 17.41         Zr1-C5-C4-C3= 67.18           Zr1-C5-C4-H9=235.93           C6-C5-C4-Zr1=294.55           
C6-C5-C4-C3=  1.73            C6-C5-C4-H9=170.48            H10-C5-C4-Zr1=123.62          H10-C5-C4-C3=190.80           
H10-C5-C4-H9=359.56           C5-C6-Zr1-C2= 45.19           C5-C6-Zr1-C3=281.68           C5-C6-Zr1-C4=322.63           
C5-C6-Zr1-C7=245.31           C5-C6-Zr1-C13=226.11          C5-C6-Zr1-C14=198.17          C5-C6-Zr1-C15=164.26          
C5-C6-Zr1-C16=150.12          C5-C6-Zr1-C17=215.49          C5-C6-Zr1-C25= 72.47          C7-C6-Zr1-C2=159.87           
C7-C6-Zr1-C3= 36.37           C7-C6-Zr1-C4= 77.32           C7-C6-Zr1-C5=114.69           C7-C6-Zr1-C13=340.80          
C7-C6-Zr1-C14=312.86          C7-C6-Zr1-C15=278.95          C7-C6-Zr1-C16=264.81          C7-C6-Zr1-C17=330.18          
C7-C6-Zr1-C25=187.16          H11-C6-Zr1-C2=283.32          H11-C6-Zr1-C3=159.81          H11-C6-Zr1-C4=200.77          
H11-C6-Zr1-C5=238.13          H11-C6-Zr1-C7=123.44          H11-C6-Zr1-C13=104.24         H11-C6-Zr1-C14= 76.30         
H11-C6-Zr1-C15= 42.39         H11-C6-Zr1-C16= 28.25         H11-C6-Zr1-C17= 93.62         H11-C6-Zr1-C25=310.61         
Zr1-C6-C5-C4= 64.90           Zr1-C6-C5-H10=235.77          C7-C6-C5-Zr1=293.10           C7-C6-C5-C4=358.00            
C7-C6-C5-H10=168.87           H11-C6-C5-Zr1=124.92          H11-C6-C5-C4=189.82           H11-C6-C5-H10=  0.68          
C3-C7-Zr1-C2= 86.57           C3-C7-Zr1-C4= 37.19           C3-C7-Zr1-C5= 78.79           C3-C7-Zr1-C6=116.67           
C3-C7-Zr1-C13=280.69          C3-C7-Zr1-C14=249.58          C3-C7-Zr1-C15=225.25          C3-C7-Zr1-C16=239.38          
C3-C7-Zr1-C17=282.67          C3-C7-Zr1-C25=125.38          C6-C7-Zr1-C2=329.90           C6-C7-Zr1-C3=243.33           
C6-C7-Zr1-C4=280.52           C6-C7-Zr1-C5=322.12           C6-C7-Zr1-C13=164.02          C6-C7-Zr1-C14=132.91          
C6-C7-Zr1-C15=108.58          C6-C7-Zr1-C16=122.71          C6-C7-Zr1-C17=166.00          C6-C7-Zr1-C25=  8.71          
H12-C7-Zr1-C2=208.61          H12-C7-Zr1-C3=122.04          H12-C7-Zr1-C4=159.23          H12-C7-Zr1-C5=200.84          
H12-C7-Zr1-C6=238.71          H12-C7-Zr1-C13= 42.74         H12-C7-Zr1-C14= 11.62         H12-C7-Zr1-C15=347.29         
H12-C7-Zr1-C16=  1.42         H12-C7-Zr1-C17= 44.71         H12-C7-Zr1-C25=247.42         Zr1-C7-C3-C4=296.18           
Zr1-C7-C3-H8=125.37           C6-C7-C3-Zr1= 63.37           C6-C7-C3-C4=359.56            C6-C7-C3-H8=188.74            
H12-C7-C3-Zr1=233.90          H12-C7-C3-C4=170.08           H12-C7-C3-H8=359.27           Zr1-C7-C6-C5= 65.48           
Zr1-C7-C6-H11=233.67          C3-C7-C6-Zr1=296.03           C3-C7-C6-C5=  1.51            C3-C7-C6-H11=169.69           
H12-C7-C6-Zr1=125.50          H12-C7-C6-C5=190.98           H12-C7-C6-H11=359.16          

 CMA Distance (Angstroems)
 ---------------------------
R(CMA):  4.5640
           -------------------------------------------------
          |                Final Singlepoint                |
           -------------------------------------------------

          ...................................................
          :                      SETUP                      :
          :.................................................:
          :  # basis functions                  79          :
          :  # atomic orbitals                  78          :
          :  # shells                           46          :
          :  # electrons                        72          :
          :  max. iterations                   250          :
          :  Hamiltonian                  GFN2-xTB          :
          :  restarted?                      false          :
          :  GBSA solvation                  false          :
          :  PC potential                    false          :
          :  electronic temp.          300.0000000     K    :
          :  accuracy                    1.0000000          :
          :  -> integral cutoff          0.2500000E+02      :
          :  -> integral neglect         0.1000000E-07      :
          :  -> SCF convergence          0.1000000E-05 Eh   :
          :  -> wf. convergence          0.1000000E-03 e    :
          :  Broyden damping             0.4000000          :
          ...................................................

 iter      E             dE          RMSdq      gap      omega  full diag
   1    -38.3099449 -0.383099E+02  0.137E-04    1.79       0.0  T
   2    -38.3099449 -0.101075E-09  0.942E-05    1.79     190.6  T
   3    -38.3099449 -0.143750E-09  0.624E-05    1.79     287.7  T

   *** convergence criteria satisfied after 3 iterations ***

         #    Occupation            Energy/Eh            Energy/eV
      -------------------------------------------------------------
         1        2.0000           -0.8727357             -23.7483
       ...           ...                  ...                  ...
        30        2.0000           -0.5576410             -15.1742
        31        2.0000           -0.5506078             -14.9828
        32        2.0000           -0.5334623             -14.5162
        33        2.0000           -0.5286644             -14.3857
        34        2.0000           -0.5191669             -14.1273
        35        2.0000           -0.5138451             -13.9824
        36        2.0000           -0.4960647             -13.4986 (HOMO)
        37                         -0.4303126             -11.7094 (LUMO)
        38                         -0.4277079             -11.6385
        39                         -0.4155934             -11.3089
        40                         -0.4067817             -11.0691
        41                         -0.3811511             -10.3716
       ...                                ...                  ...
        78                          2.6118756              71.0728
      -------------------------------------------------------------
                  HL-Gap            0.0657521 Eh            1.7892 eV
             Fermi-level           -0.4631887 Eh          -12.6040 eV

 SCC (total)                   0 d,  0 h,  0 min,  0.332 sec
 SCC setup                      ...        0 min,  0.003 sec (  0.883%)
 Dispersion                     ...        0 min,  0.024 sec (  7.097%)
 classical contributions        ...        0 min,  0.010 sec (  3.115%)
 integral evaluation            ...        0 min,  0.036 sec ( 10.743%)
 iterations                     ...        0 min,  0.227 sec ( 68.433%)
 molecular gradient             ...        0 min,  0.032 sec (  9.656%)
 printout                       ...        0 min,  0.000 sec (  0.066%)

         :::::::::::::::::::::::::::::::::::::::::::::::::::::
         ::                     SUMMARY                     ::
         :::::::::::::::::::::::::::::::::::::::::::::::::::::
         :: total energy             -37.686541077709 Eh    ::
         :: gradient norm              0.000662851092 Eh/a0 ::
         :: HOMO-LUMO gap              1.789204902967 eV    ::
         ::.................................................::
         :: SCC energy               -38.309944890748 Eh    ::
         :: -> isotropic ES            0.086650427700 Eh    ::
         :: -> anisotropic ES         -0.010860079047 Eh    ::
         :: -> anisotropic XC          0.015827543516 Eh    ::
         :: -> dispersion             -0.025816549680 Eh    ::
         :: repulsion energy           0.622904396342 Eh    ::
         :: add. restraining           0.000000000000 Eh    ::
         :: total charge               1.000000000000 e     ::
         :::::::::::::::::::::::::::::::::::::::::::::::::::::

           -------------------------------------------------
          |                Property Printout                |
           -------------------------------------------------

    * Orbital Energies and Occupations

         #    Occupation            Energy/Eh            Energy/eV
      -------------------------------------------------------------
         1        2.0000           -0.8727357             -23.7483
       ...           ...                  ...                  ...
        24        2.0000           -0.5986351             -16.2897
        25        2.0000           -0.5976292             -16.2623
        26        2.0000           -0.5967200             -16.2376
        27        2.0000           -0.5950051             -16.1909
        28        2.0000           -0.5949480             -16.1894
        29        2.0000           -0.5740765             -15.6214
        30        2.0000           -0.5576410             -15.1742
        31        2.0000           -0.5506078             -14.9828
        32        2.0000           -0.5334623             -14.5162
        33        2.0000           -0.5286644             -14.3857
        34        2.0000           -0.5191669             -14.1273
        35        2.0000           -0.5138451             -13.9824
        36        2.0000           -0.4960647             -13.4986 (HOMO)
        37                         -0.4303126             -11.7094 (LUMO)
        38                         -0.4277079             -11.6385
        39                         -0.4155934             -11.3089
        40                         -0.4067817             -11.0691
        41                         -0.3811511             -10.3716
        42                         -0.3170204              -8.6266
        43                         -0.3164078              -8.6099
        44                         -0.3130282              -8.5179
        45                         -0.3090186              -8.4088
        46                         -0.0531402              -1.4460
        47                         -0.0309321              -0.8417
       ...                                ...                  ...
        78                          2.6118756              71.0728
      -------------------------------------------------------------
                  HL-Gap            0.0657521 Eh            1.7892 eV
             Fermi-level           -0.4631887 Eh          -12.6040 eV

     #   Z          covCN         q      C6AA      α(0)
     1  40 Zr       8.791     0.949   138.861    17.707
     2   6 C        3.626    -0.278    26.715     7.446
     3   6 C        3.753    -0.083    22.142     6.710
     4   6 C        3.765    -0.086    22.186     6.714
     5   6 C        3.768    -0.082    22.099     6.700
     6   6 C        3.757    -0.090    22.266     6.728
     7   6 C        3.750    -0.081    22.103     6.705
     8   1 H        0.925     0.087     1.909     2.161
     9   1 H        0.925     0.089     1.892     2.151
    10   1 H        0.925     0.099     1.793     2.094
    11   1 H        0.925     0.081     1.968     2.194
    12   1 H        0.925     0.090     1.883     2.146
    13   6 C        3.753    -0.083    22.142     6.710
    14   6 C        3.750    -0.081    22.103     6.705
    15   6 C        3.757    -0.090    22.266     6.728
    16   6 C        3.768    -0.082    22.099     6.700
    17   6 C        3.765    -0.086    22.187     6.714
    18   1 H        0.925     0.087     1.909     2.160
    19   1 H        0.925     0.090     1.883     2.146
    20   1 H        0.925     0.081     1.967     2.193
    21   1 H        0.925     0.099     1.793     2.094
    22   1 H        0.925     0.089     1.893     2.152
    23   1 H        0.926     0.079     1.987     2.205
    24   1 H        0.926     0.079     1.987     2.205
    25   6 C        4.159    -0.059    21.550     6.593
    26   1 H        0.923     0.062     2.171     2.304
    27   1 H        0.923     0.062     2.170     2.304
    28   6 C        3.750    -0.114    22.737     6.800
    29   1 H        0.925     0.059     2.215     2.328
    30   1 H        0.925     0.053     2.285     2.364
    31   1 H        0.925     0.059     2.215     2.328

 Mol. C6AA /au·bohr⁶  :       9470.976859
 Mol. C8AA /au·bohr⁸  :     320629.951778
 Mol. α(0) /au        :        143.185248


Wiberg/Mayer (AO) data.
largest (>0.10) Wiberg bond orders for each atom

 ---------------------------------------------------------------------------
     #   Z sym  total        # sym  WBO       # sym  WBO       # sym  WBO
 ---------------------------------------------------------------------------
     1  40 Zr   4.252 --     2 C    0.873    17 C    0.281     4 C    0.281
                             5 C    0.264    16 C    0.264    15 C    0.262
                             6 C    0.262     3 C    0.237    13 C    0.237
                            14 C    0.231     7 C    0.231    25 C    0.144
     2   6 C    3.849 --    25 C    0.982    23 H    0.907    24 H    0.907
                             1 Zr   0.873
     3   6 C    3.980 --     7 C    1.316     4 C    1.295     8 H    0.920
                             1 Zr   0.237
     4   6 C    3.980 --     3 C    1.295     5 C    1.277     9 H    0.916
                             1 Zr   0.281
     5   6 C    3.980 --     6 C    1.292     4 C    1.277    10 H    0.921
                             1 Zr   0.264
     6   6 C    3.979 --     7 C    1.300     5 C    1.292    11 H    0.916
                             1 Zr   0.262
     7   6 C    3.981 --     3 C    1.316     6 C    1.300    12 H    0.923
                             1 Zr   0.231
     8   1 H    0.990 --     3 C    0.920
     9   1 H    0.990 --     4 C    0.916
    10   1 H    0.987 --     5 C    0.921
    11   1 H    0.992 --     6 C    0.916
    12   1 H    0.991 --     7 C    0.923
    13   6 C    3.980 --    14 C    1.316    17 C    1.295    18 H    0.920
                             1 Zr   0.237
    14   6 C    3.981 --    13 C    1.316    15 C    1.300    19 H    0.923
                             1 Zr   0.231
    15   6 C    3.979 --    14 C    1.300    16 C    1.292    20 H    0.916
                             1 Zr   0.262
    16   6 C    3.980 --    15 C    1.292    17 C    1.277    21 H    0.921
                             1 Zr   0.264
    17   6 C    3.980 --    13 C    1.295    16 C    1.277    22 H    0.916
                             1 Zr   0.281
    18   1 H    0.990 --    13 C    0.920
    19   1 H    0.991 --    14 C    0.923
    20   1 H    0.992 --    15 C    0.916
    21   1 H    0.987 --    16 C    0.921
    22   1 H    0.990 --    17 C    0.916
    23   1 H    0.993 --     2 C    0.907
    24   1 H    0.993 --     2 C    0.907
    25   6 C    3.991 --    28 C    0.999     2 C    0.982    27 H    0.909
                            26 H    0.909     1 Zr   0.144
    26   1 H    0.995 --    25 C    0.909
    27   1 H    0.995 --    25 C    0.909
    28   6 C    3.988 --    25 C    0.999    30 H    0.983    29 H    0.982
                            31 H    0.982
    29   1 H    0.996 --    28 C    0.982
    30   1 H    0.997 --    28 C    0.983
    31   1 H    0.996 --    28 C    0.982
 ---------------------------------------------------------------------------

Topologies differ in total number of bonds
Writing topology from bond orders to xtbtopo.mol

molecular dipole:
                 x           y           z       tot (Debye)
 q only:       -1.562       0.362       0.101
   full:       -1.613       0.258       0.282       4.214
molecular quadrupole (traceless):
                xx          xy          yy          xz          yz          zz
 q only:        1.341      -1.853      -3.149       1.503      -4.403       1.808
  q+dip:        4.023      -1.492      -6.496       0.830      -7.654       2.474
   full:        7.112      -2.035      -6.885       1.773      -5.648      -0.227

           -------------------------------------------------
          |                Geometry Summary                 |
           -------------------------------------------------

      molecular mass/u    :      264.4982010
   center of mass at/Å    :       -0.8351147       0.1467177       0.1310492
  moments of inertia/u·Å² :        0.6600813E+03   0.7789587E+03   0.1166054E+04
rotational constants/cm⁻¹ :        0.2553872E-01   0.2164124E-01   0.1445699E-01

 * 40 selected distances

     #   Z          #   Z                                           value/Å
     1  40 Zr       2   6 C                                       2.1803645
     1  40 Zr       3   6 C                                       2.4567158
     1  40 Zr       4   6 C                                       2.4165827
     3   6 C        4   6 C                                       1.4196332
     1  40 Zr       5   6 C                                       2.4229554
     4   6 C        5   6 C                                       1.4234766
     1  40 Zr       6   6 C                                       2.4354617
     5   6 C        6   6 C                                       1.4205698
     1  40 Zr       7   6 C                                       2.4725793 (max)
     3   6 C        7   6 C                                       1.4158741
     6   6 C        7   6 C                                       1.4187188
     3   6 C        8   1 H                                       1.0851252
     4   6 C        9   1 H                                       1.0859471
     5   6 C       10   1 H                                       1.0837494
     6   6 C       11   1 H                                       1.0866075
     7   6 C       12   1 H                                       1.0842351
     1  40 Zr      13   6 C                                       2.4567160
     1  40 Zr      14   6 C                                       2.4725125
    13   6 C       14   6 C                                       1.4158879
     1  40 Zr      15   6 C                                       2.4355005
    14   6 C       15   6 C                                       1.4187080
     1  40 Zr      16   6 C                                       2.4229804
    15   6 C       16   6 C                                       1.4205698
     1  40 Zr      17   6 C                                       2.4165172
    13   6 C       17   6 C                                       1.4196327
    16   6 C       17   6 C                                       1.4234838
    13   6 C       18   1 H                                       1.0851256
    14   6 C       19   1 H                                       1.0842443
    15   6 C       20   1 H                                       1.0865983
    16   6 C       21   1 H                                       1.0837429 (min)
    17   6 C       22   1 H                                       1.0859705
     2   6 C       23   1 H                                       1.1043127
     2   6 C       24   1 H                                       1.1042985
     2   6 C       25   6 C                                       1.5498473
    25   6 C       26   1 H                                       1.1076600
    25   6 C       27   1 H                                       1.1076179
    25   6 C       28   6 C                                       1.5367138
    28   6 C       29   1 H                                       1.0876764
    28   6 C       30   1 H                                       1.0868935
    28   6 C       31   1 H                                       1.0876824

 * 3 distinct bonds (by element types)

   Z      Z             #   av. dist./Å        max./Å        min./Å
   1 H    6 C          17     1.0904404     1.1076600     1.0837429
   6 C    6 C          12     1.4402596     1.5498473     1.4158741
   6 C   40 Zr         11     2.4171714     2.4725793     2.1803645


optimized geometry written to: xtbopt.xyz


           -------------------------------------------------
          | TOTAL ENERGY              -37.686541077709 Eh   |
          | GRADIENT NORM               0.000662851092 Eh/α |
          | HOMO-LUMO GAP               1.789204902967 eV   |
           -------------------------------------------------

------------------------------------------------------------------------
 * finished run on 2026/08/03 at 11:35:34.590     
------------------------------------------------------------------------
 total:
 * wall-time:     0 d,  0 h,  0 min, 14.916 sec
 *  cpu-time:     0 d,  0 h,  0 min, 32.747 sec
 * ratio c/w:     2.195 speedup
 SCF:
 * wall-time:     0 d,  0 h,  0 min,  1.536 sec
 *  cpu-time:     0 d,  0 h,  0 min,  3.269 sec
 * ratio c/w:     2.128 speedup
 ANC optimizer:
 * wall-time:     0 d,  0 h,  0 min, 13.109 sec
 *  cpu-time:     0 d,  0 h,  0 min, 29.034 sec
 * ratio c/w:     2.215 speedup

