      -----------------------------------------------------------      
     |                   =====================                   |     
     |                           x T B                           |     
     |                   =====================                   |     
     |                         S. Grimme                         |     
     |          Mulliken Center for Theoretical Chemistry        |     
     |                    University of Bonn                     |     
      -----------------------------------------------------------      

   * xtb version 6.5.1 (b24c23e) compiled by 'conda@728c89f4b128' on 2022-07-12

   xtb is free software: you can redistribute it and/or modify it under
   the terms of the GNU Lesser General Public License as published by
   the Free Software Foundation, either version 3 of the License, or
   (at your option) any later version.
   
   xtb is distributed in the hope that it will be useful,
   but WITHOUT ANY WARRANTY; without even the implied warranty of
   MERCHANTABILITY or FITNESS FOR A PARTICULAR PURPOSE.  See the
   GNU Lesser General Public License for more details.
   
   Cite this work as:
   * C. Bannwarth, E. Caldeweyher, S. Ehlert, A. Hansen, P. Pracht,
     J. Seibert, S. Spicher, S. Grimme, WIREs Comput. Mol. Sci., 2020, 11,
     e01493. DOI: 10.1002/wcms.1493
   
   for GFN2-xTB:
   * C. Bannwarth, S. Ehlert and S. Grimme., J. Chem. Theory Comput., 2019,
     15, 1652-1671. DOI: 10.1021/acs.jctc.8b01176
   for GFN1-xTB:
   * S. Grimme, C. Bannwarth, P. Shushkov, J. Chem. Theory Comput., 2017,
     13, 1989-2009. DOI: 10.1021/acs.jctc.7b00118
   for GFN0-xTB:
   * P. Pracht, E. Caldeweyher, S. Ehlert, S. Grimme, ChemRxiv, 2019, preprint.
     DOI: 10.26434/chemrxiv.8326202.v1
   for GFN-FF:
   * S. Spicher and S. Grimme, Angew. Chem. Int. Ed., 2020, 59, 15665-15673.
     DOI: 10.1002/anie.202004239
   
   for ALPB and GBSA implicit solvation:
   * S. Ehlert, M. Stahn, S. Spicher, S. Grimme, J. Chem. Theory Comput.,
     2021, 17, 4250-4261. DOI: 10.1021/acs.jctc.1c00471
   
   for DFT-D4:
   * E. Caldeweyher, C. Bannwarth and S. Grimme, J. Chem. Phys., 2017,
     147, 034112. DOI: 10.1063/1.4993215
   * E. Caldeweyher, S. Ehlert, A. Hansen, H. Neugebauer, S. Spicher,
     C. Bannwarth and S. Grimme, J. Chem. Phys., 2019, 150, 154122.
     DOI: 10.1063/1.5090222
   * E. Caldeweyher, J.-M. Mewes, S. Ehlert and S. Grimme, Phys. Chem. Chem. Phys.
     2020, 22, 8499-8512. DOI: 10.1039/D0CP00502A
   
   for sTDA-xTB:
   * S. Grimme and C. Bannwarth, J. Chem. Phys., 2016, 145, 054103.
     DOI: 10.1063/1.4959605
   
   in the mass-spec context:
   * V. Asgeirsson, C. Bauer and S. Grimme, Chem. Sci., 2017, 8, 4879.
     DOI: 10.1039/c7sc00601b
   * J. Koopman and S. Grimme, ACS Omega 2019, 4, 12, 15120-15133.
     DOI: 10.1021/acsomega.9b02011
   
   for metadynamics refer to:
   * S. Grimme, J. Chem. Theory Comput., 2019, 155, 2847-2862
     DOI: 10.1021/acs.jctc.9b00143
   
   for SPH calculations refer to:
   * S. Spicher and S. Grimme, J. Chem. Theory Comput., 2021, 17, 1701-1714
     DOI: 10.1021/acs.jctc.0c01306
   
   with help from (in alphabetical order)
   P. Atkinson, C. Bannwarth, F. Bohle, G. Brandenburg, E. Caldeweyher
   M. Checinski, S. Dohm, S. Ehlert, S. Ehrlich, I. Gerasimov, C. Hölzer
   A. Katbashev, J. Koopman, C. Lavigne, S. Lehtola, F. März, M. Müller,
   F. Musil, H. Neugebauer, J. Pisarek, C. Plett, P. Pracht, F. Pultar,
   J. Seibert, P. Shushkov, S. Spicher, M. Stahn, M. Steiner, T. Strunk,
   J. Stückrath, T. Rose, and J. Unsleber
   
 * started run on 2026/08/03 at 11:36:29.447     

           -------------------------------------------------
          |                Calculation Setup                |
           -------------------------------------------------

          program call               : /h/332/chchoi/miniconda3/envs/el-agente/bin/xtb reactant.xyz --opt --gfn 2 -P 4 --chrg 1 --input detailed_input.inp
          coordinate file            : reactant.xyz
          omp threads                :                     4

   ID    Z sym.   atoms
    1   40 Zr     1
    2    6 C      2-7, 13-17, 26, 27
    3    1 H      8-12, 18-25, 28-31
constraining bond 2 27 to    2.1000000 Å, actual value:    3.2810763 Å
constraining bond 1 2 to    2.6000000 Å, actual value:    2.2077984 Å
constraining bond 26 27 to    1.4500000 Å, actual value:    1.3339472 Å

molecular fragmentation (1/2 indicates fragments):
1111111111111111111111111222222
# atoms in fragment 1/2:    25     6
 fragment masses (1/2) :      236.44       28.05
CMA distance (Bohr)    :   5.992
constraining FC (au)   :  0.7000

           -------------------------------------------------
          |                 G F N 2 - x T B                 |
           -------------------------------------------------

        Reference                      10.1021/acs.jctc.8b01176
      * Hamiltonian:
        H0-scaling (s, p, d)           1.850000    2.230000    2.230000
        zeta-weighting                 0.500000
      * Dispersion:
        s8                             2.700000
        a1                             0.520000
        a2                             5.000000
        s9                             5.000000
      * Repulsion:
        kExp                           1.500000    1.000000
        rExp                           1.000000
      * Coulomb:
        alpha                          2.000000
        third order                    shell-resolved
        anisotropic                    true
        a3                             3.000000
        a5                             4.000000
        cn-shift                       1.200000
        cn-exp                         4.000000
        max-rad                        5.000000


          ...................................................
          :                      SETUP                      :
          :.................................................:
          :  # basis functions                  79          :
          :  # atomic orbitals                  78          :
          :  # shells                           46          :
          :  # electrons                        72          :
          :  max. iterations                   250          :
          :  Hamiltonian                  GFN2-xTB          :
          :  restarted?                      false          :
          :  GBSA solvation                  false          :
          :  PC potential                    false          :
          :  electronic temp.          300.0000000     K    :
          :  accuracy                    1.0000000          :
          :  -> integral cutoff          0.2500000E+02      :
          :  -> integral neglect         0.1000000E-07      :
          :  -> SCF convergence          0.1000000E-05 Eh   :
          :  -> wf. convergence          0.1000000E-03 e    :
          :  Broyden damping             0.4000000          :
          ...................................................

 iter      E             dE          RMSdq      gap      omega  full diag
   1    -38.1881272 -0.381881E+02  0.436E+00    1.17       0.0  T
   2    -38.2931262 -0.104999E+00  0.332E+00    2.21       1.0  T
   3    -38.3113658 -0.182395E-01  0.230E+00    1.76       1.0  T
   4    -38.3091961  0.216964E-02  0.517E-01    1.90       1.0  T
   5    -38.3106047 -0.140858E-02  0.436E-01    1.80       1.0  T
   6    -38.3131829 -0.257824E-02  0.188E-01    1.83       1.0  T
   7    -38.3132000 -0.170469E-04  0.124E-01    1.85       1.0  T
   8    -38.3132128 -0.127880E-04  0.268E-02    1.86       1.0  T
   9    -38.3132170 -0.427257E-05  0.149E-02    1.87       1.2  T
  10    -38.3132174 -0.337366E-06  0.948E-03    1.87       1.9  T
  11    -38.3132177 -0.339747E-06  0.312E-03    1.87       5.7  T
  12    -38.3132178 -0.591880E-07  0.113E-03    1.87      15.8  T
  13    -38.3132178 -0.496237E-08  0.538E-04    1.87      33.4  T
  14    -38.3132178 -0.275377E-08  0.219E-04    1.87      82.1  T

   *** convergence criteria satisfied after 14 iterations ***

         #    Occupation            Energy/Eh            Energy/eV
      -------------------------------------------------------------
         1        2.0000           -0.8631287             -23.4869
       ...           ...                  ...                  ...
        30        2.0000           -0.5762671             -15.6810
        31        2.0000           -0.5750815             -15.6488
        32        2.0000           -0.5222336             -14.2107
        33        2.0000           -0.5172913             -14.0762
        34        2.0000           -0.5077799             -13.8174
        35        2.0000           -0.5017705             -13.6539
        36        2.0000           -0.4953228             -13.4784 (HOMO)
        37                         -0.4266149             -11.6088 (LUMO)
        38                         -0.4168421             -11.3429
        39                         -0.4101907             -11.1619
        40                         -0.4044101             -11.0046
        41                         -0.3939087             -10.7188
       ...                                ...                  ...
        78                          2.4715419              67.2541
      -------------------------------------------------------------
                  HL-Gap            0.0687079 Eh            1.8696 eV
             Fermi-level           -0.4609689 Eh          -12.5436 eV

 SCC (total)                   0 d,  0 h,  0 min,  0.726 sec
 SCC setup                      ...        0 min,  0.000 sec (  0.035%)
 Dispersion                     ...        0 min,  0.000 sec (  0.038%)
 classical contributions        ...        0 min,  0.000 sec (  0.060%)
 integral evaluation            ...        0 min,  0.005 sec (  0.729%)
 iterations                     ...        0 min,  0.612 sec ( 84.327%)
 molecular gradient             ...        0 min,  0.107 sec ( 14.787%)
 printout                       ...        0 min,  0.000 sec (  0.021%)

         :::::::::::::::::::::::::::::::::::::::::::::::::::::
         ::                     SUMMARY                     ::
         :::::::::::::::::::::::::::::::::::::::::::::::::::::
         :: total energy             -33.755707256418 Eh    ::
         :: gradient norm              4.337861933938 Eh/a0 ::
         :: HOMO-LUMO gap              1.869636077001 eV    ::
         ::.................................................::
         :: SCC energy               -38.313217790515 Eh    ::
         :: -> isotropic ES            0.090971619437 Eh    ::
         :: -> anisotropic ES         -0.013151712168 Eh    ::
         :: -> anisotropic XC          0.022496052995 Eh    ::
         :: -> dispersion             -0.027967785647 Eh    ::
         :: repulsion energy           0.651599403108 Eh    ::
         :: add. restraining           3.905180516118 Eh    ::
         :: total charge               1.000000000000 e     ::
         :::::::::::::::::::::::::::::::::::::::::::::::::::::

      ----------------------------------------------------------- 
     |                   =====================                   |
     |                        A N C O P T                        |
     |                   =====================                   |
     |               Approximate Normal Coordinate               |
     |                Rational Function Optimizer                |
      ----------------------------------------------------------- 

          ...................................................
          :                      SETUP                      :
          :.................................................:
          :   optimization level            normal          :
          :   max. optcycles                   200          :
          :   ANC micro-cycles                  20          :
          :   degrees of freedom                87          :
          :.................................................:
          :   RF solver                   davidson          :
          :   write xtbopt.log                true          :
          :   linear?                        false          :
          :   energy convergence         0.5000000E-05 Eh   :
          :   grad. convergence          0.1000000E-02 Eh/α :
          :   maximium RF displ.         1.0000000          :
          :   Hlow (freq-cutoff)         0.1000000E-01      :
          :   Hmax (freq-cutoff)         5.0000000          :
          :   S6 in model hess.         20.0000000          :
          ...................................................

generating ANC from model Hessian ...
Using Lindh-Hessian (1995)
 Shifting diagonal of input Hessian by   0.31383789873109347     
 Lowest  eigenvalues of input Hessian
    0.010000    0.121111    0.218888    0.292697    0.000000    0.000000
    0.000000    0.000000    0.000000    0.000000    0.314300    0.314569
    0.315438    0.315629    0.316262    0.320557    0.321071    0.321280
 Highest eigenvalues
    2.038497    2.044697    2.046702    2.976725    4.281375    5.229456


........................................................................
.............................. CYCLE    1 ..............................
........................................................................
   1    -38.3132178 -0.383132E+02  0.107E-04    1.87       0.0  T
   2    -38.3132178 -0.620943E-10  0.883E-05    1.87     203.3  T
   3    -38.3132178 -0.616254E-10  0.562E-05    1.87     319.6  T
     SCC iter.                  ...        0 min,  0.117 sec
     gradient                   ...        0 min,  0.132 sec
 * total energy  :   -33.7557073 Eh     change       -0.9208634E-10 Eh
   gradient norm :     4.3378620 Eh/α   predicted     0.0000000E+00 (-100.00%)
   displ. norm   :     0.7163372 α      lambda       -0.3075040E+01
   maximum displ.:     0.6205570 α      in ANC's #85, #86, #62, ...

........................................................................
.............................. CYCLE    2 ..............................
........................................................................
   1    -38.2540322 -0.382540E+02  0.106E+00    1.48       0.0  T
   2    -38.2543682 -0.335983E-03  0.724E-01    1.57       1.0  T
   3    -38.2534694  0.898750E-03  0.318E-01    1.50       1.0  T
   4    -38.2544340 -0.964522E-03  0.150E-01    1.58       1.0  T
   5    -38.2545741 -0.140136E-03  0.649E-02    1.56       1.0  T
   6    -38.2545945 -0.203868E-04  0.361E-02    1.57       1.0  T
   7    -38.2546027 -0.819501E-05  0.228E-02    1.57       1.0  T
   8    -38.2546020  0.667177E-06  0.144E-02    1.57       1.2  T
   9    -38.2546037 -0.169562E-05  0.479E-03    1.57       3.8  T
  10    -38.2546037  0.453218E-07  0.278E-03    1.57       6.5  T
  11    -38.2546038 -0.799475E-07  0.909E-04    1.57      19.7  T
  12    -38.2546038 -0.960223E-08  0.368E-04    1.57      48.8  T
     SCC iter.                  ...        0 min,  0.626 sec
     gradient                   ...        0 min,  0.126 sec
 * total energy  :   -36.1830602 Eh     change       -0.2427353E+01 Eh
   gradient norm :     2.4909470 Eh/α   predicted    -0.2326512E+01 (  -4.15%)
   displ. norm   :     0.6304980 α      lambda       -0.1539727E+01
   maximum displ.:     0.5298272 α      in ANC's #85, #86, #62, ...

........................................................................
.............................. CYCLE    3 ..............................
........................................................................
   1    -38.1289980 -0.381290E+02  0.146E+00    1.21       0.0  T
   2    -38.1080218  0.209763E-01  0.178E+00    1.88       1.0  T
   3    -38.1546316 -0.466099E-01  0.785E-01    1.62       1.0  T
   4    -38.1517767  0.285492E-02  0.482E-01    1.45       1.0  T
   5    -38.1552478 -0.347106E-02  0.225E-01    1.50       1.0  T
   6    -38.1560896 -0.841860E-03  0.867E-02    1.52       1.0  T
   7    -38.1560779  0.117430E-04  0.699E-02    1.55       1.0  T
   8    -38.1561128 -0.348988E-04  0.210E-02    1.53       1.0  T
   9    -38.1561171 -0.428683E-05  0.105E-02    1.53       1.7  T
  10    -38.1561180 -0.873249E-06  0.440E-03    1.53       4.1  T
  11    -38.1561180 -0.437856E-07  0.191E-03    1.53       9.4  T
  12    -38.1561180 -0.108364E-07  0.138E-03    1.53      13.0  T
  13    -38.1561180 -0.104150E-07  0.534E-04    1.53      33.6  T
  14    -38.1561180 -0.619011E-09  0.285E-04    1.53      63.0  T
     SCC iter.                  ...        0 min,  0.704 sec
     gradient                   ...        0 min,  0.121 sec
 * total energy  :   -37.2523058 Eh     change       -0.1069246E+01 Eh
   gradient norm :     0.9637325 Eh/α   predicted    -0.1075906E+01 (   0.62%)
   displ. norm   :     0.4563573 α      lambda       -0.3731091E+00
   maximum displ.:     0.2774989 α      in ANC's #85, #1, #62, ...

........................................................................
.............................. CYCLE    4 ..............................
........................................................................
   1    -38.0930155 -0.380930E+02  0.979E-01    1.36       0.0  T
   2    -38.0766851  0.163304E-01  0.117E+00    1.53       1.0  T
   3    -38.1065030 -0.298179E-01  0.416E-01    1.40       1.0  T
   4    -38.1060346  0.468376E-03  0.211E-01    1.38       1.0  T
   5    -38.1068823 -0.847656E-03  0.765E-02    1.41       1.0  T
   6    -38.1069154 -0.330780E-04  0.547E-02    1.39       1.0  T
   7    -38.1069150  0.308955E-06  0.415E-02    1.40       1.0  T
   8    -38.1069307 -0.156162E-04  0.118E-02    1.40       1.5  T
   9    -38.1069314 -0.726006E-06  0.538E-03    1.40       3.3  T
  10    -38.1069315 -0.123994E-06  0.155E-03    1.40      11.6  T
  11    -38.1069315 -0.574550E-08  0.907E-04    1.40      19.8  T
  12    -38.1069315 -0.916835E-09  0.632E-04    1.40      28.4  T
     SCC iter.                  ...        0 min,  0.611 sec
     gradient                   ...        0 min,  0.116 sec
 * total energy  :   -37.4665429 Eh     change       -0.2142371E+00 Eh
   gradient norm :     0.1686064 Eh/α   predicted    -0.2254375E+00 (   5.23%)
   displ. norm   :     0.5686605 α      lambda       -0.4800808E-01
   maximum displ.:     0.4828797 α      in ANC's #1, #26, #85, ...

........................................................................
.............................. CYCLE    5 ..............................
........................................................................
   1    -38.0865324 -0.380865E+02  0.123E+00    1.38       0.0  T
   2    -38.0719950  0.145375E-01  0.112E+00    1.44       1.0  T
   3    -38.0909709 -0.189760E-01  0.708E-01    1.44       1.0  T
   4    -38.0954608 -0.448990E-02  0.287E-01    1.39       1.0  T
   5    -38.0969537 -0.149290E-02  0.120E-01    1.43       1.0  T
   6    -38.0969741 -0.203603E-04  0.455E-02    1.41       1.0  T
   7    -38.0969937 -0.195634E-04  0.278E-02    1.42       1.0  T
   8    -38.0969953 -0.160584E-05  0.131E-02    1.42       1.4  T
   9    -38.0969958 -0.557912E-06  0.845E-03    1.42       2.1  T
  10    -38.0969968 -0.983723E-06  0.317E-03    1.42       5.7  T
  11    -38.0969968 -0.154684E-08  0.183E-03    1.42       9.8  T
  12    -38.0969968 -0.290963E-07  0.513E-04    1.42      35.0  T
  13    -38.0969968 -0.330657E-08  0.261E-04    1.42      68.7  T
     SCC iter.                  ...        0 min,  0.701 sec
     gradient                   ...        0 min,  0.113 sec
 * total energy  :   -37.4777689 Eh     change       -0.1122603E-01 Eh
   gradient norm :     0.3455393 Eh/α   predicted    -0.3177029E-01 ( 183.01%)
   displ. norm   :     0.6489851 α      lambda       -0.7441644E-01
   maximum displ.:     0.3613528 α      in ANC's #1, #3, #26, ...

........................................................................
.............................. CYCLE    6 ..............................
........................................................................
   1    -38.1333715 -0.381334E+02  0.666E-01    1.37       0.0  T
   2    -38.1326448  0.726646E-03  0.520E-01    1.44       1.0  T
   3    -38.1340991 -0.145425E-02  0.330E-01    1.39       1.0  T
   4    -38.1350127 -0.913658E-03  0.146E-01    1.39       1.0  T
   5    -38.1353055 -0.292740E-03  0.783E-02    1.41       1.0  T
   6    -38.1353294 -0.239454E-04  0.257E-02    1.40       1.0  T
   7    -38.1353398 -0.104030E-04  0.131E-02    1.41       1.4  T
   8    -38.1353406 -0.771545E-06  0.632E-03    1.40       2.8  T
   9    -38.1353408 -0.229497E-06  0.401E-03    1.40       4.5  T
  10    -38.1353409 -0.683036E-07  0.186E-03    1.40       9.7  T
  11    -38.1353409 -0.240954E-08  0.521E-04    1.40      34.5  T
  12    -38.1353409 -0.372375E-08  0.227E-04    1.40      79.0  T
     SCC iter.                  ...        0 min,  0.562 sec
     gradient                   ...        0 min,  0.173 sec
 * total energy  :   -37.5200130 Eh     change       -0.4224407E-01 Eh
   gradient norm :     0.3268495 Eh/α   predicted    -0.5287966E-01 (  25.18%)
   displ. norm   :     0.3695733 α      lambda       -0.4892240E-01
   maximum displ.:     0.1241559 α      in ANC's #24, #17, #15, ...

........................................................................
.............................. CYCLE    7 ..............................
........................................................................
   1    -38.1668832 -0.381669E+02  0.429E-01    1.39       0.0  T
   2    -38.1670082 -0.124997E-03  0.279E-01    1.34       1.0  T
   3    -38.1667792  0.229046E-03  0.192E-01    1.41       1.0  T
   4    -38.1671022 -0.323082E-03  0.737E-02    1.37       1.0  T
   5    -38.1671681 -0.658628E-04  0.367E-02    1.37       1.0  T
   6    -38.1671751 -0.699841E-05  0.243E-02    1.38       1.0  T
   7    -38.1671824 -0.724648E-05  0.955E-03    1.37       1.9  T
   8    -38.1671826 -0.264164E-06  0.452E-03    1.37       4.0  T
   9    -38.1671827 -0.120716E-06  0.215E-03    1.37       8.4  T
  10    -38.1671828 -0.140923E-07  0.140E-03    1.37      12.8  T
  11    -38.1671828 -0.115455E-07  0.609E-04    1.37      29.5  T
  12    -38.1671828 -0.712056E-09  0.201E-04    1.37      89.4  T
     SCC iter.                  ...        0 min,  0.867 sec
     gradient                   ...        0 min,  0.180 sec
 * total energy  :   -37.5559677 Eh     change       -0.3595465E-01 Eh
   gradient norm :     0.1794139 Eh/α   predicted    -0.2780221E-01 ( -22.67%)
   displ. norm   :     0.5436951 α      lambda       -0.4207656E-01
   maximum displ.:     0.1659813 α      in ANC's #24, #17, #15, ...

........................................................................
.............................. CYCLE    8 ..............................
........................................................................
   1    -38.1985278 -0.381985E+02  0.760E-01    1.46       0.0  T
   2    -38.1982387  0.289078E-03  0.512E-01    1.43       1.0  T
   3    -38.1974965  0.742274E-03  0.407E-01    1.45       1.0  T
   4    -38.2001610 -0.266451E-02  0.144E-01    1.49       1.0  T
   5    -38.2002686 -0.107674E-03  0.815E-02    1.46       1.0  T
   6    -38.2002628  0.581815E-05  0.326E-02    1.46       1.0  T
   7    -38.2002780 -0.151712E-04  0.145E-02    1.45       1.2  T
   8    -38.2002785 -0.498303E-06  0.727E-03    1.46       2.5  T
   9    -38.2002789 -0.386473E-06  0.407E-03    1.45       4.4  T
  10    -38.2002789 -0.640650E-07  0.232E-03    1.46       7.8  T
  11    -38.2002790 -0.196588E-07  0.116E-03    1.46      15.5  T
  12    -38.2002790 -0.408885E-08  0.295E-04    1.45      60.9  T
  13    -38.2002790 -0.616424E-09  0.161E-04    1.45     111.3  T
     SCC iter.                  ...        0 min,  0.848 sec
     gradient                   ...        0 min,  0.167 sec
 * total energy  :   -37.5828924 Eh     change       -0.2692475E-01 Eh
   gradient norm :     0.1373376 Eh/α   predicted    -0.2725751E-01 (   1.24%)
   displ. norm   :     0.3814378 α      lambda       -0.1776390E-01
   maximum displ.:     0.1380272 α      in ANC's #61, #15, #24, ...

........................................................................
.............................. CYCLE    9 ..............................
........................................................................
   1    -38.2107815 -0.382108E+02  0.624E-01    1.52       0.0  T
   2    -38.2100845  0.697059E-03  0.559E-01    1.50       1.0  T
   3    -38.2125791 -0.249462E-02  0.283E-01    1.50       1.0  T
   4    -38.2127996 -0.220469E-03  0.988E-02    1.54       1.0  T
   5    -38.2128977 -0.981733E-04  0.441E-02    1.52       1.0  T
   6    -38.2128956  0.215121E-05  0.173E-02    1.52       1.0  T
   7    -38.2128993 -0.367944E-05  0.796E-03    1.51       2.3  T
   8    -38.2128996 -0.313096E-06  0.368E-03    1.51       4.9  T
   9    -38.2128996 -0.687502E-07  0.189E-03    1.51       9.5  T
  10    -38.2128997 -0.755435E-08  0.142E-03    1.51      12.6  T
  11    -38.2128997 -0.846872E-08  0.702E-04    1.51      25.6  T
  12    -38.2128997 -0.154493E-08  0.195E-04    1.51      91.9  T
     SCC iter.                  ...        0 min,  0.825 sec
     gradient                   ...        0 min,  0.181 sec
 * total energy  :   -37.5973299 Eh     change       -0.1443749E-01 Eh
   gradient norm :     0.1203988 Eh/α   predicted    -0.1017423E-01 ( -29.53%)
   displ. norm   :     0.5267450 α      lambda       -0.2760794E-01
   maximum displ.:     0.2570998 α      in ANC's #61, #15, #3, ...

........................................................................
.............................. CYCLE   10 ..............................
........................................................................
   1    -38.2283029 -0.382283E+02  0.823E-01    1.62       0.0  T
   2    -38.2283290 -0.261504E-04  0.691E-01    1.54       1.0  T
   3    -38.2294410 -0.111196E-02  0.349E-01    1.59       1.0  T
   4    -38.2300152 -0.574246E-03  0.123E-01    1.60       1.0  T
   5    -38.2302450 -0.229707E-03  0.499E-02    1.58       1.0  T
   6    -38.2302462 -0.128084E-05  0.186E-02    1.59       1.0  T
   7    -38.2302487 -0.246428E-05  0.111E-02    1.58       1.6  T
   8    -38.2302493 -0.603099E-06  0.525E-03    1.58       3.4  T
   9    -38.2302495 -0.228332E-06  0.202E-03    1.58       8.9  T
  10    -38.2302495  0.272699E-08  0.141E-03    1.58      12.8  T
  11    -38.2302495 -0.100002E-07  0.741E-04    1.58      24.2  T
  12    -38.2302495 -0.225150E-08  0.223E-04    1.58      80.4  T
     SCC iter.                  ...        0 min,  0.692 sec
     gradient                   ...        0 min,  0.155 sec
 * total energy  :   -37.6149066 Eh     change       -0.1757666E-01 Eh
   gradient norm :     0.1245618 Eh/α   predicted    -0.1763401E-01 (   0.33%)
   displ. norm   :     0.2102517 α      lambda       -0.7727678E-02
   maximum displ.:     0.1039225 α      in ANC's #61, #1, #15, ...

........................................................................
.............................. CYCLE   11 ..............................
........................................................................
   1    -38.2394594 -0.382395E+02  0.373E-01    1.58       0.0  T
   2    -38.2395474 -0.880267E-04  0.304E-01    1.55       1.0  T
   3    -38.2395114  0.360321E-04  0.109E-01    1.58       1.0  T
   4    -38.2395790 -0.676015E-04  0.542E-02    1.55       1.0  T
   5    -38.2395924 -0.134575E-04  0.197E-02    1.56       1.0  T
   6    -38.2395948 -0.233885E-05  0.109E-02    1.56       1.7  T
   7    -38.2395956 -0.866608E-06  0.478E-03    1.56       3.8  T
   8    -38.2395958 -0.118251E-06  0.238E-03    1.56       7.5  T
   9    -38.2395958 -0.471282E-07  0.881E-04    1.56      20.4  T
  10    -38.2395958 -0.518537E-08  0.489E-04    1.56      36.8  T
     SCC iter.                  ...        0 min,  0.658 sec
     gradient                   ...        0 min,  0.184 sec
 * total energy  :   -37.6203036 Eh     change       -0.5397073E-02 Eh
   gradient norm :     0.0848560 Eh/α   predicted    -0.4034680E-02 ( -25.24%)
   displ. norm   :     0.1812559 α      lambda       -0.6072974E-02
   maximum displ.:     0.1171231 α      in ANC's #1, #26, #61, ...

........................................................................
.............................. CYCLE   12 ..............................
........................................................................
   1    -38.2482800 -0.382483E+02  0.299E-01    1.54       0.0  T
   2    -38.2483452 -0.652173E-04  0.230E-01    1.52       1.0  T
   3    -38.2482309  0.114292E-03  0.127E-01    1.53       1.0  T
   4    -38.2483609 -0.130015E-03  0.449E-02    1.52       1.0  T
   5    -38.2483995 -0.385667E-04  0.253E-02    1.52       1.0  T
   6    -38.2484019 -0.238166E-05  0.905E-03    1.52       2.0  T
   7    -38.2484021 -0.261994E-06  0.393E-03    1.52       4.6  T
   8    -38.2484022 -0.652817E-07  0.161E-03    1.52      11.1  T
   9    -38.2484022 -0.200364E-07  0.851E-04    1.52      21.1  T
  10    -38.2484022 -0.282249E-08  0.619E-04    1.52      29.0  T
     SCC iter.                  ...        0 min,  0.738 sec
     gradient                   ...        0 min,  0.051 sec
 * total energy  :   -37.6241130 Eh     change       -0.3809324E-02 Eh
   gradient norm :     0.0346019 Eh/α   predicted    -0.3136253E-02 ( -17.67%)
   displ. norm   :     0.1632997 α      lambda       -0.3123123E-02
   maximum displ.:     0.0670572 α      in ANC's #3, #10, #4, ...

........................................................................
.............................. CYCLE   13 ..............................
........................................................................
   1    -38.2545502 -0.382546E+02  0.176E-01    1.59       0.0  T
   2    -38.2545864 -0.361772E-04  0.165E-01    1.56       1.0  T
   3    -38.2546650 -0.785911E-04  0.948E-02    1.57       1.0  T
   4    -38.2546518  0.132211E-04  0.303E-02    1.58       1.0  T
   5    -38.2546692 -0.174741E-04  0.116E-02    1.57       1.5  T
   6    -38.2546692  0.779757E-07  0.582E-03    1.57       3.1  T
   7    -38.2546694 -0.234702E-06  0.229E-03    1.57       7.8  T
   8    -38.2546694 -0.100899E-07  0.100E-03    1.57      17.9  T
   9    -38.2546694 -0.548245E-08  0.518E-04    1.57      34.7  T
  10    -38.2546694 -0.233993E-08  0.254E-04    1.57      70.7  T
     SCC iter.                  ...        0 min,  0.810 sec
     gradient                   ...        0 min,  0.115 sec
 * total energy  :   -37.6264587 Eh     change       -0.2345754E-02 Eh
   gradient norm :     0.0469726 Eh/α   predicted    -0.1603208E-02 ( -31.65%)
   displ. norm   :     0.3224530 α      lambda       -0.5108529E-02
   maximum displ.:     0.1545320 α      in ANC's #10, #4, #3, ...

........................................................................
.............................. CYCLE   14 ..............................
........................................................................
   1    -38.2575775 -0.382576E+02  0.333E-01    1.65       0.0  T
   2    -38.2577195 -0.142036E-03  0.339E-01    1.61       1.0  T
   3    -38.2582404 -0.520875E-03  0.206E-01    1.62       1.0  T
   4    -38.2581641  0.762951E-04  0.603E-02    1.63       1.0  T
   5    -38.2582503 -0.862303E-04  0.226E-02    1.62       1.0  T
   6    -38.2582504 -0.124593E-06  0.125E-02    1.63       1.4  T
   7    -38.2582516 -0.112229E-05  0.532E-03    1.63       3.4  T
   8    -38.2582516 -0.775001E-07  0.244E-03    1.63       7.4  T
   9    -38.2582517 -0.232382E-07  0.906E-04    1.63      19.8  T
  10    -38.2582517 -0.520277E-08  0.509E-04    1.63      35.3  T
     SCC iter.                  ...        0 min,  0.792 sec
     gradient                   ...        0 min,  0.063 sec
 * total energy  :   -37.6301718 Eh     change       -0.3713049E-02 Eh
   gradient norm :     0.0538684 Eh/α   predicted    -0.2819858E-02 ( -24.06%)
   displ. norm   :     0.3765634 α      lambda       -0.4467271E-02
   maximum displ.:     0.1918957 α      in ANC's #10, #4, #3, ...

........................................................................
.............................. CYCLE   15 ..............................
........................................................................
   1    -38.2566452 -0.382566E+02  0.342E-01    1.78       0.0  T
   2    -38.2567679 -0.122765E-03  0.333E-01    1.74       1.0  T
   3    -38.2577397 -0.971728E-03  0.171E-01    1.76       1.0  T
   4    -38.2577013  0.383394E-04  0.498E-02    1.76       1.0  T
   5    -38.2577465 -0.451490E-04  0.231E-02    1.76       1.0  T
   6    -38.2577488 -0.227779E-05  0.135E-02    1.76       1.3  T
   7    -38.2577498 -0.105006E-05  0.569E-03    1.76       3.2  T
   8    -38.2577499 -0.139595E-06  0.328E-03    1.76       5.5  T
   9    -38.2577500 -0.157433E-07  0.124E-03    1.76      14.5  T
  10    -38.2577500 -0.737848E-08  0.529E-04    1.76      33.9  T
  11    -38.2577500 -0.933753E-09  0.179E-04    1.76     100.5  T
     SCC iter.                  ...        0 min,  0.676 sec
     gradient                   ...        0 min,  0.119 sec
 * total energy  :   -37.6329612 Eh     change       -0.2789402E-02 Eh
   gradient norm :     0.0426169 Eh/α   predicted    -0.2550395E-02 (  -8.57%)
   displ. norm   :     0.2240162 α      lambda       -0.2538879E-02
   maximum displ.:     0.1171057 α      in ANC's #10, #4, #58, ...

........................................................................
.............................. CYCLE   16 ..............................
........................................................................
   1    -38.2583649 -0.382584E+02  0.185E-01    1.73       0.0  T
   2    -38.2583858 -0.208834E-04  0.160E-01    1.73       1.0  T
   3    -38.2584281 -0.423308E-04  0.915E-02    1.73       1.0  T
   4    -38.2584391 -0.109495E-04  0.284E-02    1.73       1.0  T
   5    -38.2584519 -0.128583E-04  0.145E-02    1.73       1.2  T
   6    -38.2584527 -0.729769E-06  0.673E-03    1.73       2.7  T
   7    -38.2584530 -0.322942E-06  0.204E-03    1.73       8.8  T
   8    -38.2584530 -0.929251E-08  0.133E-03    1.73      13.5  T
   9    -38.2584530 -0.269824E-08  0.440E-04    1.73      40.8  T
  10    -38.2584530 -0.780524E-09  0.260E-04    1.73      69.0  T
     SCC iter.                  ...        0 min,  0.760 sec
     gradient                   ...        0 min,  0.079 sec
 * total energy  :   -37.6347067 Eh     change       -0.1745578E-02 Eh
   gradient norm :     0.0320082 Eh/α   predicted    -0.1333192E-02 ( -23.62%)
   displ. norm   :     0.1831515 α      lambda       -0.2485330E-02
   maximum displ.:     0.0957203 α      in ANC's #4, #10, #44, ...

........................................................................
.............................. CYCLE   17 ..............................
........................................................................
   1    -38.2614041 -0.382614E+02  0.141E-01    1.72       0.0  T
   2    -38.2614241 -0.200228E-04  0.891E-02    1.74       1.0  T
   3    -38.2614218  0.230605E-05  0.473E-02    1.73       1.0  T
   4    -38.2614289 -0.708153E-05  0.187E-02    1.73       1.0  T
   5    -38.2614325 -0.362140E-05  0.890E-03    1.73       2.0  T
   6    -38.2614322  0.232308E-06  0.659E-03    1.73       2.7  T
   7    -38.2614326 -0.374940E-06  0.155E-03    1.73      11.6  T
   8    -38.2614326 -0.192538E-07  0.128E-03    1.73      14.0  T
   9    -38.2614326 -0.327658E-08  0.892E-04    1.73      20.1  T
  10    -38.2614326 -0.406146E-09  0.438E-04    1.73      41.0  T
     SCC iter.                  ...        0 min,  0.656 sec
     gradient                   ...        0 min,  0.027 sec
 * total energy  :   -37.6363848 Eh     change       -0.1678013E-02 Eh
   gradient norm :     0.0272687 Eh/α   predicted    -0.1284364E-02 ( -23.46%)
   displ. norm   :     0.1628566 α      lambda       -0.1492977E-02
   maximum displ.:     0.0978769 α      in ANC's #4, #44, #10, ...

........................................................................
.............................. CYCLE   18 ..............................
........................................................................
   1    -38.2630360 -0.382630E+02  0.160E-01    1.72       0.0  T
   2    -38.2630429 -0.688660E-05  0.858E-02    1.73       1.0  T
   3    -38.2630010  0.418350E-04  0.802E-02    1.72       1.0  T
   4    -38.2630521 -0.511035E-04  0.219E-02    1.72       1.0  T
   5    -38.2630516  0.549223E-06  0.171E-02    1.72       1.1  T
   6    -38.2630529 -0.131624E-05  0.313E-03    1.72       5.7  T
   7    -38.2630531 -0.201264E-06  0.111E-03    1.72      16.2  T
   8    -38.2630531 -0.675706E-08  0.101E-03    1.72      17.7  T
   9    -38.2630531 -0.402122E-08  0.417E-04    1.72      43.1  T
  10    -38.2630531 -0.448139E-10  0.193E-04    1.72      93.2  T
     SCC iter.                  ...        0 min,  0.635 sec
     gradient                   ...        0 min,  0.107 sec
 * total energy  :   -37.6374221 Eh     change       -0.1037332E-02 Eh
   gradient norm :     0.0312778 Eh/α   predicted    -0.7663015E-03 ( -26.13%)
   displ. norm   :     0.1422008 α      lambda       -0.1069282E-02
   maximum displ.:     0.0901542 α      in ANC's #4, #44, #10, ...

........................................................................
.............................. CYCLE   19 ..............................
........................................................................
   1    -38.2644718 -0.382645E+02  0.120E-01    1.73       0.0  T
   2    -38.2644766 -0.481217E-05  0.593E-02    1.73       1.0  T
   3    -38.2644579  0.186930E-04  0.712E-02    1.73       1.0  T
   4    -38.2645006 -0.426416E-04  0.183E-02    1.73       1.0  T
   5    -38.2645007 -0.120119E-06  0.130E-02    1.73       1.4  T
   6    -38.2645014 -0.730915E-06  0.360E-03    1.73       5.0  T
   7    -38.2645016 -0.206987E-06  0.823E-04    1.73      21.8  T
   8    -38.2645016 -0.394994E-08  0.630E-04    1.73      28.5  T
     SCC iter.                  ...        0 min,  0.531 sec
     gradient                   ...        0 min,  0.004 sec
 * total energy  :   -37.6381978 Eh     change       -0.7757482E-03 Eh
   gradient norm :     0.0225657 Eh/α   predicted    -0.5454717E-03 ( -29.68%)
   displ. norm   :     0.1656039 α      lambda       -0.9652617E-03
   maximum displ.:     0.1096415 α      in ANC's #4, #10, #44, ...

........................................................................
.............................. CYCLE   20 ..............................
........................................................................
   1    -38.2650479 -0.382650E+02  0.112E-01    1.76       0.0  T
   2    -38.2650543 -0.634304E-05  0.657E-02    1.75       1.0  T
   3    -38.2650236  0.306204E-04  0.662E-02    1.75       1.0  T
   4    -38.2650689 -0.452833E-04  0.115E-02    1.76       1.6  T
   5    -38.2650695 -0.596185E-06  0.105E-02    1.75       1.7  T
   6    -38.2650701 -0.601188E-06  0.314E-03    1.75       5.7  T
   7    -38.2650702 -0.304298E-07  0.817E-04    1.75      22.0  T
   8    -38.2650702 -0.424119E-08  0.433E-04    1.75      41.5  T
     SCC iter.                  ...        0 min,  0.577 sec
     gradient                   ...        0 min,  0.115 sec
 * total energy  :   -37.6388901 Eh     change       -0.6922341E-03 Eh
   gradient norm :     0.0182026 Eh/α   predicted    -0.4958881E-03 ( -28.36%)
   displ. norm   :     0.1464249 α      lambda       -0.8260385E-03
   maximum displ.:     0.0948129 α      in ANC's #4, #22, #57, ...
 * RMSD in coord.:     0.7373526 α      energy gain  -0.3883183E+01 Eh

generating ANC from model Hessian ...
Using Lindh-Hessian (1995)
 Shifting diagonal of input Hessian by    1.1963670922089789E-002
 Lowest  eigenvalues of input Hessian
    0.010000    0.011720    0.000000    0.000000    0.000000    0.000000
    0.000000    0.000000    0.012381    0.012882    0.013570    0.013871
    0.014140    0.015893    0.017166    0.019174    0.019367    0.019924
 Highest eigenvalues
    1.738500    1.739394    1.745792    2.651993    3.538482    4.296866


........................................................................
.............................. CYCLE   21 ..............................
........................................................................
   1    -38.2660302 -0.382660E+02  0.985E-02    1.78       0.0  T
   2    -38.2660371 -0.685570E-05  0.614E-02    1.77       1.0  T
   3    -38.2660326  0.441803E-05  0.552E-02    1.77       1.0  T
   4    -38.2660594 -0.267154E-04  0.110E-02    1.77       1.6  T
   5    -38.2660604 -0.103263E-05  0.738E-03    1.77       2.4  T
   6    -38.2660607 -0.306648E-06  0.277E-03    1.77       6.5  T
   7    -38.2660607 -0.381791E-07  0.589E-04    1.77      30.5  T
   8    -38.2660607 -0.393851E-08  0.260E-04    1.77      69.0  T
     SCC iter.                  ...        0 min,  0.482 sec
     gradient                   ...        0 min,  0.071 sec
 * total energy  :   -37.6394998 Eh     change       -0.6097657E-03 Eh
   gradient norm :     0.0196778 Eh/α   predicted     0.0000000E+00 (-100.00%)
   displ. norm   :     0.3497245 α      lambda       -0.3184465E-02
   maximum displ.:     0.2318997 α      in ANC's #7, #4, #22, ...

........................................................................
.............................. CYCLE   22 ..............................
........................................................................
   1    -38.2671962 -0.382672E+02  0.208E-01    1.81       0.0  T
   2    -38.2672083 -0.121241E-04  0.149E-01    1.79       1.0  T
   3    -38.2671503  0.580080E-04  0.613E-02    1.80       1.0  T
   4    -38.2672097 -0.594087E-04  0.345E-02    1.79       1.0  T
   5    -38.2672192 -0.947752E-05  0.178E-02    1.79       1.0  T
   6    -38.2672192  0.208631E-07  0.719E-03    1.79       2.5  T
   7    -38.2672197 -0.565350E-06  0.275E-03    1.79       6.5  T
   8    -38.2672197 -0.167035E-07  0.133E-03    1.79      13.5  T
   9    -38.2672197 -0.114155E-07  0.735E-04    1.79      24.5  T
  10    -38.2672197  0.400462E-10  0.272E-04    1.79      66.0  T
     SCC iter.                  ...        0 min,  0.782 sec
     gradient                   ...        0 min,  0.134 sec
 * total energy  :   -37.6416834 Eh     change       -0.2183588E-02 Eh
   gradient norm :     0.0107448 Eh/α   predicted    -0.1788140E-02 ( -18.11%)
   displ. norm   :     0.4656525 α      lambda       -0.2185425E-02
   maximum displ.:     0.3342444 α      in ANC's #7, #14, #4, ...

........................................................................
.............................. CYCLE   23 ..............................
........................................................................
   1    -38.2671013 -0.382671E+02  0.308E-01    1.83       0.0  T
   2    -38.2671081 -0.681079E-05  0.200E-01    1.82       1.0  T
   3    -38.2670816  0.265315E-04  0.384E-02    1.83       1.0  T
   4    -38.2671106 -0.289864E-04  0.172E-02    1.82       1.0  T
   5    -38.2671115 -0.930734E-06  0.917E-03    1.82       2.0  T
   6    -38.2671118 -0.304762E-06  0.410E-03    1.82       4.4  T
   7    -38.2671121 -0.293776E-06  0.147E-03    1.82      12.2  T
   8    -38.2671121 -0.794976E-08  0.107E-03    1.82      16.8  T
   9    -38.2671121 -0.272087E-08  0.554E-04    1.82      32.4  T
  10    -38.2671121  0.174111E-09  0.259E-04    1.82      69.4  T
     SCC iter.                  ...        0 min,  0.454 sec
     gradient                   ...        0 min,  0.124 sec
 * total energy  :   -37.6431082 Eh     change       -0.1424809E-02 Eh
   gradient norm :     0.0242452 Eh/α   predicted    -0.1329698E-02 (  -6.68%)
   displ. norm   :     0.4419185 α      lambda       -0.1649741E-02
   maximum displ.:     0.3228016 α      in ANC's #7, #4, #5, ...

........................................................................
.............................. CYCLE   24 ..............................
........................................................................
   1    -38.2671316 -0.382671E+02  0.206E-01    1.86       0.0  T
   2    -38.2671395 -0.791262E-05  0.133E-01    1.84       1.0  T
   3    -38.2670727  0.667830E-04  0.604E-02    1.85       1.0  T
   4    -38.2671465 -0.738468E-04  0.150E-02    1.84       1.2  T
   5    -38.2671476 -0.103682E-05  0.961E-03    1.84       1.9  T
   6    -38.2671481 -0.472496E-06  0.436E-03    1.84       4.1  T
   7    -38.2671483 -0.196536E-06  0.196E-03    1.84       9.2  T
   8    -38.2671483 -0.389699E-08  0.119E-03    1.84      15.1  T
   9    -38.2671483 -0.706861E-08  0.540E-04    1.84      33.3  T
  10    -38.2671483 -0.992081E-09  0.263E-04    1.84      68.3  T
     SCC iter.                  ...        0 min,  0.469 sec
     gradient                   ...        0 min,  0.019 sec
 * total energy  :   -37.6442111 Eh     change       -0.1102850E-02 Eh
   gradient norm :     0.0359354 Eh/α   predicted    -0.9859607E-03 ( -10.60%)
   displ. norm   :     0.3631772 α      lambda       -0.1520182E-02
   maximum displ.:     0.2177255 α      in ANC's #7, #5, #4, ...

........................................................................
.............................. CYCLE   25 ..............................
........................................................................
   1    -38.2701554 -0.382702E+02  0.193E-01    1.86       0.0  T
   2    -38.2701617 -0.623228E-05  0.123E-01    1.85       1.0  T
   3    -38.2700593  0.102368E-03  0.781E-02    1.86       1.0  T
   4    -38.2701778 -0.118476E-03  0.145E-02    1.86       1.2  T
   5    -38.2701787 -0.944995E-06  0.790E-03    1.85       2.3  T
   6    -38.2701788 -0.508533E-07  0.345E-03    1.85       5.2  T
   7    -38.2701789 -0.129060E-06  0.159E-03    1.85      11.3  T
   8    -38.2701789 -0.501218E-08  0.112E-03    1.85      16.0  T
   9    -38.2701789 -0.330574E-08  0.418E-04    1.85      43.0  T
  10    -38.2701789 -0.103285E-08  0.182E-04    1.85      98.7  T
     SCC iter.                  ...        0 min,  0.429 sec
     gradient                   ...        0 min,  0.117 sec
 * total energy  :   -37.6452059 Eh     change       -0.9948662E-03 Eh
   gradient norm :     0.0113208 Eh/α   predicted    -0.8603453E-03 ( -13.52%)
   displ. norm   :     0.4295966 α      lambda       -0.1034464E-02
   maximum displ.:     0.2628407 α      in ANC's #7, #5, #4, ...

........................................................................
.............................. CYCLE   26 ..............................
........................................................................
   1    -38.2706694 -0.382707E+02  0.227E-01    1.87       0.0  T
   2    -38.2706778 -0.836704E-05  0.139E-01    1.86       1.0  T
   3    -38.2706393  0.384463E-04  0.549E-02    1.87       1.0  T
   4    -38.2706827 -0.433617E-04  0.137E-02    1.87       1.3  T
   5    -38.2706825  0.190098E-06  0.910E-03    1.86       2.0  T
   6    -38.2706832 -0.686119E-06  0.335E-03    1.87       5.4  T
   7    -38.2706833 -0.152606E-06  0.105E-03    1.87      17.1  T
   8    -38.2706833 -0.250660E-08  0.689E-04    1.87      26.1  T
   9    -38.2706833 -0.150148E-08  0.359E-04    1.87      50.1  T
     SCC iter.                  ...        0 min,  0.581 sec
     gradient                   ...        0 min,  0.147 sec
 * total energy  :   -37.6458936 Eh     change       -0.6876041E-03 Eh
   gradient norm :     0.0225479 Eh/α   predicted    -0.6127039E-03 ( -10.89%)
   displ. norm   :     0.3013020 α      lambda       -0.9080089E-03
   maximum displ.:     0.1905990 α      in ANC's #5, #7, #4, ...

........................................................................
.............................. CYCLE   27 ..............................
........................................................................
   1    -38.2759815 -0.382760E+02  0.200E-01    1.87       0.0  T
   2    -38.2759911 -0.960665E-05  0.120E-01    1.86       1.0  T
   3    -38.2759395  0.516159E-04  0.609E-02    1.86       1.0  T
   4    -38.2759960 -0.565659E-04  0.204E-02    1.86       1.0  T
   5    -38.2759989 -0.290085E-05  0.664E-03    1.86       2.7  T
   6    -38.2759989  0.143922E-07  0.526E-03    1.86       3.4  T
   7    -38.2759991 -0.155350E-06  0.125E-03    1.86      14.4  T
   8    -38.2759991 -0.528047E-09  0.833E-04    1.86      21.6  T
   9    -38.2759991 -0.445526E-08  0.373E-04    1.86      48.1  T
     SCC iter.                  ...        0 min,  0.369 sec
     gradient                   ...        0 min,  0.113 sec
 * total energy  :   -37.6463960 Eh     change       -0.5024302E-03 Eh
   gradient norm :     0.0112141 Eh/α   predicted    -0.4952203E-03 (  -1.44%)
   displ. norm   :     0.4156087 α      lambda       -0.5695618E-03
   maximum displ.:     0.2399409 α      in ANC's #7, #5, #2, ...

........................................................................
.............................. CYCLE   28 ..............................
........................................................................
   1    -38.2720785 -0.382721E+02  0.223E-01    1.87       0.0  T
   2    -38.2720836 -0.509560E-05  0.140E-01    1.87       1.0  T
   3    -38.2719968  0.868264E-04  0.735E-02    1.86       1.0  T
   4    -38.2720922 -0.954274E-04  0.176E-02    1.86       1.0  T
   5    -38.2720926 -0.315791E-06  0.926E-03    1.87       1.9  T
   6    -38.2720930 -0.411419E-06  0.285E-03    1.87       6.3  T
   7    -38.2720930 -0.646072E-07  0.172E-03    1.87      10.5  T
   8    -38.2720930 -0.344789E-08  0.119E-03    1.87      15.1  T
   9    -38.2720930 -0.641012E-08  0.511E-04    1.87      35.1  T
  10    -38.2720930 -0.428948E-09  0.281E-04    1.87      64.0  T
     SCC iter.                  ...        0 min,  0.403 sec
     gradient                   ...        0 min,  0.125 sec
 * total energy  :   -37.6466478 Eh     change       -0.2518141E-03 Eh
   gradient norm :     0.0247150 Eh/α   predicted    -0.3339741E-03 (  32.63%)
   displ. norm   :     0.0999362 α      lambda       -0.3642934E-03
   maximum displ.:     0.0457210 α      in ANC's #5, #6, #4, ...

........................................................................
.............................. CYCLE   29 ..............................
........................................................................
   1    -38.2740307 -0.382740E+02  0.650E-02    1.87       0.0  T
   2    -38.2740328 -0.209951E-05  0.486E-02    1.87       1.0  T
   3    -38.2740238  0.900639E-05  0.263E-02    1.87       1.0  T
   4    -38.2740371 -0.133106E-04  0.765E-03    1.87       2.3  T
   5    -38.2740376 -0.457365E-06  0.414E-03    1.87       4.3  T
   6    -38.2740375  0.323399E-07  0.177E-03    1.87      10.1  T
   7    -38.2740376 -0.445646E-07  0.718E-04    1.87      25.0  T
   8    -38.2740376 -0.330057E-08  0.433E-04    1.87      41.5  T
     SCC iter.                  ...        0 min,  0.354 sec
     gradient                   ...        0 min,  0.025 sec
 * total energy  :   -37.6468329 Eh     change       -0.1850620E-03 Eh
   gradient norm :     0.0062638 Eh/α   predicted    -0.1839704E-03 (  -0.59%)
   displ. norm   :     0.1719070 α      lambda       -0.2130073E-03
   maximum displ.:     0.0891828 α      in ANC's #5, #2, #7, ...

........................................................................
.............................. CYCLE   30 ..............................
........................................................................
   1    -38.2749531 -0.382750E+02  0.940E-02    1.88       0.0  T
   2    -38.2749553 -0.219717E-05  0.588E-02    1.88       1.0  T
   3    -38.2749486  0.672797E-05  0.245E-02    1.88       1.0  T
   4    -38.2749559 -0.730330E-05  0.857E-03    1.88       2.1  T
   5    -38.2749565 -0.660274E-06  0.347E-03    1.88       5.2  T
   6    -38.2749565  0.408543E-07  0.189E-03    1.88       9.5  T
   7    -38.2749565 -0.552061E-07  0.594E-04    1.88      30.2  T
   8    -38.2749565 -0.723020E-09  0.397E-04    1.88      45.3  T
     SCC iter.                  ...        0 min,  0.382 sec
     gradient                   ...        0 min,  0.092 sec
 * total energy  :   -37.6469871 Eh     change       -0.1542632E-03 Eh
   gradient norm :     0.0038057 Eh/α   predicted    -0.1096534E-03 ( -28.92%)
   displ. norm   :     0.3225046 α      lambda       -0.2247521E-03
   maximum displ.:     0.1673447 α      in ANC's #7, #5, #2, ...

........................................................................
.............................. CYCLE   31 ..............................
........................................................................
   1    -38.2743643 -0.382744E+02  0.151E-01    1.89       0.0  T
   2    -38.2743659 -0.167199E-05  0.970E-02    1.89       1.0  T
   3    -38.2743492  0.166839E-04  0.300E-02    1.88       1.0  T
   4    -38.2743673 -0.180340E-04  0.785E-03    1.88       2.3  T
   5    -38.2743673 -0.540960E-07  0.490E-03    1.88       3.7  T
   6    -38.2743675 -0.192585E-06  0.185E-03    1.88       9.7  T
   7    -38.2743676 -0.579258E-07  0.488E-04    1.88      36.8  T
   8    -38.2743676 -0.501323E-09  0.318E-04    1.88      56.5  T
     SCC iter.                  ...        0 min,  0.291 sec
     gradient                   ...        0 min,  0.012 sec
 * total energy  :   -37.6471257 Eh     change       -0.1386295E-03 Eh
   gradient norm :     0.0121234 Eh/α   predicted    -0.1240656E-03 ( -10.51%)
   displ. norm   :     0.2022782 α      lambda       -0.1620974E-03
   maximum displ.:     0.1262417 α      in ANC's #2, #7, #5, ...

........................................................................
.............................. CYCLE   32 ..............................
........................................................................
   1    -38.2750381 -0.382750E+02  0.717E-02    1.88       0.0  T
   2    -38.2750394 -0.130193E-05  0.498E-02    1.88       1.0  T
   3    -38.2750274  0.120024E-04  0.237E-02    1.88       1.0  T
   4    -38.2750408 -0.133930E-04  0.678E-03    1.88       2.7  T
   5    -38.2750411 -0.312794E-06  0.391E-03    1.88       4.6  T
   6    -38.2750412 -0.601425E-07  0.107E-03    1.88      16.8  T
   7    -38.2750412 -0.198489E-07  0.293E-04    1.88      61.3  T
   8    -38.2750412 -0.221149E-09  0.200E-04    1.88      89.9  T
     SCC iter.                  ...        0 min,  0.307 sec
     gradient                   ...        0 min,  0.112 sec
 * total energy  :   -37.6472374 Eh     change       -0.1116255E-03 Eh
   gradient norm :     0.0052599 Eh/α   predicted    -0.8436543E-04 ( -24.42%)
   displ. norm   :     0.2951342 α      lambda       -0.1515487E-03
   maximum displ.:     0.1876324 α      in ANC's #2, #7, #5, ...

........................................................................
.............................. CYCLE   33 ..............................
........................................................................
   1    -38.2742568 -0.382743E+02  0.992E-02    1.88       0.0  T
   2    -38.2742580 -0.121216E-05  0.652E-02    1.88       1.0  T
   3    -38.2742562  0.184703E-05  0.124E-02    1.88       1.4  T
   4    -38.2742585 -0.226151E-05  0.620E-03    1.88       2.9  T
   5    -38.2742584  0.398859E-07  0.232E-03    1.88       7.7  T
   6    -38.2742585 -0.792910E-07  0.991E-04    1.88      18.1  T
   7    -38.2742585 -0.533515E-08  0.543E-04    1.88      33.1  T
     SCC iter.                  ...        0 min,  0.336 sec
     gradient                   ...        0 min,  0.049 sec
 * total energy  :   -37.6473466 Eh     change       -0.1092009E-03 Eh
   gradient norm :     0.0042948 Eh/α   predicted    -0.8237632E-04 ( -24.56%)
   displ. norm   :     0.3348284 α      lambda       -0.1814519E-03
   maximum displ.:     0.2511441 α      in ANC's #2, #4, #7, ...

........................................................................
.............................. CYCLE   34 ..............................
........................................................................
   1    -38.2754116 -0.382754E+02  0.920E-02    1.88       0.0  T
   2    -38.2754145 -0.288315E-05  0.604E-02    1.88       1.0  T
   3    -38.2754068  0.774012E-05  0.188E-02    1.88       1.0  T
   4    -38.2754155 -0.871602E-05  0.629E-03    1.88       2.9  T
   5    -38.2754158 -0.319105E-06  0.401E-03    1.88       4.5  T
   6    -38.2754158 -0.277817E-08  0.183E-03    1.88       9.8  T
   7    -38.2754158 -0.406600E-07  0.825E-04    1.88      21.8  T
   8    -38.2754158 -0.130520E-09  0.605E-04    1.88      29.7  T
     SCC iter.                  ...        0 min,  0.366 sec
     gradient                   ...        0 min,  0.123 sec
 * total energy  :   -37.6474486 Eh     change       -0.1019919E-03 Eh
   gradient norm :     0.0086348 Eh/α   predicted    -0.1008992E-03 (  -1.07%)
   displ. norm   :     0.5121897 α      lambda       -0.2130378E-03
   maximum displ.:     0.3888219 α      in ANC's #2, #7, #5, ...

........................................................................
.............................. CYCLE   35 ..............................
........................................................................
   1    -38.2704963 -0.382705E+02  0.177E-01    1.88       0.0  T
   2    -38.2704998 -0.348045E-05  0.113E-01    1.88       1.0  T
   3    -38.2704582  0.415936E-04  0.477E-02    1.87       1.0  T
   4    -38.2705033 -0.451634E-04  0.128E-02    1.87       1.4  T
   5    -38.2705038 -0.424943E-06  0.784E-03    1.87       2.3  T
   6    -38.2705039 -0.110398E-06  0.189E-03    1.88       9.5  T
   7    -38.2705039 -0.593297E-07  0.102E-03    1.87      17.7  T
   8    -38.2705039 -0.448811E-08  0.591E-04    1.87      30.4  T
   9    -38.2705039 -0.419625E-09  0.351E-04    1.87      51.1  T
     SCC iter.                  ...        0 min,  0.451 sec
     gradient                   ...        0 min,  0.121 sec
 * total energy  :   -37.6475441 Eh     change       -0.9549282E-04 Eh
   gradient norm :     0.0078953 Eh/α   predicted    -0.1344641E-03 (  40.81%)
   displ. norm   :     0.1436456 α      lambda       -0.1962185E-03
   maximum displ.:     0.1055592 α      in ANC's #2, #4, #3, ...

........................................................................
.............................. CYCLE   36 ..............................
........................................................................
   1    -38.2753539 -0.382754E+02  0.506E-02    1.88       0.0  T
   2    -38.2753565 -0.252952E-05  0.284E-02    1.87       1.0  T
   3    -38.2753548  0.168231E-05  0.231E-02    1.87       1.0  T
   4    -38.2753591 -0.432576E-05  0.577E-03    1.87       3.1  T
   5    -38.2753597 -0.586404E-06  0.343E-03    1.87       5.2  T
   6    -38.2753597 -0.394217E-07  0.160E-03    1.87      11.2  T
   7    -38.2753597 -0.886227E-08  0.634E-04    1.87      28.3  T
   8    -38.2753597 -0.344337E-08  0.411E-04    1.87      43.7  T
     SCC iter.                  ...        0 min,  0.393 sec
     gradient                   ...        0 min,  0.065 sec
 * total energy  :   -37.6476495 Eh     change       -0.1054708E-03 Eh
   gradient norm :     0.0092868 Eh/α   predicted    -0.1001351E-03 (  -5.06%)
   displ. norm   :     0.3106909 α      lambda       -0.2292345E-03
   maximum displ.:     0.2675134 α      in ANC's #2, #4, #5, ...

........................................................................
.............................. CYCLE   37 ..............................
........................................................................
   1    -38.2774738 -0.382775E+02  0.101E-01    1.88       0.0  T
   2    -38.2774764 -0.261276E-05  0.568E-02    1.87       1.0  T
   3    -38.2774596  0.168119E-04  0.525E-02    1.88       1.0  T
   4    -38.2774815 -0.219049E-04  0.928E-03    1.87       1.9  T
   5    -38.2774820 -0.511202E-06  0.554E-03    1.87       3.2  T
   6    -38.2774821 -0.718472E-07  0.185E-03    1.87       9.7  T
   7    -38.2774821 -0.558424E-07  0.721E-04    1.87      24.9  T
   8    -38.2774821 -0.215387E-09  0.459E-04    1.87      39.2  T
     SCC iter.                  ...        0 min,  0.526 sec
     gradient                   ...        0 min,  0.144 sec
 * total energy  :   -37.6477783 Eh     change       -0.1287392E-03 Eh
   gradient norm :     0.0055494 Eh/α   predicted    -0.1256827E-03 (  -2.37%)
   displ. norm   :     0.4414054 α      lambda       -0.1512755E-03
   maximum displ.:     0.3761081 α      in ANC's #2, #4, #5, ...

........................................................................
.............................. CYCLE   38 ..............................
........................................................................
   1    -38.2743896 -0.382744E+02  0.120E-01    1.87       0.0  T
   2    -38.2743915 -0.195347E-05  0.762E-02    1.87       1.0  T
   3    -38.2743607  0.307931E-04  0.393E-02    1.87       1.0  T
   4    -38.2743946 -0.338315E-04  0.911E-03    1.87       2.0  T
   5    -38.2743951 -0.520954E-06  0.458E-03    1.87       3.9  T
   6    -38.2743951 -0.442690E-07  0.131E-03    1.87      13.7  T
   7    -38.2743951 -0.589113E-08  0.728E-04    1.87      24.7  T
   8    -38.2743951  0.866301E-09  0.473E-04    1.87      38.0  T
     SCC iter.                  ...        0 min,  0.346 sec
     gradient                   ...        0 min,  0.101 sec
 * total energy  :   -37.6478751 Eh     change       -0.9684559E-04 Eh
   gradient norm :     0.0066180 Eh/α   predicted    -0.9038232E-04 (  -6.67%)
   displ. norm   :     0.2394740 α      lambda       -0.1281015E-03
   maximum displ.:     0.1952778 α      in ANC's #2, #4, #3, ...

........................................................................
.............................. CYCLE   39 ..............................
........................................................................
   1    -38.2755139 -0.382755E+02  0.530E-02    1.87       0.0  T
   2    -38.2755147 -0.877386E-06  0.360E-02    1.87       1.0  T
   3    -38.2755057  0.906909E-05  0.199E-02    1.87       1.0  T
   4    -38.2755162 -0.105405E-04  0.572E-03    1.87       3.1  T
   5    -38.2755164 -0.216047E-06  0.293E-03    1.87       6.1  T
   6    -38.2755164 -0.596722E-08  0.869E-04    1.87      20.7  T
   7    -38.2755164 -0.117803E-07  0.378E-04    1.87      47.5  T
     SCC iter.                  ...        0 min,  0.387 sec
     gradient                   ...        0 min,  0.061 sec
 * total energy  :   -37.6479648 Eh     change       -0.8963837E-04 Eh
   gradient norm :     0.0062528 Eh/α   predicted    -0.6772491E-04 ( -24.45%)
   displ. norm   :     0.4070873 α      lambda       -0.1945839E-03
   maximum displ.:     0.3230207 α      in ANC's #2, #4, #3, ...

........................................................................
.............................. CYCLE   40 ..............................
........................................................................
   1    -38.2763297 -0.382763E+02  0.767E-02    1.87       0.0  T
   2    -38.2763330 -0.333248E-05  0.483E-02    1.87       1.0  T
   3    -38.2763222  0.108254E-04  0.273E-02    1.87       1.0  T
   4    -38.2763359 -0.137128E-04  0.460E-03    1.87       3.9  T
   5    -38.2763360 -0.148077E-06  0.352E-03    1.87       5.1  T
   6    -38.2763361 -0.442187E-07  0.138E-03    1.87      13.0  T
   7    -38.2763361 -0.327905E-07  0.517E-04    1.87      34.7  T
   8    -38.2763361 -0.434625E-09  0.394E-04    1.87      45.6  T
     SCC iter.                  ...        0 min,  0.397 sec
     gradient                   ...        0 min,  0.004 sec
 * total energy  :   -37.6481083 Eh     change       -0.1434986E-03 Eh
   gradient norm :     0.0050721 Eh/α   predicted    -0.1134191E-03 ( -20.96%)
   displ. norm   :     0.4295067 α      lambda       -0.2459271E-03
   maximum displ.:     0.2762056 α      in ANC's #2, #4, #6, ...

........................................................................
.............................. CYCLE   41 ..............................
........................................................................
   1    -38.2794608 -0.382795E+02  0.126E-01    1.87       0.0  T
   2    -38.2794679 -0.711229E-05  0.874E-02    1.88       1.0  T
   3    -38.2794344  0.334907E-04  0.400E-02    1.87       1.0  T
   4    -38.2794743 -0.399020E-04  0.751E-03    1.88       2.4  T
   5    -38.2794746 -0.263817E-06  0.418E-03    1.88       4.3  T
   6    -38.2794746 -0.852248E-07  0.148E-03    1.88      12.1  T
   7    -38.2794747 -0.150625E-07  0.810E-04    1.88      22.2  T
   8    -38.2794747  0.149868E-09  0.567E-04    1.88      31.7  T
     SCC iter.                  ...        0 min,  0.297 sec
     gradient                   ...        0 min,  0.075 sec
 * total energy  :   -37.6482765 Eh     change       -0.1682006E-03 Eh
   gradient norm :     0.0058319 Eh/α   predicted    -0.1456559E-03 ( -13.40%)
   displ. norm   :     0.5749669 α      lambda       -0.2095831E-03
   maximum displ.:     0.4294050 α      in ANC's #2, #4, #3, ...

........................................................................
.............................. CYCLE   42 ..............................
........................................................................
   1    -38.2742625 -0.382743E+02  0.126E-01    1.87       0.0  T
   2    -38.2742699 -0.743805E-05  0.885E-02    1.88       1.0  T
   3    -38.2742382  0.316890E-04  0.426E-02    1.86       1.0  T
   4    -38.2742756 -0.373384E-04  0.889E-03    1.87       2.0  T
   5    -38.2742766 -0.998046E-06  0.723E-03    1.87       2.5  T
   6    -38.2742768 -0.203689E-06  0.192E-03    1.87       9.3  T
   7    -38.2742769 -0.845074E-07  0.753E-04    1.87      23.9  T
   8    -38.2742769 -0.684516E-09  0.459E-04    1.87      39.1  T
     SCC iter.                  ...        0 min,  0.195 sec
     gradient                   ...        0 min,  0.007 sec
 * total energy  :   -37.6483942 Eh     change       -0.1177882E-03 Eh
   gradient norm :     0.0089493 Eh/α   predicted    -0.1394383E-03 (  18.38%)
   displ. norm   :     0.4082145 α      lambda       -0.3303387E-03
   maximum displ.:     0.2326535 α      in ANC's #6, #7, #4, ...
 * RMSD in coord.:     0.9188126 α      energy gain  -0.9504175E-02 Eh

generating ANC from model Hessian ...
Using Lindh-Hessian (1995)
 Shifting diagonal of input Hessian by    1.2575030219239169E-002
 Lowest  eigenvalues of input Hessian
    0.010000    0.012294    0.000000    0.000000    0.000000    0.000000
    0.000000    0.000000    0.013008    0.013632    0.014077    0.014176
    0.015141    0.016719    0.017748    0.020211    0.020478    0.020563
 Highest eigenvalues
    1.743916    1.751249    1.751669    2.536184    3.406623    4.512352


........................................................................
.............................. CYCLE   43 ..............................
........................................................................
   1    -38.2795948 -0.382796E+02  0.158E-01    1.86       0.0  T
   2    -38.2796042 -0.932394E-05  0.103E-01    1.88       1.0  T
   3    -38.2795637  0.404955E-04  0.579E-02    1.87       1.0  T
   4    -38.2796106 -0.469783E-04  0.158E-02    1.87       1.1  T
   5    -38.2796144 -0.379719E-05  0.833E-03    1.88       2.2  T
   6    -38.2796144  0.544408E-07  0.418E-03    1.87       4.3  T
   7    -38.2796146 -0.202229E-06  0.131E-03    1.87      13.7  T
   8    -38.2796146 -0.102911E-07  0.880E-04    1.87      20.4  T
   9    -38.2796146 -0.162795E-08  0.356E-04    1.87      50.5  T
     SCC iter.                  ...        0 min,  0.249 sec
     gradient                   ...        0 min,  0.072 sec
 * total energy  :   -37.6484351 Eh     change       -0.4086265E-04 Eh
   gradient norm :     0.0183635 Eh/α   predicted     0.0000000E+00 (-100.00%)
   displ. norm   :     0.0776353 α      lambda       -0.3001423E-03
   maximum displ.:     0.0312516 α      in ANC's #14, #6, #1, ...

........................................................................
.............................. CYCLE   44 ..............................
........................................................................
   1    -38.2776328 -0.382776E+02  0.576E-02    1.88       0.0  T
   2    -38.2776350 -0.215265E-05  0.339E-02    1.87       1.0  T
   3    -38.2776337  0.129770E-05  0.283E-02    1.88       1.0  T
   4    -38.2776426 -0.888596E-05  0.693E-03    1.88       2.6  T
   5    -38.2776428 -0.260521E-06  0.353E-03    1.88       5.1  T
   6    -38.2776428 -0.292907E-08  0.194E-03    1.88       9.3  T
   7    -38.2776429 -0.296887E-07  0.421E-04    1.88      42.6  T
   8    -38.2776429 -0.266139E-08  0.288E-04    1.88      62.4  T
     SCC iter.                  ...        0 min,  0.152 sec
     gradient                   ...        0 min,  0.076 sec
 * total energy  :   -37.6485887 Eh     change       -0.1535455E-03 Eh
   gradient norm :     0.0027971 Eh/α   predicted    -0.1510105E-03 (  -1.65%)
   displ. norm   :     0.0946769 α      lambda       -0.1445559E-03
   maximum displ.:     0.0496999 α      in ANC's #1, #6, #10, ...

........................................................................
.............................. CYCLE   45 ..............................
........................................................................
   1    -38.2762445 -0.382762E+02  0.607E-02    1.88       0.0  T
   2    -38.2762459 -0.136904E-05  0.357E-02    1.87       1.0  T
   3    -38.2762372  0.872065E-05  0.275E-02    1.88       1.0  T
   4    -38.2762482 -0.110559E-04  0.578E-03    1.88       3.1  T
   5    -38.2762484 -0.214545E-06  0.372E-03    1.87       4.8  T
   6    -38.2762484 -0.126627E-08  0.129E-03    1.88      13.9  T
   7    -38.2762485 -0.389737E-07  0.433E-04    1.87      41.5  T
   8    -38.2762485 -0.412854E-09  0.307E-04    1.87      58.5  T
     SCC iter.                  ...        0 min,  0.016 sec
     gradient                   ...        0 min,  0.004 sec
 * total energy  :   -37.6486323 Eh     change       -0.4368552E-04 Eh
   gradient norm :     0.0076235 Eh/α   predicted    -0.7292900E-04 (  66.94%)
   displ. norm   :     0.0415984 α      lambda       -0.5883834E-04
   maximum displ.:     0.0194880 α      in ANC's #3, #6, #14, ...

........................................................................
.............................. CYCLE   46 ..............................
........................................................................
   1    -38.2765688 -0.382766E+02  0.230E-02    1.87       0.0  T
   2    -38.2765690 -0.188329E-06  0.147E-02    1.87       1.2  T
   3    -38.2765678  0.122919E-05  0.107E-02    1.87       1.7  T
   4    -38.2765696 -0.180234E-05  0.239E-03    1.87       7.5  T
   5    -38.2765696 -0.295900E-07  0.153E-03    1.87      11.7  T
   6    -38.2765696  0.387320E-08  0.462E-04    1.87      38.9  T
   7    -38.2765696 -0.578110E-08  0.974E-05    1.87     184.3  T
     SCC iter.                  ...        0 min,  0.015 sec
     gradient                   ...        0 min,  0.004 sec
 * total energy  :   -37.6486756 Eh     change       -0.4325720E-04 Eh
   gradient norm :     0.0030916 Eh/α   predicted    -0.2947142E-04 ( -31.87%)
   displ. norm   :     0.1047704 α      lambda       -0.5912359E-04
   maximum displ.:     0.0554329 α      in ANC's #3, #6, #8, ...

........................................................................
.............................. CYCLE   47 ..............................
........................................................................
   1    -38.2770094 -0.382770E+02  0.338E-02    1.87       0.0  T
   2    -38.2770103 -0.905752E-06  0.207E-02    1.87       1.0  T
   3    -38.2770090  0.139124E-05  0.152E-02    1.87       1.2  T
   4    -38.2770119 -0.290135E-05  0.359E-03    1.87       5.0  T
   5    -38.2770120 -0.125933E-06  0.185E-03    1.87       9.7  T
   6    -38.2770120  0.151250E-08  0.919E-04    1.87      19.6  T
   7    -38.2770120 -0.565286E-08  0.372E-04    1.87      48.3  T
     SCC iter.                  ...        0 min,  0.014 sec
     gradient                   ...        0 min,  0.004 sec
 * total energy  :   -37.6487184 Eh     change       -0.4276062E-04 Eh
   gradient norm :     0.0018119 Eh/α   predicted    -0.2988832E-04 ( -30.10%)
   displ. norm   :     0.2415510 α      lambda       -0.5572579E-04
   maximum displ.:     0.1351308 α      in ANC's #3, #1, #8, ...

........................................................................
.............................. CYCLE   48 ..............................
........................................................................
   1    -38.2770060 -0.382770E+02  0.625E-02    1.87       0.0  T
   2    -38.2770088 -0.276809E-05  0.349E-02    1.87       1.0  T
   3    -38.2770024  0.638449E-05  0.268E-02    1.87       1.0  T
   4    -38.2770119 -0.955769E-05  0.563E-03    1.87       3.2  T
   5    -38.2770121 -0.217210E-06  0.304E-03    1.87       5.9  T
   6    -38.2770121  0.399115E-08  0.175E-03    1.87      10.2  T
   7    -38.2770122 -0.236051E-07  0.587E-04    1.87      30.6  T
   8    -38.2770122 -0.212751E-08  0.402E-04    1.87      44.7  T
     SCC iter.                  ...        0 min,  0.015 sec
     gradient                   ...        0 min,  0.004 sec
 * total energy  :   -37.6487711 Eh     change       -0.5279469E-04 Eh
   gradient norm :     0.0057970 Eh/α   predicted    -0.2858597E-04 ( -45.85%)
   displ. norm   :     0.1311276 α      lambda       -0.4854569E-04
   maximum displ.:     0.0790355 α      in ANC's #3, #1, #8, ...

........................................................................
.............................. CYCLE   49 ..............................
........................................................................
   1    -38.2769602 -0.382770E+02  0.237E-02    1.87       0.0  T
   2    -38.2769604 -0.192949E-06  0.137E-02    1.87       1.3  T
   3    -38.2769596  0.777694E-06  0.779E-03    1.87       2.3  T
   4    -38.2769606 -0.939423E-06  0.174E-03    1.87      10.3  T
   5    -38.2769606 -0.227608E-08  0.144E-03    1.87      12.5  T
   6    -38.2769606 -0.136578E-07  0.686E-04    1.87      26.2  T
   7    -38.2769606 -0.280146E-08  0.291E-04    1.87      61.7  T
     SCC iter.                  ...        0 min,  0.014 sec
     gradient                   ...        0 min,  0.004 sec
 * total energy  :   -37.6488148 Eh     change       -0.4366298E-04 Eh
   gradient norm :     0.0046013 Eh/α   predicted    -0.2469039E-04 ( -43.45%)
   displ. norm   :     0.3081309 α      lambda       -0.1263163E-03
   maximum displ.:     0.1858002 α      in ANC's #3, #1, #2, ...

........................................................................
.............................. CYCLE   50 ..............................
........................................................................
   1    -38.2762333 -0.382762E+02  0.587E-02    1.86       0.0  T
   2    -38.2762342 -0.933398E-06  0.379E-02    1.87       1.0  T
   3    -38.2762319  0.232301E-05  0.113E-02    1.86       1.6  T
   4    -38.2762346 -0.268573E-05  0.518E-03    1.87       3.5  T
   5    -38.2762346 -0.370733E-07  0.227E-03    1.87       7.9  T
   6    -38.2762346 -0.389307E-07  0.121E-03    1.87      14.9  T
   7    -38.2762346 -0.157685E-07  0.410E-04    1.87      43.8  T
   8    -38.2762346 -0.709541E-09  0.188E-04    1.87      95.6  T
     SCC iter.                  ...        0 min,  0.016 sec
     gradient                   ...        0 min,  0.004 sec
 * total energy  :   -37.6489116 Eh     change       -0.9680255E-04 Eh
   gradient norm :     0.0030669 Eh/α   predicted    -0.6915976E-04 ( -28.56%)
   displ. norm   :     0.3090478 α      lambda       -0.1047196E-03
   maximum displ.:     0.1968800 α      in ANC's #3, #1, #2, ...

........................................................................
.............................. CYCLE   51 ..............................
........................................................................
   1    -38.2751423 -0.382751E+02  0.672E-02    1.86       0.0  T
   2    -38.2751434 -0.113407E-05  0.445E-02    1.87       1.0  T
   3    -38.2751362  0.716120E-05  0.176E-02    1.86       1.0  T
   4    -38.2751442 -0.799391E-05  0.480E-03    1.86       3.7  T
   5    -38.2751444 -0.137438E-06  0.372E-03    1.86       4.8  T
   6    -38.2751444 -0.683691E-07  0.888E-04    1.86      20.2  T
   7    -38.2751444 -0.132347E-07  0.419E-04    1.86      42.9  T
     SCC iter.                  ...        0 min,  0.013 sec
     gradient                   ...        0 min,  0.004 sec
 * total energy  :   -37.6489862 Eh     change       -0.7457430E-04 Eh
   gradient norm :     0.0040934 Eh/α   predicted    -0.5736118E-04 ( -23.08%)
   displ. norm   :     0.1938370 α      lambda       -0.7501752E-04
   maximum displ.:     0.1311378 α      in ANC's #3, #2, #1, ...

........................................................................
.............................. CYCLE   52 ..............................
........................................................................
   1    -38.2760656 -0.382761E+02  0.506E-02    1.86       0.0  T
   2    -38.2760668 -0.122418E-05  0.317E-02    1.86       1.0  T
   3    -38.2760617  0.510007E-05  0.169E-02    1.86       1.1  T
   4    -38.2760680 -0.627467E-05  0.448E-03    1.86       4.0  T
   5    -38.2760680 -0.328989E-07  0.220E-03    1.86       8.2  T
   6    -38.2760680 -0.425055E-08  0.679E-04    1.86      26.5  T
   7    -38.2760680 -0.285815E-08  0.372E-04    1.86      48.2  T
     SCC iter.                  ...        0 min,  0.015 sec
     gradient                   ...        0 min,  0.004 sec
 * total energy  :   -37.6490437 Eh     change       -0.5754074E-04 Eh
   gradient norm :     0.0039753 Eh/α   predicted    -0.3891887E-04 ( -32.36%)
   displ. norm   :     0.2391248 α      lambda       -0.7253971E-04
   maximum displ.:     0.1616451 α      in ANC's #3, #2, #1, ...

........................................................................
.............................. CYCLE   53 ..............................
........................................................................
   1    -38.2762640 -0.382763E+02  0.599E-02    1.86       0.0  T
   2    -38.2762654 -0.139424E-05  0.381E-02    1.86       1.0  T
   3    -38.2762583  0.707731E-05  0.197E-02    1.86       1.0  T
   4    -38.2762667 -0.844501E-05  0.430E-03    1.86       4.2  T
   5    -38.2762667 -0.606280E-08  0.300E-03    1.86       6.0  T
   6    -38.2762668 -0.354996E-07  0.148E-03    1.86      12.1  T
   7    -38.2762668 -0.229866E-07  0.499E-04    1.86      36.0  T
   8    -38.2762668 -0.414524E-09  0.338E-04    1.86      53.1  T
     SCC iter.                  ...        0 min,  0.015 sec
     gradient                   ...        0 min,  0.004 sec
 * total energy  :   -37.6491016 Eh     change       -0.5784185E-04 Eh
   gradient norm :     0.0020843 Eh/α   predicted    -0.3834869E-04 ( -33.70%)
   displ. norm   :     0.2250593 α      lambda       -0.6932271E-04
   maximum displ.:     0.1576034 α      in ANC's #3, #2, #4, ...

........................................................................
.............................. CYCLE   54 ..............................
........................................................................
   1    -38.2774504 -0.382775E+02  0.582E-02    1.86       0.0  T
   2    -38.2774519 -0.150018E-05  0.363E-02    1.86       1.0  T
   3    -38.2774466  0.525783E-05  0.190E-02    1.86       1.0  T
   4    -38.2774531 -0.643839E-05  0.439E-03    1.86       4.1  T
   5    -38.2774531 -0.356671E-07  0.266E-03    1.86       6.8  T
   6    -38.2774531 -0.423132E-08  0.138E-03    1.86      13.0  T
   7    -38.2774531 -0.234363E-07  0.523E-04    1.86      34.3  T
   8    -38.2774531 -0.391566E-09  0.398E-04    1.86      45.1  T
     SCC iter.                  ...        0 min,  0.015 sec
     gradient                   ...        0 min,  0.004 sec
 * total energy  :   -37.6491543 Eh     change       -0.5273461E-04 Eh
   gradient norm :     0.0024846 Eh/α   predicted    -0.3641899E-04 ( -30.94%)
   displ. norm   :     0.2667733 α      lambda       -0.6284400E-04
   maximum displ.:     0.1839256 α      in ANC's #3, #2, #4, ...

........................................................................
.............................. CYCLE   55 ..............................
........................................................................
   1    -38.2767866 -0.382768E+02  0.607E-02    1.86       0.0  T
   2    -38.2767876 -0.983771E-06  0.387E-02    1.86       1.0  T
   3    -38.2767837  0.385055E-05  0.152E-02    1.86       1.2  T
   4    -38.2767882 -0.450730E-05  0.468E-03    1.86       3.8  T
   5    -38.2767882  0.154705E-07  0.267E-03    1.86       6.7  T
   6    -38.2767883 -0.504228E-07  0.788E-04    1.86      22.8  T
   7    -38.2767883 -0.274661E-08  0.514E-04    1.86      35.0  T
     SCC iter.                  ...        0 min,  0.014 sec
     gradient                   ...        0 min,  0.004 sec
 * total energy  :   -37.6492030 Eh     change       -0.4865710E-04 Eh
   gradient norm :     0.0027493 Eh/α   predicted    -0.3366229E-04 ( -30.82%)
   displ. norm   :     0.3149854 α      lambda       -0.8767124E-04
   maximum displ.:     0.2198692 α      in ANC's #3, #2, #4, ...

........................................................................
.............................. CYCLE   56 ..............................
........................................................................
   1    -38.2775395 -0.382775E+02  0.693E-02    1.86       0.0  T
   2    -38.2775407 -0.119318E-05  0.450E-02    1.86       1.0  T
   3    -38.2775363  0.440173E-05  0.174E-02    1.86       1.0  T
   4    -38.2775414 -0.512952E-05  0.425E-03    1.86       4.2  T
   5    -38.2775414  0.252852E-07  0.276E-03    1.86       6.5  T
   6    -38.2775415 -0.599981E-07  0.986E-04    1.86      18.2  T
   7    -38.2775415 -0.694570E-08  0.594E-04    1.86      30.2  T
     SCC iter.                  ...        0 min,  0.013 sec
     gradient                   ...        0 min,  0.004 sec
 * total energy  :   -37.6492704 Eh     change       -0.6743658E-04 Eh
   gradient norm :     0.0033528 Eh/α   predicted    -0.4818690E-04 ( -28.54%)
   displ. norm   :     0.3803060 α      lambda       -0.1003708E-03
   maximum displ.:     0.2624753 α      in ANC's #3, #2, #4, ...

........................................................................
.............................. CYCLE   57 ..............................
........................................................................
   1    -38.2767365 -0.382767E+02  0.796E-02    1.86       0.0  T
   2    -38.2767373 -0.851854E-06  0.536E-02    1.86       1.0  T
   3    -38.2767337  0.358092E-05  0.133E-02    1.86       1.3  T
   4    -38.2767377 -0.396308E-05  0.537E-03    1.86       3.3  T
   5    -38.2767377 -0.817825E-08  0.303E-03    1.86       5.9  T
   6    -38.2767378 -0.118914E-06  0.105E-03    1.86      17.2  T
   7    -38.2767378 -0.729668E-08  0.518E-04    1.86      34.7  T
   8    -38.2767378 -0.336762E-09  0.314E-04    1.86      57.2  T
     SCC iter.                  ...        0 min,  0.015 sec
     gradient                   ...        0 min,  0.004 sec
 * total energy  :   -37.6493454 Eh     change       -0.7504905E-04 Eh
   gradient norm :     0.0037450 Eh/α   predicted    -0.5744695E-04 ( -23.45%)
   displ. norm   :     0.2880501 α      lambda       -0.1177280E-03
   maximum displ.:     0.1749524 α      in ANC's #3, #2, #8, ...

........................................................................
.............................. CYCLE   58 ..............................
........................................................................
   1    -38.2790916 -0.382791E+02  0.660E-02    1.86       0.0  T
   2    -38.2790927 -0.109576E-05  0.436E-02    1.86       1.0  T
   3    -38.2790881  0.462184E-05  0.151E-02    1.87       1.2  T
   4    -38.2790932 -0.510603E-05  0.490E-03    1.86       3.7  T
   5    -38.2790934 -0.221432E-06  0.292E-03    1.86       6.2  T
   6    -38.2790934  0.117281E-08  0.746E-04    1.86      24.1  T
   7    -38.2790934 -0.782336E-08  0.283E-04    1.86      63.4  T
     SCC iter.                  ...        0 min,  0.015 sec
     gradient                   ...        0 min,  0.004 sec
 * total energy  :   -37.6494062 Eh     change       -0.6075370E-04 Eh
   gradient norm :     0.0028119 Eh/α   predicted    -0.6374915E-04 (   4.93%)
   displ. norm   :     0.3981692 α      lambda       -0.7137704E-04
   maximum displ.:     0.2709148 α      in ANC's #3, #2, #4, ...

........................................................................
.............................. CYCLE   59 ..............................
........................................................................
   1    -38.2740047 -0.382740E+02  0.902E-02    1.86       0.0  T
   2    -38.2740057 -0.100382E-05  0.634E-02    1.86       1.0  T
   3    -38.2740023  0.339489E-05  0.137E-02    1.86       1.3  T
   4    -38.2740061 -0.379302E-05  0.597E-03    1.86       3.0  T
   5    -38.2740062 -0.477231E-07  0.198E-03    1.86       9.1  T
   6    -38.2740062 -0.390280E-07  0.701E-04    1.86      25.6  T
   7    -38.2740062 -0.459229E-08  0.389E-04    1.86      46.1  T
     SCC iter.                  ...        0 min,  0.013 sec
     gradient                   ...        0 min,  0.004 sec
 * total energy  :   -37.6494078 Eh     change       -0.1619671E-05 Eh
   gradient norm :     0.0045825 Eh/α   predicted    -0.4134696E-04 (2452.80%)
   displ. norm   :     0.0803656 α      lambda        0.2126269E-04
   maximum displ.:     0.0497159 α      in ANC's #3, #2, #8, ...

........................................................................
.............................. CYCLE   60 ..............................
........................................................................
   1    -38.2758585 -0.382759E+02  0.269E-02    1.86       0.0  T
   2    -38.2758587 -0.178334E-06  0.200E-02    1.86       1.0  T
   3    -38.2758577  0.100994E-05  0.119E-02    1.86       1.5  T
   4    -38.2758595 -0.184587E-05  0.273E-03    1.86       6.6  T
   5    -38.2758596 -0.596219E-07  0.175E-03    1.86      10.3  T
   6    -38.2758596  0.970573E-09  0.593E-04    1.86      30.3  T
   7    -38.2758596 -0.491811E-08  0.348E-04    1.86      51.6  T
     SCC iter.                  ...        0 min,  0.013 sec
     gradient                   ...        0 min,  0.004 sec
 * total energy  :   -37.6494028 Eh     change        0.4989996E-05 Eh
   gradient norm :     0.0091388 Eh/α   predicted     0.1069922E-04 ( 114.41%)
   displ. norm   :     0.0971063 α      lambda       -0.8391463E-04
   maximum displ.:     0.0704214 α      in ANC's #3, #2, #4, ...

........................................................................
.............................. CYCLE   61 ..............................
........................................................................
   1    -38.2775976 -0.382776E+02  0.325E-02    1.86       0.0  T
   2    -38.2775981 -0.478601E-06  0.184E-02    1.86       1.0  T
   3    -38.2775967  0.138537E-05  0.180E-02    1.86       1.0  T
   4    -38.2775997 -0.300316E-05  0.346E-03    1.86       5.2  T
   5    -38.2775998 -0.680190E-07  0.258E-03    1.86       7.0  T
   6    -38.2775998 -0.316618E-07  0.532E-04    1.86      33.8  T
   7    -38.2775998 -0.424112E-08  0.351E-04    1.86      51.2  T
     SCC iter.                  ...        0 min,  0.015 sec
     gradient                   ...        0 min,  0.004 sec
 * total energy  :   -37.6494433 Eh     change       -0.4048841E-04 Eh
   gradient norm :     0.0013206 Eh/α   predicted    -0.4235345E-04 (   4.61%)
   displ. norm   :     0.0827884 α      lambda       -0.8330354E-05
   maximum displ.:     0.0523568 α      in ANC's #2, #3, #4, ...

........................................................................
.............................. CYCLE   62 ..............................
........................................................................
   1    -38.2774648 -0.382775E+02  0.240E-02    1.86       0.0  T
   2    -38.2774649 -0.115096E-06  0.158E-02    1.86       1.1  T
   3    -38.2774641  0.831928E-06  0.655E-03    1.86       2.7  T
   4    -38.2774650 -0.910521E-06  0.149E-03    1.86      12.0  T
   5    -38.2774650 -0.110393E-07  0.120E-03    1.86      14.9  T
   6    -38.2774650 -0.108599E-07  0.210E-04    1.86      85.7  T
   7    -38.2774650 -0.106090E-08  0.705E-05    1.86     254.6  T
     SCC iter.                  ...        0 min,  0.013 sec
     gradient                   ...        0 min,  0.004 sec
 * total energy  :   -37.6494522 Eh     change       -0.8859350E-05 Eh
   gradient norm :     0.0007925 Eh/α   predicted    -0.4178474E-05 ( -52.84%)
   displ. norm   :     0.1166406 α      lambda       -0.8456805E-05
   maximum displ.:     0.0771942 α      in ANC's #2, #4, #3, ...

........................................................................
.............................. CYCLE   63 ..............................
........................................................................
   1    -38.2775138 -0.382775E+02  0.361E-02    1.86       0.0  T
   2    -38.2775140 -0.244266E-06  0.235E-02    1.86       1.0  T
   3    -38.2775125  0.152258E-05  0.867E-03    1.86       2.1  T
   4    -38.2775142 -0.170357E-05  0.187E-03    1.86       9.6  T
   5    -38.2775142 -0.117284E-07  0.100E-03    1.86      17.9  T
   6    -38.2775142 -0.392011E-08  0.376E-04    1.86      47.8  T
   7    -38.2775142 -0.298049E-08  0.129E-04    1.86     139.6  T
     SCC iter.                  ...        0 min,  0.014 sec
     gradient                   ...        0 min,  0.004 sec
 * total energy  :   -37.6494594 Eh     change       -0.7253587E-05 Eh
   gradient norm :     0.0010044 Eh/α   predicted    -0.4256825E-05 ( -41.31%)
   displ. norm   :     0.0680844 α      lambda       -0.4794187E-05
   maximum displ.:     0.0516683 α      in ANC's #2, #4, #3, ...

........................................................................
.............................. CYCLE   64 ..............................
........................................................................
   1    -38.2777709 -0.382778E+02  0.208E-02    1.86       0.0  T
   2    -38.2777710 -0.689774E-07  0.133E-02    1.86       1.4  T
   3    -38.2777705  0.515169E-06  0.486E-03    1.86       3.7  T
   4    -38.2777710 -0.565778E-06  0.189E-03    1.86       9.5  T
   5    -38.2777711 -0.118746E-07  0.965E-04    1.86      18.6  T
   6    -38.2777711 -0.289609E-08  0.389E-04    1.86      46.2  T
     SCC iter.                  ...        0 min,  0.019 sec
     gradient                   ...        0 min,  0.004 sec
 * total energy  :   -37.6494638 Eh     change       -0.4338759E-05 Eh
   gradient norm :     0.0013121 Eh/α   predicted    -0.2405902E-05 ( -44.55%)
   displ. norm   :     0.0708157 α      lambda       -0.3991171E-05
   maximum displ.:     0.0552194 α      in ANC's #2, #4, #3, ...

........................................................................
.............................. CYCLE   65 ..............................
........................................................................
   1    -38.2776666 -0.382777E+02  0.201E-02    1.86       0.0  T
   2    -38.2776666 -0.340683E-07  0.128E-02    1.86       1.4  T
   3    -38.2776663  0.331196E-06  0.342E-03    1.86       5.2  T
   4    -38.2776667 -0.359045E-06  0.114E-03    1.86      15.7  T
   5    -38.2776667 -0.465580E-08  0.619E-04    1.86      29.0  T
   6    -38.2776667 -0.203171E-08  0.208E-04    1.86      86.5  T
     SCC iter.                  ...        0 min,  0.019 sec
     gradient                   ...        0 min,  0.004 sec
 * total energy  :   -37.6494682 Eh     change       -0.4474810E-05 Eh
   gradient norm :     0.0007842 Eh/α   predicted    -0.2003554E-05 ( -55.23%)
   displ. norm   :     0.1048885 α      lambda       -0.5434979E-05
   maximum displ.:     0.0865199 α      in ANC's #2, #4, #5, ...

   *** GEOMETRY OPTIMIZATION CONVERGED AFTER 65 ITERATIONS ***

------------------------------------------------------------------------
 total energy gain   :        -3.8937610 Eh    -2443.3719 kcal/mol
 total RMSD          :         1.4807189 a0        0.7836 Å
 total power (kW/mol):      -157.2779704 (step) -329.5877 (real)
------------------------------------------------------------------------

 ANCopt (total)                0 d,  0 h,  0 min, 31.018 sec
 optimizer setup                ...        0 min,  0.000 sec (  0.002%)
 model hessian                  ...        0 min,  0.077 sec (  0.248%)
 ANC generation                 ...        0 min,  0.019 sec (  0.062%)
 coordinate transformation      ...        0 min,  0.001 sec (  0.002%)
 single point calculation       ...        0 min, 30.354 sec ( 97.860%)
 optimization log               ...        0 min,  0.013 sec (  0.043%)
 hessian update                 ...        0 min,  0.390 sec (  1.259%)
 rational function              ...        0 min,  0.156 sec (  0.504%)

================
 final structure:
================
31
 xtb: 6.5.1 (b24c23e)
Zr          -1.34116781354264       -0.18206559791203        0.61561543817402
C           -1.15659309839879        1.26295387849646       -1.53497719896742
C            0.38771677037330       -1.94376275104098        0.63208559663225
C            0.09754213566428       -1.67332032934590       -0.72613838588996
C           -1.24587926771108       -2.04701274624536       -0.97037316427497
C           -1.79015396414715       -2.54640078236290        0.24249647696740
C           -0.77785503284430       -2.48365982972828        1.23192022453554
H            1.37189924861371       -1.90047692621131        1.08544414184290
H            0.82601293484624       -1.39647417857122       -1.48128501108450
H           -1.72734481889080       -2.09165623179765       -1.94014963216414
H           -2.74314607578986       -3.05334371882283        0.34823970742108
H           -0.83866196643221       -2.92637777892565        2.22041501340800
C           -0.29429315684303        0.12616597860818        2.81821060985674
C           -1.68431864302584        0.36305270441502        2.96010365756015
C           -1.99387858997632        1.55120388257988        2.24433343006169
C           -0.80877321086715        2.01831843660123        1.63481887379921
C            0.24182647866453        1.12862887960143        1.97478804223610
H            0.28138667209679       -0.60371924914897        3.37518885071373
H           -2.34797166647178       -0.15141266116171        3.64869347552796
H           -2.92910225641150        2.09422767975661        2.30019661528130
H           -0.69283075629811        2.97124188607977        1.13086245581990
H            1.29761255040977        1.29379234167640        1.78260417466316
H           -0.32245246580786        1.07494093559817       -0.82297097034844
H           -1.12966024183951        0.59413931908456       -2.39269539763789
H           -1.13565298335840        2.29617615763166       -1.86368765713664
C           -3.45605674469896        0.05184251879295       -0.00306264914478
C           -3.13051270725196        1.16955727974707       -0.87364542752270
H           -3.22566614248595        2.16472927676641       -0.43807385288489
H           -3.51934770456315        1.13826422602586       -1.88926076338199
H           -4.07665391314136        0.34655927416611        0.85424127567179
H           -3.92110392985964       -0.77657692433548       -0.55085362972252

 Bond Distances (Angstroems)
 ---------------------------
Zr1-C2=2.5975        Zr1-C3=2.4684        Zr1-C4=2.4686        Zr1-C5=2.4500        Zr1-C6=2.4353        Zr1-C7=2.4484        
Zr1-C13=2.4581       Zr1-C14=2.4314       Zr1-C15=2.4664       Zr1-C16=2.4827       Zr1-C17=2.4640       Zr1-H23=2.1650       
Zr1-C26=2.2159       Zr1-C27=2.6919       C2-Zr1=2.5975        C2-H23=1.1127        C2-H24=1.0880        C2-H25=1.0845        
C3-Zr1=2.4684        C3-C4=1.4150         C3-C7=1.4177         C3-H8=1.0844         C4-Zr1=2.4686        C4-C3=1.4150         
C4-C5=1.4157         C4-H9=1.0852         C5-Zr1=2.4500        C5-C4=1.4157         C5-C6=1.4201         C5-H10=1.0836        
C6-Zr1=2.4353        C6-C5=1.4201         C6-C7=1.4169         C6-H11=1.0846        C7-Zr1=2.4484        C7-C3=1.4177         
C7-C6=1.4169         C7-H12=1.0848        H8-C3=1.0844         H9-C4=1.0852         H10-C5=1.0836        H11-C6=1.0846        
H12-C7=1.0848        C13-Zr1=2.4581       C13-C14=1.4172       C13-C17=1.4155       C13-H18=1.0837       C14-Zr1=2.4314       
C14-C13=1.4172       C14-C15=1.4212       C14-H19=1.0859       C15-Zr1=2.4664       C15-C14=1.4212       C15-C16=1.4122       
C15-H20=1.0829       C16-Zr1=2.4827       C16-C15=1.4122       C16-C17=1.4181       C16-H21=1.0842       C17-Zr1=2.4640       
C17-C13=1.4155       C17-C16=1.4181       C17-H22=1.0858       H18-C13=1.0837       H19-C14=1.0859       H20-C15=1.0829       
H21-C16=1.0842       H22-C17=1.0858       H23-Zr1=2.1650       H23-C2=1.1127        H24-C2=1.0880        H25-C2=1.0845        
C26-Zr1=2.2159       C26-C27=1.4537       C26-H30=1.0986       C26-H31=1.0966       C27-Zr1=2.6919       C27-C26=1.4537       
C27-H28=1.0905       C27-H29=1.0880       H28-C27=1.0905       H29-C27=1.0880       H30-C26=1.0986       H31-C26=1.0966       
 C  H  Rav=1.0885 sigma=0.0074  Rmin=1.0829  Rmax=1.1127    17
 C  C  Rav=1.4203 sigma=0.0108  Rmin=1.4122  Rmax=1.4537    11
 Zr H  Rav=2.1650 sigma=0.0000  Rmin=2.1650  Rmax=2.1650     1
 Zr C  Rav=2.4676 sigma=0.1015  Rmin=2.2159  Rmax=2.6919    13

 selected bond angles (degree)
 --------------------
C3-Zr1-C2=110.66               C4-Zr1-C2= 81.06               C4-Zr1-C3= 33.31               C5-Zr1-C2= 83.38               
C5-Zr1-C3= 55.51               C5-Zr1-C4= 33.45               C6-Zr1-C2=115.24               C6-Zr1-C3= 55.75               
C6-Zr1-C4= 55.78               C6-Zr1-C5= 33.80               C7-Zr1-C2=135.64               C7-Zr1-C3= 33.51               
C7-Zr1-C4= 55.59               C7-Zr1-C5= 55.84               C7-Zr1-C6= 33.73               C13-Zr1-C2=129.93              
C13-Zr1-C3= 77.60              C13-Zr1-C4=108.33              C13-Zr1-C5=131.22              C13-Zr1-C6=109.73              
C13-Zr1-C7= 78.13              C14-Zr1-C2=133.13              C14-Zr1-C3=104.62              C14-Zr1-C4=137.88              
C14-Zr1-C5=143.17              C14-Zr1-C6=109.84              C14-Zr1-C7= 90.03              C14-Zr1-C13= 33.69             
C15-Zr1-C2=100.06              C15-Zr1-C3=133.04              C15-Zr1-C4=159.67              C15-Zr1-C5=166.59              
C15-Zr1-C6=137.28              C15-Zr1-C7=123.73              C15-Zr1-C13= 55.45             C15-Zr1-C14= 33.73             
C16-Zr1-C2= 80.31              C16-Zr1-C3=118.66              C16-Zr1-C4=129.31              C16-Zr1-C5=158.76              
C16-Zr1-C6=164.34              C16-Zr1-C7=132.88              C16-Zr1-C13= 55.23             C16-Zr1-C14= 55.65             
C16-Zr1-C15= 33.16             C17-Zr1-C2= 96.61              C17-Zr1-C3= 85.76              C17-Zr1-C4=104.28              
C17-Zr1-C5=137.48              C17-Zr1-C6=136.00              C17-Zr1-C7=102.32              C17-Zr1-C13= 33.43             
C17-Zr1-C14= 55.91             C17-Zr1-C15= 55.38             C17-Zr1-C16= 33.31             H23-Zr1-C2= 24.97              
H23-Zr1-C3= 95.12              H23-Zr1-C4= 73.46              H23-Zr1-C5= 89.63              H23-Zr1-C6=123.27              
H23-Zr1-C7=127.21              H23-Zr1-C13=108.80             H23-Zr1-C14=125.24             H23-Zr1-C15= 98.93             
H23-Zr1-C16= 69.96             H23-Zr1-C17= 75.84             C26-Zr1-C2= 77.17              C26-Zr1-C3=138.22              
C26-Zr1-C4=117.92              C26-Zr1-C5= 86.37              C26-Zr1-C6= 83.32              C26-Zr1-C7=112.90              
C26-Zr1-C13=130.05             C26-Zr1-C14= 96.36             C26-Zr1-C15= 81.81             C26-Zr1-C16=103.05             
C26-Zr1-C17=135.32             C26-Zr1-H23=101.67             C27-Zr1-C2= 46.36              C27-Zr1-C3=145.85              
C27-Zr1-C4=112.96              C27-Zr1-C5= 92.86              C27-Zr1-C6=106.27              C27-Zr1-C7=139.84              
C27-Zr1-C13=135.71             C27-Zr1-C14=109.09             C27-Zr1-C15= 80.59             C27-Zr1-C16= 85.68             
C27-Zr1-C17=117.72             C27-Zr1-H23= 69.74             C27-Zr1-C26= 32.66             H23-C2-Zr1= 55.21              
H24-C2-Zr1=108.21              H24-C2-H23=112.46              H25-C2-Zr1=141.48              H25-C2-H23=109.91              
H25-C2-H24=110.26              C4-C3-Zr1= 73.35               C7-C3-Zr1= 72.47               C7-C3-C4=108.08                
H8-C3-Zr1=127.59               H8-C3-C4=125.44                H8-C3-C7=125.77                C3-C4-Zr1= 73.34               
C5-C4-Zr1= 72.55               C5-C4-C3=108.05                H9-C4-Zr1=127.98               H9-C4-C3=125.39                
H9-C4-C5=125.76                C4-C5-Zr1= 74.00               C6-C5-Zr1= 72.54               C6-C5-C4=108.01                
H10-C5-Zr1=126.40              H10-C5-C4=125.94               H10-C5-C6=125.42               C5-C6-Zr1= 73.67               
C7-C6-Zr1= 73.64               C7-C6-C5=107.88                H11-C6-Zr1=126.93              H11-C6-C5=125.76               
H11-C6-C7=125.48               C3-C7-Zr1= 74.02               C6-C7-Zr1= 72.63               C6-C7-C3=107.99                
H12-C7-Zr1=126.88              H12-C7-C3=125.95               H12-C7-C6=125.32               

 selected dihedral angles (degree)
 ---------------------------------
H23-C2-Zr1-C3=305.72          H23-C2-Zr1-C4=290.18          H23-C2-Zr1-C5=256.48          H23-C2-Zr1-C6=244.87          
H23-C2-Zr1-C7=278.46          H23-C2-Zr1-C13= 36.65         H23-C2-Zr1-C14= 82.01         H23-C2-Zr1-C15= 89.59         
H23-C2-Zr1-C16= 62.82         H23-C2-Zr1-C17= 33.66         H23-C2-Zr1-C26=168.71         H23-C2-Zr1-C27=156.11         
H24-C2-Zr1-C3= 50.86          H24-C2-Zr1-C4= 35.31          H24-C2-Zr1-C5=  1.62          H24-C2-Zr1-C6=350.01          
H24-C2-Zr1-C7= 23.60          H24-C2-Zr1-C13=141.79         H24-C2-Zr1-C14=187.15         H24-C2-Zr1-C15=194.73         
H24-C2-Zr1-C16=167.96         H24-C2-Zr1-C17=138.80         H24-C2-Zr1-H23=105.14         H24-C2-Zr1-C26=273.85         
H24-C2-Zr1-C27=261.25         H25-C2-Zr1-C3=227.67          H25-C2-Zr1-C4=212.12          H25-C2-Zr1-C5=178.43          
H25-C2-Zr1-C6=166.82          H25-C2-Zr1-C7=200.40          H25-C2-Zr1-C13=318.60         H25-C2-Zr1-C14=  3.96         
H25-C2-Zr1-C15= 11.53         H25-C2-Zr1-C16=344.77         H25-C2-Zr1-C17=315.61         H25-C2-Zr1-H23=281.95         
H25-C2-Zr1-C26= 90.66         H25-C2-Zr1-C27= 78.05         C4-C3-Zr1-C2=331.18           C4-C3-Zr1-C5= 37.07           
C4-C3-Zr1-C6= 78.31           C4-C3-Zr1-C7=115.73           C4-C3-Zr1-C13=202.90          C4-C3-Zr1-C14=182.59          
C4-C3-Zr1-C15=203.78          C4-C3-Zr1-C16=241.12          C4-C3-Zr1-C17=235.70          C4-C3-Zr1-H23=311.05          
C4-C3-Zr1-C26= 64.95          C4-C3-Zr1-C27= 11.88          C7-C3-Zr1-C2=215.45           C7-C3-Zr1-C4=244.27           
C7-C3-Zr1-C5=281.34           C7-C3-Zr1-C6=322.58           C7-C3-Zr1-C13= 87.17          C7-C3-Zr1-C14= 66.86          
C7-C3-Zr1-C15= 88.05          C7-C3-Zr1-C16=125.39          C7-C3-Zr1-C17=119.97          C7-C3-Zr1-H23=195.32          
C7-C3-Zr1-C26=309.22          C7-C3-Zr1-C27=256.15          H8-C3-Zr1-C2= 93.42           H8-C3-Zr1-C4=122.24           
H8-C3-Zr1-C5=159.31           H8-C3-Zr1-C6=200.55           H8-C3-Zr1-C7=237.97           H8-C3-Zr1-C13=325.15          
H8-C3-Zr1-C14=304.83          H8-C3-Zr1-C15=326.02          H8-C3-Zr1-C16=  3.36          H8-C3-Zr1-C17=357.95          
H8-C3-Zr1-H23= 73.30          H8-C3-Zr1-C26=187.19          H8-C3-Zr1-C27=134.13          C3-C4-Zr1-C2=152.83           
C3-C4-Zr1-C5=244.34           C3-C4-Zr1-C6=281.79           C3-C4-Zr1-C7=322.92           C3-C4-Zr1-C13= 23.60          
C3-C4-Zr1-C14=  3.74          C3-C4-Zr1-C15= 58.00          C3-C4-Zr1-C16= 83.26          C3-C4-Zr1-C17= 58.23          
C3-C4-Zr1-H23=128.42          C3-C4-Zr1-C26=223.09          C3-C4-Zr1-C27=187.21          C5-C4-Zr1-C2=268.49           
C5-C4-Zr1-C3=115.66           C5-C4-Zr1-C6= 37.45           C5-C4-Zr1-C7= 78.58           C5-C4-Zr1-C13=139.26          
C5-C4-Zr1-C14=119.40          C5-C4-Zr1-C15=173.66          C5-C4-Zr1-C16=198.92          C5-C4-Zr1-C17=173.89          
C5-C4-Zr1-H23=244.08          C5-C4-Zr1-C26=338.75          C5-C4-Zr1-C27=302.87          H9-C4-Zr1-C2= 30.61           
H9-C4-Zr1-C3=237.78           H9-C4-Zr1-C5=122.12           H9-C4-Zr1-C6=159.57           H9-C4-Zr1-C7=200.70           
H9-C4-Zr1-C13=261.38          H9-C4-Zr1-C14=241.52          H9-C4-Zr1-C15=295.78          H9-C4-Zr1-C16=321.04          
H9-C4-Zr1-C17=296.01          H9-C4-Zr1-H23=  6.20          H9-C4-Zr1-C26=100.87          H9-C4-Zr1-C27= 64.99          
Zr1-C4-C3-C7= 64.64           Zr1-C4-C3-H8=235.35           C5-C4-C3-Zr1=295.26           C5-C4-C3-C7=359.90            
C5-C4-C3-H8=170.60            H9-C4-C3-Zr1=125.12           H9-C4-C3-C7=189.76            H9-C4-C3-H8=  0.46            
C4-C5-Zr1-C2= 83.79           C4-C5-Zr1-C3=323.09           C4-C5-Zr1-C6=244.70           C4-C5-Zr1-C7=282.23           
C4-C5-Zr1-C13=304.56          C4-C5-Zr1-C14=257.06          C4-C5-Zr1-C15=189.53          C4-C5-Zr1-C16= 43.82          
C4-C5-Zr1-C17=351.22          C4-C5-Zr1-H23= 59.56          C4-C5-Zr1-C26=161.28          C4-C5-Zr1-C27=129.25          
C6-C5-Zr1-C2=199.10           C6-C5-Zr1-C3= 78.40           C6-C5-Zr1-C4=115.30           C6-C5-Zr1-C7= 37.53           
C6-C5-Zr1-C13= 59.87          C6-C5-Zr1-C14= 12.36          C6-C5-Zr1-C15=304.83          C6-C5-Zr1-C16=159.13          
C6-C5-Zr1-C17=106.52          C6-C5-Zr1-H23=174.87          C6-C5-Zr1-C26=276.59          C6-C5-Zr1-C27=244.56          
H10-C5-Zr1-C2=320.63          H10-C5-Zr1-C3=199.92          H10-C5-Zr1-C4=236.83          H10-C5-Zr1-C6=121.53          
H10-C5-Zr1-C7=159.06          H10-C5-Zr1-C13=181.39         H10-C5-Zr1-C14=133.89         H10-C5-Zr1-C15= 66.36         
H10-C5-Zr1-C16=280.65         H10-C5-Zr1-C17=228.05         H10-C5-Zr1-H23=296.40         H10-C5-Zr1-C26= 38.11         
H10-C5-Zr1-C27=  6.08         Zr1-C5-C4-C3= 65.26           Zr1-C5-C4-H9=235.35           C6-C5-C4-Zr1=294.93           
C6-C5-C4-C3=  0.19            C6-C5-C4-H9=170.28            H10-C5-C4-Zr1=123.68          H10-C5-C4-C3=188.94           
H10-C5-C4-H9=359.03           C5-C6-Zr1-C2= 21.06           C5-C6-Zr1-C3=282.38           C5-C6-Zr1-C4=322.94           
C5-C6-Zr1-C7=245.20           C5-C6-Zr1-C13=223.72          C5-C6-Zr1-C14=187.84          C5-C6-Zr1-C15=163.70          
C5-C6-Zr1-C16=208.57          C5-C6-Zr1-C17=248.88          C5-C6-Zr1-H23=353.86          C5-C6-Zr1-C26= 93.46          
C5-C6-Zr1-C27= 69.97          C7-C6-Zr1-C2=135.86           C7-C6-Zr1-C3= 37.18           C7-C6-Zr1-C4= 77.74           
C7-C6-Zr1-C5=114.80           C7-C6-Zr1-C13=338.52          C7-C6-Zr1-C14=302.64          C7-C6-Zr1-C15=278.50          
C7-C6-Zr1-C16=323.37          C7-C6-Zr1-C17=  3.68          C7-C6-Zr1-H23=108.66          C7-C6-Zr1-C26=208.26          
C7-C6-Zr1-C27=184.77          H11-C6-Zr1-C2=258.27          H11-C6-Zr1-C3=159.59          H11-C6-Zr1-C4=200.15          
H11-C6-Zr1-C5=237.21          H11-C6-Zr1-C7=122.41          H11-C6-Zr1-C13=100.93         H11-C6-Zr1-C14= 65.05         
H11-C6-Zr1-C15= 40.91         H11-C6-Zr1-C16= 85.78         H11-C6-Zr1-C17=126.10         H11-C6-Zr1-H23=231.07         
H11-C6-Zr1-C26=330.67         H11-C6-Zr1-C27=307.18         Zr1-C6-C5-C4= 66.03           Zr1-C6-C5-H10=237.34          
C7-C6-C5-Zr1=293.76           C7-C6-C5-C4=359.80            C7-C6-C5-H10=171.11           H11-C6-C5-Zr1=124.09          
H11-C6-C5-C4=190.12           H11-C6-C5-H10=  1.43          C3-C7-Zr1-C2= 50.92           C3-C7-Zr1-C4= 36.85           
C3-C7-Zr1-C5= 77.61           C3-C7-Zr1-C6=115.22           C3-C7-Zr1-C13=274.60          C3-C7-Zr1-C14=242.84          
C3-C7-Zr1-C15=241.44          C3-C7-Zr1-C16=282.52          C3-C7-Zr1-C17=297.84          C3-C7-Zr1-H23= 19.30          
C3-C7-Zr1-C26=145.92          C3-C7-Zr1-C27=122.33          C6-C7-Zr1-C2=295.69           C6-C7-Zr1-C3=244.78           
C6-C7-Zr1-C4=281.62           C6-C7-Zr1-C5=322.39           C6-C7-Zr1-C13=159.37          C6-C7-Zr1-C14=127.62          
C6-C7-Zr1-C15=126.21          C6-C7-Zr1-C16=167.30          C6-C7-Zr1-C17=182.62          C6-C7-Zr1-H23=264.08          
C6-C7-Zr1-C26= 30.70          C6-C7-Zr1-C27=  7.11          H12-C7-Zr1-C2=174.18          H12-C7-Zr1-C3=123.27          
H12-C7-Zr1-C4=160.11          H12-C7-Zr1-C5=200.88          H12-C7-Zr1-C6=238.49          H12-C7-Zr1-C13= 37.86         
H12-C7-Zr1-C14=  6.11         H12-C7-Zr1-C15=  4.70         H12-C7-Zr1-C16= 45.79         H12-C7-Zr1-C17= 61.11         
H12-C7-Zr1-H23=142.57         H12-C7-Zr1-C26=269.18         H12-C7-Zr1-C27=245.60         Zr1-C7-C3-C4=294.78           
Zr1-C7-C3-H8=124.11           C6-C7-C3-Zr1= 65.20           C6-C7-C3-C4=  0.00            C6-C7-C3-H8=189.31            
H12-C7-C3-Zr1=235.71          H12-C7-C3-C4=170.49           H12-C7-C3-H8=359.82           Zr1-C7-C6-C5= 66.26           
Zr1-C7-C6-H11=235.96          C3-C7-C6-Zr1=293.88           C3-C7-C6-C5=  0.14            C3-C7-C6-H11=169.85           
H12-C7-C6-Zr1=123.30          H12-C7-C6-C5=189.55           H12-C7-C6-H11=359.26          

 CMA Distance (Angstroems)
 ---------------------------
R(CMA):  2.8005
           -------------------------------------------------
          |                Final Singlepoint                |
           -------------------------------------------------

          ...................................................
          :                      SETUP                      :
          :.................................................:
          :  # basis functions                  79          :
          :  # atomic orbitals                  78          :
          :  # shells                           46          :
          :  # electrons                        72          :
          :  max. iterations                   250          :
          :  Hamiltonian                  GFN2-xTB          :
          :  restarted?                      false          :
          :  GBSA solvation                  false          :
          :  PC potential                    false          :
          :  electronic temp.          300.0000000     K    :
          :  accuracy                    1.0000000          :
          :  -> integral cutoff          0.2500000E+02      :
          :  -> integral neglect         0.1000000E-07      :
          :  -> SCF convergence          0.1000000E-05 Eh   :
          :  -> wf. convergence          0.1000000E-03 e    :
          :  Broyden damping             0.4000000          :
          ...................................................

 iter      E             dE          RMSdq      gap      omega  full diag
   1    -38.2776667 -0.382777E+02  0.121E-04    1.86       0.0  T
   2    -38.2776667 -0.101181E-10  0.778E-05    1.86     230.9  T
   3    -38.2776667  0.239453E-10  0.599E-05    1.86     299.9  T

   *** convergence criteria satisfied after 3 iterations ***

         #    Occupation            Energy/Eh            Energy/eV
      -------------------------------------------------------------
         1        2.0000           -0.8729395             -23.7539
       ...           ...                  ...                  ...
        30        2.0000           -0.5879348             -15.9985
        31        2.0000           -0.5701186             -15.5137
        32        2.0000           -0.5219074             -14.2018
        33        2.0000           -0.5212991             -14.1853
        34        2.0000           -0.5108203             -13.9001
        35        2.0000           -0.5054387             -13.7537
        36        2.0000           -0.4917038             -13.3799 (HOMO)
        37                         -0.4233419             -11.5197 (LUMO)
        38                         -0.4095947             -11.1456
        39                         -0.4074413             -11.0870
        40                         -0.4026955             -10.9579
        41                         -0.3930339             -10.6950
       ...                                ...                  ...
        78                          2.5137110              68.4016
      -------------------------------------------------------------
                  HL-Gap            0.0683619 Eh            1.8602 eV
             Fermi-level           -0.4575229 Eh          -12.4498 eV

 SCC (total)                   0 d,  0 h,  0 min,  0.070 sec
 SCC setup                      ...        0 min,  0.000 sec (  0.320%)
 Dispersion                     ...        0 min,  0.000 sec (  0.123%)
 classical contributions        ...        0 min,  0.000 sec (  0.038%)
 integral evaluation            ...        0 min,  0.001 sec (  1.749%)
 iterations                     ...        0 min,  0.057 sec ( 81.691%)
 molecular gradient             ...        0 min,  0.011 sec ( 15.813%)
 printout                       ...        0 min,  0.000 sec (  0.244%)

         :::::::::::::::::::::::::::::::::::::::::::::::::::::
         ::                     SUMMARY                     ::
         :::::::::::::::::::::::::::::::::::::::::::::::::::::
         :: total energy             -37.649468246430 Eh    ::
         :: gradient norm              0.000782838500 Eh/a0 ::
         :: HOMO-LUMO gap              1.860222266218 eV    ::
         ::.................................................::
         :: SCC energy               -38.277666673218 Eh    ::
         :: -> isotropic ES            0.087250771546 Eh    ::
         :: -> anisotropic ES         -0.012305257053 Eh    ::
         :: -> anisotropic XC          0.020122967160 Eh    ::
         :: -> dispersion             -0.027845494868 Eh    ::
         :: repulsion energy           0.626831537924 Eh    ::
         :: add. restraining           0.000700752233 Eh    ::
         :: total charge               1.000000000000 e     ::
         :::::::::::::::::::::::::::::::::::::::::::::::::::::

           -------------------------------------------------
          |                Property Printout                |
           -------------------------------------------------

    * Orbital Energies and Occupations

         #    Occupation            Energy/Eh            Energy/eV
      -------------------------------------------------------------
         1        2.0000           -0.8729395             -23.7539
       ...           ...                  ...                  ...
        24        2.0000           -0.5947453             -16.1838
        25        2.0000           -0.5928714             -16.1329
        26        2.0000           -0.5906450             -16.0723
        27        2.0000           -0.5903822             -16.0651
        28        2.0000           -0.5893347             -16.0366
        29        2.0000           -0.5887479             -16.0206
        30        2.0000           -0.5879348             -15.9985
        31        2.0000           -0.5701186             -15.5137
        32        2.0000           -0.5219074             -14.2018
        33        2.0000           -0.5212991             -14.1853
        34        2.0000           -0.5108203             -13.9001
        35        2.0000           -0.5054387             -13.7537
        36        2.0000           -0.4917038             -13.3799 (HOMO)
        37                         -0.4233419             -11.5197 (LUMO)
        38                         -0.4095947             -11.1456
        39                         -0.4074413             -11.0870
        40                         -0.4026955             -10.9579
        41                         -0.3930339             -10.6950
        42                         -0.3560012              -9.6873
        43                         -0.3062192              -8.3326
        44                         -0.3054693              -8.3122
        45                         -0.3052708              -8.3068
        46                         -0.3041248              -8.2757
        47                         -0.0715186              -1.9461
       ...                                ...                  ...
        78                          2.5137110              68.4016
      -------------------------------------------------------------
                  HL-Gap            0.0683619 Eh            1.8602 eV
             Fermi-level           -0.4575229 Eh          -12.4498 eV

     #   Z          covCN         q      C6AA      α(0)
     1  40 Zr      10.226     0.955   138.707    17.697
     2   6 C        3.766    -0.209    24.682     7.081
     3   6 C        3.754    -0.087    22.212     6.720
     4   6 C        3.752    -0.091    22.289     6.733
     5   6 C        3.762    -0.091    22.274     6.728
     6   6 C        3.765    -0.086    22.182     6.713
     7   6 C        3.761    -0.087    22.206     6.718
     8   1 H        0.925     0.082     1.954     2.186
     9   1 H        0.925     0.073     2.055     2.242
    10   1 H        0.925     0.084     1.940     2.178
    11   1 H        0.925     0.088     1.903     2.157
    12   1 H        0.925     0.085     1.929     2.172
    13   6 C        3.760    -0.083    22.128     6.706
    14   6 C        3.765    -0.091    22.284     6.728
    15   6 C        3.756    -0.086    22.202     6.718
    16   6 C        3.748    -0.091    22.305     6.736
    17   6 C        3.755    -0.093    22.331     6.738
    18   1 H        0.925     0.086     1.915     2.164
    19   1 H        0.925     0.083     1.948     2.183
    20   1 H        0.925     0.083     1.943     2.180
    21   1 H        0.925     0.075     2.029     2.228
    22   1 H        0.925     0.075     2.037     2.232
    23   1 H        1.525     0.089     1.872     2.136
    24   1 H        0.925     0.087     1.909     2.161
    25   1 H        0.925     0.089     1.889     2.149
    26   6 C        3.631    -0.256    26.189     7.368
    27   6 C        3.740    -0.062    21.770     6.657
    28   1 H        0.924     0.096     1.825     2.113
    29   1 H        0.925     0.101     1.777     2.085
    30   1 H        0.930     0.094     1.837     2.119
    31   1 H        0.926     0.088     1.902     2.157

 Mol. C6AA /au·bohr⁶  :       9435.470353
 Mol. C8AA /au·bohr⁸  :     320401.290288
 Mol. α(0) /au        :        142.879996


Wiberg/Mayer (AO) data.
largest (>0.10) Wiberg bond orders for each atom

 ---------------------------------------------------------------------------
     #   Z sym  total        # sym  WBO       # sym  WBO       # sym  WBO
 ---------------------------------------------------------------------------
     1  40 Zr   4.302 --    26 C    0.691     2 C    0.330    14 C    0.266
                             6 C    0.260     7 C    0.248     5 C    0.241
                            15 C    0.236    17 C    0.232     3 C    0.231
                            13 C    0.229     4 C    0.229    16 C    0.225
                            27 C    0.168    23 H    0.133
     2   6 C    3.950 --    25 H    0.972    24 H    0.952    23 H    0.818
                            27 C    0.671     1 Zr   0.330    26 C    0.104
     3   6 C    3.980 --     4 C    1.309     7 C    1.303     8 H    0.925
                             1 Zr   0.231
     4   6 C    3.980 --     5 C    1.310     3 C    1.309     9 H    0.925
                             1 Zr   0.229
     5   6 C    3.978 --     4 C    1.310     6 C    1.289    10 H    0.925
                             1 Zr   0.241
     6   6 C    3.981 --     7 C    1.297     5 C    1.289    11 H    0.920
                             1 Zr   0.260
     7   6 C    3.980 --     3 C    1.303     6 C    1.297    12 H    0.921
                             1 Zr   0.248
     8   1 H    0.991 --     3 C    0.925
     9   1 H    0.992 --     4 C    0.925
    10   1 H    0.990 --     5 C    0.925
    11   1 H    0.990 --     6 C    0.920
    12   1 H    0.990 --     7 C    0.921
    13   6 C    3.981 --    17 C    1.312    14 C    1.302    18 H    0.924
                             1 Zr   0.229
    14   6 C    3.979 --    13 C    1.302    15 C    1.281    19 H    0.917
                             1 Zr   0.266
    15   6 C    3.980 --    16 C    1.321    14 C    1.281    20 H    0.927
                             1 Zr   0.236
    16   6 C    3.979 --    15 C    1.321    17 C    1.298    21 H    0.928
                             1 Zr   0.225
    17   6 C    3.978 --    13 C    1.312    16 C    1.298    22 H    0.923
                             1 Zr   0.232
    18   1 H    0.990 --    13 C    0.924
    19   1 H    0.991 --    14 C    0.917
    20   1 H    0.990 --    15 C    0.927
    21   1 H    0.992 --    16 C    0.928
    22   1 H    0.993 --    17 C    0.923
    23   1 H    0.992 --     2 C    0.818     1 Zr   0.133
    24   1 H    0.991 --     2 C    0.952
    25   1 H    0.990 --     2 C    0.972
    26   6 C    3.856 --    27 C    1.153    31 H    0.910    30 H    0.879
                             1 Zr   0.691     2 C    0.104
    27   6 C    3.973 --    26 C    1.153    29 H    0.953    28 H    0.940
                             2 C    0.671     1 Zr   0.168
    28   1 H    0.989 --    27 C    0.940
    29   1 H    0.989 --    27 C    0.953
    30   1 H    0.990 --    26 C    0.879
    31   1 H    0.991 --    26 C    0.910
 ---------------------------------------------------------------------------

Topologies differ in total number of bonds
Writing topology from bond orders to xtbtopo.mol

molecular dipole:
                 x           y           z       tot (Debye)
 q only:       -2.907       0.131       0.567
   full:       -2.542       0.237       0.514       6.621
molecular quadrupole (traceless):
                xx          xy          yy          xz          yz          zz
 q only:        9.259      -1.560      -6.220      -1.290      -5.268      -3.040
  q+dip:       10.273      -1.217      -8.005      -0.912      -8.166      -2.269
   full:        9.200      -0.445      -7.039      -2.412      -7.180      -2.161

           -------------------------------------------------
          |                Geometry Summary                 |
           -------------------------------------------------

      molecular mass/u    :      264.4982010
   center of mass at/Å    :       -1.2660898      -0.1959475       0.6700928
  moments of inertia/u·Å² :        0.5943638E+03   0.7163931E+03   0.9324118E+03
rotational constants/cm⁻¹ :        0.2836248E-01   0.2353126E-01   0.1807960E-01

 * 40 selected distances

     #   Z          #   Z                                           value/Å
     1  40 Zr       2   6 C                                       2.5975371 (max)
     1  40 Zr       3   6 C                                       2.4683782
     1  40 Zr       4   6 C                                       2.4686092
     3   6 C        4   6 C                                       1.4149605
     1  40 Zr       5   6 C                                       2.4499936
     4   6 C        5   6 C                                       1.4156547
     1  40 Zr       6   6 C                                       2.4353415
     5   6 C        6   6 C                                       1.4200974
     1  40 Zr       7   6 C                                       2.4483648
     3   6 C        7   6 C                                       1.4176912
     6   6 C        7   6 C                                       1.4169140
     3   6 C        8   1 H                                       1.0844459
     4   6 C        9   1 H                                       1.0851544
     5   6 C       10   1 H                                       1.0836368
     6   6 C       11   1 H                                       1.0846045
     7   6 C       12   1 H                                       1.0848128
     1  40 Zr      13   6 C                                       2.4581253
     1  40 Zr      14   6 C                                       2.4313643
    13   6 C       14   6 C                                       1.4171874
     1  40 Zr      15   6 C                                       2.4663694
    14   6 C       15   6 C                                       1.4212171
     1  40 Zr      16   6 C                                       2.4827224
    15   6 C       16   6 C                                       1.4121541
     1  40 Zr      17   6 C                                       2.4639688
    13   6 C       17   6 C                                       1.4155275
    16   6 C       17   6 C                                       1.4180573
    13   6 C       18   1 H                                       1.0836811
    14   6 C       19   1 H                                       1.0859402
    15   6 C       20   1 H                                       1.0828846 (min)
    16   6 C       21   1 H                                       1.0841947
    17   6 C       22   1 H                                       1.0857707
     2   6 C       23   1 H                                       1.1126961
     2   6 C       24   1 H                                       1.0879885
     2   6 C       25   1 H                                       1.0844526
     1  40 Zr      26   6 C                                       2.2159043
    26   6 C       27   6 C                                       1.4536781
    27   6 C       28   1 H                                       1.0904789
    27   6 C       29   1 H                                       1.0879553
    26   6 C       30   1 H                                       1.0986214
    26   6 C       31   1 H                                       1.0966416

 * 3 distinct bonds (by element types)

   Z      Z             #   av. dist./Å        max./Å        min./Å
   1 H    6 C          17     1.0884682     1.1126961     1.0828846
   6 C    6 C          11     1.4202854     1.4536781     1.4121541
   6 C   40 Zr         12     2.4488899     2.5975371     2.2159043


optimized geometry written to: xtbopt.xyz


           -------------------------------------------------
          | TOTAL ENERGY              -37.649468246430 Eh   |
          | GRADIENT NORM               0.000782838500 Eh/α |
          | HOMO-LUMO GAP               1.860222266218 eV   |
           -------------------------------------------------

------------------------------------------------------------------------
 * finished run on 2026/08/03 at 11:37:01.335     
------------------------------------------------------------------------
 total:
 * wall-time:     0 d,  0 h,  0 min, 31.888 sec
 *  cpu-time:     0 d,  0 h,  1 min, 49.783 sec
 * ratio c/w:     3.443 speedup
 SCF:
 * wall-time:     0 d,  0 h,  0 min,  0.726 sec
 *  cpu-time:     0 d,  0 h,  0 min,  2.756 sec
 * ratio c/w:     3.796 speedup
 ANC optimizer:
 * wall-time:     0 d,  0 h,  0 min, 31.095 sec
 *  cpu-time:     0 d,  0 h,  1 min, 46.733 sec
 * ratio c/w:     3.433 speedup

