31
 energy: -37.649468246430 gnorm: 0.000782838500 xtb: 6.5.1 (b24c23e)
Zr          -1.34116781354264       -0.18206559791203        0.61561543817402
C           -1.15659309839879        1.26295387849646       -1.53497719896742
C            0.38771677037330       -1.94376275104098        0.63208559663225
C            0.09754213566428       -1.67332032934590       -0.72613838588996
C           -1.24587926771108       -2.04701274624536       -0.97037316427497
C           -1.79015396414715       -2.54640078236290        0.24249647696740
C           -0.77785503284430       -2.48365982972828        1.23192022453554
H            1.37189924861371       -1.90047692621131        1.08544414184290
H            0.82601293484624       -1.39647417857122       -1.48128501108450
H           -1.72734481889080       -2.09165623179765       -1.94014963216414
H           -2.74314607578986       -3.05334371882283        0.34823970742108
H           -0.83866196643221       -2.92637777892565        2.22041501340800
C           -0.29429315684303        0.12616597860818        2.81821060985674
C           -1.68431864302584        0.36305270441502        2.96010365756015
C           -1.99387858997632        1.55120388257988        2.24433343006169
C           -0.80877321086715        2.01831843660123        1.63481887379921
C            0.24182647866453        1.12862887960143        1.97478804223610
H            0.28138667209679       -0.60371924914897        3.37518885071373
H           -2.34797166647178       -0.15141266116171        3.64869347552796
H           -2.92910225641150        2.09422767975661        2.30019661528130
H           -0.69283075629811        2.97124188607977        1.13086245581990
H            1.29761255040977        1.29379234167640        1.78260417466316
H           -0.32245246580786        1.07494093559817       -0.82297097034844
H           -1.12966024183951        0.59413931908456       -2.39269539763789
H           -1.13565298335840        2.29617615763166       -1.86368765713664
C           -3.45605674469896        0.05184251879295       -0.00306264914478
C           -3.13051270725196        1.16955727974707       -0.87364542752270
H           -3.22566614248595        2.16472927676641       -0.43807385288489
H           -3.51934770456315        1.13826422602586       -1.88926076338199
H           -4.07665391314136        0.34655927416611        0.85424127567179
H           -3.92110392985964       -0.77657692433548       -0.55085362972252
