31
Properties=species:S:1:pos:R:3 pbc="F F F"
Zr      -1.51900000       0.14080000       0.14070000
C       -0.69412053       1.30759930      -1.88013603
C       -0.10488398      -1.98439677       1.22326159
C        0.45868400      -1.78517252      -0.11909603
C       -0.57089337      -2.14913354      -1.10245525
C       -1.77070466      -2.57327314      -0.36781600
C       -1.48270112      -2.47146238       1.06960569
H        0.40608400      -1.80376690       2.16205899
H        1.45843775      -1.43175430      -0.34442690
H       -0.46399338      -2.11134383      -2.18055412
H       -2.70439232      -2.90333665      -0.80876754
H       -2.16663518      -2.71323667       1.87518958
C       -0.10489729       0.26594184       2.52245944
C       -1.48271955       0.64254055       2.86742666
C       -1.77073135       1.93827205       2.23685418
C       -0.57092006       2.36241165       1.50221492
C        0.45866558       1.32883041       1.67872494
H        0.40607710      -0.63738351       2.83545223
H       -2.16665162       0.06578010       3.47961152
H       -2.70442420       2.48517232       2.30220397
H       -0.46402526       3.27716513       0.93041739
H        1.45842131       1.34726246       1.25999504
H       -0.09969237       0.63504785      -2.46266127
H       -1.52641703       1.64394007      -2.46251338
H       -0.09964683       2.14823143      -1.58886530
C       -3.09261349      -0.00237464      -1.20257143
C       -2.87762070       1.30120940      -1.01135173
H       -3.15621900       1.79547179      -0.08676982
H       -2.41535829       1.92057313      -1.77257843
H       -3.55487590      -0.62173837      -0.44134473
H       -2.81401519      -0.49663703      -2.12715334
