      -----------------------------------------------------------      
     |                   =====================                   |     
     |                           x T B                           |     
     |                   =====================                   |     
     |                         S. Grimme                         |     
     |          Mulliken Center for Theoretical Chemistry        |     
     |                    University of Bonn                     |     
      -----------------------------------------------------------      

   * xtb version 6.5.1 (b24c23e) compiled by 'conda@728c89f4b128' on 2022-07-12

   xtb is free software: you can redistribute it and/or modify it under
   the terms of the GNU Lesser General Public License as published by
   the Free Software Foundation, either version 3 of the License, or
   (at your option) any later version.
   
   xtb is distributed in the hope that it will be useful,
   but WITHOUT ANY WARRANTY; without even the implied warranty of
   MERCHANTABILITY or FITNESS FOR A PARTICULAR PURPOSE.  See the
   GNU Lesser General Public License for more details.
   
   Cite this work as:
   * C. Bannwarth, E. Caldeweyher, S. Ehlert, A. Hansen, P. Pracht,
     J. Seibert, S. Spicher, S. Grimme, WIREs Comput. Mol. Sci., 2020, 11,
     e01493. DOI: 10.1002/wcms.1493
   
   for GFN2-xTB:
   * C. Bannwarth, S. Ehlert and S. Grimme., J. Chem. Theory Comput., 2019,
     15, 1652-1671. DOI: 10.1021/acs.jctc.8b01176
   for GFN1-xTB:
   * S. Grimme, C. Bannwarth, P. Shushkov, J. Chem. Theory Comput., 2017,
     13, 1989-2009. DOI: 10.1021/acs.jctc.7b00118
   for GFN0-xTB:
   * P. Pracht, E. Caldeweyher, S. Ehlert, S. Grimme, ChemRxiv, 2019, preprint.
     DOI: 10.26434/chemrxiv.8326202.v1
   for GFN-FF:
   * S. Spicher and S. Grimme, Angew. Chem. Int. Ed., 2020, 59, 15665-15673.
     DOI: 10.1002/anie.202004239
   
   for ALPB and GBSA implicit solvation:
   * S. Ehlert, M. Stahn, S. Spicher, S. Grimme, J. Chem. Theory Comput.,
     2021, 17, 4250-4261. DOI: 10.1021/acs.jctc.1c00471
   
   for DFT-D4:
   * E. Caldeweyher, C. Bannwarth and S. Grimme, J. Chem. Phys., 2017,
     147, 034112. DOI: 10.1063/1.4993215
   * E. Caldeweyher, S. Ehlert, A. Hansen, H. Neugebauer, S. Spicher,
     C. Bannwarth and S. Grimme, J. Chem. Phys., 2019, 150, 154122.
     DOI: 10.1063/1.5090222
   * E. Caldeweyher, J.-M. Mewes, S. Ehlert and S. Grimme, Phys. Chem. Chem. Phys.
     2020, 22, 8499-8512. DOI: 10.1039/D0CP00502A
   
   for sTDA-xTB:
   * S. Grimme and C. Bannwarth, J. Chem. Phys., 2016, 145, 054103.
     DOI: 10.1063/1.4959605
   
   in the mass-spec context:
   * V. Asgeirsson, C. Bauer and S. Grimme, Chem. Sci., 2017, 8, 4879.
     DOI: 10.1039/c7sc00601b
   * J. Koopman and S. Grimme, ACS Omega 2019, 4, 12, 15120-15133.
     DOI: 10.1021/acsomega.9b02011
   
   for metadynamics refer to:
   * S. Grimme, J. Chem. Theory Comput., 2019, 155, 2847-2862
     DOI: 10.1021/acs.jctc.9b00143
   
   for SPH calculations refer to:
   * S. Spicher and S. Grimme, J. Chem. Theory Comput., 2021, 17, 1701-1714
     DOI: 10.1021/acs.jctc.0c01306
   
   with help from (in alphabetical order)
   P. Atkinson, C. Bannwarth, F. Bohle, G. Brandenburg, E. Caldeweyher
   M. Checinski, S. Dohm, S. Ehlert, S. Ehrlich, I. Gerasimov, C. Hölzer
   A. Katbashev, J. Koopman, C. Lavigne, S. Lehtola, F. März, M. Müller,
   F. Musil, H. Neugebauer, J. Pisarek, C. Plett, P. Pracht, F. Pultar,
   J. Seibert, P. Shushkov, S. Spicher, M. Stahn, M. Steiner, T. Strunk,
   J. Stückrath, T. Rose, and J. Unsleber
   
 * started run on 2026/08/16 at 16:00:09.126     

           -------------------------------------------------
          |                Calculation Setup                |
           -------------------------------------------------

          program call               : /h/332/chchoi/miniconda3/envs/el-agente/bin/xtb reactant_prealigned.xyz --opt --gfn 2 -P 4 --chrg 1 --uhf 0 --input detailed_input.inp
          coordinate file            : reactant_prealigned.xyz
          omp threads                :                     4

   ID    Z sym.   atoms
    1   40 Zr     1
    2    6 C      2-7, 13-17, 26, 27
    3    1 H      8-12, 18-25, 28-31
constraining bond 2 27 to    2.2500000 Å, actual value:    3.1737833 Å
constraining bond 1 26 to    2.3500000 Å, actual value:    2.5634266 Å
constraining bond 1 2 to    2.6500000 Å, actual value:    2.4750002 Å

molecular fragmentation (1/2 indicates fragments):
1111111111111111111111111222222
# atoms in fragment 1/2:    25     6
 fragment masses (1/2) :      236.44       28.05
CMA distance (Bohr)    :   5.958
constraining FC (au)   :  0.5000

           -------------------------------------------------
          |                 G F N 2 - x T B                 |
           -------------------------------------------------

        Reference                      10.1021/acs.jctc.8b01176
      * Hamiltonian:
        H0-scaling (s, p, d)           1.850000    2.230000    2.230000
        zeta-weighting                 0.500000
      * Dispersion:
        s8                             2.700000
        a1                             0.520000
        a2                             5.000000
        s9                             5.000000
      * Repulsion:
        kExp                           1.500000    1.000000
        rExp                           1.000000
      * Coulomb:
        alpha                          2.000000
        third order                    shell-resolved
        anisotropic                    true
        a3                             3.000000
        a5                             4.000000
        cn-shift                       1.200000
        cn-exp                         4.000000
        max-rad                        5.000000


          ...................................................
          :                      SETUP                      :
          :.................................................:
          :  # basis functions                  79          :
          :  # atomic orbitals                  78          :
          :  # shells                           46          :
          :  # electrons                        72          :
          :  max. iterations                   250          :
          :  Hamiltonian                  GFN2-xTB          :
          :  restarted?                      false          :
          :  GBSA solvation                  false          :
          :  PC potential                    false          :
          :  electronic temp.          300.0000000     K    :
          :  accuracy                    1.0000000          :
          :  -> integral cutoff          0.2500000E+02      :
          :  -> integral neglect         0.1000000E-07      :
          :  -> SCF convergence          0.1000000E-05 Eh   :
          :  -> wf. convergence          0.1000000E-03 e    :
          :  Broyden damping             0.4000000          :
          ...................................................

 iter      E             dE          RMSdq      gap      omega  full diag
   1    -37.9337942 -0.379338E+02  0.504E+00    0.48       0.0  T
   2    -38.0378568 -0.104063E+00  0.380E+00    1.61       1.0  T
   3    -38.0740851 -0.362284E-01  0.314E+00    0.59       1.0  T
   4    -38.0959323 -0.218472E-01  0.124E+00    0.87       1.0  T
   5    -38.0884323  0.750000E-02  0.737E-01    0.62       1.0  T
   6    -38.0980285 -0.959622E-02  0.343E-01    0.84       1.0  T
   7    -38.0988331 -0.804580E-03  0.189E-01    0.79       1.0  T
   8    -38.0988238  0.930887E-05  0.103E-01    0.79       1.0  T
   9    -38.0988482 -0.244123E-04  0.532E-02    0.81       1.0  T
  10    -38.0988642 -0.159681E-04  0.230E-02    0.81       1.0  T
  11    -38.0988684 -0.424327E-05  0.128E-02    0.80       1.4  T
  12    -38.0988701 -0.172955E-05  0.356E-03    0.80       5.0  T
  13    -38.0988702 -0.560171E-07  0.242E-03    0.80       7.4  T
  14    -38.0988702 -0.138355E-07  0.145E-03    0.80      12.4  T
  15    -38.0988702 -0.109336E-07  0.973E-04    0.80      18.5  T
  16    -38.0988702 -0.864588E-10  0.521E-04    0.80      34.5  T

   *** convergence criteria satisfied after 16 iterations ***

         #    Occupation            Energy/Eh            Energy/eV
      -------------------------------------------------------------
         1        2.0000           -0.8610956             -23.4316
       ...           ...                  ...                  ...
        30        2.0000           -0.5737591             -15.6128
        31        2.0000           -0.5491890             -14.9442
        32        2.0000           -0.5075136             -13.8101
        33        2.0000           -0.5037613             -13.7080
        34        2.0000           -0.4916460             -13.3784
        35        2.0000           -0.4915753             -13.3764
        36        2.0000           -0.4821506             -13.1200 (HOMO)
        37        0.0000           -0.4525961             -12.3158 (LUMO)
        38                         -0.4374110             -11.9026
        39                         -0.4325424             -11.7701
        40                         -0.4291652             -11.6782
        41                         -0.4183406             -11.3836
       ...                                ...                  ...
        78                          1.7558014              47.7778
      -------------------------------------------------------------
                  HL-Gap            0.0295546 Eh            0.8042 eV
             Fermi-level           -0.4673733 Eh          -12.7179 eV

 SCC (total)                   0 d,  0 h,  0 min,  1.092 sec
 SCC setup                      ...        0 min,  0.001 sec (  0.118%)
 Dispersion                     ...        0 min,  0.000 sec (  0.043%)
 classical contributions        ...        0 min,  0.003 sec (  0.274%)
 integral evaluation            ...        0 min,  0.002 sec (  0.221%)
 iterations                     ...        0 min,  1.029 sec ( 94.272%)
 molecular gradient             ...        0 min,  0.055 sec (  5.052%)
 printout                       ...        0 min,  0.000 sec (  0.018%)

         :::::::::::::::::::::::::::::::::::::::::::::::::::::
         ::                     SUMMARY                     ::
         :::::::::::::::::::::::::::::::::::::::::::::::::::::
         :: total energy             -35.876917419721 Eh    ::
         :: gradient norm              2.455737838872 Eh/a0 ::
         :: HOMO-LUMO gap              0.804220433517 eV    ::
         ::.................................................::
         :: SCC energy               -38.098870227577 Eh    ::
         :: -> isotropic ES            0.097816544367 Eh    ::
         :: -> anisotropic ES         -0.001324000214 Eh    ::
         :: -> anisotropic XC          0.020641109411 Eh    ::
         :: -> dispersion             -0.027285177121 Eh    ::
         :: repulsion energy           0.561392506771 Eh    ::
         :: add. restraining           1.659743937802 Eh    ::
         :: total charge               1.000000000034 e     ::
         :::::::::::::::::::::::::::::::::::::::::::::::::::::

      ----------------------------------------------------------- 
     |                   =====================                   |
     |                        A N C O P T                        |
     |                   =====================                   |
     |               Approximate Normal Coordinate               |
     |                Rational Function Optimizer                |
      ----------------------------------------------------------- 

          ...................................................
          :                      SETUP                      :
          :.................................................:
          :   optimization level            normal          :
          :   max. optcycles                   200          :
          :   ANC micro-cycles                  20          :
          :   degrees of freedom                87          :
          :.................................................:
          :   RF solver                   davidson          :
          :   write xtbopt.log                true          :
          :   linear?                        false          :
          :   energy convergence         0.5000000E-05 Eh   :
          :   grad. convergence          0.1000000E-02 Eh/α :
          :   maximium RF displ.         1.0000000          :
          :   Hlow (freq-cutoff)         0.1000000E-01      :
          :   Hmax (freq-cutoff)         5.0000000          :
          :   S6 in model hess.         20.0000000          :
          ...................................................

generating ANC from model Hessian ...
Using Lindh-Hessian (1995)
 Shifting diagonal of input Hessian by    2.9920943181927187E-002
 Lowest  eigenvalues of input Hessian
    0.010000    0.015513    0.029871    0.000000    0.000000    0.000000
    0.000000    0.000000    0.000000    0.030341    0.030370    0.030444
    0.030483    0.030607    0.030802    0.031197    0.031621    0.031983
 Highest eigenvalues
    1.512139    1.529419    1.891876    2.020209    2.328891    3.147822


........................................................................
.............................. CYCLE    1 ..............................
........................................................................
   1    -38.0988702 -0.380989E+02  0.141E-04    0.80       0.0  T
   2    -38.0988702 -0.592593E-11  0.170E-04    0.80     105.4  T
   3    -38.0988702 -0.279307E-09  0.875E-05    0.80     205.3  T
     SCC iter.                  ...        0 min,  0.151 sec
     gradient                   ...        0 min,  0.059 sec
 * total energy  :   -35.8769174 Eh     change       -0.3213529E-08 Eh
   gradient norm :     2.4557377 Eh/α   predicted     0.0000000E+00 (-100.00%)
   displ. norm   :     0.6628232 α      lambda       -0.1565127E+01
   maximum displ.:     0.3836876 α      in ANC's #87, #85, #65, ...

........................................................................
.............................. CYCLE    2 ..............................
........................................................................
   1    -38.0808488 -0.380808E+02  0.862E-01    0.54       0.0  T
   2    -38.0804971  0.351652E-03  0.556E-01    0.79       1.0  T
   3    -38.0807600 -0.262825E-03  0.520E-01    0.55       1.0  T
   4    -38.0836288 -0.286882E-02  0.179E-01    0.68       1.0  T
   5    -38.0840852 -0.456394E-03  0.797E-02    0.63       1.0  T
   6    -38.0841404 -0.551937E-04  0.427E-02    0.65       1.0  T
   7    -38.0841522 -0.118256E-04  0.267E-02    0.64       1.0  T
   8    -38.0841560 -0.378378E-05  0.154E-02    0.64       1.2  T
   9    -38.0841563 -0.295619E-06  0.840E-03    0.64       2.1  T
  10    -38.0841566 -0.354847E-06  0.561E-03    0.64       3.2  T
  11    -38.0841569 -0.240010E-06  0.297E-03    0.64       6.1  T
  12    -38.0841569 -0.648829E-07  0.125E-03    0.64      14.3  T
  13    -38.0841569 -0.422494E-08  0.506E-04    0.64      35.5  T
  14    -38.0841569 -0.111874E-08  0.255E-04    0.64      70.4  T
     SCC iter.                  ...        0 min,  0.836 sec
     gradient                   ...        0 min,  0.111 sec
 * total energy  :   -37.0302804 Eh     change       -0.1153363E+01 Eh
   gradient norm :     1.1338881 Eh/α   predicted    -0.1126398E+01 (  -2.34%)
   displ. norm   :     0.5785810 α      lambda       -0.5840400E+00
   maximum displ.:     0.3503667 α      in ANC's #65, #85, #87, ...

........................................................................
.............................. CYCLE    3 ..............................
........................................................................
   1    -38.0366559 -0.380367E+02  0.144E+00    0.63       0.0  T
   2    -38.0134288  0.232271E-01  0.166E+00    0.98       1.0  T
   3    -38.0643053 -0.508765E-01  0.483E-01    0.78       1.0  T
   4    -38.0643835 -0.782580E-04  0.299E-01    0.75       1.0  T
   5    -38.0651476 -0.764063E-03  0.174E-01    0.74       1.0  T
   6    -38.0655106 -0.362998E-03  0.453E-02    0.76       1.0  T
   7    -38.0655221 -0.114430E-04  0.356E-02    0.76       1.0  T
   8    -38.0655297 -0.763620E-05  0.173E-02    0.75       1.0  T
   9    -38.0655299 -0.163947E-06  0.107E-02    0.76       1.7  T
  10    -38.0655311 -0.129595E-05  0.479E-03    0.75       3.8  T
  11    -38.0655312 -0.747407E-07  0.294E-03    0.75       6.1  T
  12    -38.0655313 -0.789821E-07  0.185E-03    0.75       9.7  T
  13    -38.0655313 -0.206818E-07  0.809E-04    0.75      22.2  T
  14    -38.0655313 -0.351400E-08  0.377E-04    0.75      47.7  T
     SCC iter.                  ...        0 min,  0.667 sec
     gradient                   ...        0 min,  0.027 sec
 * total energy  :   -37.4246525 Eh     change       -0.3943722E+00 Eh
   gradient norm :     0.3615869 Eh/α   predicted    -0.3897834E+00 (  -1.16%)
   displ. norm   :     0.6169358 α      lambda       -0.1535403E+00
   maximum displ.:     0.2929963 α      in ANC's #1, #23, #65, ...

........................................................................
.............................. CYCLE    4 ..............................
........................................................................
   1    -38.1001047 -0.381001E+02  0.104E+00    1.09       0.0  T
   2    -38.0851115  0.149932E-01  0.115E+00    1.27       1.0  T
   3    -38.1120011 -0.268896E-01  0.511E-01    1.12       1.0  T
   4    -38.1121887 -0.187615E-03  0.207E-01    1.15       1.0  T
   5    -38.1124979 -0.309169E-03  0.897E-02    1.13       1.0  T
   6    -38.1125550 -0.571232E-04  0.450E-02    1.15       1.0  T
   7    -38.1125724 -0.174434E-04  0.253E-02    1.14       1.0  T
   8    -38.1125752 -0.277952E-05  0.114E-02    1.14       1.6  T
   9    -38.1125755 -0.254115E-06  0.666E-03    1.14       2.7  T
  10    -38.1125761 -0.674902E-06  0.286E-03    1.14       6.3  T
  11    -38.1125761 -0.603404E-08  0.200E-03    1.14       9.0  T
  12    -38.1125762 -0.181425E-07  0.759E-04    1.14      23.7  T
  13    -38.1125762 -0.424498E-08  0.321E-04    1.14      55.9  T
     SCC iter.                  ...        0 min,  0.679 sec
     gradient                   ...        0 min,  0.004 sec
 * total energy  :   -37.5265753 Eh     change       -0.1019228E+00 Eh
   gradient norm :     0.1219378 Eh/α   predicted    -0.1059900E+00 (   3.99%)
   displ. norm   :     0.6374758 α      lambda       -0.5590262E-01
   maximum displ.:     0.2697859 α      in ANC's #23, #26, #2, ...

........................................................................
.............................. CYCLE    5 ..............................
........................................................................
   1    -38.1694089 -0.381694E+02  0.592E-01    1.21       0.0  T
   2    -38.1633379  0.607103E-02  0.713E-01    1.34       1.0  T
   3    -38.1746032 -0.112653E-01  0.247E-01    1.23       1.0  T
   4    -38.1746303 -0.270723E-04  0.130E-01    1.25       1.0  T
   5    -38.1747346 -0.104313E-03  0.589E-02    1.24       1.0  T
   6    -38.1747404 -0.585859E-05  0.397E-02    1.25       1.0  T
   7    -38.1747561 -0.156584E-04  0.199E-02    1.24       1.0  T
   8    -38.1747586 -0.252858E-05  0.680E-03    1.24       2.6  T
   9    -38.1747588 -0.194623E-06  0.364E-03    1.24       4.9  T
  10    -38.1747589 -0.101898E-06  0.273E-03    1.24       6.6  T
  11    -38.1747589 -0.554356E-08  0.169E-03    1.24      10.6  T
  12    -38.1747589 -0.160526E-07  0.309E-04    1.24      58.1  T
  13    -38.1747589 -0.103950E-08  0.140E-04    1.24     128.1  T
     SCC iter.                  ...        0 min,  0.669 sec
     gradient                   ...        0 min,  0.113 sec
 * total energy  :   -37.5672537 Eh     change       -0.4067832E-01 Eh
   gradient norm :     0.0940565 Eh/α   predicted    -0.3931003E-01 (  -3.36%)
   displ. norm   :     0.7707870 α      lambda       -0.4118798E-01
   maximum displ.:     0.4376260 α      in ANC's #1, #26, #23, ...

........................................................................
.............................. CYCLE    6 ..............................
........................................................................
   1    -38.2111826 -0.382112E+02  0.115E+00    1.35       0.0  T
   2    -38.2083088  0.287374E-02  0.109E+00    1.38       1.0  T
   3    -38.2143224 -0.601361E-02  0.756E-01    1.27       1.0  T
   4    -38.2149365 -0.614056E-03  0.231E-01    1.41       1.0  T
   5    -38.2159854 -0.104896E-02  0.157E-01    1.29       1.0  T
   6    -38.2161503 -0.164868E-03  0.664E-02    1.33       1.0  T
   7    -38.2161595 -0.918697E-05  0.270E-02    1.33       1.0  T
   8    -38.2161617 -0.216216E-05  0.133E-02    1.33       1.4  T
   9    -38.2161632 -0.157005E-05  0.579E-03    1.33       3.1  T
  10    -38.2161635 -0.218759E-06  0.334E-03    1.33       5.4  T
  11    -38.2161635 -0.150834E-07  0.183E-03    1.33       9.8  T
  12    -38.2161635 -0.153996E-07  0.532E-04    1.33      33.8  T
  13    -38.2161635 -0.282138E-08  0.326E-04    1.33      55.0  T
     SCC iter.                  ...        0 min,  0.566 sec
     gradient                   ...        0 min,  0.121 sec
 * total energy  :   -37.5825557 Eh     change       -0.1530203E-01 Eh
   gradient norm :     0.1264759 Eh/α   predicted    -0.3282916E-01 ( 114.54%)
   displ. norm   :     0.5947079 α      lambda       -0.3567880E-01
   maximum displ.:     0.3493648 α      in ANC's #2, #1, #14, ...

........................................................................
.............................. CYCLE    7 ..............................
........................................................................
   1    -38.2310910 -0.382311E+02  0.767E-01    1.28       0.0  T
   2    -38.2308858  0.205197E-03  0.675E-01    1.30       1.0  T
   3    -38.2313799 -0.494057E-03  0.527E-01    1.24       1.0  T
   4    -38.2317231 -0.343235E-03  0.236E-01    1.32       1.0  T
   5    -38.2327885 -0.106544E-02  0.982E-02    1.26       1.0  T
   6    -38.2328964 -0.107888E-03  0.677E-02    1.28       1.0  T
   7    -38.2329131 -0.167228E-04  0.266E-02    1.28       1.0  T
   8    -38.2329141 -0.937477E-06  0.119E-02    1.28       1.5  T
   9    -38.2329146 -0.515002E-06  0.630E-03    1.28       2.8  T
  10    -38.2329150 -0.356964E-06  0.362E-03    1.28       5.0  T
  11    -38.2329150 -0.439788E-07  0.116E-03    1.28      15.5  T
  12    -38.2329150 -0.433270E-08  0.445E-04    1.28      40.4  T
  13    -38.2329150 -0.130591E-08  0.241E-04    1.28      74.6  T
     SCC iter.                  ...        0 min,  0.608 sec
     gradient                   ...        0 min,  0.111 sec
 * total energy  :   -37.5953903 Eh     change       -0.1283460E-01 Eh
   gradient norm :     0.0821094 Eh/α   predicted    -0.2414881E-01 (  88.15%)
   displ. norm   :     0.3128894 α      lambda       -0.1092593E-01
   maximum displ.:     0.1302532 α      in ANC's #19, #21, #15, ...

........................................................................
.............................. CYCLE    8 ..............................
........................................................................
   1    -38.2295023 -0.382295E+02  0.251E-01    1.27       0.0  T
   2    -38.2294934  0.890032E-05  0.207E-01    1.31       1.0  T
   3    -38.2294748  0.186389E-04  0.126E-01    1.27       1.0  T
   4    -38.2295718 -0.970600E-04  0.709E-02    1.30       1.0  T
   5    -38.2296786 -0.106738E-03  0.258E-02    1.29       1.0  T
   6    -38.2296799 -0.130245E-05  0.980E-03    1.29       1.8  T
   7    -38.2296806 -0.776384E-06  0.366E-03    1.29       4.9  T
   8    -38.2296807 -0.709051E-07  0.170E-03    1.29      10.5  T
   9    -38.2296807 -0.689328E-08  0.107E-03    1.29      16.8  T
  10    -38.2296807 -0.110629E-07  0.614E-04    1.29      29.3  T
  11    -38.2296807 -0.329536E-09  0.323E-04    1.29      55.7  T
     SCC iter.                  ...        0 min,  0.508 sec
     gradient                   ...        0 min,  0.111 sec
 * total energy  :   -37.6007632 Eh     change       -0.5372898E-02 Eh
   gradient norm :     0.0384024 Eh/α   predicted    -0.5997767E-02 (  11.63%)
   displ. norm   :     0.4774049 α      lambda       -0.9902465E-02
   maximum displ.:     0.2319799 α      in ANC's #19, #12, #14, ...

........................................................................
.............................. CYCLE    9 ..............................
........................................................................
   1    -38.2154419 -0.382154E+02  0.488E-01    1.33       0.0  T
   2    -38.2145868  0.855124E-03  0.462E-01    1.37       1.0  T
   3    -38.2165076 -0.192073E-02  0.281E-01    1.32       1.0  T
   4    -38.2166466 -0.139072E-03  0.969E-02    1.36       1.0  T
   5    -38.2167483 -0.101682E-03  0.717E-02    1.32       1.0  T
   6    -38.2167965 -0.482082E-04  0.300E-02    1.33       1.0  T
   7    -38.2167973 -0.804346E-06  0.108E-02    1.33       1.7  T
   8    -38.2167974 -0.887892E-07  0.720E-03    1.33       2.5  T
   9    -38.2167979 -0.494627E-06  0.367E-03    1.33       4.9  T
  10    -38.2167979 -0.271710E-07  0.217E-03    1.33       8.3  T
  11    -38.2167979 -0.126470E-07  0.509E-04    1.33      35.3  T
  12    -38.2167979 -0.710855E-09  0.234E-04    1.33      76.7  T
     SCC iter.                  ...        0 min,  0.610 sec
     gradient                   ...        0 min,  0.120 sec
 * total energy  :   -37.6037534 Eh     change       -0.2990184E-02 Eh
   gradient norm :     0.0577092 Eh/α   predicted    -0.6079688E-02 ( 103.32%)
   displ. norm   :     0.4433705 α      lambda       -0.8821402E-02
   maximum displ.:     0.2345621 α      in ANC's #2, #1, #19, ...

........................................................................
.............................. CYCLE   10 ..............................
........................................................................
   1    -38.2139066 -0.382139E+02  0.543E-01    1.37       0.0  T
   2    -38.2142863 -0.379642E-03  0.477E-01    1.29       1.0  T
   3    -38.2144314 -0.145137E-03  0.283E-01    1.34       1.0  T
   4    -38.2144165  0.148850E-04  0.871E-02    1.30       1.0  T
   5    -38.2144975 -0.810095E-04  0.615E-02    1.32       1.0  T
   6    -38.2145451 -0.475952E-04  0.277E-02    1.32       1.0  T
   7    -38.2145476 -0.245160E-05  0.118E-02    1.32       1.5  T
   8    -38.2145481 -0.536745E-06  0.671E-03    1.33       2.7  T
   9    -38.2145485 -0.377086E-06  0.261E-03    1.33       6.9  T
  10    -38.2145486 -0.695409E-07  0.152E-03    1.33      11.8  T
  11    -38.2145486 -0.366649E-08  0.764E-04    1.33      23.5  T
  12    -38.2145486 -0.334732E-08  0.245E-04    1.33      73.2  T
     SCC iter.                  ...        0 min,  0.793 sec
     gradient                   ...        0 min,  0.143 sec
 * total energy  :   -37.6063819 Eh     change       -0.2628534E-02 Eh
   gradient norm :     0.0734871 Eh/α   predicted    -0.5277762E-02 ( 100.79%)
   displ. norm   :     0.3347046 α      lambda       -0.9587351E-02
   maximum displ.:     0.1394182 α      in ANC's #1, #19, #13, ...

........................................................................
.............................. CYCLE   11 ..............................
........................................................................
   1    -38.2418794 -0.382419E+02  0.350E-01    1.34       0.0  T
   2    -38.2419922 -0.112768E-03  0.237E-01    1.31       1.0  T
   3    -38.2417187  0.273524E-03  0.182E-01    1.35       1.0  T
   4    -38.2420291 -0.310436E-03  0.806E-02    1.32       1.0  T
   5    -38.2421881 -0.158992E-03  0.241E-02    1.33       1.0  T
   6    -38.2421915 -0.340288E-05  0.101E-02    1.32       1.8  T
   7    -38.2421921 -0.582942E-06  0.502E-03    1.32       3.6  T
   8    -38.2421922 -0.155314E-06  0.248E-03    1.32       7.3  T
   9    -38.2421923 -0.332253E-07  0.120E-03    1.32      15.0  T
  10    -38.2421923 -0.141855E-08  0.798E-04    1.32      22.5  T
  11    -38.2421923 -0.450526E-08  0.308E-04    1.32      58.3  T
     SCC iter.                  ...        0 min,  0.729 sec
     gradient                   ...        0 min,  0.164 sec
 * total energy  :   -37.6105878 Eh     change       -0.4205871E-02 Eh
   gradient norm :     0.0370671 Eh/α   predicted    -0.5330706E-02 (  26.74%)
   displ. norm   :     0.3605423 α      lambda       -0.4604737E-02
   maximum displ.:     0.2123654 α      in ANC's #19, #15, #4, ...

........................................................................
.............................. CYCLE   12 ..............................
........................................................................
   1    -38.2378854 -0.382379E+02  0.232E-01    1.34       0.0  T
   2    -38.2376879  0.197513E-03  0.213E-01    1.36       1.0  T
   3    -38.2381004 -0.412479E-03  0.115E-01    1.34       1.0  T
   4    -38.2381416 -0.412175E-04  0.323E-02    1.35       1.0  T
   5    -38.2381681 -0.265231E-04  0.158E-02    1.34       1.1  T
   6    -38.2381689 -0.715769E-06  0.731E-03    1.35       2.5  T
   7    -38.2381689 -0.656755E-07  0.281E-03    1.35       6.4  T
   8    -38.2381690 -0.543799E-07  0.171E-03    1.35      10.5  T
   9    -38.2381690 -0.122750E-07  0.969E-04    1.35      18.5  T
  10    -38.2381690 -0.311955E-08  0.543E-04    1.35      33.1  T
     SCC iter.                  ...        0 min,  0.540 sec
     gradient                   ...        0 min,  0.147 sec
 * total energy  :   -37.6138613 Eh     change       -0.3273560E-02 Eh
   gradient norm :     0.0222144 Eh/α   predicted    -0.2601658E-02 ( -20.53%)
   displ. norm   :     0.5238638 α      lambda       -0.4103872E-02
   maximum displ.:     0.3460093 α      in ANC's #19, #14, #4, ...

........................................................................
.............................. CYCLE   13 ..............................
........................................................................
   1    -38.2366494 -0.382366E+02  0.368E-01    1.39       0.0  T
   2    -38.2366551 -0.578292E-05  0.280E-01    1.37       1.0  T
   3    -38.2359409  0.714281E-03  0.167E-01    1.38       1.0  T
   4    -38.2366557 -0.714824E-03  0.574E-02    1.39       1.0  T
   5    -38.2367304 -0.747619E-04  0.263E-02    1.37       1.0  T
   6    -38.2367325 -0.203695E-05  0.990E-03    1.38       1.8  T
   7    -38.2367328 -0.338489E-06  0.468E-03    1.38       3.8  T
   8    -38.2367329 -0.116773E-06  0.235E-03    1.38       7.6  T
   9    -38.2367330 -0.305239E-07  0.112E-03    1.38      16.0  T
  10    -38.2367330 -0.735977E-08  0.638E-04    1.38      28.2  T
  11    -38.2367330 -0.746510E-09  0.199E-04    1.38      90.2  T
     SCC iter.                  ...        0 min,  0.705 sec
     gradient                   ...        0 min,  0.112 sec
 * total energy  :   -37.6168158 Eh     change       -0.2954427E-02 Eh
   gradient norm :     0.0249874 Eh/α   predicted    -0.2615065E-02 ( -11.49%)
   displ. norm   :     0.5791763 α      lambda       -0.4029395E-02
   maximum displ.:     0.3732291 α      in ANC's #19, #4, #2, ...

........................................................................
.............................. CYCLE   14 ..............................
........................................................................
   1    -38.2329637 -0.382330E+02  0.387E-01    1.42       0.0  T
   2    -38.2329800 -0.163483E-04  0.280E-01    1.40       1.0  T
   3    -38.2323502  0.629773E-03  0.158E-01    1.41       1.0  T
   4    -38.2329631 -0.612877E-03  0.578E-02    1.41       1.0  T
   5    -38.2330353 -0.722159E-04  0.275E-02    1.40       1.0  T
   6    -38.2330371 -0.177983E-05  0.874E-03    1.41       2.1  T
   7    -38.2330376 -0.454271E-06  0.427E-03    1.41       4.2  T
   8    -38.2330377 -0.114571E-06  0.208E-03    1.41       8.6  T
   9    -38.2330377 -0.220577E-07  0.125E-03    1.41      14.4  T
  10    -38.2330377 -0.393215E-08  0.803E-04    1.41      22.4  T
  11    -38.2330377 -0.270011E-08  0.281E-04    1.41      63.9  T
     SCC iter.                  ...        0 min,  0.545 sec
     gradient                   ...        0 min,  0.114 sec
 * total energy  :   -37.6194127 Eh     change       -0.2596916E-02 Eh
   gradient norm :     0.0301080 Eh/α   predicted    -0.2690521E-02 (   3.60%)
   displ. norm   :     0.4758519 α      lambda       -0.4276257E-02
   maximum displ.:     0.2990167 α      in ANC's #19, #59, #9, ...

........................................................................
.............................. CYCLE   15 ..............................
........................................................................
   1    -38.2495519 -0.382496E+02  0.284E-01    1.45       0.0  T
   2    -38.2495247  0.271568E-04  0.203E-01    1.42       1.0  T
   3    -38.2491184  0.406285E-03  0.169E-01    1.46       1.0  T
   4    -38.2496179 -0.499480E-03  0.281E-02    1.43       1.0  T
   5    -38.2496342 -0.162769E-04  0.143E-02    1.43       1.3  T
   6    -38.2496351 -0.885621E-06  0.712E-03    1.43       2.5  T
   7    -38.2496354 -0.290801E-06  0.280E-03    1.43       6.4  T
   8    -38.2496354 -0.360816E-07  0.170E-03    1.43      10.5  T
   9    -38.2496354 -0.561821E-08  0.957E-04    1.43      18.8  T
  10    -38.2496354 -0.340901E-08  0.396E-04    1.43      45.4  T
     SCC iter.                  ...        0 min,  0.649 sec
     gradient                   ...        0 min,  0.123 sec
 * total energy  :   -37.6224369 Eh     change       -0.3024267E-02 Eh
   gradient norm :     0.0279944 Eh/α   predicted    -0.2622282E-02 ( -13.29%)
   displ. norm   :     0.5683878 α      lambda       -0.3788448E-02
   maximum displ.:     0.3767343 α      in ANC's #19, #59, #9, ...

........................................................................
.............................. CYCLE   16 ..............................
........................................................................
   1    -38.2508400 -0.382508E+02  0.328E-01    1.47       0.0  T
   2    -38.2508492 -0.919598E-05  0.218E-01    1.46       1.0  T
   3    -38.2505203  0.328842E-03  0.124E-01    1.48       1.0  T
   4    -38.2508619 -0.341550E-03  0.280E-02    1.46       1.0  T
   5    -38.2508747 -0.127656E-04  0.151E-02    1.46       1.2  T
   6    -38.2508751 -0.447488E-06  0.575E-03    1.46       3.1  T
   7    -38.2508756 -0.482938E-06  0.232E-03    1.46       7.8  T
   8    -38.2508756 -0.495679E-08  0.131E-03    1.46      13.7  T
   9    -38.2508756 -0.558057E-08  0.699E-04    1.46      25.7  T
  10    -38.2508756 -0.141459E-08  0.386E-04    1.46      46.5  T
     SCC iter.                  ...        0 min,  0.481 sec
     gradient                   ...        0 min,  0.096 sec
 * total energy  :   -37.6252042 Eh     change       -0.2767298E-02 Eh
   gradient norm :     0.0182375 Eh/α   predicted    -0.2506186E-02 (  -9.44%)
   displ. norm   :     0.5376654 α      lambda       -0.3101354E-02
   maximum displ.:     0.3007747 α      in ANC's #19, #59, #12, ...

........................................................................
.............................. CYCLE   17 ..............................
........................................................................
   1    -38.2558092 -0.382558E+02  0.250E-01    1.48       0.0  T
   2    -38.2558363 -0.270164E-04  0.171E-01    1.48       1.0  T
   3    -38.2556635  0.172713E-03  0.116E-01    1.49       1.0  T
   4    -38.2558553 -0.191713E-03  0.410E-02    1.47       1.0  T
   5    -38.2558932 -0.379705E-04  0.151E-02    1.48       1.2  T
   6    -38.2558936 -0.423715E-06  0.680E-03    1.48       2.6  T
   7    -38.2558943 -0.655069E-06  0.248E-03    1.48       7.3  T
   8    -38.2558943 -0.162737E-07  0.143E-03    1.48      12.5  T
   9    -38.2558943 -0.262530E-08  0.897E-04    1.48      20.0  T
  10    -38.2558943 -0.608637E-09  0.515E-04    1.48      34.9  T
     SCC iter.                  ...        0 min,  0.681 sec
     gradient                   ...        0 min,  0.134 sec
 * total energy  :   -37.6273943 Eh     change       -0.2190080E-02 Eh
   gradient norm :     0.0211550 Eh/α   predicted    -0.1998961E-02 (  -8.73%)
   displ. norm   :     0.4995190 α      lambda       -0.2035951E-02
   maximum displ.:     0.2813405 α      in ANC's #19, #59, #12, ...

........................................................................
.............................. CYCLE   18 ..............................
........................................................................
   1    -38.2527296 -0.382527E+02  0.207E-01    1.50       0.0  T
   2    -38.2527418 -0.121477E-04  0.135E-01    1.51       1.0  T
   3    -38.2526909  0.508284E-04  0.564E-02    1.50       1.0  T
   4    -38.2527428 -0.519085E-04  0.220E-02    1.50       1.0  T
   5    -38.2527492 -0.633454E-05  0.106E-02    1.51       1.7  T
   6    -38.2527491  0.931062E-07  0.505E-03    1.50       3.6  T
   7    -38.2527496 -0.566016E-06  0.154E-03    1.50      11.7  T
   8    -38.2527497 -0.237309E-07  0.636E-04    1.50      28.2  T
   9    -38.2527497 -0.221731E-08  0.309E-04    1.50      58.1  T
     SCC iter.                  ...        0 min,  0.402 sec
     gradient                   ...        0 min,  0.019 sec
 * total energy  :   -37.6287963 Eh     change       -0.1402016E-02 Eh
   gradient norm :     0.0229155 Eh/α   predicted    -0.1271987E-02 (  -9.27%)
   displ. norm   :     0.3591299 α      lambda       -0.1674783E-02
   maximum displ.:     0.1421428 α      in ANC's #12, #19, #59, ...

........................................................................
.............................. CYCLE   19 ..............................
........................................................................
   1    -38.2590169 -0.382590E+02  0.214E-01    1.52       0.0  T
   2    -38.2589672  0.497247E-04  0.170E-01    1.50       1.0  T
   3    -38.2589752 -0.800167E-05  0.119E-01    1.53       1.0  T
   4    -38.2591172 -0.142003E-03  0.247E-02    1.51       1.0  T
   5    -38.2591293 -0.121080E-04  0.163E-02    1.51       1.1  T
   6    -38.2591301 -0.834709E-06  0.652E-03    1.51       2.8  T
   7    -38.2591303 -0.187752E-06  0.209E-03    1.51       8.6  T
   8    -38.2591304 -0.288531E-07  0.133E-03    1.51      13.5  T
   9    -38.2591304 -0.773296E-08  0.516E-04    1.51      34.8  T
  10    -38.2591304 -0.747491E-11  0.268E-04    1.51      66.9  T
     SCC iter.                  ...        0 min,  0.345 sec
     gradient                   ...        0 min,  0.029 sec
 * total energy  :   -37.6296274 Eh     change       -0.8310662E-03 Eh
   gradient norm :     0.0200546 Eh/α   predicted    -0.9453943E-03 (  13.76%)
   displ. norm   :     0.5627105 α      lambda       -0.1984327E-02
   maximum displ.:     0.3536528 α      in ANC's #19, #4, #59, ...

........................................................................
.............................. CYCLE   20 ..............................
........................................................................
   1    -38.2448357 -0.382448E+02  0.249E-01    1.53       0.0  T
   2    -38.2448179  0.177759E-04  0.176E-01    1.55       1.0  T
   3    -38.2443938  0.424102E-03  0.155E-01    1.51       1.0  T
   4    -38.2448927 -0.498844E-03  0.286E-02    1.53       1.0  T
   5    -38.2448967 -0.408902E-05  0.209E-02    1.53       1.0  T
   6    -38.2448992 -0.247701E-05  0.465E-03    1.54       3.9  T
   7    -38.2448994 -0.124988E-06  0.244E-03    1.54       7.4  T
   8    -38.2448994 -0.619481E-07  0.145E-03    1.54      12.4  T
   9    -38.2448994 -0.137803E-07  0.673E-04    1.54      26.7  T
  10    -38.2448994 -0.559069E-09  0.420E-04    1.54      42.8  T
     SCC iter.                  ...        0 min,  0.447 sec
     gradient                   ...        0 min,  0.128 sec
 * total energy  :   -37.6299583 Eh     change       -0.3308737E-03 Eh
   gradient norm :     0.0246374 Eh/α   predicted    -0.1306329E-02 ( 294.81%)
   displ. norm   :     0.1543544 α      lambda       -0.1741698E-02
   maximum displ.:     0.0860662 α      in ANC's #19, #9, #7, ...
 * RMSD in coord.:     1.1150452 α      energy gain  -0.1753041E+01 Eh

generating ANC from model Hessian ...
Using Lindh-Hessian (1995)
 Shifting diagonal of input Hessian by    1.1747856794659931E-002
 Lowest  eigenvalues of input Hessian
    0.010000    0.011010    0.011527    0.000000    0.000000    0.000000
    0.000000    0.000000    0.000000    0.012104    0.012566    0.012832
    0.012939    0.013540    0.014445    0.015372    0.017262    0.017564
 Highest eigenvalues
    1.730943    1.733692    1.737342    2.021375    2.336018    2.722883


........................................................................
.............................. CYCLE   21 ..............................
........................................................................
   1    -38.2541377 -0.382541E+02  0.137E-01    1.54       0.0  T
   2    -38.2541453 -0.758902E-05  0.791E-02    1.55       1.0  T
   3    -38.2540821  0.631646E-04  0.865E-02    1.54       1.0  T
   4    -38.2541622 -0.801134E-04  0.257E-02    1.55       1.0  T
   5    -38.2541706 -0.834428E-05  0.144E-02    1.54       1.2  T
   6    -38.2541714 -0.866247E-06  0.554E-03    1.54       3.2  T
   7    -38.2541717 -0.263524E-06  0.249E-03    1.54       7.2  T
   8    -38.2541717 -0.266090E-07  0.146E-03    1.54      12.3  T
   9    -38.2541717 -0.123093E-07  0.757E-04    1.54      23.7  T
  10    -38.2541717 -0.862087E-09  0.400E-04    1.54      45.0  T
     SCC iter.                  ...        0 min,  0.613 sec
     gradient                   ...        0 min,  0.059 sec
 * total energy  :   -37.6309089 Eh     change       -0.9506318E-03 Eh
   gradient norm :     0.0188272 Eh/α   predicted     0.0000000E+00 (-100.00%)
   displ. norm   :     0.2697301 α      lambda       -0.1643925E-02
   maximum displ.:     0.1230848 α      in ANC's #1, #5, #6, ...

........................................................................
.............................. CYCLE   22 ..............................
........................................................................
   1    -38.2586860 -0.382587E+02  0.185E-01    1.55       0.0  T
   2    -38.2586726  0.133306E-04  0.130E-01    1.55       1.0  T
   3    -38.2586387  0.339498E-04  0.105E-01    1.53       1.0  T
   4    -38.2587547 -0.115960E-03  0.366E-02    1.55       1.0  T
   5    -38.2587832 -0.285926E-04  0.137E-02    1.54       1.3  T
   6    -38.2587830  0.247451E-06  0.748E-03    1.54       2.4  T
   7    -38.2587839 -0.907301E-06  0.219E-03    1.54       8.2  T
   8    -38.2587839 -0.273531E-07  0.108E-03    1.54      16.6  T
   9    -38.2587839 -0.148198E-08  0.502E-04    1.54      35.7  T
  10    -38.2587839 -0.821707E-09  0.295E-04    1.54      61.0  T
     SCC iter.                  ...        0 min,  0.715 sec
     gradient                   ...        0 min,  0.197 sec
 * total energy  :   -37.6319059 Eh     change       -0.9969857E-03 Eh
   gradient norm :     0.0078057 Eh/α   predicted    -0.8818449E-03 ( -11.55%)
   displ. norm   :     0.3317342 α      lambda       -0.1058378E-02
   maximum displ.:     0.1954146 α      in ANC's #9, #5, #6, ...

........................................................................
.............................. CYCLE   23 ..............................
........................................................................
   1    -38.2610068 -0.382610E+02  0.172E-01    1.55       0.0  T
   2    -38.2610119 -0.504655E-05  0.112E-01    1.55       1.0  T
   3    -38.2609738  0.380513E-04  0.535E-02    1.55       1.0  T
   4    -38.2610133 -0.395087E-04  0.199E-02    1.55       1.0  T
   5    -38.2610158 -0.243727E-05  0.159E-02    1.55       1.1  T
   6    -38.2610175 -0.176734E-05  0.537E-03    1.55       3.3  T
   7    -38.2610177 -0.183409E-06  0.267E-03    1.55       6.7  T
   8    -38.2610177 -0.214572E-08  0.147E-03    1.55      12.2  T
   9    -38.2610177 -0.188126E-07  0.678E-04    1.55      26.5  T
  10    -38.2610177 -0.184387E-08  0.207E-04    1.55      86.8  T
     SCC iter.                  ...        0 min,  0.858 sec
     gradient                   ...        0 min,  0.171 sec
 * total energy  :   -37.6327301 Eh     change       -0.8241962E-03 Eh
   gradient norm :     0.0085183 Eh/α   predicted    -0.5874251E-03 ( -28.73%)
   displ. norm   :     0.5411778 α      lambda       -0.1226053E-02
   maximum displ.:     0.3396503 α      in ANC's #9, #5, #6, ...

........................................................................
.............................. CYCLE   24 ..............................
........................................................................
   1    -38.2566805 -0.382567E+02  0.233E-01    1.55       0.0  T
   2    -38.2566840 -0.347629E-05  0.142E-01    1.57       1.0  T
   3    -38.2564353  0.248671E-03  0.130E-01    1.54       1.0  T
   4    -38.2567085 -0.273150E-03  0.298E-02    1.56       1.0  T
   5    -38.2567058  0.270809E-05  0.251E-02    1.56       1.0  T
   6    -38.2567111 -0.529523E-05  0.697E-03    1.56       2.6  T
   7    -38.2567114 -0.326322E-06  0.382E-03    1.56       4.7  T
   8    -38.2567114 -0.598255E-07  0.152E-03    1.56      11.8  T
   9    -38.2567115 -0.167610E-07  0.732E-04    1.56      24.5  T
  10    -38.2567115 -0.514682E-09  0.381E-04    1.56      47.2  T
     SCC iter.                  ...        0 min,  0.675 sec
     gradient                   ...        0 min,  0.142 sec
 * total energy  :   -37.6333480 Eh     change       -0.6179359E-03 Eh
   gradient norm :     0.0190473 Eh/α   predicted    -0.7925799E-03 (  28.26%)
   displ. norm   :     0.1271450 α      lambda       -0.6915677E-03
   maximum displ.:     0.0857143 α      in ANC's #5, #1, #3, ...

........................................................................
.............................. CYCLE   25 ..............................
........................................................................
   1    -38.2599118 -0.382599E+02  0.992E-02    1.57       0.0  T
   2    -38.2598601  0.516949E-04  0.807E-02    1.55       1.0  T
   3    -38.2599588 -0.987007E-04  0.508E-02    1.57       1.0  T
   4    -38.2599797 -0.208466E-04  0.111E-02    1.56       1.6  T
   5    -38.2599820 -0.237657E-05  0.524E-03    1.56       3.4  T
   6    -38.2599822 -0.125439E-06  0.305E-03    1.56       5.9  T
   7    -38.2599822 -0.504792E-07  0.150E-03    1.56      12.0  T
   8    -38.2599822 -0.197626E-08  0.116E-03    1.56      15.4  T
   9    -38.2599822 -0.616063E-08  0.493E-04    1.56      36.4  T
  10    -38.2599822 -0.973081E-09  0.152E-04    1.56     118.1  T
     SCC iter.                  ...        0 min,  0.940 sec
     gradient                   ...        0 min,  0.154 sec
 * total energy  :   -37.6338249 Eh     change       -0.4768302E-03 Eh
   gradient norm :     0.0104229 Eh/α   predicted    -0.3513909E-03 ( -26.31%)
   displ. norm   :     0.3392965 α      lambda       -0.6532787E-03
   maximum displ.:     0.2417488 α      in ANC's #5, #9, #3, ...

........................................................................
.............................. CYCLE   26 ..............................
........................................................................
   1    -38.2607850 -0.382608E+02  0.141E-01    1.57       0.0  T
   2    -38.2607840  0.977190E-06  0.957E-02    1.56       1.0  T
   3    -38.2606619  0.122125E-03  0.661E-02    1.57       1.0  T
   4    -38.2607906 -0.128728E-03  0.154E-02    1.56       1.2  T
   5    -38.2607924 -0.182567E-05  0.986E-03    1.56       1.8  T
   6    -38.2607928 -0.424252E-06  0.275E-03    1.56       6.5  T
   7    -38.2607928 -0.764847E-08  0.177E-03    1.56      10.1  T
   8    -38.2607928 -0.806645E-08  0.103E-03    1.56      17.4  T
   9    -38.2607929 -0.606246E-08  0.289E-04    1.56      62.2  T
  10    -38.2607929 -0.489173E-09  0.127E-04    1.56     142.0  T
     SCC iter.                  ...        0 min,  0.664 sec
     gradient                   ...        0 min,  0.176 sec
 * total energy  :   -37.6343109 Eh     change       -0.4860196E-03 Eh
   gradient norm :     0.0068321 Eh/α   predicted    -0.3642496E-03 ( -25.05%)
   displ. norm   :     0.3492547 α      lambda       -0.5010550E-03
   maximum displ.:     0.2321238 α      in ANC's #5, #9, #4, ...

........................................................................
.............................. CYCLE   27 ..............................
........................................................................
   1    -38.2615488 -0.382615E+02  0.143E-01    1.56       0.0  T
   2    -38.2615515 -0.274613E-05  0.944E-02    1.56       1.0  T
   3    -38.2615349  0.165664E-04  0.272E-02    1.56       1.0  T
   4    -38.2615503 -0.153796E-04  0.169E-02    1.56       1.1  T
   5    -38.2615534 -0.305603E-05  0.917E-03    1.56       2.0  T
   6    -38.2615537 -0.308550E-06  0.247E-03    1.56       7.3  T
   7    -38.2615537 -0.371261E-07  0.153E-03    1.56      11.7  T
   8    -38.2615537 -0.670602E-08  0.880E-04    1.56      20.4  T
   9    -38.2615537 -0.185930E-08  0.294E-04    1.56      61.1  T
     SCC iter.                  ...        0 min,  0.618 sec
     gradient                   ...        0 min,  0.213 sec
 * total energy  :   -37.6346542 Eh     change       -0.3433103E-03 Eh
   gradient norm :     0.0071933 Eh/α   predicted    -0.2810905E-03 ( -18.12%)
   displ. norm   :     0.2681450 α      lambda       -0.3499948E-03
   maximum displ.:     0.1386644 α      in ANC's #5, #4, #7, ...

........................................................................
.............................. CYCLE   28 ..............................
........................................................................
   1    -38.2642644 -0.382643E+02  0.125E-01    1.55       0.0  T
   2    -38.2642658 -0.142454E-05  0.801E-02    1.55       1.0  T
   3    -38.2642301  0.356945E-04  0.390E-02    1.56       1.0  T
   4    -38.2642667 -0.365269E-04  0.113E-02    1.55       1.6  T
   5    -38.2642681 -0.145458E-05  0.628E-03    1.56       2.9  T
   6    -38.2642682 -0.112649E-06  0.196E-03    1.55       9.1  T
   7    -38.2642683 -0.525883E-07  0.100E-03    1.55      17.9  T
   8    -38.2642683 -0.290448E-08  0.557E-04    1.55      32.2  T
   9    -38.2642683 -0.135245E-08  0.322E-04    1.55      55.8  T
     SCC iter.                  ...        0 min,  0.709 sec
     gradient                   ...        0 min,  0.181 sec
 * total energy  :   -37.6348579 Eh     change       -0.2037174E-03 Eh
   gradient norm :     0.0058980 Eh/α   predicted    -0.1875820E-03 (  -7.92%)
   displ. norm   :     0.3684273 α      lambda       -0.3110403E-03
   maximum displ.:     0.1873864 α      in ANC's #5, #9, #4, ...

........................................................................
.............................. CYCLE   29 ..............................
........................................................................
   1    -38.2611724 -0.382612E+02  0.168E-01    1.56       0.0  T
   2    -38.2611719  0.506148E-06  0.116E-01    1.56       1.0  T
   3    -38.2610008  0.171146E-03  0.760E-02    1.56       1.0  T
   4    -38.2611785 -0.177686E-03  0.183E-02    1.55       1.0  T
   5    -38.2611812 -0.272623E-05  0.922E-03    1.56       1.9  T
   6    -38.2611813 -0.813515E-07  0.320E-03    1.56       5.6  T
   7    -38.2611814 -0.779683E-07  0.192E-03    1.56       9.4  T
   8    -38.2611814 -0.190342E-07  0.891E-04    1.56      20.2  T
   9    -38.2611814 -0.512147E-08  0.379E-04    1.56      47.3  T
     SCC iter.                  ...        0 min,  0.719 sec
     gradient                   ...        0 min,  0.018 sec
 * total energy  :   -37.6349834 Eh     change       -0.1254766E-03 Eh
   gradient norm :     0.0084538 Eh/α   predicted    -0.1766317E-03 (  40.77%)
   displ. norm   :     0.1647862 α      lambda       -0.3388668E-03
   maximum displ.:     0.1093413 α      in ANC's #4, #7, #8, ...

........................................................................
.............................. CYCLE   30 ..............................
........................................................................
   1    -38.2654744 -0.382655E+02  0.837E-02    1.56       0.0  T
   2    -38.2654565  0.179271E-04  0.557E-02    1.54       1.0  T
   3    -38.2654735 -0.169443E-04  0.489E-02    1.56       1.0  T
   4    -38.2655039 -0.304034E-04  0.114E-02    1.56       1.6  T
   5    -38.2655049 -0.989602E-06  0.846E-03    1.56       2.1  T
   6    -38.2655051 -0.193706E-06  0.542E-03    1.56       3.3  T
   7    -38.2655052 -0.184375E-06  0.124E-03    1.55      14.5  T
   8    -38.2655052 -0.364651E-08  0.731E-04    1.55      24.6  T
   9    -38.2655052 -0.293866E-08  0.330E-04    1.55      54.4  T
     SCC iter.                  ...        0 min,  0.567 sec
     gradient                   ...        0 min,  0.226 sec
 * total energy  :   -37.6350565 Eh     change       -0.7310841E-04 Eh
   gradient norm :     0.0100518 Eh/α   predicted    -0.1740376E-03 ( 138.05%)
   displ. norm   :     0.1311199 α      lambda       -0.2730085E-03
   maximum displ.:     0.0886723 α      in ANC's #4, #12, #9, ...

........................................................................
.............................. CYCLE   31 ..............................
........................................................................
   1    -38.2644652 -0.382645E+02  0.646E-02    1.55       0.0  T
   2    -38.2644630  0.221156E-05  0.405E-02    1.56       1.0  T
   3    -38.2644453  0.176537E-04  0.368E-02    1.55       1.0  T
   4    -38.2644693 -0.239076E-04  0.963E-03    1.56       1.9  T
   5    -38.2644705 -0.127590E-05  0.476E-03    1.56       3.8  T
   6    -38.2644705  0.230984E-07  0.250E-03    1.56       7.2  T
   7    -38.2644706 -0.696038E-07  0.801E-04    1.56      22.4  T
   8    -38.2644706 -0.312220E-09  0.675E-04    1.56      26.6  T
     SCC iter.                  ...        0 min,  0.801 sec
     gradient                   ...        0 min,  0.118 sec
 * total energy  :   -37.6352170 Eh     change       -0.1604674E-03 Eh
   gradient norm :     0.0036861 Eh/α   predicted    -0.1388531E-03 ( -13.47%)
   displ. norm   :     0.2087052 α      lambda       -0.1097234E-03
   maximum displ.:     0.1546934 α      in ANC's #4, #9, #5, ...

........................................................................
.............................. CYCLE   32 ..............................
........................................................................
   1    -38.2628685 -0.382629E+02  0.710E-02    1.55       0.0  T
   2    -38.2628661  0.244915E-05  0.421E-02    1.56       1.0  T
   3    -38.2628322  0.338393E-04  0.472E-02    1.55       1.0  T
   4    -38.2628725 -0.402587E-04  0.648E-03    1.56       2.8  T
   5    -38.2628727 -0.198558E-06  0.360E-03    1.56       5.0  T
   6    -38.2628727 -0.283148E-07  0.124E-03    1.56      14.4  T
   7    -38.2628727 -0.255428E-07  0.545E-04    1.56      32.9  T
   8    -38.2628727  0.369056E-10  0.441E-04    1.56      40.7  T
     SCC iter.                  ...        0 min,  0.810 sec
     gradient                   ...        0 min,  0.037 sec
 * total energy  :   -37.6352960 Eh     change       -0.7903353E-04 Eh
   gradient norm :     0.0036264 Eh/α   predicted    -0.5725615E-04 ( -27.55%)
   displ. norm   :     0.1324954 α      lambda       -0.9120804E-04
   maximum displ.:     0.1167155 α      in ANC's #4, #9, #2, ...

........................................................................
.............................. CYCLE   33 ..............................
........................................................................
   1    -38.2636233 -0.382636E+02  0.254E-02    1.56       0.0  T
   2    -38.2636216  0.170863E-05  0.217E-02    1.56       1.0  T
   3    -38.2636245 -0.290176E-05  0.133E-02    1.56       1.4  T
   4    -38.2636259 -0.141476E-05  0.403E-03    1.56       4.5  T
   5    -38.2636261 -0.198438E-06  0.223E-03    1.56       8.1  T
   6    -38.2636261 -0.131212E-07  0.819E-04    1.56      21.9  T
   7    -38.2636261 -0.247424E-08  0.463E-04    1.56      38.8  T
     SCC iter.                  ...        0 min,  0.534 sec
     gradient                   ...        0 min,  0.135 sec
 * total energy  :   -37.6353777 Eh     change       -0.8168121E-04 Eh
   gradient norm :     0.0028476 Eh/α   predicted    -0.4640800E-04 ( -43.18%)
   displ. norm   :     0.2297919 α      lambda       -0.1655814E-03
   maximum displ.:     0.2021688 α      in ANC's #4, #5, #2, ...

........................................................................
.............................. CYCLE   34 ..............................
........................................................................
   1    -38.2646311 -0.382646E+02  0.502E-02    1.56       0.0  T
   2    -38.2646299  0.119334E-05  0.403E-02    1.56       1.0  T
   3    -38.2646238  0.612203E-05  0.256E-02    1.56       1.0  T
   4    -38.2646343 -0.104740E-04  0.107E-02    1.56       1.7  T
   5    -38.2646361 -0.182780E-05  0.352E-03    1.56       5.1  T
   6    -38.2646361 -0.266049E-07  0.133E-03    1.56      13.5  T
   7    -38.2646361 -0.110608E-07  0.691E-04    1.56      26.0  T
   8    -38.2646362 -0.484576E-08  0.363E-04    1.56      49.5  T
     SCC iter.                  ...        0 min,  0.603 sec
     gradient                   ...        0 min,  0.153 sec
 * total energy  :   -37.6355238 Eh     change       -0.1460973E-03 Eh
   gradient norm :     0.0031035 Eh/α   predicted    -0.8716496E-04 ( -40.34%)
   displ. norm   :     0.3794203 α      lambda       -0.2512868E-03
   maximum displ.:     0.3351586 α      in ANC's #4, #5, #3, ...

........................................................................
.............................. CYCLE   35 ..............................
........................................................................
   1    -38.2645073 -0.382645E+02  0.635E-02    1.57       0.0  T
   2    -38.2645056  0.172485E-05  0.473E-02    1.57       1.0  T
   3    -38.2644912  0.143787E-04  0.334E-02    1.56       1.0  T
   4    -38.2645124 -0.211939E-04  0.120E-02    1.57       1.5  T
   5    -38.2645148 -0.237024E-05  0.367E-03    1.57       4.9  T
   6    -38.2645148 -0.238512E-07  0.190E-03    1.57       9.5  T
   7    -38.2645149 -0.242178E-07  0.689E-04    1.57      26.1  T
   8    -38.2645149 -0.789024E-08  0.377E-04    1.57      47.6  T
     SCC iter.                  ...        0 min,  0.453 sec
     gradient                   ...        0 min,  0.122 sec
 * total energy  :   -37.6357517 Eh     change       -0.2279495E-03 Eh
   gradient norm :     0.0067038 Eh/α   predicted    -0.1437355E-03 ( -36.94%)
   displ. norm   :     0.3907184 α      lambda       -0.2745919E-03
   maximum displ.:     0.3434395 α      in ANC's #4, #5, #3, ...

........................................................................
.............................. CYCLE   36 ..............................
........................................................................
   1    -38.2628250 -0.382628E+02  0.641E-02    1.57       0.0  T
   2    -38.2628238  0.126748E-05  0.450E-02    1.57       1.0  T
   3    -38.2628011  0.226868E-04  0.345E-02    1.56       1.0  T
   4    -38.2628287 -0.276223E-04  0.983E-03    1.57       1.8  T
   5    -38.2628302 -0.156249E-05  0.350E-03    1.57       5.1  T
   6    -38.2628303 -0.173723E-07  0.146E-03    1.57      12.3  T
   7    -38.2628303 -0.178831E-07  0.577E-04    1.57      31.2  T
   8    -38.2628303 -0.488571E-08  0.305E-04    1.57      58.9  T
     SCC iter.                  ...        0 min,  0.653 sec
     gradient                   ...        0 min,  0.032 sec
 * total energy  :   -37.6360102 Eh     change       -0.2585224E-03 Eh
   gradient norm :     0.0070551 Eh/α   predicted    -0.1582578E-03 ( -38.78%)
   displ. norm   :     0.4442094 α      lambda       -0.3601246E-03
   maximum displ.:     0.3886985 α      in ANC's #4, #5, #3, ...

........................................................................
.............................. CYCLE   37 ..............................
........................................................................
   1    -38.2612249 -0.382612E+02  0.645E-02    1.56       0.0  T
   2    -38.2612255 -0.682093E-06  0.398E-02    1.56       1.0  T
   3    -38.2612125  0.130534E-04  0.233E-02    1.56       1.0  T
   4    -38.2612260 -0.134871E-04  0.740E-03    1.56       2.4  T
   5    -38.2612270 -0.999089E-06  0.303E-03    1.56       5.9  T
   6    -38.2612270 -0.775893E-08  0.134E-03    1.56      13.4  T
   7    -38.2612270 -0.120820E-07  0.472E-04    1.56      38.1  T
   8    -38.2612270 -0.313302E-08  0.208E-04    1.56      86.4  T
     SCC iter.                  ...        0 min,  0.572 sec
     gradient                   ...        0 min,  0.044 sec
 * total energy  :   -37.6363374 Eh     change       -0.3271936E-03 Eh
   gradient norm :     0.0070017 Eh/α   predicted    -0.2155935E-03 ( -34.11%)
   displ. norm   :     0.6519934 α      lambda       -0.5403660E-03
   maximum displ.:     0.5723400 α      in ANC's #4, #5, #3, ...

........................................................................
.............................. CYCLE   38 ..............................
........................................................................
   1    -38.2571078 -0.382571E+02  0.998E-02    1.56       0.0  T
   2    -38.2571101 -0.222989E-05  0.613E-02    1.56       1.0  T
   3    -38.2571044  0.568842E-05  0.188E-02    1.55       1.0  T
   4    -38.2571111 -0.670678E-05  0.559E-03    1.56       3.2  T
   5    -38.2571109  0.232416E-06  0.491E-03    1.56       3.7  T
   6    -38.2571112 -0.341856E-06  0.195E-03    1.56       9.2  T
   7    -38.2571113 -0.561673E-07  0.600E-04    1.56      29.9  T
   8    -38.2571113 -0.461208E-08  0.299E-04    1.56      60.1  T
     SCC iter.                  ...        0 min,  0.517 sec
     gradient                   ...        0 min,  0.179 sec
 * total energy  :   -37.6367391 Eh     change       -0.4016428E-03 Eh
   gradient norm :     0.0080777 Eh/α   predicted    -0.3850374E-03 (  -4.13%)
   displ. norm   :     0.4135944 α      lambda       -0.4031810E-03
   maximum displ.:     0.3550525 α      in ANC's #4, #5, #55, ...

........................................................................
.............................. CYCLE   39 ..............................
........................................................................
   1    -38.2596254 -0.382596E+02  0.742E-02    1.55       0.0  T
   2    -38.2596222  0.319293E-05  0.526E-02    1.54       1.0  T
   3    -38.2595984  0.237736E-04  0.430E-02    1.55       1.0  T
   4    -38.2596343 -0.358637E-04  0.101E-02    1.54       1.8  T
   5    -38.2596358 -0.151279E-05  0.413E-03    1.55       4.3  T
   6    -38.2596358  0.599648E-08  0.123E-03    1.55      14.6  T
   7    -38.2596358 -0.143005E-07  0.429E-04    1.55      41.9  T
   8    -38.2596358 -0.185473E-08  0.254E-04    1.55      70.8  T
     SCC iter.                  ...        0 min,  0.599 sec
     gradient                   ...        0 min,  0.164 sec
 * total energy  :   -37.6370141 Eh     change       -0.2750603E-03 Eh
   gradient norm :     0.0081055 Eh/α   predicted    -0.2360757E-03 ( -14.17%)
   displ. norm   :     0.3072181 α      lambda       -0.3118206E-03
   maximum displ.:     0.2631134 α      in ANC's #4, #55, #9, ...

........................................................................
.............................. CYCLE   40 ..............................
........................................................................
   1    -38.2639167 -0.382639E+02  0.115E-01    1.53       0.0  T
   2    -38.2639113  0.542797E-05  0.901E-02    1.53       1.0  T
   3    -38.2638369  0.743798E-04  0.631E-02    1.54       1.0  T
   4    -38.2639294 -0.924790E-04  0.164E-02    1.53       1.1  T
   5    -38.2639335 -0.406207E-05  0.595E-03    1.54       3.0  T
   6    -38.2639335 -0.137528E-08  0.225E-03    1.53       8.0  T
   7    -38.2639335 -0.695709E-07  0.992E-04    1.54      18.1  T
   8    -38.2639336 -0.122563E-07  0.509E-04    1.54      35.3  T
     SCC iter.                  ...        0 min,  0.802 sec
     gradient                   ...        0 min,  0.198 sec
 * total energy  :   -37.6372077 Eh     change       -0.1935827E-03 Eh
   gradient norm :     0.0058050 Eh/α   predicted    -0.1706304E-03 ( -11.86%)
   displ. norm   :     0.3485205 α      lambda       -0.2266595E-03
   maximum displ.:     0.3096154 α      in ANC's #4, #5, #55, ...

........................................................................
.............................. CYCLE   41 ..............................
........................................................................
   1    -38.2638005 -0.382638E+02  0.857E-02    1.52       0.0  T
   2    -38.2637917  0.882608E-05  0.681E-02    1.52       1.0  T
   3    -38.2637952 -0.355349E-05  0.474E-02    1.53       1.0  T
   4    -38.2638198 -0.245614E-04  0.137E-02    1.52       1.3  T
   5    -38.2638241 -0.428222E-05  0.444E-03    1.52       4.0  T
   6    -38.2638241 -0.116373E-07  0.205E-03    1.52       8.7  T
   7    -38.2638241 -0.314891E-07  0.725E-04    1.52      24.8  T
   8    -38.2638241 -0.681675E-08  0.428E-04    1.52      42.0  T
     SCC iter.                  ...        0 min,  0.616 sec
     gradient                   ...        0 min,  0.209 sec
 * total energy  :   -37.6373456 Eh     change       -0.1379258E-03 Eh
   gradient norm :     0.0066170 Eh/α   predicted    -0.1271010E-03 (  -7.85%)
   displ. norm   :     0.1583278 α      lambda       -0.2060107E-03
   maximum displ.:     0.1003076 α      in ANC's #4, #7, #55, ...

........................................................................
.............................. CYCLE   42 ..............................
........................................................................
   1    -38.2717593 -0.382718E+02  0.792E-02    1.52       0.0  T
   2    -38.2717485  0.108308E-04  0.644E-02    1.51       1.0  T
   3    -38.2717629 -0.144270E-04  0.414E-02    1.52       1.0  T
   4    -38.2717799 -0.169824E-04  0.134E-02    1.52       1.3  T
   5    -38.2717835 -0.355159E-05  0.358E-03    1.52       5.0  T
   6    -38.2717835 -0.309567E-07  0.188E-03    1.52       9.6  T
   7    -38.2717835 -0.200951E-07  0.486E-04    1.52      36.9  T
   8    -38.2717835 -0.409737E-08  0.205E-04    1.52      87.4  T
     SCC iter.                  ...        0 min,  0.697 sec
     gradient                   ...        0 min,  0.198 sec
 * total energy  :   -37.6374251 Eh     change       -0.7949221E-04 Eh
   gradient norm :     0.0062311 Eh/α   predicted    -0.1055881E-03 (  32.83%)
   displ. norm   :     0.3540432 α      lambda       -0.2260931E-03
   maximum displ.:     0.3128199 α      in ANC's #4, #2, #55, ...
 * RMSD in coord.:     0.9363946 α      energy gain  -0.7466861E-02 Eh

generating ANC from model Hessian ...
Using Lindh-Hessian (1995)
 Shifting diagonal of input Hessian by    1.2667666628942030E-002
 Lowest  eigenvalues of input Hessian
    0.010000    0.012117    0.012591    0.000000    0.000000    0.000000
    0.000000    0.000000    0.000000    0.013128    0.013657    0.013752
    0.013921    0.014311    0.015722    0.017709    0.018152    0.018543
 Highest eigenvalues
    1.729266    1.731103    1.734567    2.024404    2.359493    2.758838


........................................................................
.............................. CYCLE   43 ..............................
........................................................................
   1    -38.2653255 -0.382653E+02  0.689E-02    1.51       0.0  T
   2    -38.2653271 -0.154132E-05  0.464E-02    1.52       1.0  T
   3    -38.2653104  0.166396E-04  0.249E-02    1.51       1.0  T
   4    -38.2653272 -0.167598E-04  0.111E-02    1.51       1.6  T
   5    -38.2653297 -0.250677E-05  0.403E-03    1.52       4.5  T
   6    -38.2653298 -0.482433E-07  0.183E-03    1.52       9.8  T
   7    -38.2653298 -0.189561E-07  0.686E-04    1.52      26.2  T
   8    -38.2653298 -0.556740E-08  0.266E-04    1.52      67.6  T
     SCC iter.                  ...        0 min,  0.617 sec
     gradient                   ...        0 min,  0.248 sec
 * total energy  :   -37.6375427 Eh     change       -0.1175350E-03 Eh
   gradient norm :     0.0052720 Eh/α   predicted     0.0000000E+00 (-100.00%)
   displ. norm   :     0.0666652 α      lambda       -0.1032482E-03
   maximum displ.:     0.0382117 α      in ANC's #9, #2, #10, ...

........................................................................
.............................. CYCLE   44 ..............................
........................................................................
   1    -38.2668918 -0.382669E+02  0.293E-02    1.53       0.0  T
   2    -38.2668931 -0.128189E-05  0.218E-02    1.52       1.0  T
   3    -38.2668934 -0.384144E-06  0.117E-02    1.52       1.5  T
   4    -38.2668940 -0.564909E-06  0.278E-03    1.52       6.5  T
   5    -38.2668940 -0.427907E-07  0.160E-03    1.52      11.2  T
   6    -38.2668941 -0.634108E-08  0.762E-04    1.52      23.6  T
   7    -38.2668941 -0.280070E-08  0.417E-04    1.52      43.0  T
     SCC iter.                  ...        0 min,  0.541 sec
     gradient                   ...        0 min,  0.033 sec
 * total energy  :   -37.6376234 Eh     change       -0.8071990E-04 Eh
   gradient norm :     0.0020635 Eh/α   predicted    -0.5419443E-04 ( -32.86%)
   displ. norm   :     0.1635479 α      lambda       -0.1526171E-03
   maximum displ.:     0.0908456 α      in ANC's #9, #2, #3, ...

........................................................................
.............................. CYCLE   45 ..............................
........................................................................
   1    -38.2682374 -0.382682E+02  0.793E-02    1.53       0.0  T
   2    -38.2682290  0.841016E-05  0.686E-02    1.53       1.0  T
   3    -38.2682398 -0.108369E-04  0.429E-02    1.53       1.0  T
   4    -38.2682517 -0.118616E-04  0.135E-02    1.54       1.3  T
   5    -38.2682557 -0.408639E-05  0.598E-03    1.53       3.0  T
   6    -38.2682559 -0.128950E-06  0.244E-03    1.53       7.3  T
   7    -38.2682559 -0.194980E-07  0.801E-04    1.53      22.4  T
   8    -38.2682559 -0.765497E-08  0.432E-04    1.53      41.6  T
     SCC iter.                  ...        0 min,  0.499 sec
     gradient                   ...        0 min,  0.078 sec
 * total energy  :   -37.6377095 Eh     change       -0.8613648E-04 Eh
   gradient norm :     0.0038872 Eh/α   predicted    -0.7834998E-04 (  -9.04%)
   displ. norm   :     0.1231651 α      lambda       -0.7110384E-04
   maximum displ.:     0.0717905 α      in ANC's #9, #2, #4, ...

........................................................................
.............................. CYCLE   46 ..............................
........................................................................
   1    -38.2674121 -0.382674E+02  0.413E-02    1.54       0.0  T
   2    -38.2674102  0.189279E-05  0.307E-02    1.54       1.0  T
   3    -38.2674069  0.334896E-05  0.244E-02    1.54       1.0  T
   4    -38.2674159 -0.902741E-05  0.587E-03    1.54       3.1  T
   5    -38.2674166 -0.674619E-06  0.208E-03    1.54       8.6  T
   6    -38.2674166  0.506503E-09  0.788E-04    1.54      22.8  T
   7    -38.2674166 -0.126115E-07  0.327E-04    1.54      55.0  T
     SCC iter.                  ...        0 min,  0.421 sec
     gradient                   ...        0 min,  0.043 sec
 * total energy  :   -37.6377563 Eh     change       -0.4680588E-04 Eh
   gradient norm :     0.0036260 Eh/α   predicted    -0.3609138E-04 ( -22.89%)
   displ. norm   :     0.1248903 α      lambda       -0.5840429E-04
   maximum displ.:     0.0685701 α      in ANC's #9, #2, #4, ...

........................................................................
.............................. CYCLE   47 ..............................
........................................................................
   1    -38.2662443 -0.382662E+02  0.387E-02    1.54       0.0  T
   2    -38.2662429  0.138591E-05  0.283E-02    1.54       1.0  T
   3    -38.2662353  0.759151E-05  0.227E-02    1.54       1.0  T
   4    -38.2662465 -0.112246E-04  0.363E-03    1.54       5.0  T
   5    -38.2662467 -0.216593E-06  0.182E-03    1.54       9.9  T
   6    -38.2662468 -0.130640E-07  0.851E-04    1.54      21.1  T
   7    -38.2662468 -0.331539E-08  0.315E-04    1.54      57.1  T
     SCC iter.                  ...        0 min,  0.232 sec
     gradient                   ...        0 min,  0.082 sec
 * total energy  :   -37.6377961 Eh     change       -0.3972328E-04 Eh
   gradient norm :     0.0019492 Eh/α   predicted    -0.2965885E-04 ( -25.34%)
   displ. norm   :     0.1420145 α      lambda       -0.3269561E-04
   maximum displ.:     0.0776275 α      in ANC's #2, #4, #9, ...

........................................................................
.............................. CYCLE   48 ..............................
........................................................................
   1    -38.2659423 -0.382659E+02  0.382E-02    1.54       0.0  T
   2    -38.2659426 -0.341437E-06  0.233E-02    1.54       1.0  T
   3    -38.2659418  0.808171E-06  0.772E-03    1.54       2.3  T
   4    -38.2659427 -0.879457E-06  0.338E-03    1.54       5.3  T
   5    -38.2659428 -0.960046E-07  0.194E-03    1.54       9.3  T
   6    -38.2659428  0.211076E-07  0.138E-03    1.54      13.0  T
   7    -38.2659428 -0.248420E-07  0.414E-04    1.54      43.4  T
   8    -38.2659428 -0.309413E-09  0.205E-04    1.54      87.5  T
     SCC iter.                  ...        0 min,  0.230 sec
     gradient                   ...        0 min,  0.061 sec
 * total energy  :   -37.6378184 Eh     change       -0.2231504E-04 Eh
   gradient norm :     0.0019480 Eh/α   predicted    -0.1649865E-04 ( -26.06%)
   displ. norm   :     0.0620988 α      lambda       -0.1339608E-04
   maximum displ.:     0.0395895 α      in ANC's #4, #9, #2, ...

........................................................................
.............................. CYCLE   49 ..............................
........................................................................
   1    -38.2665863 -0.382666E+02  0.240E-02    1.54       0.0  T
   2    -38.2665862  0.541222E-07  0.171E-02    1.54       1.1  T
   3    -38.2665827  0.348977E-05  0.126E-02    1.54       1.4  T
   4    -38.2665866 -0.384100E-05  0.407E-03    1.54       4.4  T
   5    -38.2665868 -0.234256E-06  0.208E-03    1.54       8.6  T
   6    -38.2665868 -0.104435E-07  0.554E-04    1.54      32.4  T
   7    -38.2665868 -0.459403E-08  0.233E-04    1.54      77.1  T
     SCC iter.                  ...        0 min,  0.360 sec
     gradient                   ...        0 min,  0.146 sec
 * total energy  :   -37.6378304 Eh     change       -0.1200517E-04 Eh
   gradient norm :     0.0011852 Eh/α   predicted    -0.6710274E-05 ( -44.11%)
   displ. norm   :     0.0549179 α      lambda       -0.1099078E-04
   maximum displ.:     0.0378257 α      in ANC's #4, #6, #7, ...

........................................................................
.............................. CYCLE   50 ..............................
........................................................................
   1    -38.2676894 -0.382677E+02  0.258E-02    1.54       0.0  T
   2    -38.2676880  0.139212E-05  0.219E-02    1.54       1.0  T
   3    -38.2676900 -0.192910E-05  0.138E-02    1.54       1.3  T
   4    -38.2676916 -0.162563E-05  0.364E-03    1.54       4.9  T
   5    -38.2676919 -0.295582E-06  0.961E-04    1.54      18.7  T
   6    -38.2676919 -0.207375E-08  0.527E-04    1.54      34.1  T
     SCC iter.                  ...        0 min,  0.410 sec
     gradient                   ...        0 min,  0.042 sec
 * total energy  :   -37.6378405 Eh     change       -0.1012743E-04 Eh
   gradient norm :     0.0011168 Eh/α   predicted    -0.5509053E-05 ( -45.60%)
   displ. norm   :     0.0486137 α      lambda       -0.5349382E-05
   maximum displ.:     0.0373944 α      in ANC's #4, #3, #6, ...

........................................................................
.............................. CYCLE   51 ..............................
........................................................................
   1    -38.2674640 -0.382675E+02  0.175E-02    1.54       0.0  T
   2    -38.2674639  0.132428E-06  0.137E-02    1.54       1.3  T
   3    -38.2674630  0.901545E-06  0.909E-03    1.54       2.0  T
   4    -38.2674644 -0.146450E-05  0.321E-03    1.54       5.6  T
   5    -38.2674647 -0.216488E-06  0.705E-04    1.54      25.5  T
   6    -38.2674647 -0.108354E-08  0.388E-04    1.54      46.3  T
     SCC iter.                  ...        0 min,  0.429 sec
     gradient                   ...        0 min,  0.089 sec
 * total energy  :   -37.6378470 Eh     change       -0.6508093E-05 Eh
   gradient norm :     0.0007345 Eh/α   predicted    -0.2681845E-05 ( -58.79%)
   displ. norm   :     0.0493045 α      lambda       -0.4992415E-05
   maximum displ.:     0.0352646 α      in ANC's #4, #3, #9, ...

........................................................................
.............................. CYCLE   52 ..............................
........................................................................
   1    -38.2672052 -0.382672E+02  0.167E-02    1.54       0.0  T
   2    -38.2672048  0.442118E-06  0.139E-02    1.54       1.3  T
   3    -38.2672050 -0.216457E-06  0.894E-03    1.54       2.0  T
   4    -38.2672059 -0.927366E-06  0.213E-03    1.54       8.4  T
   5    -38.2672060 -0.102091E-06  0.749E-04    1.54      24.0  T
   6    -38.2672060 -0.199475E-08  0.368E-04    1.54      48.8  T
     SCC iter.                  ...        0 min,  0.389 sec
     gradient                   ...        0 min,  0.092 sec
 * total energy  :   -37.6378528 Eh     change       -0.5788447E-05 Eh
   gradient norm :     0.0004556 Eh/α   predicted    -0.2500285E-05 ( -56.81%)
   displ. norm   :     0.0521989 α      lambda       -0.4386648E-05
   maximum displ.:     0.0386744 α      in ANC's #4, #3, #9, ...

........................................................................
.............................. CYCLE   53 ..............................
........................................................................
   1    -38.2668290 -0.382668E+02  0.916E-03    1.54       0.0  T
   2    -38.2668290 -0.326402E-07  0.526E-03    1.54       3.4  T
   3    -38.2668288  0.241396E-06  0.434E-03    1.54       4.1  T
   4    -38.2668291 -0.263577E-06  0.102E-03    1.54      17.5  T
   5    -38.2668291 -0.231460E-07  0.659E-04    1.54      27.2  T
   6    -38.2668291 -0.268393E-08  0.229E-04    1.54      78.6  T
     SCC iter.                  ...        0 min,  0.304 sec
     gradient                   ...        0 min,  0.038 sec
 * total energy  :   -37.6378576 Eh     change       -0.4835253E-05 Eh
   gradient norm :     0.0006935 Eh/α   predicted    -0.2197514E-05 ( -54.55%)
   displ. norm   :     0.0547039 α      lambda       -0.3653515E-05
   maximum displ.:     0.0386652 α      in ANC's #4, #3, #9, ...

   *** GEOMETRY OPTIMIZATION CONVERGED AFTER 53 ITERATIONS ***

------------------------------------------------------------------------
 total energy gain   :        -1.7609402 Eh    -1105.0067 kcal/mol
 total RMSD          :         1.6256385 a0        0.8603 Å
 total power (kW/mol):       -87.2329792 (step) -110.2089 (real)
------------------------------------------------------------------------

 ANCopt (total)                0 d,  0 h,  0 min, 41.951 sec
 optimizer setup                ...        0 min,  0.000 sec (  0.001%)
 model hessian                  ...        0 min,  0.135 sec (  0.321%)
 ANC generation                 ...        0 min,  0.049 sec (  0.117%)
 coordinate transformation      ...        0 min,  0.001 sec (  0.003%)
 single point calculation       ...        0 min, 41.136 sec ( 98.059%)
 optimization log               ...        0 min,  0.006 sec (  0.014%)
 hessian update                 ...        0 min,  0.448 sec (  1.067%)
 rational function              ...        0 min,  0.171 sec (  0.408%)

================
 final structure:
================
31
 xtb: 6.5.1 (b24c23e)
Zr          -1.29984337440365       -0.07541439512192        0.44256890674011
C           -0.69893131392316        1.39437915386090       -1.66549944550316
C            0.30571167429269       -1.92299309401089        0.61799796185937
C            0.17274476376683       -1.63225720615693       -0.76123945428906
C           -1.15710161999090       -1.93013246529748       -1.14684029798073
C           -1.84974253966623       -2.40672214604540       -0.00207608400746
C           -0.94455231706655       -2.40270709630358        1.08814138126327
H            1.23858976503073       -1.93615432384130        1.17152381406450
H            0.98794283795794       -1.39273993459547       -1.43566358296231
H           -1.53436403072645       -1.93992644480820       -2.16271892691361
H           -2.83068976359346       -2.86954832529209       -0.00099793485755
H           -1.13051312452455       -2.84857273065501        2.05958917699803
C           -0.51352688071605        0.18248264772977        2.74515406190933
C           -1.89618042617593        0.49458549943138        2.73446462373449
C           -2.06295235633553        1.69042504348532        1.98651317393477
C           -0.79528060836931        2.09122822025083        1.50780649527716
C            0.16480859956591        1.15096944624274        1.96358444769589
H           -0.04171405813697       -0.57205906622904        3.36399325138567
H           -2.65613360485639        0.02053144094558        3.34809104536503
H           -2.96828448585106        2.28302577770988        1.93644072862451
H           -0.57622530471689        3.03381312287961        1.01977768890308
H            1.24262421716263        1.26085013273458        1.89021176470684
H            0.18338169090491        1.21831688959954       -1.00904631779009
H           -0.62631286352876        0.80782708325866       -2.57807607753154
H           -0.76347421414703        2.44885507877390       -1.90541742361220
C           -3.46604770620588        0.21590144063776       -0.40415397979303
C           -2.89058514399750        1.23763058813756       -1.21682484284848
H           -2.97673414169882        2.26414581270015       -0.86564646227419
H           -3.00921197773948        1.13974840488147       -2.29068049503709
H           -4.04654273842091        0.53682371447446        0.46517279009777
H           -3.88514502389458       -0.63451279938287       -0.94174210715587

 Bond Distances (Angstroems)
 ---------------------------
Zr1-C2=2.6392        Zr1-C3=2.4540        Zr1-C4=2.4579        Zr1-C5=2.4467        Zr1-C6=2.4362        Zr1-C7=2.4412        
Zr1-C13=2.4468       Zr1-C14=2.4358       Zr1-C15=2.4666       Zr1-C16=2.4665       Zr1-C17=2.4419       Zr1-H23=2.4456       
Zr1-C26=2.3440       Zr1-C27=2.6473       C2-Zr1=2.6392        C2-H23=1.1137        C2-H24=1.0873        C2-H25=1.0833        
C3-Zr1=2.4540        C3-C4=1.4158         C3-C7=1.4193         C3-H8=1.0848         C4-Zr1=2.4579        C4-C3=1.4158         
C4-C5=1.4163         C4-H9=1.0848         C5-Zr1=2.4467        C5-C4=1.4163         C5-C6=1.4203         C5-H10=1.0837        
C6-Zr1=2.4362        C6-C5=1.4203         C6-C7=1.4170         C6-H11=1.0847        C7-Zr1=2.4412        C7-C3=1.4193         
C7-C6=1.4170         C7-H12=1.0849        H8-C3=1.0848         H9-C4=1.0848         H10-C5=1.0837        H11-C6=1.0847        
H12-C7=1.0849        C13-Zr1=2.4468       C13-C14=1.4175       C13-C17=1.4174       C13-H18=1.0839       C14-Zr1=2.4358       
C14-C13=1.4175       C14-C15=1.4203       C14-H19=1.0857       C15-Zr1=2.4666       C15-C14=1.4203       C15-C16=1.4131       
C15-H20=1.0832       C16-Zr1=2.4665       C16-C15=1.4131       C16-C17=1.4190       C16-H21=1.0838       C17-Zr1=2.4419       
C17-C13=1.4174       C17-C16=1.4190       C17-H22=1.0859       H18-C13=1.0839       H19-C14=1.0857       H20-C15=1.0832       
H21-C16=1.0838       H22-C17=1.0859       H23-Zr1=2.4456       H23-C2=1.1137        H24-C2=1.0873        H25-C2=1.0833        
C26-Zr1=2.3440       C26-C27=1.4267       C26-H30=1.0935       C26-H31=1.0899       C27-Zr1=2.6473       C27-C26=1.4267       
C27-H28=1.0883       C27-H29=1.0848       H28-C27=1.0883       H29-C27=1.0848       H30-C26=1.0935       H31-C26=1.0899       
 C  H  Rav=1.0874 sigma=0.0071  Rmin=1.0832  Rmax=1.1137    17
 C  C  Rav=1.4184 sigma=0.0033  Rmin=1.4131  Rmax=1.4267    11
 Zr H  Rav=2.4456 sigma=0.0000  Rmin=2.4456  Rmax=2.4456     1
 Zr C  Rav=2.4711 sigma=0.0791  Rmin=2.3440  Rmax=2.6473    13

 selected bond angles (degree)
 --------------------
C3-Zr1-C2=109.11               C4-Zr1-C2= 79.93               C4-Zr1-C3= 33.50               C5-Zr1-C2= 83.68               
C5-Zr1-C3= 55.78               C5-Zr1-C4= 33.57               C6-Zr1-C2=116.01               C6-Zr1-C3= 55.96               
C6-Zr1-C4= 55.92               C6-Zr1-C5= 33.82               C7-Zr1-C2=135.16               C7-Zr1-C3= 33.71               
C7-Zr1-C4= 55.84               C7-Zr1-C5= 55.99               C7-Zr1-C6= 33.78               C13-Zr1-C2=128.30              
C13-Zr1-C3= 78.57              C13-Zr1-C4=109.58              C13-Zr1-C5=132.26              C13-Zr1-C6=110.19              
C13-Zr1-C7= 78.75              C14-Zr1-C2=132.61              C14-Zr1-C3=105.61              C14-Zr1-C4=139.09              
C14-Zr1-C5=143.41              C14-Zr1-C6=109.90              C14-Zr1-C7= 90.57              C14-Zr1-C13= 33.75             
C15-Zr1-C2= 99.89              C15-Zr1-C3=134.16              C15-Zr1-C4=160.97              C15-Zr1-C5=165.31              
C15-Zr1-C6=136.84              C15-Zr1-C7=124.19              C15-Zr1-C13= 55.59             C15-Zr1-C14= 33.67             
C16-Zr1-C2= 79.00              C16-Zr1-C3=119.78              C16-Zr1-C4=130.19              C16-Zr1-C5=159.15              
C16-Zr1-C6=164.93              C16-Zr1-C7=133.91              C16-Zr1-C13= 55.61             C16-Zr1-C14= 55.82             
C16-Zr1-C15= 33.29             C17-Zr1-C2= 94.66              C17-Zr1-C3= 86.63              C17-Zr1-C4=105.30              
C17-Zr1-C5=138.62              C17-Zr1-C6=136.86              C17-Zr1-C7=103.11              C17-Zr1-C13= 33.71             
C17-Zr1-C14= 56.17             C17-Zr1-C15= 55.68             C17-Zr1-C16= 33.60             H23-Zr1-C2= 24.93              
H23-Zr1-C3= 92.52              H23-Zr1-C4= 71.40              H23-Zr1-C5= 88.86              H23-Zr1-C6=122.33              
H23-Zr1-C7=124.96              H23-Zr1-C13=107.93             H23-Zr1-C14=125.67             H23-Zr1-C15=100.40             
H23-Zr1-C16= 70.58             H23-Zr1-C17= 74.95             C26-Zr1-C2= 81.53              C26-Zr1-C3=136.39              
C26-Zr1-C4=117.10              C26-Zr1-C5= 85.04              C26-Zr1-C6= 81.05              C26-Zr1-C7=110.40              
C26-Zr1-C13=128.60             C26-Zr1-C14= 94.85             C26-Zr1-C15= 81.44             C26-Zr1-C16=103.64             
C26-Zr1-C17=135.80             C26-Zr1-H23=106.28             C27-Zr1-C2= 50.20              C27-Zr1-C3=144.23              
C27-Zr1-C4=111.54              C27-Zr1-C5= 90.22              C27-Zr1-C6=102.98              C27-Zr1-C7=136.56              
C27-Zr1-C13=136.95             C27-Zr1-C14=109.06             C27-Zr1-C15= 81.45             C27-Zr1-C16= 87.59             
C27-Zr1-C17=120.12             C27-Zr1-H23= 74.34             C27-Zr1-C26= 32.50             H23-C2-Zr1= 67.76              
H24-C2-Zr1=112.66              H24-C2-H23=110.89              H25-C2-Zr1=134.86              H25-C2-H23=109.37              
H25-C2-H24=110.07              C4-C3-Zr1= 73.40               C7-C3-Zr1= 72.65               C7-C3-C4=108.02                
H8-C3-Zr1=127.46               H8-C3-C4=125.47                H8-C3-C7=125.76                C3-C4-Zr1= 73.10               
C5-C4-Zr1= 72.78               C5-C4-C3=108.07                H9-C4-Zr1=127.94               H9-C4-C3=125.48                
H9-C4-C5=125.65                C4-C5-Zr1= 73.65               C6-C5-Zr1= 72.68               C6-C5-C4=108.00                
H10-C5-Zr1=126.55              H10-C5-C4=125.73               H10-C5-C6=125.64               C5-C6-Zr1= 73.50               
C7-C6-Zr1= 73.30               C7-C6-C5=107.92                H11-C6-Zr1=127.76              H11-C6-C5=125.80               
H11-C6-C7=125.32               C3-C7-Zr1= 73.64               C6-C7-Zr1= 72.92               C6-C7-C3=107.99                
H12-C7-Zr1=127.13              H12-C7-C3=125.91               H12-C7-C6=125.33               

 selected dihedral angles (degree)
 ---------------------------------
H23-C2-Zr1-C3=309.44          H23-C2-Zr1-C4=292.74          H23-C2-Zr1-C5=259.02          H23-C2-Zr1-C6=248.78          
H23-C2-Zr1-C7=283.61          H23-C2-Zr1-C13= 39.80         H23-C2-Zr1-C14= 84.32         H23-C2-Zr1-C15= 93.41         
H23-C2-Zr1-C16= 67.35         H23-C2-Zr1-C17= 37.47         H23-C2-Zr1-C26=173.12         H23-C2-Zr1-C27=163.44         
H24-C2-Zr1-C3= 53.72          H24-C2-Zr1-C4= 37.02          H24-C2-Zr1-C5=  3.30          H24-C2-Zr1-C6=353.06          
H24-C2-Zr1-C7= 27.89          H24-C2-Zr1-C13=144.09         H24-C2-Zr1-C14=188.60         H24-C2-Zr1-C15=197.70         
H24-C2-Zr1-C16=171.63         H24-C2-Zr1-C17=141.76         H24-C2-Zr1-H23=104.28         H24-C2-Zr1-C26=277.41         
H24-C2-Zr1-C27=267.72         H25-C2-Zr1-C3=213.78          H25-C2-Zr1-C4=197.08          H25-C2-Zr1-C5=163.37          
H25-C2-Zr1-C6=153.13          H25-C2-Zr1-C7=187.95          H25-C2-Zr1-C13=304.15         H25-C2-Zr1-C14=348.67         
H25-C2-Zr1-C15=357.76         H25-C2-Zr1-C16=331.69         H25-C2-Zr1-C17=301.82         H25-C2-Zr1-H23=264.35         
H25-C2-Zr1-C26= 77.47         H25-C2-Zr1-C27= 67.79         C4-C3-Zr1-C2=329.17           C4-C3-Zr1-C5= 37.05           
C4-C3-Zr1-C6= 78.20           C4-C3-Zr1-C7=115.55           C4-C3-Zr1-C13=202.36          C4-C3-Zr1-C14=181.96          
C4-C3-Zr1-C15=203.03          C4-C3-Zr1-C16=241.14          C4-C3-Zr1-C17=235.40          C4-C3-Zr1-H23=310.15          
C4-C3-Zr1-C26= 67.09          C4-C3-Zr1-C27= 16.49          C7-C3-Zr1-C2=213.62           C7-C3-Zr1-C4=244.45           
C7-C3-Zr1-C5=281.50           C7-C3-Zr1-C6=322.65           C7-C3-Zr1-C13= 86.81          C7-C3-Zr1-C14= 66.40          
C7-C3-Zr1-C15= 87.47          C7-C3-Zr1-C16=125.59          C7-C3-Zr1-C17=119.85          C7-C3-Zr1-H23=194.60          
C7-C3-Zr1-C26=311.53          C7-C3-Zr1-C27=260.94          H8-C3-Zr1-C2= 91.48           H8-C3-Zr1-C4=122.31           
H8-C3-Zr1-C5=159.36           H8-C3-Zr1-C6=200.51           H8-C3-Zr1-C7=237.86           H8-C3-Zr1-C13=324.67          
H8-C3-Zr1-C14=304.26          H8-C3-Zr1-C15=325.34          H8-C3-Zr1-C16=  3.45          H8-C3-Zr1-C17=357.71          
H8-C3-Zr1-H23= 72.46          H8-C3-Zr1-C26=189.39          H8-C3-Zr1-C27=138.80          C3-C4-Zr1-C2=150.54           
C3-C4-Zr1-C5=244.30           C3-C4-Zr1-C6=281.68           C3-C4-Zr1-C7=322.77           C3-C4-Zr1-C13= 23.31          
C3-C4-Zr1-C14=  2.88          C3-C4-Zr1-C15= 59.40          C3-C4-Zr1-C16= 84.35          C3-C4-Zr1-C17= 58.42          
C3-C4-Zr1-H23=126.32          C3-C4-Zr1-C26=225.53          C3-C4-Zr1-C27=190.27          C5-C4-Zr1-C2=266.24           
C5-C4-Zr1-C3=115.70           C5-C4-Zr1-C6= 37.38           C5-C4-Zr1-C7= 78.46           C5-C4-Zr1-C13=139.01          
C5-C4-Zr1-C14=118.57          C5-C4-Zr1-C15=175.10          C5-C4-Zr1-C16=200.05          C5-C4-Zr1-C17=174.12          
C5-C4-Zr1-H23=242.02          C5-C4-Zr1-C26=341.23          C5-C4-Zr1-C27=305.97          H9-C4-Zr1-C2= 28.38           
H9-C4-Zr1-C3=237.84           H9-C4-Zr1-C5=122.14           H9-C4-Zr1-C6=159.52           H9-C4-Zr1-C7=200.61           
H9-C4-Zr1-C13=261.16          H9-C4-Zr1-C14=240.72          H9-C4-Zr1-C15=297.24          H9-C4-Zr1-C16=322.20          
H9-C4-Zr1-C17=296.26          H9-C4-Zr1-H23=  4.17          H9-C4-Zr1-C26=103.37          H9-C4-Zr1-C27= 68.12          
Zr1-C4-C3-C7= 64.90           Zr1-C4-C3-H8=235.46           C5-C4-C3-Zr1=295.12           C5-C4-C3-C7=  0.02            
C5-C4-C3-H8=170.59            H9-C4-C3-Zr1=124.93           H9-C4-C3-C7=189.83            H9-C4-C3-H8=  0.39            
C4-C5-Zr1-C2= 81.29           C4-C5-Zr1-C3=323.02           C4-C5-Zr1-C6=244.61           C4-C5-Zr1-C7=282.02           
C4-C5-Zr1-C13=303.39          C4-C5-Zr1-C14=254.75          C4-C5-Zr1-C15=186.31          C4-C5-Zr1-C16= 47.37          
C4-C5-Zr1-C17=351.40          C4-C5-Zr1-H23= 56.84          C4-C5-Zr1-C26=163.29          C4-C5-Zr1-C27=131.17          
C6-C5-Zr1-C2=196.68           C6-C5-Zr1-C3= 78.41           C6-C5-Zr1-C4=115.39           C6-C5-Zr1-C7= 37.41           
C6-C5-Zr1-C13= 58.78          C6-C5-Zr1-C14= 10.14          C6-C5-Zr1-C15=301.70          C6-C5-Zr1-C16=162.76          
C6-C5-Zr1-C17=106.79          C6-C5-Zr1-H23=172.23          C6-C5-Zr1-C26=278.68          C6-C5-Zr1-C27=246.56          
H10-C5-Zr1-C2=318.60          H10-C5-Zr1-C3=200.33          H10-C5-Zr1-C4=237.31          H10-C5-Zr1-C6=121.92          
H10-C5-Zr1-C7=159.33          H10-C5-Zr1-C13=180.70         H10-C5-Zr1-C14=132.05         H10-C5-Zr1-C15= 63.62         
H10-C5-Zr1-C16=284.68         H10-C5-Zr1-C17=228.71         H10-C5-Zr1-H23=294.15         H10-C5-Zr1-C26= 40.60         
H10-C5-Zr1-C27=  8.48         Zr1-C5-C4-C3= 65.08           Zr1-C5-C4-H9=235.26           C6-C5-C4-Zr1=294.93           
C6-C5-C4-C3=  0.00            C6-C5-C4-H9=170.19            H10-C5-C4-Zr1=123.60          H10-C5-C4-C3=188.68           
H10-C5-C4-H9=358.86           C5-C6-Zr1-C2= 18.51           C5-C6-Zr1-C3=282.19           C5-C6-Zr1-C4=322.91           
C5-C6-Zr1-C7=244.92           C5-C6-Zr1-C13=222.41          C5-C6-Zr1-C14=186.41          C5-C6-Zr1-C15=161.62          
C5-C6-Zr1-C16=203.93          C5-C6-Zr1-C17=247.75          C5-C6-Zr1-H23=350.80          C5-C6-Zr1-C26= 94.46          
C5-C6-Zr1-C27= 70.31          C7-C6-Zr1-C2=133.59           C7-C6-Zr1-C3= 37.27           C7-C6-Zr1-C4= 77.99           
C7-C6-Zr1-C5=115.08           C7-C6-Zr1-C13=337.48          C7-C6-Zr1-C14=301.48          C7-C6-Zr1-C15=276.69          
C7-C6-Zr1-C16=319.01          C7-C6-Zr1-C17=  2.82          C7-C6-Zr1-H23=105.88          C7-C6-Zr1-C26=209.54          
C7-C6-Zr1-C27=185.39          H11-C6-Zr1-C2=255.67          H11-C6-Zr1-C3=159.35          H11-C6-Zr1-C4=200.07          
H11-C6-Zr1-C5=237.16          H11-C6-Zr1-C7=122.08          H11-C6-Zr1-C13= 99.57         H11-C6-Zr1-C14= 63.57         
H11-C6-Zr1-C15= 38.78         H11-C6-Zr1-C16= 81.10         H11-C6-Zr1-C17=124.91         H11-C6-Zr1-H23=227.96         
H11-C6-Zr1-C26=331.62         H11-C6-Zr1-C27=307.47         Zr1-C6-C5-C4= 65.71           Zr1-C6-C5-H10=237.05          
C7-C6-C5-Zr1=294.25           C7-C6-C5-C4=359.96            C7-C6-C5-H10=171.30           H11-C6-C5-Zr1=125.01          
H11-C6-C5-C4=190.72           H11-C6-C5-H10=  2.05          C3-C7-Zr1-C2= 47.89           C3-C7-Zr1-C4= 37.00           
C3-C7-Zr1-C5= 77.81           C3-C7-Zr1-C6=115.27           C3-C7-Zr1-C13=273.77          C3-C7-Zr1-C14=241.96          
C3-C7-Zr1-C15=240.05          C3-C7-Zr1-C16=281.58          C3-C7-Zr1-C17=297.25          C3-C7-Zr1-H23= 17.90          
C3-C7-Zr1-C26=146.57          C3-C7-Zr1-C27=122.92          C6-C7-Zr1-C2=292.62           C6-C7-Zr1-C3=244.73           
C6-C7-Zr1-C4=281.73           C6-C7-Zr1-C5=322.54           C6-C7-Zr1-C13=158.50          C6-C7-Zr1-C14=126.69          
C6-C7-Zr1-C15=124.78          C6-C7-Zr1-C16=166.31          C6-C7-Zr1-C17=181.98          C6-C7-Zr1-H23=262.62          
C6-C7-Zr1-C26= 31.30          C6-C7-Zr1-C27=  7.65          H12-C7-Zr1-C2=170.88          H12-C7-Zr1-C3=122.99          
H12-C7-Zr1-C4=159.99          H12-C7-Zr1-C5=200.80          H12-C7-Zr1-C6=238.26          H12-C7-Zr1-C13= 36.76         
H12-C7-Zr1-C14=  4.95         H12-C7-Zr1-C15=  3.04         H12-C7-Zr1-C16= 44.57         H12-C7-Zr1-C17= 60.24         
H12-C7-Zr1-H23=140.88         H12-C7-Zr1-C26=269.56         H12-C7-Zr1-C27=245.90         Zr1-C7-C3-C4=294.61           
Zr1-C7-C3-H8=124.08           C6-C7-C3-Zr1= 65.34           C6-C7-C3-C4=359.95            C6-C7-C3-H8=189.42            
H12-C7-C3-Zr1=235.65          H12-C7-C3-C4=170.26           H12-C7-C3-H8=359.73           Zr1-C7-C6-C5= 65.88           
Zr1-C7-C6-H11=235.19          C3-C7-C6-Zr1=294.18           C3-C7-C6-C5=  0.05            C3-C7-C6-H11=169.36           
H12-C7-C6-Zr1=123.79          H12-C7-C6-C5=189.67           H12-C7-C6-H11=358.98          

 CMA Distance (Angstroems)
 ---------------------------
R(CMA):  2.8198
           -------------------------------------------------
          |                Final Singlepoint                |
           -------------------------------------------------

          ...................................................
          :                      SETUP                      :
          :.................................................:
          :  # basis functions                  79          :
          :  # atomic orbitals                  78          :
          :  # shells                           46          :
          :  # electrons                        72          :
          :  max. iterations                   250          :
          :  Hamiltonian                  GFN2-xTB          :
          :  restarted?                      false          :
          :  GBSA solvation                  false          :
          :  PC potential                    false          :
          :  electronic temp.          300.0000000     K    :
          :  accuracy                    1.0000000          :
          :  -> integral cutoff          0.2500000E+02      :
          :  -> integral neglect         0.1000000E-07      :
          :  -> SCF convergence          0.1000000E-05 Eh   :
          :  -> wf. convergence          0.1000000E-03 e    :
          :  Broyden damping             0.4000000          :
          ...................................................

 iter      E             dE          RMSdq      gap      omega  full diag
   1    -38.2668291 -0.382668E+02  0.936E-05    1.54       0.0  T
   2    -38.2668291 -0.163496E-10  0.626E-05    1.54     286.7  T
   3    -38.2668291  0.981970E-11  0.488E-05    1.54     368.2  T

   *** convergence criteria satisfied after 3 iterations ***

         #    Occupation            Energy/Eh            Energy/eV
      -------------------------------------------------------------
         1        2.0000           -0.8723532             -23.7379
       ...           ...                  ...                  ...
        30        2.0000           -0.5827957             -15.8587
        31        2.0000           -0.5760761             -15.6758
        32        2.0000           -0.5233781             -14.2418
        33        2.0000           -0.5225040             -14.2181
        34        2.0000           -0.5128589             -13.9556
        35        2.0000           -0.5078447             -13.8192
        36        2.0000           -0.4839689             -13.1695 (HOMO)
        37                         -0.4274642             -11.6319 (LUMO)
        38                         -0.4103737             -11.1668
        39                         -0.4092197             -11.1354
        40                         -0.4041802             -10.9983
        41                         -0.4036475             -10.9838
       ...                                ...                  ...
        78                          2.5028996              68.1074
      -------------------------------------------------------------
                  HL-Gap            0.0565046 Eh            1.5376 eV
             Fermi-level           -0.4557165 Eh          -12.4007 eV

 SCC (total)                   0 d,  0 h,  0 min,  0.221 sec
 SCC setup                      ...        0 min,  0.002 sec (  1.015%)
 Dispersion                     ...        0 min,  0.006 sec (  2.911%)
 classical contributions        ...        0 min,  0.002 sec (  0.816%)
 integral evaluation            ...        0 min,  0.019 sec (  8.469%)
 iterations                     ...        0 min,  0.164 sec ( 74.055%)
 molecular gradient             ...        0 min,  0.028 sec ( 12.657%)
 printout                       ...        0 min,  0.000 sec (  0.066%)

         :::::::::::::::::::::::::::::::::::::::::::::::::::::
         ::                     SUMMARY                     ::
         :::::::::::::::::::::::::::::::::::::::::::::::::::::
         :: total energy             -37.637857633648 Eh    ::
         :: gradient norm              0.000692235376 Eh/a0 ::
         :: HOMO-LUMO gap              1.537569522390 eV    ::
         ::.................................................::
         :: SCC energy               -38.266829089572 Eh    ::
         :: -> isotropic ES            0.087133453933 Eh    ::
         :: -> anisotropic ES         -0.013253396860 Eh    ::
         :: -> anisotropic XC          0.020868250036 Eh    ::
         :: -> dispersion             -0.027825656479 Eh    ::
         :: repulsion energy           0.627910417637 Eh    ::
         :: add. restraining           0.000371148837 Eh    ::
         :: total charge               1.000000000000 e     ::
         :::::::::::::::::::::::::::::::::::::::::::::::::::::

           -------------------------------------------------
          |                Property Printout                |
           -------------------------------------------------

    * Orbital Energies and Occupations

         #    Occupation            Energy/Eh            Energy/eV
      -------------------------------------------------------------
         1        2.0000           -0.8723532             -23.7379
       ...           ...                  ...                  ...
        24        2.0000           -0.5961638             -16.2224
        25        2.0000           -0.5946399             -16.1810
        26        2.0000           -0.5925073             -16.1229
        27        2.0000           -0.5922192             -16.1151
        28        2.0000           -0.5910380             -16.0830
        29        2.0000           -0.5904425             -16.0668
        30        2.0000           -0.5827957             -15.8587
        31        2.0000           -0.5760761             -15.6758
        32        2.0000           -0.5233781             -14.2418
        33        2.0000           -0.5225040             -14.2181
        34        2.0000           -0.5128589             -13.9556
        35        2.0000           -0.5078447             -13.8192
        36        2.0000           -0.4839689             -13.1695 (HOMO)
        37                         -0.4274642             -11.6319 (LUMO)
        38                         -0.4103737             -11.1668
        39                         -0.4092197             -11.1354
        40                         -0.4041802             -10.9983
        41                         -0.4036475             -10.9838
        42                         -0.3719126             -10.1203
        43                         -0.3085792              -8.3969
        44                         -0.3078904              -8.3781
        45                         -0.3070044              -8.3540
        46                         -0.3062045              -8.3322
        47                         -0.0546313              -1.4866
       ...                                ...                  ...
        78                          2.5028996              68.1074
      -------------------------------------------------------------
                  HL-Gap            0.0565046 Eh            1.5376 eV
             Fermi-level           -0.4557165 Eh          -12.4007 eV

     #   Z          covCN         q      C6AA      α(0)
     1  40 Zr       9.834     0.954   138.721    17.698
     2   6 C        3.507    -0.238    27.137     7.711
     3   6 C        3.759    -0.087    22.207     6.718
     4   6 C        3.756    -0.087    22.222     6.721
     5   6 C        3.762    -0.090    22.257     6.725
     6   6 C        3.764    -0.088    22.217     6.719
     7   6 C        3.763    -0.087    22.203     6.717
     8   1 H        0.925     0.083     1.947     2.182
     9   1 H        0.925     0.079     1.990     2.206
    10   1 H        0.925     0.086     1.920     2.167
    11   1 H        0.925     0.084     1.934     2.175
    12   1 H        0.925     0.085     1.928     2.171
    13   6 C        3.764    -0.083    22.119     6.704
    14   6 C        3.763    -0.091    22.286     6.729
    15   6 C        3.755    -0.088    22.237     6.724
    16   6 C        3.753    -0.089    22.253     6.727
    17   6 C        3.762    -0.092    22.295     6.731
    18   1 H        0.925     0.087     1.912     2.162
    19   1 H        0.925     0.081     1.969     2.194
    20   1 H        0.925     0.081     1.967     2.193
    21   1 H        0.925     0.082     1.960     2.189
    22   1 H        0.925     0.078     1.999     2.211
    23   1 H        1.110     0.073     2.044     2.232
    24   1 H        0.925     0.069     2.092     2.262
    25   1 H        0.925     0.073     2.049     2.238
    26   6 C        3.617    -0.217    25.380     7.268
    27   6 C        3.559    -0.072    22.848     6.973
    28   1 H        0.925     0.106     1.732     2.058
    29   1 H        0.925     0.113     1.671     2.022
    30   1 H        0.930     0.098     1.807     2.102
    31   1 H        0.925     0.095     1.828     2.114

 Mol. C6AA /au·bohr⁶  :       9492.341060
 Mol. C8AA /au·bohr⁸  :     322130.716105
 Mol. α(0) /au        :        143.742302


Wiberg/Mayer (AO) data.
largest (>0.10) Wiberg bond orders for each atom

 ---------------------------------------------------------------------------
     #   Z sym  total        # sym  WBO       # sym  WBO       # sym  WBO
 ---------------------------------------------------------------------------
     1  40 Zr   4.325 --    26 C    0.537     2 C    0.466    14 C    0.256
                             6 C    0.251     7 C    0.248    17 C    0.244
                             3 C    0.241     5 C    0.240    13 C    0.236
                             4 C    0.235    15 C    0.232    16 C    0.231
                            27 C    0.216    23 H    0.116
     2   6 C    3.924 --    25 H    0.972    24 H    0.957    23 H    0.838
                             1 Zr   0.466    27 C    0.438    26 C    0.163
     3   6 C    3.980 --     4 C    1.306     7 C    1.297     8 H    0.924
                             1 Zr   0.241
     4   6 C    3.981 --     5 C    1.306     3 C    1.306     9 H    0.924
                             1 Zr   0.235
     5   6 C    3.979 --     4 C    1.306     6 C    1.290    10 H    0.925
                             1 Zr   0.240
     6   6 C    3.981 --     7 C    1.299     5 C    1.290    11 H    0.921
                             1 Zr   0.251
     7   6 C    3.980 --     6 C    1.299     3 C    1.297    12 H    0.922
                             1 Zr   0.248
     8   1 H    0.990 --     3 C    0.924
     9   1 H    0.992 --     4 C    0.924
    10   1 H    0.990 --     5 C    0.925
    11   1 H    0.991 --     6 C    0.921
    12   1 H    0.990 --     7 C    0.922
    13   6 C    3.981 --    17 C    1.304    14 C    1.302    18 H    0.924
                             1 Zr   0.236
    14   6 C    3.979 --    13 C    1.302    15 C    1.287    19 H    0.920
                             1 Zr   0.256
    15   6 C    3.980 --    16 C    1.317    14 C    1.287    20 H    0.928
                             1 Zr   0.232
    16   6 C    3.979 --    15 C    1.317    17 C    1.294    21 H    0.926
                             1 Zr   0.231
    17   6 C    3.978 --    13 C    1.304    16 C    1.294    22 H    0.921
                             1 Zr   0.244
    18   1 H    0.990 --    13 C    0.924
    19   1 H    0.991 --    14 C    0.920
    20   1 H    0.991 --    15 C    0.928
    21   1 H    0.991 --    16 C    0.926
    22   1 H    0.992 --    17 C    0.921
    23   1 H    0.995 --     2 C    0.838     1 Zr   0.116
    24   1 H    0.993 --     2 C    0.957
    25   1 H    0.993 --     2 C    0.972
    26   6 C    3.915 --    27 C    1.323    31 H    0.913    30 H    0.883
                             1 Zr   0.537     2 C    0.163
    27   6 C    3.979 --    26 C    1.323    29 H    0.946    28 H    0.934
                             2 C    0.438     1 Zr   0.216
    28   1 H    0.987 --    27 C    0.934
    29   1 H    0.986 --    27 C    0.946
    30   1 H    0.990 --    26 C    0.883
    31   1 H    0.989 --    26 C    0.913
 ---------------------------------------------------------------------------

Topologies differ in total number of bonds
Writing topology from bond orders to xtbtopo.mol

molecular dipole:
                 x           y           z       tot (Debye)
 q only:       -2.944       0.206       0.355
   full:       -2.608       0.181       0.482       6.756
molecular quadrupole (traceless):
                xx          xy          yy          xz          yz          zz
 q only:       10.277      -1.798      -6.364       0.343      -4.315      -3.913
  q+dip:       10.687      -0.194      -8.079      -0.879      -7.669      -2.609
   full:       10.611       0.147      -7.364      -1.906      -5.981      -3.247

           -------------------------------------------------
          |                Geometry Summary                 |
           -------------------------------------------------

      molecular mass/u    :      264.4982010
   center of mass at/Å    :       -1.2472769      -0.0986888       0.4986735
  moments of inertia/u·Å² :        0.5998519E+03   0.7271671E+03   0.9235973E+03
rotational constants/cm⁻¹ :        0.2810299E-01   0.2318261E-01   0.1825215E-01

 * 39 selected distances

     #   Z          #   Z                                           value/Å
     1  40 Zr       3   6 C                                       2.4540030
     1  40 Zr       4   6 C                                       2.4579323
     3   6 C        4   6 C                                       1.4158050
     1  40 Zr       5   6 C                                       2.4467483
     4   6 C        5   6 C                                       1.4163013
     1  40 Zr       6   6 C                                       2.4362051
     5   6 C        6   6 C                                       1.4203431
     1  40 Zr       7   6 C                                       2.4411653
     3   6 C        7   6 C                                       1.4192677
     6   6 C        7   6 C                                       1.4170250
     3   6 C        8   1 H                                       1.0848160
     4   6 C        9   1 H                                       1.0847878
     5   6 C       10   1 H                                       1.0837123
     6   6 C       11   1 H                                       1.0846506
     7   6 C       12   1 H                                       1.0849372
     1  40 Zr      13   6 C                                       2.4467742
     1  40 Zr      14   6 C                                       2.4358376
    13   6 C       14   6 C                                       1.4174814
     1  40 Zr      15   6 C                                       2.4666352 (max)
    14   6 C       15   6 C                                       1.4203087
     1  40 Zr      16   6 C                                       2.4665069
    15   6 C       16   6 C                                       1.4130801
     1  40 Zr      17   6 C                                       2.4418665
    13   6 C       17   6 C                                       1.4173769
    16   6 C       17   6 C                                       1.4190108
    13   6 C       18   1 H                                       1.0839293
    14   6 C       19   1 H                                       1.0857227
    15   6 C       20   1 H                                       1.0831941 (min)
    16   6 C       21   1 H                                       1.0838007
    17   6 C       22   1 H                                       1.0858840
     2   6 C       23   1 H                                       1.1137348
     2   6 C       24   1 H                                       1.0872502
     2   6 C       25   1 H                                       1.0833495
     1  40 Zr      26   6 C                                       2.3439810
    26   6 C       27   6 C                                       1.4267172
    27   6 C       28   1 H                                       1.0883389
    27   6 C       29   1 H                                       1.0848131
    26   6 C       30   1 H                                       1.0934783
    26   6 C       31   1 H                                       1.0898845

 * 3 distinct bonds (by element types)

   Z      Z             #   av. dist./Å        max./Å        min./Å
   1 H    6 C          17     1.0874285     1.1137348     1.0831941
   6 C    6 C          11     1.4184288     1.4267172     1.4130801
   6 C   40 Zr         11     2.4397868     2.4666352     2.3439810


optimized geometry written to: xtbopt.xyz


           -------------------------------------------------
          | TOTAL ENERGY              -37.637857633648 Eh   |
          | GRADIENT NORM               0.000692235376 Eh/α |
          | HOMO-LUMO GAP               1.537569522390 eV   |
           -------------------------------------------------

------------------------------------------------------------------------
 * finished run on 2026/08/16 at 16:00:52.492     
------------------------------------------------------------------------
 total:
 * wall-time:     0 d,  0 h,  0 min, 43.366 sec
 *  cpu-time:     0 d,  0 h,  2 min,  2.385 sec
 * ratio c/w:     2.822 speedup
 SCF:
 * wall-time:     0 d,  0 h,  0 min,  1.092 sec
 *  cpu-time:     0 d,  0 h,  0 min,  4.086 sec
 * ratio c/w:     3.741 speedup
 ANC optimizer:
 * wall-time:     0 d,  0 h,  0 min, 42.184 sec
 *  cpu-time:     0 d,  0 h,  1 min, 58.019 sec
 * ratio c/w:     2.798 speedup

