31
 energy: -37.637857633648 gnorm: 0.000692235376 xtb: 6.5.1 (b24c23e)
Zr          -1.29984337440365       -0.07541439512192        0.44256890674011
C           -0.69893131392316        1.39437915386090       -1.66549944550316
C            0.30571167429269       -1.92299309401089        0.61799796185937
C            0.17274476376683       -1.63225720615693       -0.76123945428906
C           -1.15710161999090       -1.93013246529748       -1.14684029798073
C           -1.84974253966623       -2.40672214604540       -0.00207608400746
C           -0.94455231706655       -2.40270709630358        1.08814138126327
H            1.23858976503073       -1.93615432384130        1.17152381406450
H            0.98794283795794       -1.39273993459547       -1.43566358296231
H           -1.53436403072645       -1.93992644480820       -2.16271892691361
H           -2.83068976359346       -2.86954832529209       -0.00099793485755
H           -1.13051312452455       -2.84857273065501        2.05958917699803
C           -0.51352688071605        0.18248264772977        2.74515406190933
C           -1.89618042617593        0.49458549943138        2.73446462373449
C           -2.06295235633553        1.69042504348532        1.98651317393477
C           -0.79528060836931        2.09122822025083        1.50780649527716
C            0.16480859956591        1.15096944624274        1.96358444769589
H           -0.04171405813697       -0.57205906622904        3.36399325138567
H           -2.65613360485639        0.02053144094558        3.34809104536503
H           -2.96828448585106        2.28302577770988        1.93644072862451
H           -0.57622530471689        3.03381312287961        1.01977768890308
H            1.24262421716263        1.26085013273458        1.89021176470684
H            0.18338169090491        1.21831688959954       -1.00904631779009
H           -0.62631286352876        0.80782708325866       -2.57807607753154
H           -0.76347421414703        2.44885507877390       -1.90541742361220
C           -3.46604770620588        0.21590144063776       -0.40415397979303
C           -2.89058514399750        1.23763058813756       -1.21682484284848
H           -2.97673414169882        2.26414581270015       -0.86564646227419
H           -3.00921197773948        1.13974840488147       -2.29068049503709
H           -4.04654273842091        0.53682371447446        0.46517279009777
H           -3.88514502389458       -0.63451279938287       -0.94174210715587
