44
CpRu(eta6-sumanene)+ convex face initial
C  -3.03274632 -1.17439108  0.23796008
C  -2.58812445  0.27341795  0.45219290
C  -1.31297290  0.23125648  1.02090109
C  -0.44875182  1.30571991  0.95568517
C  -0.79907296  2.49769895  0.31718755
C   0.50315579  3.22170374 -0.02886527
C   1.55805179  2.12804310  0.14673658
C   0.95465315  1.08563113  0.85420079
C   1.45073255 -0.20216117  0.82104963
C   2.58500155 -0.53785686  0.07810925
C   2.53283133 -2.04721218 -0.16450149
C   1.08748194 -2.39968409  0.19111621
C   0.55912654 -1.31067161  0.88833246
C  -0.80117399 -1.09734269  0.98669955
C  -1.72851945 -1.95806501  0.39474889
C  -1.21826855 -3.12004335 -0.15973678
C   0.17501410 -3.33854476 -0.26048877
C   3.27606853  0.51691587 -0.49450308
C   2.76796108  1.83593231 -0.46054809
C  -2.11315843  2.60141354 -0.10757904
C  -2.99833352  1.50089840 -0.04078203
H  -3.77093676 -1.47798916  0.98515355
H  -3.47378596 -1.31888625 -0.74876412
H   0.49029008  3.60954897 -1.04789893
H   0.68369231  4.06033217  0.64900188
H   3.24073370 -2.57759255  0.47812271
H   2.76574658 -2.29740147 -1.19996034
H  -1.87214905 -3.82805742 -0.65012116
H   0.50651684 -4.20109149 -0.82212884
H   4.15510512  0.33510420 -1.09746224
H   3.28764450  2.58697994 -1.03949298
H  -2.45530414  3.48761773 -0.62420168
H  -3.96650917  1.60877575 -0.51016343
Ru  0.19014200  0.00588599  2.61666996
C   0.32137467  1.26094405  4.45866126
C   1.50900974  0.39972932  4.37466566
C   1.05928356 -0.99881011  4.41108575
C  -0.40624862 -1.00187587  4.51758647
C  -0.86233183  0.39476869  4.54699186
H   0.31890936  2.34493783  4.45594090
H   2.53653401  0.73687848  4.29909905
H   1.69680082 -1.87447562  4.36710297
H  -1.03977682 -1.88020029  4.56597100
H  -1.89137986  0.72761569  4.62087706
