44
 energy: -67.142791275980 gnorm: 0.000350940042 xtb: 6.5.1 (b24c23e)
C           -3.04134588040817       -1.17715922396924        0.22290347446867
C           -2.60496073679153        0.27020074155227        0.44759867732564
C           -1.33087206849090        0.23385292071314        1.05100490742136
C           -0.45260644801313        1.32577097611120        0.98417702117899
C           -0.79944922404059        2.51502268452666        0.31029269317304
C            0.50332571286584        3.22988807365638       -0.04684779272432
C            1.56308701969771        2.14448032629388        0.13904697988370
C            0.96894643681406        1.10275445595170        0.88101531368684
C            1.47309699507224       -0.20592135235777        0.84757903919842
C            2.59953427089408       -0.54598905497772        0.07027386059616
C            2.53813383947340       -2.05211821210550       -0.18182650986227
C            1.09864219441623       -2.41213554917197        0.18431797103019
C            0.57003842716025       -1.32889042331259        0.91637828844551
C           -0.81239725187404       -1.11210827003743        1.01664338493409
C           -1.74335625154695       -1.96643471847335        0.39039990464129
C           -1.22137970210006       -3.09744759117787       -0.20425387512894
C            0.17872850260836       -3.31702662202797       -0.30577353901304
C            3.25350203214801        0.50575055503529       -0.53924303088313
C            2.74289703718137        1.83122165745251       -0.50535699126215
C           -2.09693196814518        2.59019009329598       -0.15464862923237
C           -2.98641104635304        1.48427220633197       -0.08701703153670
H           -3.78783409754159       -1.48355004216822        0.96041873221977
H           -3.47531358198038       -1.31903583053095       -0.76626596503561
H            0.48879534670373        3.60916685000266       -1.06805234458740
H            0.68461999141172        4.07716085561296        0.61969864508063
H            3.25210017618082       -2.58760235249636        0.44947251558144
H            2.76423916256877       -2.29734407074355       -1.21896744803111
H           -1.86803730629062       -3.77318067922097       -0.74326485240514
H            0.50618418045833       -4.14552212733073       -0.91542721179240
H            4.09554229604440        0.31683836742982       -1.18777643586062
H            3.22965620752792        2.56457618175219       -1.13031327650683
H           -2.42006494237190        3.45047587980611       -0.72104385154539
H           -3.92841044541248        1.57511363010754       -0.60634442340359
Ru           0.19167253619612        0.00682742147955        2.62688856882668
C            0.32330833101032        1.22244154550955        4.49149529509488
C            1.47432511175604        0.38696812279193        4.41077720431142
C            1.03888078637165       -0.96877275228326        4.44409823066050
C           -0.38271702734659       -0.97142864340988        4.54651409167538
C           -0.82450898691664        0.38191868089179        4.57588409645952
H            0.32890165477745        2.29813627500798        4.60555439087944
H            2.50251214796914        0.72208969197455        4.44524092293459
H            1.67924704860082       -1.83771327284023        4.51533992522548
H           -1.00300194825723       -1.84354473305972        4.70489800127448
H           -1.83800149202778        0.71320448840767        4.75916303260309
