31
Approximate 3D structure: [(eta5-C5H5)2Zr(n-propyl)]+ ; charge +1 ; schematic, not optimized
Zr  0.000000  0.000000  0.000000
C  -0.719698  2.416383  0.432121
C  -1.838059  1.775580 -0.111608
C  -2.281939  0.823033  0.811769
C  -1.437911  0.875130  1.926177
C  -0.472393  1.859874  1.691541
H  -0.147658  3.202680 -0.037888
H  -2.281003  1.980308 -1.075085
H  -3.127733  0.163264  0.686316
H  -1.517697  0.262643  2.812119
H   0.324091  2.141105  2.364537
C  -2.294613 -0.858804 -0.735396
C  -1.505820 -0.837823 -1.890544
C  -0.501689 -1.801046 -1.745893
C  -0.669895 -2.417332 -0.501344
C  -1.777982 -1.834995  0.123177
H  -3.151909 -0.231501 -0.540629
H  -1.647237 -0.191477 -2.744148
H   0.268206 -2.028886 -2.468215
H  -0.052657 -3.204491 -0.094161
H  -2.166404 -2.093645  1.097153
C   1.550000  1.550000  0.100000
C   3.000000  1.200000  0.150000
C   3.200000 -0.250000  0.050000
H   1.316274  2.246121  0.905536
H   1.380496  2.284655 -0.687179
H   3.429248  1.562416  1.084078
H   3.521932  1.696053 -0.668302
H   4.232730 -0.455771 -0.231472
H   2.529161 -0.658017 -0.706040
H   2.986697 -0.713478  1.013219
