31
Approximate 3D structure: [(eta5-C5H5)2Zr(CH3)(ethylene)]+ ; charge +1 ; schematic, not optimized
Zr  0.000000  0.000000  0.000000
C  -0.719698  2.416383  0.432121
C  -1.838059  1.775580 -0.111608
C  -2.281939  0.823033  0.811769
C  -1.437911  0.875130  1.926177
C  -0.472393  1.859874  1.691541
H  -0.147658  3.202680 -0.037888
H  -2.281003  1.980308 -1.075085
H  -3.127733  0.163264  0.686316
H  -1.517697  0.262643  2.812119
H   0.324091  2.141105  2.364537
C  -2.294613 -0.858804 -0.735396
C  -1.505820 -0.837823 -1.890544
C  -0.501689 -1.801046 -1.745893
C  -0.669895 -2.417332 -0.501344
C  -1.777982 -1.834995  0.123177
H  -3.151909 -0.231501 -0.540629
H  -1.647237 -0.191477 -2.744148
H   0.268206 -2.028886 -2.468215
H  -0.052657 -3.204491 -0.094161
H  -2.166404 -2.093645  1.097153
C   1.950000 -1.100000 -0.100000
C   1.800000  1.550000  0.150000
C   3.070000  1.980000  0.150000
H   2.706867 -0.457604 -0.550088
H   1.829632 -1.998613 -0.705068
H   2.261921 -1.378790  0.906519
H   0.981057  2.269327  0.150000
H   1.586516  0.481111  0.150000
H   3.888943  1.260673  0.150000
H   3.283484  3.048889  0.150000
