31
Approximate TS-like 3D structure for ethylene insertion into Zr-CH3 ; charge +1 ; schematic, not optimized
Zr  0.000000  0.000000  0.000000
C  -0.719698  2.416383  0.432121
C  -1.838059  1.775580 -0.111608
C  -2.281939  0.823033  0.811769
C  -1.437911  0.875130  1.926177
C  -0.472393  1.859874  1.691541
H  -0.147658  3.202680 -0.037888
H  -2.281003  1.980308 -1.075085
H  -3.127733  0.163264  0.686316
H  -1.517697  0.262643  2.812119
H   0.324091  2.141105  2.364537
C  -2.294613 -0.858804 -0.735396
C  -1.505820 -0.837823 -1.890544
C  -0.501689 -1.801046 -1.745893
C  -0.669895 -2.417332 -0.501344
C  -1.777982 -1.834995  0.123177
H  -3.151909 -0.231501 -0.540629
H  -1.647237 -0.191477 -2.744148
H   0.268206 -2.028886 -2.468215
H  -0.052657 -3.204491 -0.094161
H  -2.166404 -2.093645  1.097153
C   1.550000  1.550000  0.100000
C   2.950000  1.050000  0.100000
C   1.850000 -0.800000 -0.050000
H   1.386131  2.171435  0.980378
H   1.415043  2.252388 -0.722519
H   3.369128  1.143291  1.101863
H   3.415975  1.274463 -0.859471
H   2.392082 -0.408324 -0.910719
H   1.774857 -1.884410 -0.130674
H   2.383217 -0.539766  0.864362
