31
TS guess for ethylene insertion: atom26 alpha-CH2 to Zr, atom27 beta-CH2 approaching atom2; d(Zr-C2)=2.50 d(Zr-C26)=2.35 d(C2-C27)=2.15 d(C26-C27)=1.40
Zr      -1.51900000       0.14080000       0.14070000
C       -0.68578841       1.31938515      -1.90054851
C       -0.10488398      -1.98439677       1.22326159
C        0.45868400      -1.78517252      -0.11909603
C       -0.57089337      -2.14913354      -1.10245525
C       -1.77070466      -2.57327314      -0.36781600
C       -1.48270112      -2.47146238       1.06960569
H        0.40608400      -1.80376690       2.16205899
H        1.45843775      -1.43175430      -0.34442690
H       -0.46399338      -2.11134383      -2.18055412
H       -2.70439232      -2.90333665      -0.80876754
H       -2.16663518      -2.71323667       1.87518958
C       -0.10489729       0.26594184       2.52245944
C       -1.48271955       0.64254055       2.86742666
C       -1.77073135       1.93827205       2.23685418
C       -0.57092006       2.36241165       1.50221492
C        0.45866558       1.32883041       1.67872494
H        0.40607710      -0.63738351       2.83545223
H       -2.16665162       0.06578010       3.47961152
H       -2.70442420       2.48517232       2.30220397
H       -0.46402526       3.27716513       0.93041739
H        1.45842131       1.34726246       1.25999504
H       -1.04914829       0.80556765      -2.79052671
H        0.40421158       1.31941330      -1.90059727
H       -1.04914829       2.34703762      -1.90050592
C       -3.45643358       0.80582034      -1.01108083
C       -2.82428874       1.43042651      -2.09286640
H       -3.13116260       2.47531461      -2.13909723
H       -3.13116260       0.94806711      -3.02090619
H       -3.99097600       1.55155550      -0.42265625
H       -3.99097600      -0.07661984      -1.36273937
