      -----------------------------------------------------------      
     |                   =====================                   |     
     |                           x T B                           |     
     |                   =====================                   |     
     |                         S. Grimme                         |     
     |          Mulliken Center for Theoretical Chemistry        |     
     |                    University of Bonn                     |     
      -----------------------------------------------------------      

   * xtb version 6.5.1 (b24c23e) compiled by 'conda@728c89f4b128' on 2022-07-12

   xtb is free software: you can redistribute it and/or modify it under
   the terms of the GNU Lesser General Public License as published by
   the Free Software Foundation, either version 3 of the License, or
   (at your option) any later version.
   
   xtb is distributed in the hope that it will be useful,
   but WITHOUT ANY WARRANTY; without even the implied warranty of
   MERCHANTABILITY or FITNESS FOR A PARTICULAR PURPOSE.  See the
   GNU Lesser General Public License for more details.
   
   Cite this work as:
   * C. Bannwarth, E. Caldeweyher, S. Ehlert, A. Hansen, P. Pracht,
     J. Seibert, S. Spicher, S. Grimme, WIREs Comput. Mol. Sci., 2020, 11,
     e01493. DOI: 10.1002/wcms.1493
   
   for GFN2-xTB:
   * C. Bannwarth, S. Ehlert and S. Grimme., J. Chem. Theory Comput., 2019,
     15, 1652-1671. DOI: 10.1021/acs.jctc.8b01176
   for GFN1-xTB:
   * S. Grimme, C. Bannwarth, P. Shushkov, J. Chem. Theory Comput., 2017,
     13, 1989-2009. DOI: 10.1021/acs.jctc.7b00118
   for GFN0-xTB:
   * P. Pracht, E. Caldeweyher, S. Ehlert, S. Grimme, ChemRxiv, 2019, preprint.
     DOI: 10.26434/chemrxiv.8326202.v1
   for GFN-FF:
   * S. Spicher and S. Grimme, Angew. Chem. Int. Ed., 2020, 59, 15665-15673.
     DOI: 10.1002/anie.202004239
   
   for ALPB and GBSA implicit solvation:
   * S. Ehlert, M. Stahn, S. Spicher, S. Grimme, J. Chem. Theory Comput.,
     2021, 17, 4250-4261. DOI: 10.1021/acs.jctc.1c00471
   
   for DFT-D4:
   * E. Caldeweyher, C. Bannwarth and S. Grimme, J. Chem. Phys., 2017,
     147, 034112. DOI: 10.1063/1.4993215
   * E. Caldeweyher, S. Ehlert, A. Hansen, H. Neugebauer, S. Spicher,
     C. Bannwarth and S. Grimme, J. Chem. Phys., 2019, 150, 154122.
     DOI: 10.1063/1.5090222
   * E. Caldeweyher, J.-M. Mewes, S. Ehlert and S. Grimme, Phys. Chem. Chem. Phys.
     2020, 22, 8499-8512. DOI: 10.1039/D0CP00502A
   
   for sTDA-xTB:
   * S. Grimme and C. Bannwarth, J. Chem. Phys., 2016, 145, 054103.
     DOI: 10.1063/1.4959605
   
   in the mass-spec context:
   * V. Asgeirsson, C. Bauer and S. Grimme, Chem. Sci., 2017, 8, 4879.
     DOI: 10.1039/c7sc00601b
   * J. Koopman and S. Grimme, ACS Omega 2019, 4, 12, 15120-15133.
     DOI: 10.1021/acsomega.9b02011
   
   for metadynamics refer to:
   * S. Grimme, J. Chem. Theory Comput., 2019, 155, 2847-2862
     DOI: 10.1021/acs.jctc.9b00143
   
   for SPH calculations refer to:
   * S. Spicher and S. Grimme, J. Chem. Theory Comput., 2021, 17, 1701-1714
     DOI: 10.1021/acs.jctc.0c01306
   
   with help from (in alphabetical order)
   P. Atkinson, C. Bannwarth, F. Bohle, G. Brandenburg, E. Caldeweyher
   M. Checinski, S. Dohm, S. Ehlert, S. Ehrlich, I. Gerasimov, C. Hölzer
   A. Katbashev, J. Koopman, C. Lavigne, S. Lehtola, F. März, M. Müller,
   F. Musil, H. Neugebauer, J. Pisarek, C. Plett, P. Pracht, F. Pultar,
   J. Seibert, P. Shushkov, S. Spicher, M. Stahn, M. Steiner, T. Strunk,
   J. Stückrath, T. Rose, and J. Unsleber
   
 * started run on 2026/08/16 at 16:00:07.061     

           -------------------------------------------------
          |                Calculation Setup                |
           -------------------------------------------------

          program call               : /h/332/chchoi/miniconda3/envs/el-agente/bin/xtb pre_ts_guess3.xyz --opt --gfn 2 -P 4 --chrg 1 --uhf 0 --input detailed_input.inp
          coordinate file            : pre_ts_guess3.xyz
          omp threads                :                     4

   ID    Z sym.   atoms
    1   40 Zr     1
    2    6 C      2-7, 13-17, 26, 27
    3    1 H      8-12, 18-25, 28-31
constraining bond 2 27 to    2.2000000 Å, actual value:    3.5000003 Å
constraining bond 1 2 to    2.7000000 Å, actual value:    2.4750002 Å
constraining bond 1 26 to    2.3500000 Å, actual value:    2.2321656 Å
constraining bond 1 27 to    2.8000000 Å, actual value:    2.2626929 Å
constraining bond 26 27 to    1.4000000 Å, actual value:    1.3349601 Å

molecular fragmentation (1/2 indicates fragments):
1111111111111111111111111222222
# atoms in fragment 1/2:    25     6
 fragment masses (1/2) :      236.44       28.05
CMA distance (Bohr)    :   5.167
constraining FC (au)   :  0.5000

           -------------------------------------------------
          |                 G F N 2 - x T B                 |
           -------------------------------------------------

        Reference                      10.1021/acs.jctc.8b01176
      * Hamiltonian:
        H0-scaling (s, p, d)           1.850000    2.230000    2.230000
        zeta-weighting                 0.500000
      * Dispersion:
        s8                             2.700000
        a1                             0.520000
        a2                             5.000000
        s9                             5.000000
      * Repulsion:
        kExp                           1.500000    1.000000
        rExp                           1.000000
      * Coulomb:
        alpha                          2.000000
        third order                    shell-resolved
        anisotropic                    true
        a3                             3.000000
        a5                             4.000000
        cn-shift                       1.200000
        cn-exp                         4.000000
        max-rad                        5.000000


          ...................................................
          :                      SETUP                      :
          :.................................................:
          :  # basis functions                  79          :
          :  # atomic orbitals                  78          :
          :  # shells                           46          :
          :  # electrons                        72          :
          :  max. iterations                   250          :
          :  Hamiltonian                  GFN2-xTB          :
          :  restarted?                      false          :
          :  GBSA solvation                  false          :
          :  PC potential                    false          :
          :  electronic temp.          300.0000000     K    :
          :  accuracy                    1.0000000          :
          :  -> integral cutoff          0.2500000E+02      :
          :  -> integral neglect         0.1000000E-07      :
          :  -> SCF convergence          0.1000000E-05 Eh   :
          :  -> wf. convergence          0.1000000E-03 e    :
          :  Broyden damping             0.4000000          :
          ...................................................

 iter      E             dE          RMSdq      gap      omega  full diag
   1    -37.9640343 -0.379640E+02  0.448E+00    0.63       0.0  T
   2    -38.0733850 -0.109351E+00  0.399E+00    0.83       1.0  T
   3    -38.0867656 -0.133806E-01  0.303E+00    0.44       1.0  T
   4    -38.0400628  0.467027E-01  0.166E+00    1.38       1.0  T
   5    -38.0945482 -0.544854E-01  0.561E-01    0.68       1.0  T
   6    -38.0969814 -0.243320E-02  0.414E-01    0.59       1.0  T
   7    -38.0968069  0.174528E-03  0.338E-01    0.58       1.0  T
   8    -38.0967346  0.722560E-04  0.159E-01    0.64       1.0  T
   9    -38.0970863 -0.351625E-03  0.740E-02    0.61       1.0  T
  10    -38.0971459 -0.596076E-04  0.275E-02    0.60       1.0  T
  11    -38.0971498 -0.387710E-05  0.207E-02    0.60       1.0  T
  12    -38.0971521 -0.232754E-05  0.802E-03    0.60       2.2  T
  13    -38.0971518  0.308686E-06  0.886E-03    0.60       2.0  T
  14    -38.0971529 -0.108456E-05  0.314E-03    0.60       5.7  T
  15    -38.0971530 -0.163983E-06  0.150E-03    0.60      12.0  T
  16    -38.0971530 -0.145535E-07  0.494E-04    0.60      36.4  T
  17    -38.0971530 -0.158399E-08  0.413E-04    0.60      43.5  T

   *** convergence criteria satisfied after 17 iterations ***

         #    Occupation            Energy/Eh            Energy/eV
      -------------------------------------------------------------
         1        2.0000           -0.8775243             -23.8787
       ...           ...                  ...                  ...
        30        2.0000           -0.5756013             -15.6629
        31        2.0000           -0.5540968             -15.0777
        32        2.0000           -0.5115338             -13.9195
        33        2.0000           -0.5080131             -13.8237
        34        2.0000           -0.4967984             -13.5186
        35        2.0000           -0.4922045             -13.3936
        36        2.0000           -0.4868014             -13.2465 (HOMO)
        37        0.0000           -0.4647835             -12.6474 (LUMO)
        38                         -0.4357035             -11.8561
        39                         -0.4345255             -11.8240
        40                         -0.4280757             -11.6485
        41                         -0.4150362             -11.2937
       ...                                ...                  ...
        78                          1.6047527              43.6675
      -------------------------------------------------------------
                  HL-Gap            0.0220179 Eh            0.5991 eV
             Fermi-level           -0.4757909 Eh          -12.9469 eV

 SCC (total)                   0 d,  0 h,  0 min,  0.542 sec
 SCC setup                      ...        0 min,  0.013 sec (  2.334%)
 Dispersion                     ...        0 min,  0.023 sec (  4.232%)
 classical contributions        ...        0 min,  0.006 sec (  1.068%)
 integral evaluation            ...        0 min,  0.029 sec (  5.317%)
 iterations                     ...        0 min,  0.460 sec ( 84.878%)
 molecular gradient             ...        0 min,  0.011 sec (  2.102%)
 printout                       ...        0 min,  0.000 sec (  0.058%)

         :::::::::::::::::::::::::::::::::::::::::::::::::::::
         ::                     SUMMARY                     ::
         :::::::::::::::::::::::::::::::::::::::::::::::::::::
         :: total energy             -33.866223496002 Eh    ::
         :: gradient norm              3.211574252961 Eh/a0 ::
         :: HOMO-LUMO gap              0.599137223726 eV    ::
         ::.................................................::
         :: SCC energy               -38.097153037612 Eh    ::
         :: -> isotropic ES            0.098632452527 Eh    ::
         :: -> anisotropic ES         -0.000702316600 Eh    ::
         :: -> anisotropic XC          0.020083247444 Eh    ::
         :: -> dispersion             -0.028339152993 Eh    ::
         :: repulsion energy           0.574365696142 Eh    ::
         :: add. restraining           3.655769380365 Eh    ::
         :: total charge               1.000000000000 e     ::
         :::::::::::::::::::::::::::::::::::::::::::::::::::::

      ----------------------------------------------------------- 
     |                   =====================                   |
     |                        A N C O P T                        |
     |                   =====================                   |
     |               Approximate Normal Coordinate               |
     |                Rational Function Optimizer                |
      ----------------------------------------------------------- 

          ...................................................
          :                      SETUP                      :
          :.................................................:
          :   optimization level            normal          :
          :   max. optcycles                   200          :
          :   ANC micro-cycles                  20          :
          :   degrees of freedom                87          :
          :.................................................:
          :   RF solver                   davidson          :
          :   write xtbopt.log                true          :
          :   linear?                        false          :
          :   energy convergence         0.5000000E-05 Eh   :
          :   grad. convergence          0.1000000E-02 Eh/α :
          :   maximium RF displ.         1.0000000          :
          :   Hlow (freq-cutoff)         0.1000000E-01      :
          :   Hmax (freq-cutoff)         5.0000000          :
          :   S6 in model hess.         20.0000000          :
          ...................................................

generating ANC from model Hessian ...
Using Lindh-Hessian (1995)
 Shifting diagonal of input Hessian by   0.42207498655758691     
 Lowest  eigenvalues of input Hessian
    0.010000    0.404243    0.421234    0.000000    0.000000    0.000000
    0.000000    0.000000    0.000000    0.422202    0.422485    0.422689
    0.422769    0.423034    0.423215    0.423347    0.423821    0.425667
 Highest eigenvalues
    1.904339    1.920970    2.134190    3.194006    3.721672    4.717909


........................................................................
.............................. CYCLE    1 ..............................
........................................................................
   1    -38.0971530 -0.380972E+02  0.119E-04    0.60       0.0  T
   2    -38.0971530  0.318821E-09  0.132E-04    0.60     136.2  T
   3    -38.0971530 -0.458421E-09  0.619E-05    0.60     290.0  T
     SCC iter.                  ...        0 min,  0.093 sec
     gradient                   ...        0 min,  0.018 sec
 * total energy  :   -33.8662235 Eh     change       -0.2948859E-08 Eh
   gradient norm :     3.2115768 Eh/α   predicted     0.0000000E+00 (-100.00%)
   displ. norm   :     0.7424542 α      lambda       -0.2271761E+01
   maximum displ.:     0.4427093 α      in ANC's #56, #86, #72, ...

........................................................................
.............................. CYCLE    2 ..............................
........................................................................
   1    -38.0816224 -0.380816E+02  0.114E+00    0.78       0.0  T
   2    -38.0825944 -0.971991E-03  0.767E-01    0.81       1.0  T
   3    -38.0812860  0.130835E-02  0.532E-01    0.85       1.0  T
   4    -38.0829936 -0.170757E-02  0.241E-01    0.79       1.0  T
   5    -38.0835687 -0.575062E-03  0.130E-01    0.82       1.0  T
   6    -38.0835365  0.321282E-04  0.825E-02    0.82       1.0  T
   7    -38.0835900 -0.534824E-04  0.396E-02    0.80       1.0  T
   8    -38.0835791  0.109729E-04  0.329E-02    0.81       1.0  T
   9    -38.0835936 -0.145551E-04  0.133E-02    0.81       1.4  T
  10    -38.0835945 -0.866615E-06  0.812E-03    0.81       2.2  T
  11    -38.0835949 -0.452661E-06  0.200E-03    0.81       9.0  T
  12    -38.0835950 -0.262550E-07  0.732E-04    0.81      24.5  T
  13    -38.0835950  0.174722E-09  0.462E-04    0.81      38.9  T
     SCC iter.                  ...        0 min,  0.440 sec
     gradient                   ...        0 min,  0.011 sec
 * total energy  :   -35.7562538 Eh     change       -0.1890030E+01 Eh
   gradient norm :     2.0129159 Eh/α   predicted    -0.1762023E+01 (  -6.77%)
   displ. norm   :     0.7729957 α      lambda       -0.1486696E+01
   maximum displ.:     0.5487036 α      in ANC's #56, #86, #72, ...

........................................................................
.............................. CYCLE    3 ..............................
........................................................................
   1    -38.0132839 -0.380133E+02  0.135E+00    1.10       0.0  T
   2    -38.0010818  0.122020E-01  0.134E+00    1.43       1.0  T
   3    -38.0227488 -0.216669E-01  0.770E-01    1.20       1.0  T
   4    -38.0239208 -0.117199E-02  0.242E-01    1.18       1.0  T
   5    -38.0247984 -0.877639E-03  0.162E-01    1.24       1.0  T
   6    -38.0248825 -0.840832E-04  0.980E-02    1.22       1.0  T
   7    -38.0248931 -0.106195E-04  0.652E-02    1.23       1.0  T
   8    -38.0249217 -0.286400E-04  0.224E-02    1.21       1.0  T
   9    -38.0249263 -0.457501E-05  0.107E-02    1.22       1.7  T
  10    -38.0249273 -0.998600E-06  0.581E-03    1.22       3.1  T
  11    -38.0249274 -0.639213E-07  0.334E-03    1.22       5.4  T
  12    -38.0249274 -0.516767E-07  0.159E-03    1.22      11.3  T
  13    -38.0249274 -0.978318E-08  0.713E-04    1.22      25.2  T
  14    -38.0249274 -0.329329E-08  0.328E-04    1.22      54.7  T
     SCC iter.                  ...        0 min,  0.520 sec
     gradient                   ...        0 min,  0.016 sec
 * total energy  :   -36.8850100 Eh     change       -0.1128756E+01 Eh
   gradient norm :     1.0289013 Eh/α   predicted    -0.1187526E+01 (   5.21%)
   displ. norm   :     0.6416369 α      lambda       -0.6272942E+00
   maximum displ.:     0.4946201 α      in ANC's #56, #86, #50, ...

........................................................................
.............................. CYCLE    4 ..............................
........................................................................
   1    -37.9614218 -0.379614E+02  0.119E+00    1.44       0.0  T
   2    -37.9483544  0.130674E-01  0.118E+00    1.59       1.0  T
   3    -37.9710620 -0.227075E-01  0.670E-01    1.39       1.0  T
   4    -37.9723990 -0.133702E-02  0.186E-01    1.47       1.0  T
   5    -37.9730476 -0.648605E-03  0.108E-01    1.43       1.0  T
   6    -37.9730309  0.167118E-04  0.689E-02    1.43       1.0  T
   7    -37.9730763 -0.453759E-04  0.394E-02    1.44       1.0  T
   8    -37.9730881 -0.118021E-04  0.125E-02    1.43       1.4  T
   9    -37.9730896 -0.150138E-05  0.652E-03    1.44       2.8  T
  10    -37.9730899 -0.337102E-06  0.402E-03    1.44       4.5  T
  11    -37.9730899 -0.402376E-07  0.258E-03    1.44       7.0  T
  12    -37.9730900 -0.169766E-07  0.118E-03    1.44      15.2  T
  13    -37.9730900 -0.138617E-07  0.506E-04    1.44      35.5  T
  14    -37.9730900 -0.175870E-08  0.176E-04    1.44     101.8  T
     SCC iter.                  ...        0 min,  0.595 sec
     gradient                   ...        0 min,  0.101 sec
 * total energy  :   -37.2989650 Eh     change       -0.4139550E+00 Eh
   gradient norm :     0.3728878 Eh/α   predicted    -0.4427750E+00 (   6.96%)
   displ. norm   :     0.4910903 α      lambda       -0.1446581E+00
   maximum displ.:     0.2637145 α      in ANC's #1, #56, #25, ...

........................................................................
.............................. CYCLE    5 ..............................
........................................................................
   1    -37.9820352 -0.379820E+02  0.675E-01    1.43       0.0  T
   2    -37.9784495  0.358573E-02  0.663E-01    1.53       1.0  T
   3    -37.9859899 -0.754046E-02  0.358E-01    1.43       1.0  T
   4    -37.9861381 -0.148184E-03  0.156E-01    1.51       1.0  T
   5    -37.9864600 -0.321860E-03  0.812E-02    1.46       1.0  T
   6    -37.9865091 -0.491390E-04  0.465E-02    1.47       1.0  T
   7    -37.9865190 -0.993437E-05  0.189E-02    1.46       1.0  T
   8    -37.9865207 -0.165161E-05  0.781E-03    1.47       2.3  T
   9    -37.9865212 -0.468547E-06  0.324E-03    1.46       5.5  T
  10    -37.9865213 -0.179559E-06  0.205E-03    1.47       8.8  T
  11    -37.9865213 -0.123322E-08  0.999E-04    1.47      18.0  T
  12    -37.9865214 -0.894944E-08  0.549E-04    1.47      32.7  T
     SCC iter.                  ...        0 min,  0.780 sec
     gradient                   ...        0 min,  0.142 sec
 * total energy  :   -37.3928149 Eh     change       -0.9384995E-01 Eh
   gradient norm :     0.1824208 Eh/α   predicted    -0.8977268E-01 (  -4.34%)
   displ. norm   :     0.6043323 α      lambda       -0.7556897E-01
   maximum displ.:     0.3874558 α      in ANC's #1, #25, #56, ...

........................................................................
.............................. CYCLE    6 ..............................
........................................................................
   1    -38.0295283 -0.380295E+02  0.989E-01    1.41       0.0  T
   2    -38.0277946  0.173369E-02  0.875E-01    1.51       1.0  T
   3    -38.0330830 -0.528834E-02  0.597E-01    1.40       1.0  T
   4    -38.0340203 -0.937374E-03  0.193E-01    1.53       1.0  T
   5    -38.0344615 -0.441199E-03  0.149E-01    1.43       1.0  T
   6    -38.0346499 -0.188362E-03  0.664E-02    1.47       1.0  T
   7    -38.0346648 -0.149130E-04  0.275E-02    1.46       1.0  T
   8    -38.0346679 -0.306878E-05  0.122E-02    1.47       1.5  T
   9    -38.0346694 -0.151295E-05  0.566E-03    1.47       3.2  T
  10    -38.0346696 -0.236004E-06  0.347E-03    1.47       5.2  T
  11    -38.0346697 -0.521126E-07  0.132E-03    1.47      13.6  T
  12    -38.0346697 -0.617652E-08  0.571E-04    1.47      31.5  T
  13    -38.0346697 -0.191027E-08  0.316E-04    1.47      56.8  T
     SCC iter.                  ...        0 min,  0.670 sec
     gradient                   ...        0 min,  0.105 sec
 * total energy  :   -37.4305668 Eh     change       -0.3775184E-01 Eh
   gradient norm :     0.2443178 Eh/α   predicted    -0.5158437E-01 (  36.64%)
   displ. norm   :     0.7855541 α      lambda       -0.1045585E+00
   maximum displ.:     0.4626310 α      in ANC's #1, #25, #56, ...

........................................................................
.............................. CYCLE    7 ..............................
........................................................................
   1    -38.1171146 -0.381171E+02  0.921E-01    1.49       0.0  T
   2    -38.1179017 -0.787054E-03  0.699E-01    1.49       1.0  T
   3    -38.1163175  0.158415E-02  0.460E-01    1.45       1.0  T
   4    -38.1179574 -0.163988E-02  0.243E-01    1.55       1.0  T
   5    -38.1187895 -0.832097E-03  0.124E-01    1.47       1.0  T
   6    -38.1189056 -0.116041E-03  0.653E-02    1.50       1.0  T
   7    -38.1189090 -0.345639E-05  0.335E-02    1.49       1.0  T
   8    -38.1189143 -0.527065E-05  0.133E-02    1.50       1.3  T
   9    -38.1189159 -0.165287E-05  0.658E-03    1.50       2.7  T
  10    -38.1189162 -0.295888E-06  0.416E-03    1.50       4.3  T
  11    -38.1189163 -0.689897E-07  0.114E-03    1.50      15.8  T
  12    -38.1189163 -0.391115E-08  0.541E-04    1.50      33.2  T
  13    -38.1189163 -0.143089E-08  0.250E-04    1.50      71.8  T
     SCC iter.                  ...        0 min,  0.553 sec
     gradient                   ...        0 min,  0.076 sec
 * total energy  :   -37.4941005 Eh     change       -0.6353377E-01 Eh
   gradient norm :     0.2436890 Eh/α   predicted    -0.8454110E-01 (  33.06%)
   displ. norm   :     0.4410999 α      lambda       -0.5704378E-01
   maximum displ.:     0.2228731 α      in ANC's #25, #23, #4, ...

........................................................................
.............................. CYCLE    8 ..............................
........................................................................
   1    -38.1821209 -0.381821E+02  0.546E-01    1.39       0.0  T
   2    -38.1821913 -0.703654E-04  0.290E-01    1.33       1.0  T
   3    -38.1810099  0.118142E-02  0.307E-01    1.45       1.0  T
   4    -38.1826092 -0.159929E-02  0.727E-02    1.37       1.0  T
   5    -38.1826852 -0.760553E-04  0.305E-02    1.38       1.0  T
   6    -38.1826842  0.976980E-06  0.201E-02    1.38       1.0  T
   7    -38.1826864 -0.218813E-05  0.957E-03    1.38       1.9  T
   8    -38.1826871 -0.710284E-06  0.473E-03    1.38       3.8  T
   9    -38.1826874 -0.256290E-06  0.136E-03    1.38      13.2  T
  10    -38.1826874 -0.206457E-08  0.556E-04    1.38      32.3  T
  11    -38.1826874 -0.392728E-08  0.269E-04    1.38      66.7  T
     SCC iter.                  ...        0 min,  0.452 sec
     gradient                   ...        0 min,  0.015 sec
 * total energy  :   -37.5356404 Eh     change       -0.4153986E-01 Eh
   gradient norm :     0.1584912 Eh/α   predicted    -0.3407145E-01 ( -17.98%)
   displ. norm   :     0.4897749 α      lambda       -0.3830315E-01
   maximum displ.:     0.2438508 α      in ANC's #25, #23, #4, ...

........................................................................
.............................. CYCLE    9 ..............................
........................................................................
   1    -38.2229349 -0.382229E+02  0.635E-01    1.27       0.0  T
   2    -38.2225622  0.372731E-03  0.535E-01    1.33       1.0  T
   3    -38.2237846 -0.122239E-02  0.277E-01    1.25       1.0  T
   4    -38.2243627 -0.578164E-03  0.107E-01    1.33       1.0  T
   5    -38.2245828 -0.220100E-03  0.267E-02    1.29       1.0  T
   6    -38.2245851 -0.224878E-05  0.148E-02    1.30       1.2  T
   7    -38.2245872 -0.208590E-05  0.865E-03    1.29       2.1  T
   8    -38.2245872  0.182954E-07  0.572E-03    1.29       3.1  T
   9    -38.2245874 -0.245297E-06  0.179E-03    1.29      10.1  T
  10    -38.2245874 -0.782987E-08  0.847E-04    1.29      21.2  T
  11    -38.2245874 -0.386287E-08  0.414E-04    1.29      43.3  T
     SCC iter.                  ...        0 min,  0.495 sec
     gradient                   ...        0 min,  0.033 sec
 * total energy  :   -37.5639320 Eh     change       -0.2829161E-01 Eh
   gradient norm :     0.1345749 Eh/α   predicted    -0.2374578E-01 ( -16.07%)
   displ. norm   :     0.4328222 α      lambda       -0.2777767E-01
   maximum displ.:     0.1984605 α      in ANC's #25, #23, #4, ...

........................................................................
.............................. CYCLE   10 ..............................
........................................................................
   1    -38.2363868 -0.382364E+02  0.629E-01    1.20       0.0  T
   2    -38.2358434  0.543396E-03  0.560E-01    1.26       1.0  T
   3    -38.2377594 -0.191594E-02  0.290E-01    1.19       1.0  T
   4    -38.2380085 -0.249119E-03  0.825E-02    1.25       1.0  T
   5    -38.2381638 -0.155338E-03  0.326E-02    1.21       1.0  T
   6    -38.2381695 -0.564206E-05  0.147E-02    1.22       1.2  T
   7    -38.2381703 -0.842374E-06  0.969E-03    1.22       1.9  T
   8    -38.2381704 -0.104050E-06  0.570E-03    1.22       3.2  T
   9    -38.2381706 -0.217727E-06  0.115E-03    1.22      15.6  T
  10    -38.2381707 -0.100528E-07  0.834E-04    1.22      21.5  T
  11    -38.2381707 -0.240200E-08  0.413E-04    1.22      43.5  T
     SCC iter.                  ...        0 min,  0.457 sec
     gradient                   ...        0 min,  0.099 sec
 * total energy  :   -37.5845382 Eh     change       -0.2060618E-01 Eh
   gradient norm :     0.1113400 Eh/α   predicted    -0.1649071E-01 ( -19.97%)
   displ. norm   :     0.4266748 α      lambda       -0.1787784E-01
   maximum displ.:     0.1807520 α      in ANC's #25, #23, #14, ...

........................................................................
.............................. CYCLE   11 ..............................
........................................................................
   1    -38.2394438 -0.382394E+02  0.577E-01    1.17       0.0  T
   2    -38.2390993  0.344513E-03  0.478E-01    1.23       1.0  T
   3    -38.2397384 -0.639131E-03  0.272E-01    1.16       1.0  T
   4    -38.2404285 -0.690046E-03  0.512E-02    1.21       1.0  T
   5    -38.2404861 -0.575839E-04  0.312E-02    1.19       1.0  T
   6    -38.2404898 -0.377139E-05  0.120E-02    1.20       1.5  T
   7    -38.2404908 -0.914200E-06  0.733E-03    1.19       2.4  T
   8    -38.2404909 -0.143557E-06  0.305E-03    1.19       5.9  T
   9    -38.2404910 -0.889221E-07  0.128E-03    1.20      14.0  T
  10    -38.2404910 -0.482818E-08  0.100E-03    1.20      17.9  T
  11    -38.2404910 -0.403502E-08  0.340E-04    1.19      52.9  T
  12    -38.2404910 -0.325542E-09  0.146E-04    1.19     122.8  T
     SCC iter.                  ...        0 min,  0.554 sec
     gradient                   ...        0 min,  0.004 sec
 * total energy  :   -37.5964879 Eh     change       -0.1194971E-01 Eh
   gradient norm :     0.0738540 Eh/α   predicted    -0.1056633E-01 ( -11.58%)
   displ. norm   :     0.2404188 α      lambda       -0.5575758E-02
   maximum displ.:     0.0949264 α      in ANC's #25, #14, #23, ...

........................................................................
.............................. CYCLE   12 ..............................
........................................................................
   1    -38.2376231 -0.382376E+02  0.257E-01    1.17       0.0  T
   2    -38.2375862  0.369775E-04  0.186E-01    1.20       1.0  T
   3    -38.2373467  0.239449E-03  0.137E-01    1.16       1.0  T
   4    -38.2377179 -0.371207E-03  0.147E-02    1.19       1.2  T
   5    -38.2377217 -0.381819E-05  0.105E-02    1.19       1.7  T
   6    -38.2377217 -0.907522E-08  0.437E-03    1.19       4.1  T
   7    -38.2377220 -0.222847E-06  0.228E-03    1.19       7.9  T
   8    -38.2377220 -0.267150E-07  0.110E-03    1.19      16.4  T
   9    -38.2377220 -0.392401E-08  0.741E-04    1.19      24.2  T
  10    -38.2377220 -0.466402E-08  0.419E-04    1.19      42.9  T
     SCC iter.                  ...        0 min,  0.407 sec
     gradient                   ...        0 min,  0.082 sec
 * total energy  :   -37.6003684 Eh     change       -0.3880567E-02 Eh
   gradient norm :     0.0423142 Eh/α   predicted    -0.2949059E-02 ( -24.00%)
   displ. norm   :     0.1962549 α      lambda       -0.3819725E-02
   maximum displ.:     0.0770372 α      in ANC's #14, #25, #4, ...

........................................................................
.............................. CYCLE   13 ..............................
........................................................................
   1    -38.2328804 -0.382329E+02  0.156E-01    1.19       0.0  T
   2    -38.2328789  0.148233E-05  0.103E-01    1.21       1.0  T
   3    -38.2327770  0.101901E-03  0.821E-02    1.18       1.0  T
   4    -38.2329005 -0.123518E-03  0.168E-02    1.20       1.1  T
   5    -38.2329042 -0.370956E-05  0.839E-03    1.20       2.1  T
   6    -38.2329042  0.730740E-07  0.336E-03    1.20       5.3  T
   7    -38.2329043 -0.134078E-06  0.154E-03    1.20      11.7  T
   8    -38.2329043 -0.479865E-09  0.113E-03    1.20      15.9  T
   9    -38.2329043 -0.326175E-08  0.798E-04    1.20      22.5  T
  10    -38.2329043 -0.255990E-08  0.297E-04    1.20      60.5  T
     SCC iter.                  ...        0 min,  0.438 sec
     gradient                   ...        0 min,  0.116 sec
 * total energy  :   -37.6032955 Eh     change       -0.2927039E-02 Eh
   gradient norm :     0.0384769 Eh/α   predicted    -0.1983455E-02 ( -32.24%)
   displ. norm   :     0.2720469 α      lambda       -0.4627069E-02
   maximum displ.:     0.1072503 α      in ANC's #14, #13, #2, ...

........................................................................
.............................. CYCLE   14 ..............................
........................................................................
   1    -38.2264255 -0.382264E+02  0.189E-01    1.20       0.0  T
   2    -38.2264342 -0.865787E-05  0.128E-01    1.21       1.0  T
   3    -38.2263385  0.956936E-04  0.734E-02    1.19       1.0  T
   4    -38.2264345 -0.959615E-04  0.267E-02    1.21       1.0  T
   5    -38.2264440 -0.948362E-05  0.146E-02    1.20       1.2  T
   6    -38.2264449 -0.964389E-06  0.400E-03    1.20       4.5  T
   7    -38.2264451 -0.211372E-06  0.183E-03    1.20       9.8  T
   8    -38.2264451  0.342304E-08  0.152E-03    1.21      11.8  T
   9    -38.2264451 -0.965827E-08  0.660E-04    1.20      27.2  T
  10    -38.2264451 -0.134671E-08  0.353E-04    1.20      50.9  T
     SCC iter.                  ...        0 min,  0.487 sec
     gradient                   ...        0 min,  0.023 sec
 * total energy  :   -37.6066578 Eh     change       -0.3362319E-02 Eh
   gradient norm :     0.0517326 Eh/α   predicted    -0.2484775E-02 ( -26.10%)
   displ. norm   :     0.2617203 α      lambda       -0.3745054E-02
   maximum displ.:     0.0975761 α      in ANC's #13, #14, #2, ...

........................................................................
.............................. CYCLE   15 ..............................
........................................................................
   1    -38.2236576 -0.382237E+02  0.183E-01    1.23       0.0  T
   2    -38.2236648 -0.723796E-05  0.128E-01    1.22       1.0  T
   3    -38.2236306  0.342659E-04  0.441E-02    1.23       1.0  T
   4    -38.2236604 -0.298721E-04  0.336E-02    1.22       1.0  T
   5    -38.2236688 -0.835428E-05  0.173E-02    1.22       1.0  T
   6    -38.2236699 -0.108422E-05  0.781E-03    1.23       2.3  T
   7    -38.2236708 -0.910806E-06  0.199E-03    1.22       9.0  T
   8    -38.2236708 -0.434724E-08  0.157E-03    1.23      11.4  T
   9    -38.2236708 -0.127198E-07  0.700E-04    1.22      25.6  T
  10    -38.2236708 -0.155800E-08  0.355E-04    1.22      50.5  T
     SCC iter.                  ...        0 min,  0.427 sec
     gradient                   ...        0 min,  0.004 sec
 * total energy  :   -37.6094274 Eh     change       -0.2769559E-02 Eh
   gradient norm :     0.0483659 Eh/α   predicted    -0.2000799E-02 ( -27.76%)
   displ. norm   :     0.2466097 α      lambda       -0.3410085E-02
   maximum displ.:     0.0867990 α      in ANC's #13, #2, #7, ...

........................................................................
.............................. CYCLE   16 ..............................
........................................................................
   1    -38.2274434 -0.382274E+02  0.177E-01    1.26       0.0  T
   2    -38.2274520 -0.865051E-05  0.135E-01    1.24       1.0  T
   3    -38.2274295  0.225192E-04  0.686E-02    1.27       1.0  T
   4    -38.2274569 -0.273722E-04  0.332E-02    1.24       1.0  T
   5    -38.2274622 -0.537578E-05  0.214E-02    1.25       1.0  T
   6    -38.2274658 -0.352007E-05  0.772E-03    1.25       2.3  T
   7    -38.2274659 -0.159915E-06  0.209E-03    1.25       8.6  T
   8    -38.2274660 -0.571705E-07  0.115E-03    1.25      15.7  T
   9    -38.2274660 -0.491313E-08  0.571E-04    1.25      31.5  T
  10    -38.2274660 -0.777803E-09  0.338E-04    1.25      53.1  T
     SCC iter.                  ...        0 min,  0.414 sec
     gradient                   ...        0 min,  0.018 sec
 * total energy  :   -37.6118788 Eh     change       -0.2451393E-02 Eh
   gradient norm :     0.0302848 Eh/α   predicted    -0.1808776E-02 ( -26.21%)
   displ. norm   :     0.1979384 α      lambda       -0.2414899E-02
   maximum displ.:     0.0703755 α      in ANC's #7, #2, #13, ...

........................................................................
.............................. CYCLE   17 ..............................
........................................................................
   1    -38.2360138 -0.382360E+02  0.150E-01    1.29       0.0  T
   2    -38.2360247 -0.109159E-04  0.124E-01    1.26       1.0  T
   3    -38.2360280 -0.329785E-05  0.670E-02    1.29       1.0  T
   4    -38.2360414 -0.133806E-04  0.222E-02    1.27       1.0  T
   5    -38.2360430 -0.165432E-05  0.171E-02    1.28       1.0  T
   6    -38.2360452 -0.220865E-05  0.573E-03    1.28       3.1  T
   7    -38.2360453 -0.106789E-06  0.225E-03    1.28       8.0  T
   8    -38.2360454 -0.855317E-07  0.900E-04    1.28      20.0  T
   9    -38.2360454 -0.197898E-08  0.473E-04    1.28      38.0  T
     SCC iter.                  ...        0 min,  0.390 sec
     gradient                   ...        0 min,  0.052 sec
 * total energy  :   -37.6135989 Eh     change       -0.1720167E-02 Eh
   gradient norm :     0.0285243 Eh/α   predicted    -0.1254764E-02 ( -27.06%)
   displ. norm   :     0.1788641 α      lambda       -0.1783183E-02
   maximum displ.:     0.0709129 α      in ANC's #7, #2, #23, ...

........................................................................
.............................. CYCLE   18 ..............................
........................................................................
   1    -38.2443970 -0.382444E+02  0.146E-01    1.31       0.0  T
   2    -38.2444102 -0.132417E-04  0.129E-01    1.29       1.0  T
   3    -38.2444232 -0.129083E-04  0.668E-02    1.31       1.0  T
   4    -38.2444311 -0.799162E-05  0.192E-02    1.30       1.0  T
   5    -38.2444340 -0.287575E-05  0.115E-02    1.30       1.6  T
   6    -38.2444343 -0.311635E-06  0.659E-03    1.30       2.7  T
   7    -38.2444348 -0.422020E-06  0.194E-03    1.30       9.2  T
   8    -38.2444348 -0.528727E-07  0.872E-04    1.30      20.6  T
   9    -38.2444348 -0.424625E-08  0.356E-04    1.30      50.5  T
     SCC iter.                  ...        0 min,  0.403 sec
     gradient                   ...        0 min,  0.050 sec
 * total energy  :   -37.6149254 Eh     change       -0.1326512E-02 Eh
   gradient norm :     0.0330711 Eh/α   predicted    -0.9201342E-03 ( -30.64%)
   displ. norm   :     0.2086920 α      lambda       -0.1781089E-02
   maximum displ.:     0.0883607 α      in ANC's #7, #2, #23, ...

........................................................................
.............................. CYCLE   19 ..............................
........................................................................
   1    -38.2504337 -0.382504E+02  0.178E-01    1.34       0.0  T
   2    -38.2504486 -0.148106E-04  0.153E-01    1.32       1.0  T
   3    -38.2504504 -0.180514E-05  0.725E-02    1.34       1.0  T
   4    -38.2504775 -0.271299E-04  0.251E-02    1.33       1.0  T
   5    -38.2504891 -0.116532E-04  0.117E-02    1.33       1.5  T
   6    -38.2504893 -0.192284E-06  0.512E-03    1.33       3.5  T
   7    -38.2504895 -0.201929E-06  0.185E-03    1.33       9.7  T
   8    -38.2504896 -0.316601E-07  0.880E-04    1.33      20.4  T
   9    -38.2504896 -0.583458E-08  0.367E-04    1.33      48.9  T
     SCC iter.                  ...        0 min,  0.374 sec
     gradient                   ...        0 min,  0.056 sec
 * total energy  :   -37.6162230 Eh     change       -0.1297517E-02 Eh
   gradient norm :     0.0284944 Eh/α   predicted    -0.9293403E-03 ( -28.38%)
   displ. norm   :     0.2081421 α      lambda       -0.1466025E-02
   maximum displ.:     0.0914201 α      in ANC's #7, #2, #23, ...

........................................................................
.............................. CYCLE   20 ..............................
........................................................................
   1    -38.2512690 -0.382513E+02  0.168E-01    1.37       0.0  T
   2    -38.2512756 -0.668653E-05  0.143E-01    1.36       1.0  T
   3    -38.2512764 -0.735077E-06  0.713E-02    1.36       1.0  T
   4    -38.2513129 -0.364760E-04  0.232E-02    1.37       1.0  T
   5    -38.2513263 -0.134463E-04  0.894E-03    1.36       2.0  T
   6    -38.2513265 -0.197947E-06  0.353E-03    1.36       5.1  T
   7    -38.2513266 -0.918000E-07  0.132E-03    1.36      13.7  T
   8    -38.2513266 -0.102843E-07  0.595E-04    1.36      30.2  T
   9    -38.2513266 -0.283753E-08  0.316E-04    1.36      56.8  T
     SCC iter.                  ...        0 min,  0.407 sec
     gradient                   ...        0 min,  0.104 sec
 * total energy  :   -37.6172909 Eh     change       -0.1067915E-02 Eh
   gradient norm :     0.0208000 Eh/α   predicted    -0.7647804E-03 ( -28.39%)
   displ. norm   :     0.1954825 α      lambda       -0.1257324E-02
   maximum displ.:     0.0869773 α      in ANC's #7, #2, #23, ...
 * RMSD in coord.:     0.9135864 α      energy gain  -0.3751067E+01 Eh

generating ANC from model Hessian ...
Using Lindh-Hessian (1995)
 Shifting diagonal of input Hessian by    1.2042194415045783E-002
 Lowest  eigenvalues of input Hessian
    0.010000    0.011700    0.000000    0.000000    0.000000    0.000000
    0.000000    0.000000    0.012404    0.012812    0.013249    0.013545
    0.013901    0.014556    0.016438    0.017877    0.018405    0.018880
 Highest eigenvalues
    1.737346    1.740174    2.031632    2.259091    3.389922    4.022564


........................................................................
.............................. CYCLE   21 ..............................
........................................................................
   1    -38.2481189 -0.382481E+02  0.141E-01    1.39       0.0  T
   2    -38.2481188  0.970480E-07  0.117E-01    1.39       1.0  T
   3    -38.2481398 -0.210174E-04  0.643E-02    1.39       1.0  T
   4    -38.2481680 -0.281831E-04  0.183E-02    1.39       1.0  T
   5    -38.2481778 -0.977785E-05  0.599E-03    1.39       3.0  T
   6    -38.2481778 -0.550680E-07  0.271E-03    1.39       6.6  T
   7    -38.2481779 -0.272547E-07  0.113E-03    1.39      15.9  T
   8    -38.2481779 -0.139082E-07  0.633E-04    1.39      28.4  T
   9    -38.2481779 -0.120610E-08  0.384E-04    1.39      46.8  T
     SCC iter.                  ...        0 min,  0.454 sec
     gradient                   ...        0 min,  0.082 sec
 * total energy  :   -37.6182194 Eh     change       -0.9284980E-03 Eh
   gradient norm :     0.0205836 Eh/α   predicted     0.0000000E+00 (-100.00%)
   displ. norm   :     0.4114175 α      lambda       -0.4517606E-02
   maximum displ.:     0.2296641 α      in ANC's #8, #12, #9, ...

........................................................................
.............................. CYCLE   22 ..............................
........................................................................
   1    -38.2471550 -0.382472E+02  0.330E-01    1.39       0.0  T
   2    -38.2471665 -0.114993E-04  0.221E-01    1.39       1.0  T
   3    -38.2471439  0.226654E-04  0.459E-02    1.39       1.0  T
   4    -38.2471714 -0.275485E-04  0.263E-02    1.39       1.0  T
   5    -38.2471717 -0.315544E-06  0.140E-02    1.39       1.3  T
   6    -38.2471740 -0.225495E-05  0.381E-03    1.39       4.7  T
   7    -38.2471740 -0.232068E-07  0.238E-03    1.39       7.6  T
   8    -38.2471740 -0.296038E-08  0.118E-03    1.39      15.3  T
   9    -38.2471740 -0.421315E-08  0.926E-04    1.39      19.4  T
  10    -38.2471740 -0.491759E-08  0.374E-04    1.39      48.0  T
     SCC iter.                  ...        0 min,  0.439 sec
     gradient                   ...        0 min,  0.114 sec
 * total energy  :   -37.6215752 Eh     change       -0.3355802E-02 Eh
   gradient norm :     0.0104462 Eh/α   predicted    -0.2654932E-02 ( -20.89%)
   displ. norm   :     0.5920726 α      lambda       -0.3803568E-02
   maximum displ.:     0.4016538 α      in ANC's #8, #5, #12, ...

........................................................................
.............................. CYCLE   23 ..............................
........................................................................
   1    -38.2461167 -0.382461E+02  0.385E-01    1.45       0.0  T
   2    -38.2461366 -0.198691E-04  0.269E-01    1.41       1.0  T
   3    -38.2459264  0.210204E-03  0.100E-01    1.46       1.0  T
   4    -38.2461575 -0.231160E-03  0.210E-02    1.42       1.0  T
   5    -38.2461595 -0.198808E-05  0.122E-02    1.42       1.5  T
   6    -38.2461604 -0.880518E-06  0.483E-03    1.43       3.7  T
   7    -38.2461605 -0.104961E-06  0.338E-03    1.42       5.3  T
   8    -38.2461606 -0.398573E-07  0.218E-03    1.42       8.2  T
   9    -38.2461606 -0.319926E-07  0.725E-04    1.42      24.8  T
  10    -38.2461606 -0.659263E-09  0.363E-04    1.42      49.5  T
     SCC iter.                  ...        0 min,  0.481 sec
     gradient                   ...        0 min,  0.112 sec
 * total energy  :   -37.6242239 Eh     change       -0.2648696E-02 Eh
   gradient norm :     0.0260880 Eh/α   predicted    -0.2568465E-02 (  -3.03%)
   displ. norm   :     0.4960907 α      lambda       -0.2237838E-02
   maximum displ.:     0.2914144 α      in ANC's #8, #5, #12, ...

........................................................................
.............................. CYCLE   24 ..............................
........................................................................
   1    -38.2481809 -0.382482E+02  0.317E-01    1.47       0.0  T
   2    -38.2481959 -0.149830E-04  0.212E-01    1.44       1.0  T
   3    -38.2480455  0.150331E-03  0.919E-02    1.48       1.0  T
   4    -38.2482144 -0.168831E-03  0.160E-02    1.45       1.1  T
   5    -38.2482144 -0.118725E-08  0.859E-03    1.45       2.1  T
   6    -38.2482149 -0.497237E-06  0.323E-03    1.45       5.6  T
   7    -38.2482150 -0.173823E-06  0.165E-03    1.45      10.9  T
   8    -38.2482151 -0.299377E-07  0.889E-04    1.45      20.2  T
   9    -38.2482151 -0.318330E-08  0.437E-04    1.45      41.1  T
     SCC iter.                  ...        0 min,  0.424 sec
     gradient                   ...        0 min,  0.025 sec
 * total energy  :   -37.6258323 Eh     change       -0.1608435E-02 Eh
   gradient norm :     0.0277059 Eh/α   predicted    -0.1394292E-02 ( -13.31%)
   displ. norm   :     0.4382263 α      lambda       -0.2007453E-02
   maximum displ.:     0.2441093 α      in ANC's #5, #8, #6, ...

........................................................................
.............................. CYCLE   25 ..............................
........................................................................
   1    -38.2528644 -0.382529E+02  0.191E-01    1.49       0.0  T
   2    -38.2528784 -0.139813E-04  0.117E-01    1.46       1.0  T
   3    -38.2528135  0.648595E-04  0.769E-02    1.50       1.0  T
   4    -38.2528951 -0.815164E-04  0.198E-02    1.47       1.0  T
   5    -38.2528980 -0.290440E-05  0.113E-02    1.47       1.6  T
   6    -38.2528978  0.183849E-06  0.549E-03    1.47       3.3  T
   7    -38.2528982 -0.407803E-06  0.196E-03    1.47       9.2  T
   8    -38.2528982 -0.104987E-07  0.102E-03    1.47      17.6  T
   9    -38.2528982 -0.692411E-08  0.311E-04    1.47      57.8  T
  10    -38.2528982 -0.139345E-09  0.219E-04    1.47      81.9  T
     SCC iter.                  ...        0 min,  0.517 sec
     gradient                   ...        0 min,  0.018 sec
 * total energy  :   -37.6273138 Eh     change       -0.1481519E-02 Eh
   gradient norm :     0.0183485 Eh/α   predicted    -0.1196488E-02 ( -19.24%)
   displ. norm   :     0.4362273 α      lambda       -0.1695902E-02
   maximum displ.:     0.2474976 α      in ANC's #5, #8, #6, ...

........................................................................
.............................. CYCLE   26 ..............................
........................................................................
   1    -38.2564809 -0.382565E+02  0.181E-01    1.49       0.0  T
   2    -38.2564872 -0.626633E-05  0.111E-01    1.48       1.0  T
   3    -38.2564140  0.731357E-04  0.670E-02    1.50       1.0  T
   4    -38.2564939 -0.798871E-04  0.189E-02    1.49       1.0  T
   5    -38.2564964 -0.249825E-05  0.108E-02    1.49       1.7  T
   6    -38.2564967 -0.304644E-06  0.343E-03    1.49       5.2  T
   7    -38.2564968 -0.144466E-06  0.167E-03    1.49      10.8  T
   8    -38.2564969 -0.394762E-08  0.110E-03    1.49      16.3  T
   9    -38.2564969 -0.354162E-08  0.628E-04    1.49      28.6  T
  10    -38.2564969  0.302094E-09  0.230E-04    1.49      78.0  T
     SCC iter.                  ...        0 min,  0.412 sec
     gradient                   ...        0 min,  0.088 sec
 * total energy  :   -37.6285272 Eh     change       -0.1213372E-02 Eh
   gradient norm :     0.0163481 Eh/α   predicted    -0.1009315E-02 ( -16.82%)
   displ. norm   :     0.4696091 α      lambda       -0.1536900E-02
   maximum displ.:     0.2400117 α      in ANC's #5, #6, #8, ...

........................................................................
.............................. CYCLE   27 ..............................
........................................................................
   1    -38.2575681 -0.382576E+02  0.161E-01    1.50       0.0  T
   2    -38.2575733 -0.512577E-05  0.103E-01    1.50       1.0  T
   3    -38.2575406  0.326582E-04  0.462E-02    1.50       1.0  T
   4    -38.2575736 -0.330060E-04  0.217E-02    1.50       1.0  T
   5    -38.2575780 -0.438398E-05  0.119E-02    1.50       1.5  T
   6    -38.2575785 -0.484084E-06  0.342E-03    1.50       5.3  T
   7    -38.2575785 -0.735125E-07  0.194E-03    1.50       9.3  T
   8    -38.2575786 -0.441243E-08  0.137E-03    1.50      13.1  T
   9    -38.2575786 -0.104594E-07  0.557E-04    1.50      32.3  T
  10    -38.2575786 -0.367798E-09  0.184E-04    1.50      97.7  T
     SCC iter.                  ...        0 min,  0.462 sec
     gradient                   ...        0 min,  0.116 sec
 * total energy  :   -37.6296553 Eh     change       -0.1128156E-02 Eh
   gradient norm :     0.0140803 Eh/α   predicted    -0.9379216E-03 ( -16.86%)
   displ. norm   :     0.4795213 α      lambda       -0.1511191E-02
   maximum displ.:     0.2500898 α      in ANC's #6, #5, #8, ...

........................................................................
.............................. CYCLE   28 ..............................
........................................................................
   1    -38.2597942 -0.382598E+02  0.149E-01    1.51       0.0  T
   2    -38.2597986 -0.447583E-05  0.963E-02    1.51       1.0  T
   3    -38.2597125  0.861611E-04  0.715E-02    1.51       1.0  T
   4    -38.2598160 -0.103483E-03  0.171E-02    1.51       1.1  T
   5    -38.2598207 -0.478737E-05  0.900E-03    1.51       2.0  T
   6    -38.2598208 -0.456167E-07  0.265E-03    1.51       6.8  T
   7    -38.2598209 -0.111314E-06  0.107E-03    1.51      16.8  T
   8    -38.2598209 -0.648512E-08  0.497E-04    1.51      36.2  T
   9    -38.2598209 -0.825892E-09  0.303E-04    1.51      59.2  T
     SCC iter.                  ...        0 min,  0.411 sec
     gradient                   ...        0 min,  0.018 sec
 * total energy  :   -37.6307890 Eh     change       -0.1133659E-02 Eh
   gradient norm :     0.0161074 Eh/α   predicted    -0.9293427E-03 ( -18.02%)
   displ. norm   :     0.7619034 α      lambda       -0.1800812E-02
   maximum displ.:     0.4132113 α      in ANC's #5, #6, #8, ...

........................................................................
.............................. CYCLE   29 ..............................
........................................................................
   1    -38.2449592 -0.382450E+02  0.347E-01    1.52       0.0  T
   2    -38.2449566  0.261153E-05  0.205E-01    1.56       1.0  T
   3    -38.2444033  0.553227E-03  0.208E-01    1.49       1.0  T
   4    -38.2450724 -0.669096E-03  0.417E-02    1.53       1.0  T
   5    -38.2450853 -0.128335E-04  0.266E-02    1.53       1.0  T
   6    -38.2450860 -0.763955E-06  0.982E-03    1.53       1.8  T
   7    -38.2450876 -0.159500E-05  0.411E-03    1.53       4.4  T
   8    -38.2450877 -0.621619E-07  0.234E-03    1.53       7.7  T
   9    -38.2450877 -0.281305E-07  0.104E-03    1.53      17.3  T
  10    -38.2450877 -0.219142E-08  0.515E-04    1.53      34.9  T
  11    -38.2450877 -0.883787E-09  0.259E-04    1.53      69.3  T
     SCC iter.                  ...        0 min,  0.726 sec
     gradient                   ...        0 min,  0.123 sec
 * total energy  :   -37.6305897 Eh     change        0.1992625E-03 Eh
   gradient norm :     0.0543449 Eh/α   predicted    -0.1423095E-02 (-814.18%)
   displ. norm   :     0.2094040 α      lambda       -0.3404267E-02
   maximum displ.:     0.1004670 α      in ANC's #5, #1, #4, ...

........................................................................
.............................. CYCLE   30 ..............................
........................................................................
   1    -38.2633138 -0.382633E+02  0.212E-01    1.53       0.0  T
   2    -38.2632653  0.484399E-04  0.131E-01    1.48       1.0  T
   3    -38.2634092 -0.143890E-03  0.107E-01    1.52       1.0  T
   4    -38.2635423 -0.133028E-03  0.344E-02    1.51       1.0  T
   5    -38.2635476 -0.529735E-05  0.160E-02    1.51       1.1  T
   6    -38.2635476 -0.860604E-07  0.109E-02    1.51       1.7  T
   7    -38.2635482 -0.608556E-06  0.220E-03    1.51       8.2  T
   8    -38.2635483 -0.228251E-07  0.125E-03    1.51      14.4  T
   9    -38.2635483 -0.533904E-08  0.761E-04    1.51      23.6  T
  10    -38.2635483 -0.163328E-08  0.298E-04    1.51      60.3  T
     SCC iter.                  ...        0 min,  0.524 sec
     gradient                   ...        0 min,  0.121 sec
 * total energy  :   -37.6319481 Eh     change       -0.1358388E-02 Eh
   gradient norm :     0.0256665 Eh/α   predicted    -0.1776776E-02 (  30.80%)
   displ. norm   :     0.3184736 α      lambda       -0.2199309E-02
   maximum displ.:     0.1785387 α      in ANC's #7, #6, #8, ...

........................................................................
.............................. CYCLE   31 ..............................
........................................................................
   1    -38.2613987 -0.382614E+02  0.244E-01    1.48       0.0  T
   2    -38.2614254 -0.267452E-04  0.172E-01    1.51       1.0  T
   3    -38.2613311  0.943466E-04  0.108E-01    1.47       1.0  T
   4    -38.2614041 -0.730404E-04  0.462E-02    1.51       1.0  T
   5    -38.2614470 -0.429429E-04  0.263E-02    1.50       1.0  T
   6    -38.2614499 -0.287236E-05  0.904E-03    1.50       2.0  T
   7    -38.2614507 -0.791799E-06  0.411E-03    1.50       4.4  T
   8    -38.2614508 -0.765002E-07  0.196E-03    1.50       9.2  T
   9    -38.2614508 -0.492541E-07  0.935E-04    1.50      19.2  T
  10    -38.2614508 -0.877193E-09  0.501E-04    1.50      35.8  T
     SCC iter.                  ...        0 min,  0.539 sec
     gradient                   ...        0 min,  0.070 sec
 * total energy  :   -37.6303431 Eh     change        0.1605073E-02 Eh
   gradient norm :     0.0804881 Eh/α   predicted    -0.1211190E-02 (-175.46%)
   displ. norm   :     0.2060771 α      lambda       -0.4427091E-02
   maximum displ.:     0.1601864 α      in ANC's #8, #7, #9, ...

........................................................................
.............................. CYCLE   32 ..............................
........................................................................
   1    -38.2606194 -0.382606E+02  0.197E-01    1.52       0.0  T
   2    -38.2606350 -0.155561E-04  0.152E-01    1.50       1.0  T
   3    -38.2606105  0.244538E-04  0.455E-02    1.53       1.0  T
   4    -38.2606351 -0.245334E-04  0.283E-02    1.51       1.0  T
   5    -38.2606407 -0.567839E-05  0.181E-02    1.51       1.0  T
   6    -38.2606418 -0.107303E-05  0.848E-03    1.51       2.1  T
   7    -38.2606427 -0.892855E-06  0.305E-03    1.51       5.9  T
   8    -38.2606428 -0.569132E-07  0.141E-03    1.51      12.8  T
   9    -38.2606428 -0.323539E-07  0.559E-04    1.51      32.1  T
  10    -38.2606428 -0.351328E-09  0.232E-04    1.51      77.5  T
     SCC iter.                  ...        0 min,  0.862 sec
     gradient                   ...        0 min,  0.190 sec
 * total energy  :   -37.6326541 Eh     change       -0.2311047E-02 Eh
   gradient norm :     0.0122005 Eh/α   predicted    -0.2307555E-02 (  -0.15%)
   displ. norm   :     0.3183896 α      lambda       -0.6218902E-03
   maximum displ.:     0.1516624 α      in ANC's #6, #8, #5, ...

........................................................................
.............................. CYCLE   33 ..............................
........................................................................
   1    -38.2595076 -0.382595E+02  0.159E-01    1.51       0.0  T
   2    -38.2595125 -0.491382E-05  0.112E-01    1.52       1.0  T
   3    -38.2594743  0.382123E-04  0.368E-02    1.51       1.0  T
   4    -38.2595160 -0.417752E-04  0.160E-02    1.52       1.1  T
   5    -38.2595159  0.161751E-06  0.949E-03    1.52       1.9  T
   6    -38.2595170 -0.114859E-05  0.515E-03    1.52       3.5  T
   7    -38.2595173 -0.288380E-06  0.236E-03    1.52       7.6  T
   8    -38.2595173 -0.159387E-07  0.102E-03    1.52      17.6  T
   9    -38.2595173 -0.499979E-08  0.508E-04    1.52      35.3  T
  10    -38.2595173 -0.111199E-08  0.214E-04    1.52      83.8  T
     SCC iter.                  ...        0 min,  0.933 sec
     gradient                   ...        0 min,  0.215 sec
 * total energy  :   -37.6328396 Eh     change       -0.1855376E-03 Eh
   gradient norm :     0.0230418 Eh/α   predicted    -0.3424728E-03 (  84.58%)
   displ. norm   :     0.1511344 α      lambda       -0.4909164E-03
   maximum displ.:     0.0756000 α      in ANC's #6, #5, #8, ...

........................................................................
.............................. CYCLE   34 ..............................
........................................................................
   1    -38.2602878 -0.382603E+02  0.691E-02    1.52       0.0  T
   2    -38.2602892 -0.142486E-05  0.449E-02    1.51       1.0  T
   3    -38.2602837  0.553807E-05  0.146E-02    1.52       1.2  T
   4    -38.2602901 -0.638477E-05  0.531E-03    1.52       3.4  T
   5    -38.2602902 -0.780939E-07  0.301E-03    1.52       6.0  T
   6    -38.2602902 -0.818638E-08  0.121E-03    1.52      14.9  T
   7    -38.2602902 -0.156070E-07  0.682E-04    1.52      26.3  T
   8    -38.2602902 -0.264068E-08  0.432E-04    1.52      41.6  T
     SCC iter.                  ...        0 min,  0.863 sec
     gradient                   ...        0 min,  0.146 sec
 * total energy  :   -37.6331948 Eh     change       -0.3551538E-03 Eh
   gradient norm :     0.0105674 Eh/α   predicted    -0.2510683E-03 ( -29.31%)
   displ. norm   :     0.2504412 α      lambda       -0.4751754E-03
   maximum displ.:     0.1138537 α      in ANC's #6, #56, #5, ...

........................................................................
.............................. CYCLE   35 ..............................
........................................................................
   1    -38.2634544 -0.382635E+02  0.113E-01    1.52       0.0  T
   2    -38.2634563 -0.184664E-05  0.755E-02    1.51       1.0  T
   3    -38.2634035  0.528189E-04  0.506E-02    1.53       1.0  T
   4    -38.2634625 -0.590554E-04  0.119E-02    1.52       1.5  T
   5    -38.2634649 -0.234146E-05  0.576E-03    1.52       3.1  T
   6    -38.2634649 -0.429037E-07  0.252E-03    1.52       7.1  T
   7    -38.2634650 -0.694263E-07  0.120E-03    1.52      15.0  T
   8    -38.2634650  0.211969E-09  0.945E-04    1.52      19.0  T
   9    -38.2634650 -0.152912E-08  0.318E-04    1.52      56.4  T
     SCC iter.                  ...        0 min,  0.756 sec
     gradient                   ...        0 min,  0.004 sec
 * total energy  :   -37.6334959 Eh     change       -0.3010727E-03 Eh
   gradient norm :     0.0099853 Eh/α   predicted    -0.2524904E-03 ( -16.14%)
   displ. norm   :     0.3945010 α      lambda       -0.3395319E-03
   maximum displ.:     0.1794297 α      in ANC's #6, #5, #8, ...

........................................................................
.............................. CYCLE   36 ..............................
........................................................................
   1    -38.2611405 -0.382611E+02  0.196E-01    1.52       0.0  T
   2    -38.2611449 -0.437462E-05  0.127E-01    1.52       1.0  T
   3    -38.2611196  0.252347E-04  0.400E-02    1.52       1.0  T
   4    -38.2611471 -0.275065E-04  0.150E-02    1.52       1.2  T
   5    -38.2611471  0.550025E-07  0.130E-02    1.52       1.4  T
   6    -38.2611487 -0.163133E-05  0.486E-03    1.52       3.7  T
   7    -38.2611488 -0.103798E-06  0.241E-03    1.52       7.4  T
   8    -38.2611488  0.620105E-08  0.151E-03    1.52      11.9  T
   9    -38.2611488 -0.134622E-07  0.680E-04    1.52      26.4  T
  10    -38.2611488 -0.132950E-08  0.215E-04    1.52      83.6  T
     SCC iter.                  ...        0 min,  0.704 sec
     gradient                   ...        0 min,  0.106 sec
 * total energy  :   -37.6335892 Eh     change       -0.9337772E-04 Eh
   gradient norm :     0.0121173 Eh/α   predicted    -0.1961924E-03 ( 110.11%)
   displ. norm   :     0.0810779 α      lambda       -0.3206189E-03
   maximum displ.:     0.0385392 α      in ANC's #5, #6, #3, ...

........................................................................
.............................. CYCLE   37 ..............................
........................................................................
   1    -38.2666754 -0.382667E+02  0.548E-02    1.53       0.0  T
   2    -38.2666774 -0.192363E-05  0.348E-02    1.51       1.0  T
   3    -38.2666747  0.267294E-05  0.307E-02    1.53       1.0  T
   4    -38.2666838 -0.912676E-05  0.931E-03    1.52       1.9  T
   5    -38.2666849 -0.107246E-05  0.645E-03    1.52       2.8  T
   6    -38.2666849 -0.428235E-07  0.410E-03    1.52       4.4  T
   7    -38.2666851 -0.132019E-06  0.119E-03    1.52      15.1  T
   8    -38.2666851 -0.664015E-08  0.578E-04    1.52      31.1  T
   9    -38.2666851 -0.238777E-08  0.213E-04    1.52      84.5  T
     SCC iter.                  ...        0 min,  0.982 sec
     gradient                   ...        0 min,  0.151 sec
 * total energy  :   -37.6337158 Eh     change       -0.1265706E-03 Eh
   gradient norm :     0.0071660 Eh/α   predicted    -0.1613620E-03 (  27.49%)
   displ. norm   :     0.1306770 α      lambda       -0.1654202E-03
   maximum displ.:     0.0665660 α      in ANC's #8, #10, #6, ...

........................................................................
.............................. CYCLE   38 ..............................
........................................................................
   1    -38.2639247 -0.382639E+02  0.642E-02    1.52       0.0  T
   2    -38.2639247  0.808129E-07  0.384E-02    1.52       1.0  T
   3    -38.2639074  0.172645E-04  0.340E-02    1.53       1.0  T
   4    -38.2639296 -0.222314E-04  0.897E-03    1.52       2.0  T
   5    -38.2639300 -0.395543E-06  0.462E-03    1.52       3.9  T
   6    -38.2639300  0.455723E-07  0.230E-03    1.52       7.8  T
   7    -38.2639300 -0.631736E-07  0.567E-04    1.52      31.7  T
   8    -38.2639300 -0.363794E-08  0.309E-04    1.52      58.1  T
     SCC iter.                  ...        0 min,  0.722 sec
     gradient                   ...        0 min,  0.119 sec
 * total energy  :   -37.6337425 Eh     change       -0.2669500E-04 Eh
   gradient norm :     0.0076336 Eh/α   predicted    -0.8412545E-04 ( 215.14%)
   displ. norm   :     0.0623351 α      lambda       -0.1126486E-03
   maximum displ.:     0.0327766 α      in ANC's #7, #5, #3, ...

........................................................................
.............................. CYCLE   39 ..............................
........................................................................
   1    -38.2642883 -0.382643E+02  0.403E-02    1.52       0.0  T
   2    -38.2642881  0.245215E-06  0.239E-02    1.53       1.0  T
   3    -38.2642804  0.766780E-05  0.243E-02    1.52       1.0  T
   4    -38.2642899 -0.943423E-05  0.321E-03    1.52       5.6  T
   5    -38.2642899 -0.872477E-07  0.190E-03    1.52       9.5  T
   6    -38.2642900 -0.106074E-07  0.773E-04    1.52      23.2  T
   7    -38.2642900 -0.482435E-08  0.491E-04    1.52      36.6  T
     SCC iter.                  ...        0 min,  0.524 sec
     gradient                   ...        0 min,  0.214 sec
 * total energy  :   -37.6338100 Eh     change       -0.6746310E-04 Eh
   gradient norm :     0.0041859 Eh/α   predicted    -0.5654688E-04 ( -16.18%)
   displ. norm   :     0.0662004 α      lambda       -0.4663341E-04
   maximum displ.:     0.0364590 α      in ANC's #3, #7, #8, ...

........................................................................
.............................. CYCLE   40 ..............................
........................................................................
   1    -38.2646262 -0.382646E+02  0.327E-02    1.53       0.0  T
   2    -38.2646264 -0.230333E-06  0.192E-02    1.52       1.0  T
   3    -38.2646249  0.152427E-05  0.115E-02    1.53       1.6  T
   4    -38.2646266 -0.167633E-05  0.343E-03    1.52       5.2  T
   5    -38.2646266 -0.637387E-07  0.251E-03    1.52       7.1  T
   6    -38.2646267 -0.390773E-07  0.834E-04    1.52      21.5  T
   7    -38.2646267 -0.451386E-08  0.359E-04    1.52      50.1  T
     SCC iter.                  ...        0 min,  0.543 sec
     gradient                   ...        0 min,  0.097 sec
 * total energy  :   -37.6338396 Eh     change       -0.2958342E-04 Eh
   gradient norm :     0.0029133 Eh/α   predicted    -0.2342107E-04 ( -20.83%)
   displ. norm   :     0.1621907 α      lambda       -0.6377922E-04
   maximum displ.:     0.0835902 α      in ANC's #3, #8, #2, ...

........................................................................
.............................. CYCLE   41 ..............................
........................................................................
   1    -38.2639914 -0.382640E+02  0.785E-02    1.53       0.0  T
   2    -38.2639915 -0.146461E-06  0.474E-02    1.53       1.0  T
   3    -38.2639702  0.212987E-04  0.370E-02    1.52       1.0  T
   4    -38.2639936 -0.233339E-04  0.690E-03    1.53       2.6  T
   5    -38.2639940 -0.459360E-06  0.335E-03    1.53       5.4  T
   6    -38.2639940 -0.390415E-08  0.130E-03    1.53      13.8  T
   7    -38.2639940 -0.139087E-07  0.830E-04    1.53      21.6  T
   8    -38.2639940 -0.102729E-08  0.475E-04    1.53      37.8  T
     SCC iter.                  ...        0 min,  0.594 sec
     gradient                   ...        0 min,  0.133 sec
 * total energy  :   -37.6338756 Eh     change       -0.3608415E-04 Eh
   gradient norm :     0.0043041 Eh/α   predicted    -0.3273189E-04 (  -9.29%)
   displ. norm   :     0.1333215 α      lambda       -0.5171184E-04
   maximum displ.:     0.0852047 α      in ANC's #3, #2, #7, ...

........................................................................
.............................. CYCLE   42 ..............................
........................................................................
   1    -38.2640926 -0.382641E+02  0.497E-02    1.53       0.0  T
   2    -38.2640932 -0.512107E-06  0.297E-02    1.53       1.0  T
   3    -38.2640917  0.141337E-05  0.140E-02    1.53       1.3  T
   4    -38.2640933 -0.156082E-05  0.468E-03    1.53       3.8  T
   5    -38.2640935 -0.159401E-06  0.284E-03    1.53       6.3  T
   6    -38.2640935 -0.398828E-07  0.957E-04    1.53      18.8  T
   7    -38.2640935 -0.565334E-08  0.520E-04    1.53      34.5  T
     SCC iter.                  ...        0 min,  0.467 sec
     gradient                   ...        0 min,  0.075 sec
 * total energy  :   -37.6339085 Eh     change       -0.3290217E-04 Eh
   gradient norm :     0.0031068 Eh/α   predicted    -0.2631684E-04 ( -20.01%)
   displ. norm   :     0.1310223 α      lambda       -0.4518409E-04
   maximum displ.:     0.0900109 α      in ANC's #3, #2, #56, ...
 * RMSD in coord.:     0.9013184 α      energy gain  -0.1661768E-01 Eh

generating ANC from model Hessian ...
Using Lindh-Hessian (1995)
 Shifting diagonal of input Hessian by    1.1240876939377755E-002
 Lowest  eigenvalues of input Hessian
    0.010000    0.011090    0.000000    0.000000    0.000000    0.000000
    0.000000    0.000000    0.011586    0.012290    0.012432    0.012925
    0.013623    0.014626    0.017233    0.017463    0.018991    0.019314
 Highest eigenvalues
    1.733143    1.734356    2.021729    2.210124    3.447465    4.009607


........................................................................
.............................. CYCLE   43 ..............................
........................................................................
   1    -38.2640752 -0.382641E+02  0.445E-02    1.53       0.0  T
   2    -38.2640755 -0.292554E-06  0.270E-02    1.53       1.0  T
   3    -38.2640740  0.150681E-05  0.123E-02    1.53       1.5  T
   4    -38.2640757 -0.168766E-05  0.335E-03    1.53       5.4  T
   5    -38.2640757 -0.145168E-07  0.248E-03    1.53       7.2  T
   6    -38.2640758 -0.538901E-07  0.711E-04    1.53      25.2  T
   7    -38.2640758 -0.251222E-08  0.411E-04    1.53      43.7  T
     SCC iter.                  ...        0 min,  0.622 sec
     gradient                   ...        0 min,  0.032 sec
 * total energy  :   -37.6339405 Eh     change       -0.3195674E-04 Eh
   gradient norm :     0.0028974 Eh/α   predicted     0.0000000E+00 (-100.00%)
   displ. norm   :     0.0393543 α      lambda       -0.7721042E-08
   maximum displ.:     0.0186411 α      in ANC's #2, #3, #6, ...

........................................................................
.............................. CYCLE   44 ..............................
........................................................................
   1    -38.2642870 -0.382643E+02  0.110E-02    1.53       0.0  T
   2    -38.2642871 -0.105210E-06  0.671E-03    1.53       2.7  T
   3    -38.2642869  0.192216E-06  0.461E-03    1.53       3.9  T
   4    -38.2642872 -0.265780E-06  0.182E-03    1.53       9.9  T
   5    -38.2642872 -0.546156E-07  0.120E-03    1.53      15.0  T
   6    -38.2642872 -0.233616E-08  0.356E-04    1.53      50.4  T
   7    -38.2642873 -0.168647E-08  0.189E-04    1.53      95.1  T
     SCC iter.                  ...        0 min,  0.399 sec
     gradient                   ...        0 min,  0.200 sec
 * total energy  :   -37.6339650 Eh     change       -0.2448823E-04 Eh
   gradient norm :     0.0009932 Eh/α   predicted    -0.1534326E-04 ( -37.34%)
   displ. norm   :     0.1783393 α      lambda       -0.5720832E-04
   maximum displ.:     0.0965938 α      in ANC's #2, #3, #5, ...

........................................................................
.............................. CYCLE   45 ..............................
........................................................................
   1    -38.2646647 -0.382647E+02  0.484E-02    1.52       0.0  T
   2    -38.2646661 -0.134493E-05  0.271E-02    1.52       1.0  T
   3    -38.2646632  0.284096E-05  0.169E-02    1.52       1.1  T
   4    -38.2646666 -0.341347E-05  0.577E-03    1.52       3.1  T
   5    -38.2646671 -0.443347E-06  0.325E-03    1.52       5.5  T
   6    -38.2646671 -0.124216E-07  0.100E-03    1.52      17.9  T
   7    -38.2646671 -0.980408E-08  0.722E-04    1.52      24.9  T
   8    -38.2646671 -0.177833E-08  0.418E-04    1.52      43.0  T
     SCC iter.                  ...        0 min,  0.566 sec
     gradient                   ...        0 min,  0.143 sec
 * total energy  :   -37.6340038 Eh     change       -0.3877784E-04 Eh
   gradient norm :     0.0044504 Eh/α   predicted    -0.2901108E-04 ( -25.19%)
   displ. norm   :     0.0787559 α      lambda       -0.3821572E-04
   maximum displ.:     0.0458739 α      in ANC's #3, #2, #7, ...

........................................................................
.............................. CYCLE   46 ..............................
........................................................................
   1    -38.2646063 -0.382646E+02  0.249E-02    1.52       0.0  T
   2    -38.2646064 -0.676371E-07  0.159E-02    1.52       1.1  T
   3    -38.2646059  0.462199E-06  0.564E-03    1.52       3.2  T
   4    -38.2646064 -0.472201E-06  0.194E-03    1.52       9.3  T
   5    -38.2646064 -0.137304E-07  0.155E-03    1.52      11.6  T
   6    -38.2646064 -0.303604E-07  0.379E-04    1.52      47.4  T
   7    -38.2646064 -0.847258E-09  0.108E-04    1.52     166.4  T
     SCC iter.                  ...        0 min,  0.382 sec
     gradient                   ...        0 min,  0.072 sec
 * total energy  :   -37.6340319 Eh     change       -0.2817904E-04 Eh
   gradient norm :     0.0035777 Eh/α   predicted    -0.1924637E-04 ( -31.70%)
   displ. norm   :     0.1227864 α      lambda       -0.6443873E-04
   maximum displ.:     0.0749264 α      in ANC's #2, #3, #7, ...

........................................................................
.............................. CYCLE   47 ..............................
........................................................................
   1    -38.2643427 -0.382643E+02  0.382E-02    1.52       0.0  T
   2    -38.2643428 -0.165046E-06  0.242E-02    1.52       1.0  T
   3    -38.2643403  0.256564E-05  0.126E-02    1.52       1.4  T
   4    -38.2643430 -0.267335E-05  0.295E-03    1.52       6.1  T
   5    -38.2643431 -0.945972E-07  0.193E-03    1.52       9.3  T
   6    -38.2643431 -0.215569E-07  0.781E-04    1.52      23.0  T
   7    -38.2643431 -0.576544E-08  0.236E-04    1.52      76.1  T
     SCC iter.                  ...        0 min,  0.376 sec
     gradient                   ...        0 min,  0.024 sec
 * total energy  :   -37.6340892 Eh     change       -0.5725878E-04 Eh
   gradient norm :     0.0015686 Eh/α   predicted    -0.3270985E-04 ( -42.87%)
   displ. norm   :     0.4373912 α      lambda       -0.1315882E-03
   maximum displ.:     0.2675240 α      in ANC's #3, #2, #7, ...

........................................................................
.............................. CYCLE   48 ..............................
........................................................................
   1    -38.2621690 -0.382622E+02  0.129E-01    1.52       0.0  T
   2    -38.2621707 -0.166297E-05  0.835E-02    1.52       1.0  T
   3    -38.2621618  0.888849E-05  0.238E-02    1.52       1.0  T
   4    -38.2621718 -0.993522E-05  0.773E-03    1.52       2.3  T
   5    -38.2621717  0.368437E-07  0.517E-03    1.52       3.5  T
   6    -38.2621718 -0.969560E-07  0.196E-03    1.52       9.2  T
   7    -38.2621719 -0.748757E-07  0.985E-04    1.52      18.2  T
   8    -38.2621719 -0.900548E-08  0.492E-04    1.52      36.5  T
     SCC iter.                  ...        0 min,  0.331 sec
     gradient                   ...        0 min,  0.095 sec
 * total energy  :   -37.6342368 Eh     change       -0.1476198E-03 Eh
   gradient norm :     0.0055935 Eh/α   predicted    -0.7138968E-04 ( -51.64%)
   displ. norm   :     0.2889412 α      lambda       -0.1095549E-03
   maximum displ.:     0.1799398 α      in ANC's #3, #2, #7, ...

........................................................................
.............................. CYCLE   49 ..............................
........................................................................
   1    -38.2612194 -0.382612E+02  0.736E-02    1.52       0.0  T
   2    -38.2612197 -0.277545E-06  0.486E-02    1.52       1.0  T
   3    -38.2612122  0.750572E-05  0.176E-02    1.51       1.0  T
   4    -38.2612200 -0.777059E-05  0.598E-03    1.52       3.0  T
   5    -38.2612201 -0.172972E-06  0.324E-03    1.52       5.5  T
   6    -38.2612202 -0.692021E-07  0.965E-04    1.52      18.6  T
   7    -38.2612202 -0.979092E-08  0.532E-04    1.52      33.8  T
     SCC iter.                  ...        0 min,  0.330 sec
     gradient                   ...        0 min,  0.080 sec
 * total energy  :   -37.6343347 Eh     change       -0.9787898E-04 Eh
   gradient norm :     0.0065012 Eh/α   predicted    -0.5935130E-04 ( -39.36%)
   displ. norm   :     0.4442329 α      lambda       -0.2042486E-03
   maximum displ.:     0.2810458 α      in ANC's #3, #2, #7, ...

........................................................................
.............................. CYCLE   50 ..............................
........................................................................
   1    -38.2605313 -0.382605E+02  0.101E-01    1.51       0.0  T
   2    -38.2605319 -0.561407E-06  0.682E-02    1.52       1.0  T
   3    -38.2604990  0.329102E-04  0.359E-02    1.51       1.0  T
   4    -38.2605333 -0.342943E-04  0.101E-02    1.52       1.8  T
   5    -38.2605342 -0.897568E-06  0.551E-03    1.52       3.3  T
   6    -38.2605343 -0.834946E-07  0.146E-03    1.52      12.3  T
   7    -38.2605343 -0.785734E-08  0.833E-04    1.52      21.6  T
   8    -38.2605343  0.142862E-08  0.582E-04    1.52      30.8  T
     SCC iter.                  ...        0 min,  0.551 sec
     gradient                   ...        0 min,  0.024 sec
 * total energy  :   -37.6344990 Eh     change       -0.1642517E-03 Eh
   gradient norm :     0.0062081 Eh/α   predicted    -0.1222784E-03 ( -25.55%)
   displ. norm   :     0.4323192 α      lambda       -0.2190601E-03
   maximum displ.:     0.2844110 α      in ANC's #3, #2, #7, ...

........................................................................
.............................. CYCLE   51 ..............................
........................................................................
   1    -38.2614849 -0.382615E+02  0.841E-02    1.51       0.0  T
   2    -38.2614861 -0.117462E-05  0.564E-02    1.52       1.0  T
   3    -38.2614605  0.255166E-04  0.342E-02    1.51       1.0  T
   4    -38.2614877 -0.271867E-04  0.116E-02    1.52       1.5  T
   5    -38.2614894 -0.164820E-05  0.601E-03    1.52       3.0  T
   6    -38.2614894 -0.582007E-07  0.233E-03    1.52       7.7  T
   7    -38.2614895 -0.483218E-07  0.839E-04    1.52      21.4  T
   8    -38.2614895 -0.365077E-09  0.719E-04    1.52      25.0  T
     SCC iter.                  ...        0 min,  0.653 sec
     gradient                   ...        0 min,  0.177 sec
 * total energy  :   -37.6346609 Eh     change       -0.1619254E-03 Eh
   gradient norm :     0.0045803 Eh/α   predicted    -0.1300025E-03 ( -19.71%)
   displ. norm   :     0.2941617 α      lambda       -0.1703303E-03
   maximum displ.:     0.2057360 α      in ANC's #3, #2, #6, ...

........................................................................
.............................. CYCLE   52 ..............................
........................................................................
   1    -38.2651063 -0.382651E+02  0.557E-02    1.51       0.0  T
   2    -38.2651080 -0.167847E-05  0.337E-02    1.51       1.0  T
   3    -38.2651006  0.739337E-05  0.234E-02    1.51       1.0  T
   4    -38.2651094 -0.874711E-05  0.844E-03    1.52       2.1  T
   5    -38.2651103 -0.936090E-06  0.412E-03    1.51       4.4  T
   6    -38.2651103 -0.955561E-08  0.244E-03    1.52       7.4  T
   7    -38.2651103 -0.312615E-07  0.727E-04    1.51      24.7  T
   8    -38.2651104 -0.386774E-08  0.520E-04    1.52      34.5  T
     SCC iter.                  ...        0 min,  0.505 sec
     gradient                   ...        0 min,  0.027 sec
 * total energy  :   -37.6347768 Eh     change       -0.1159645E-03 Eh
   gradient norm :     0.0035051 Eh/α   predicted    -0.9253774E-04 ( -20.20%)
   displ. norm   :     0.5447393 α      lambda       -0.1492091E-03
   maximum displ.:     0.3817667 α      in ANC's #3, #2, #7, ...

........................................................................
.............................. CYCLE   53 ..............................
........................................................................
   1    -38.2603645 -0.382604E+02  0.104E-01    1.51       0.0  T
   2    -38.2603669 -0.240238E-05  0.674E-02    1.51       1.0  T
   3    -38.2603342  0.327266E-04  0.420E-02    1.51       1.0  T
   4    -38.2603693 -0.350612E-04  0.143E-02    1.51       1.3  T
   5    -38.2603714 -0.212548E-05  0.705E-03    1.51       2.5  T
   6    -38.2603714  0.549900E-07  0.248E-03    1.51       7.2  T
   7    -38.2603715 -0.112880E-06  0.837E-04    1.51      21.5  T
   8    -38.2603715  0.125503E-09  0.569E-04    1.51      31.5  T
     SCC iter.                  ...        0 min,  0.401 sec
     gradient                   ...        0 min,  0.088 sec
 * total energy  :   -37.6348007 Eh     change       -0.2385029E-04 Eh
   gradient norm :     0.0093173 Eh/α   predicted    -0.9674363E-04 ( 305.63%)
   displ. norm   :     0.0985547 α      lambda       -0.1707437E-03
   maximum displ.:     0.0551476 α      in ANC's #2, #7, #4, ...

........................................................................
.............................. CYCLE   54 ..............................
........................................................................
   1    -38.2653227 -0.382653E+02  0.409E-02    1.52       0.0  T
   2    -38.2653230 -0.362074E-06  0.273E-02    1.51       1.0  T
   3    -38.2653182  0.485442E-05  0.153E-02    1.52       1.2  T
   4    -38.2653234 -0.521631E-05  0.484E-03    1.51       3.7  T
   5    -38.2653236 -0.185565E-06  0.279E-03    1.51       6.4  T
   6    -38.2653236  0.672179E-08  0.135E-03    1.51      13.3  T
   7    -38.2653236 -0.167036E-07  0.475E-04    1.51      37.9  T
   8    -38.2653236 -0.166952E-08  0.314E-04    1.51      57.3  T
     SCC iter.                  ...        0 min,  0.512 sec
     gradient                   ...        0 min,  0.046 sec
 * total energy  :   -37.6348957 Eh     change       -0.9504892E-04 Eh
   gradient norm :     0.0027087 Eh/α   predicted    -0.8620273E-04 (  -9.31%)
   displ. norm   :     0.1924920 α      lambda       -0.5723666E-04
   maximum displ.:     0.1528763 α      in ANC's #3, #2, #5, ...

........................................................................
.............................. CYCLE   55 ..............................
........................................................................
   1    -38.2657574 -0.382658E+02  0.375E-02    1.51       0.0  T
   2    -38.2657576 -0.223291E-06  0.255E-02    1.51       1.0  T
   3    -38.2657533  0.430068E-05  0.128E-02    1.51       1.4  T
   4    -38.2657578 -0.446326E-05  0.394E-03    1.51       4.6  T
   5    -38.2657580 -0.230620E-06  0.200E-03    1.51       9.0  T
   6    -38.2657580 -0.299939E-08  0.838E-04    1.51      21.4  T
   7    -38.2657580 -0.996082E-08  0.367E-04    1.51      49.0  T
     SCC iter.                  ...        0 min,  0.363 sec
     gradient                   ...        0 min,  0.044 sec
 * total energy  :   -37.6349459 Eh     change       -0.5016026E-04 Eh
   gradient norm :     0.0044845 Eh/α   predicted    -0.2967942E-04 ( -40.83%)
   displ. norm   :     0.5345610 α      lambda       -0.1694240E-03
   maximum displ.:     0.4317539 α      in ANC's #3, #2, #5, ...

........................................................................
.............................. CYCLE   56 ..............................
........................................................................
   1    -38.2640963 -0.382641E+02  0.995E-02    1.51       0.0  T
   2    -38.2640977 -0.141428E-05  0.687E-02    1.52       1.0  T
   3    -38.2640669  0.308478E-04  0.332E-02    1.51       1.0  T
   4    -38.2640983 -0.314116E-04  0.111E-02    1.52       1.6  T
   5    -38.2641000 -0.176462E-05  0.571E-03    1.51       3.1  T
   6    -38.2641001 -0.504924E-07  0.184E-03    1.52       9.8  T
   7    -38.2641001 -0.409322E-07  0.959E-04    1.51      18.7  T
   8    -38.2641001 -0.333198E-08  0.656E-04    1.52      27.4  T
     SCC iter.                  ...        0 min,  0.480 sec
     gradient                   ...        0 min,  0.119 sec
 * total energy  :   -37.6350762 Eh     change       -0.1303237E-03 Eh
   gradient norm :     0.0052856 Eh/α   predicted    -0.1089192E-03 ( -16.42%)
   displ. norm   :     0.4043938 α      lambda       -0.1584444E-03
   maximum displ.:     0.3300659 α      in ANC's #3, #2, #4, ...

........................................................................
.............................. CYCLE   57 ..............................
........................................................................
   1    -38.2636681 -0.382637E+02  0.765E-02    1.52       0.0  T
   2    -38.2636695 -0.145981E-05  0.525E-02    1.52       1.0  T
   3    -38.2636608  0.875938E-05  0.178E-02    1.52       1.0  T
   4    -38.2636693 -0.850137E-05  0.879E-03    1.52       2.0  T
   5    -38.2636705 -0.118020E-05  0.493E-03    1.52       3.6  T
   6    -38.2636706 -0.107257E-06  0.147E-03    1.52      12.2  T
   7    -38.2636706 -0.151116E-07  0.660E-04    1.52      27.2  T
   8    -38.2636706 -0.880149E-10  0.461E-04    1.52      39.0  T
     SCC iter.                  ...        0 min,  0.263 sec
     gradient                   ...        0 min,  0.067 sec
 * total energy  :   -37.6351933 Eh     change       -0.1170338E-03 Eh
   gradient norm :     0.0054883 Eh/α   predicted    -0.9217972E-04 ( -21.24%)
   displ. norm   :     0.3444466 α      lambda       -0.1500706E-03
   maximum displ.:     0.2607118 α      in ANC's #3, #1, #7, ...

........................................................................
.............................. CYCLE   58 ..............................
........................................................................
   1    -38.2646574 -0.382647E+02  0.658E-02    1.53       0.0  T
   2    -38.2646585 -0.111449E-05  0.427E-02    1.52       1.0  T
   3    -38.2646542  0.436244E-05  0.136E-02    1.53       1.3  T
   4    -38.2646589 -0.477294E-05  0.597E-03    1.52       3.0  T
   5    -38.2646591 -0.198779E-06  0.402E-03    1.52       4.5  T
   6    -38.2646592 -0.108203E-06  0.133E-03    1.52      13.5  T
   7    -38.2646593 -0.289126E-07  0.548E-04    1.52      32.8  T
   8    -38.2646593 -0.125471E-08  0.322E-04    1.52      55.8  T
     SCC iter.                  ...        0 min,  0.452 sec
     gradient                   ...        0 min,  0.020 sec
 * total energy  :   -37.6353106 Eh     change       -0.1173510E-03 Eh
   gradient norm :     0.0051039 Eh/α   predicted    -0.8393895E-04 ( -28.47%)
   displ. norm   :     0.5450060 α      lambda       -0.1858866E-03
   maximum displ.:     0.4234492 α      in ANC's #3, #2, #1, ...

........................................................................
.............................. CYCLE   59 ..............................
........................................................................
   1    -38.2608071 -0.382608E+02  0.100E-01    1.53       0.0  T
   2    -38.2608090 -0.191167E-05  0.621E-02    1.53       1.0  T
   3    -38.2608036  0.545219E-05  0.195E-02    1.53       1.0  T
   4    -38.2608094 -0.581503E-05  0.839E-03    1.53       2.1  T
   5    -38.2608099 -0.466027E-06  0.536E-03    1.53       3.4  T
   6    -38.2608099 -0.721924E-07  0.170E-03    1.53      10.6  T
   7    -38.2608100 -0.357947E-07  0.680E-04    1.53      26.4  T
   8    -38.2608100 -0.260806E-08  0.383E-04    1.53      46.9  T
     SCC iter.                  ...        0 min,  0.564 sec
     gradient                   ...        0 min,  0.018 sec
 * total energy  :   -37.6354027 Eh     change       -0.9208469E-04 Eh
   gradient norm :     0.0063819 Eh/α   predicted    -0.1205508E-03 (  30.91%)
   displ. norm   :     0.4226660 α      lambda       -0.3639009E-03
   maximum displ.:     0.2550018 α      in ANC's #1, #7, #8, ...

........................................................................
.............................. CYCLE   60 ..............................
........................................................................
   1    -38.2695207 -0.382695E+02  0.122E-01    1.53       0.0  T
   2    -38.2695205  0.203744E-06  0.804E-02    1.53       1.0  T
   3    -38.2694370  0.835602E-04  0.593E-02    1.54       1.0  T
   4    -38.2695319 -0.949609E-04  0.141E-02    1.53       1.3  T
   5    -38.2695328 -0.914125E-06  0.100E-02    1.53       1.8  T
   6    -38.2695328  0.215479E-09  0.369E-03    1.53       4.9  T
   7    -38.2695331 -0.267839E-06  0.144E-03    1.53      12.5  T
   8    -38.2695331 -0.690773E-08  0.894E-04    1.53      20.1  T
   9    -38.2695331 -0.536080E-08  0.353E-04    1.53      50.9  T
     SCC iter.                  ...        0 min,  0.600 sec
     gradient                   ...        0 min,  0.067 sec
 * total energy  :   -37.6353273 Eh     change        0.7536143E-04 Eh
   gradient norm :     0.0198031 Eh/α   predicted    -0.2144566E-03 (-384.57%)
   displ. norm   :     0.1976192 α      lambda       -0.4421479E-03
   maximum displ.:     0.1128301 α      in ANC's #1, #7, #10, ...

........................................................................
.............................. CYCLE   61 ..............................
........................................................................
   1    -38.2670822 -0.382671E+02  0.566E-02    1.52       0.0  T
   2    -38.2670832 -0.100538E-05  0.346E-02    1.53       1.0  T
   3    -38.2670704  0.128511E-04  0.263E-02    1.52       1.0  T
   4    -38.2670856 -0.152133E-04  0.796E-03    1.53       2.3  T
   5    -38.2670861 -0.510120E-06  0.517E-03    1.53       3.5  T
   6    -38.2670860  0.948420E-07  0.241E-03    1.53       7.5  T
   7    -38.2670861 -0.105059E-06  0.810E-04    1.53      22.2  T
   8    -38.2670861 -0.472621E-08  0.614E-04    1.53      29.3  T
     SCC iter.                  ...        0 min,  0.426 sec
     gradient                   ...        0 min,  0.068 sec
 * total energy  :   -37.6355497 Eh     change       -0.2223225E-03 Eh
   gradient norm :     0.0036552 Eh/α   predicted    -0.2297085E-03 (   3.32%)
   displ. norm   :     0.2125889 α      lambda       -0.6983175E-04
   maximum displ.:     0.1617393 α      in ANC's #3, #1, #8, ...

........................................................................
.............................. CYCLE   62 ..............................
........................................................................
   1    -38.2638661 -0.382639E+02  0.445E-02    1.53       0.0  T
   2    -38.2638666 -0.464465E-06  0.279E-02    1.53       1.0  T
   3    -38.2638650  0.151716E-05  0.903E-03    1.53       2.0  T
   4    -38.2638668 -0.172841E-05  0.324E-03    1.53       5.5  T
   5    -38.2638668 -0.328942E-07  0.189E-03    1.53       9.5  T
   6    -38.2638668  0.408572E-08  0.100E-03    1.53      17.9  T
   7    -38.2638668 -0.138661E-07  0.339E-04    1.53      53.0  T
   8    -38.2638668 -0.167379E-08  0.220E-04    1.53      81.5  T
     SCC iter.                  ...        0 min,  0.330 sec
     gradient                   ...        0 min,  0.075 sec
 * total energy  :   -37.6355949 Eh     change       -0.4522520E-04 Eh
   gradient norm :     0.0047838 Eh/α   predicted    -0.3649601E-04 ( -19.30%)
   displ. norm   :     0.2057068 α      lambda       -0.1041725E-03
   maximum displ.:     0.1257982 α      in ANC's #8, #1, #3, ...

........................................................................
.............................. CYCLE   63 ..............................
........................................................................
   1    -38.2636786 -0.382637E+02  0.503E-02    1.53       0.0  T
   2    -38.2636792 -0.646607E-06  0.305E-02    1.52       1.0  T
   3    -38.2636756  0.358848E-05  0.139E-02    1.53       1.3  T
   4    -38.2636799 -0.422342E-05  0.302E-03    1.53       5.9  T
   5    -38.2636799 -0.123708E-08  0.179E-03    1.53      10.1  T
   6    -38.2636799 -0.106322E-07  0.551E-04    1.53      32.6  T
   7    -38.2636799 -0.355297E-08  0.337E-04    1.53      53.3  T
     SCC iter.                  ...        0 min,  0.462 sec
     gradient                   ...        0 min,  0.070 sec
 * total energy  :   -37.6356831 Eh     change       -0.8820913E-04 Eh
   gradient norm :     0.0047327 Eh/α   predicted    -0.5429360E-04 ( -38.45%)
   displ. norm   :     0.2389913 α      lambda       -0.1173843E-03
   maximum displ.:     0.1542889 α      in ANC's #8, #1, #10, ...

........................................................................
.............................. CYCLE   64 ..............................
........................................................................
   1    -38.2644689 -0.382645E+02  0.534E-02    1.53       0.0  T
   2    -38.2644694 -0.530912E-06  0.320E-02    1.53       1.0  T
   3    -38.2644671  0.226685E-05  0.111E-02    1.53       1.6  T
   4    -38.2644698 -0.264995E-05  0.366E-03    1.53       4.9  T
   5    -38.2644698  0.218741E-07  0.298E-03    1.53       6.0  T
   6    -38.2644698  0.726952E-08  0.156E-03    1.53      11.5  T
   7    -38.2644698 -0.526677E-07  0.467E-04    1.53      38.4  T
   8    -38.2644698 -0.844132E-09  0.230E-04    1.53      78.1  T
     SCC iter.                  ...        0 min,  0.543 sec
     gradient                   ...        0 min,  0.053 sec
 * total energy  :   -37.6357793 Eh     change       -0.9623902E-04 Eh
   gradient norm :     0.0043322 Eh/α   predicted    -0.6205370E-04 ( -35.52%)
   displ. norm   :     0.2403254 α      lambda       -0.1024444E-03
   maximum displ.:     0.1582789 α      in ANC's #8, #1, #10, ...

........................................................................
.............................. CYCLE   65 ..............................
........................................................................
   1    -38.2649038 -0.382649E+02  0.512E-02    1.53       0.0  T
   2    -38.2649041 -0.298771E-06  0.305E-02    1.53       1.0  T
   3    -38.2649024  0.165721E-05  0.880E-03    1.53       2.0  T
   4    -38.2649043 -0.183867E-05  0.224E-03    1.53       8.0  T
   5    -38.2649043 -0.245466E-07  0.198E-03    1.53       9.1  T
   6    -38.2649043 -0.224319E-07  0.109E-03    1.53      16.5  T
   7    -38.2649043 -0.298185E-08  0.440E-04    1.53      40.8  T
   8    -38.2649043 -0.490559E-09  0.236E-04    1.53      76.2  T
     SCC iter.                  ...        0 min,  0.459 sec
     gradient                   ...        0 min,  0.044 sec
 * total energy  :   -37.6358637 Eh     change       -0.8439949E-04 Eh
   gradient norm :     0.0053935 Eh/α   predicted    -0.5418345E-04 ( -35.80%)
   displ. norm   :     0.2303239 α      lambda       -0.1154959E-03
   maximum displ.:     0.1615695 α      in ANC's #8, #1, #10, ...

........................................................................
.............................. CYCLE   66 ..............................
........................................................................
   1    -38.2655384 -0.382655E+02  0.525E-02    1.53       0.0  T
   2    -38.2655385 -0.905542E-07  0.318E-02    1.53       1.0  T
   3    -38.2655309  0.756393E-05  0.179E-02    1.53       1.0  T
   4    -38.2655391 -0.814996E-05  0.303E-03    1.53       5.9  T
   5    -38.2655391 -0.159392E-07  0.201E-03    1.53       8.9  T
   6    -38.2655391 -0.137487E-07  0.112E-03    1.53      16.0  T
   7    -38.2655391 -0.682348E-08  0.383E-04    1.53      46.9  T
   8    -38.2655391 -0.279449E-09  0.234E-04    1.53      76.8  T
     SCC iter.                  ...        0 min,  0.437 sec
     gradient                   ...        0 min,  0.169 sec
 * total energy  :   -37.6359588 Eh     change       -0.9502033E-04 Eh
   gradient norm :     0.0048488 Eh/α   predicted    -0.6081461E-04 ( -36.00%)
   displ. norm   :     0.4875532 α      lambda       -0.2054541E-03
   maximum displ.:     0.3057699 α      in ANC's #8, #1, #3, ...
 * RMSD in coord.:     0.8686595 α      energy gain  -0.2050208E-02 Eh

generating ANC from model Hessian ...
Using Lindh-Hessian (1995)
 Shifting diagonal of input Hessian by    1.0854048625490867E-002
 Lowest  eigenvalues of input Hessian
    0.010000    0.000000    0.000000    0.000000    0.000000    0.000000
    0.000000    0.010878    0.011297    0.011835    0.012083    0.012458
    0.013403    0.014244    0.016643    0.017067    0.018951    0.019022
 Highest eigenvalues
    1.732718    1.736649    2.006826    2.208714    3.441128    3.993186


........................................................................
.............................. CYCLE   67 ..............................
........................................................................
   1    -38.2617364 -0.382617E+02  0.101E-01    1.53       0.0  T
   2    -38.2617377 -0.130998E-05  0.613E-02    1.53       1.0  T
   3    -38.2617177  0.200226E-04  0.293E-02    1.52       1.0  T
   4    -38.2617392 -0.215286E-04  0.597E-03    1.53       3.0  T
   5    -38.2617397 -0.427558E-06  0.390E-03    1.53       4.6  T
   6    -38.2617397 -0.636375E-08  0.229E-03    1.53       7.8  T
   7    -38.2617397 -0.201787E-07  0.102E-03    1.53      17.6  T
   8    -38.2617397 -0.722854E-08  0.518E-04    1.53      34.6  T
   9    -38.2617397 -0.953797E-09  0.212E-04    1.53      84.7  T
     SCC iter.                  ...        0 min,  0.614 sec
     gradient                   ...        0 min,  0.151 sec
 * total energy  :   -37.6360380 Eh     change       -0.7926639E-04 Eh
   gradient norm :     0.0137387 Eh/α   predicted     0.0000000E+00 (-100.00%)
   displ. norm   :     0.0560057 α      lambda       -0.2992170E-03
   maximum displ.:     0.0286894 α      in ANC's #8, #14, #1, ...

........................................................................
.............................. CYCLE   68 ..............................
........................................................................
   1    -38.2656184 -0.382656E+02  0.338E-02    1.53       0.0  T
   2    -38.2656192 -0.767299E-06  0.193E-02    1.53       1.0  T
   3    -38.2656164  0.280561E-05  0.167E-02    1.53       1.1  T
   4    -38.2656199 -0.354320E-05  0.651E-03    1.53       2.8  T
   5    -38.2656201 -0.148193E-06  0.454E-03    1.53       4.0  T
   6    -38.2656201 -0.917851E-08  0.173E-03    1.53      10.4  T
   7    -38.2656201 -0.168410E-07  0.491E-04    1.53      36.6  T
   8    -38.2656201 -0.739824E-09  0.230E-04    1.53      78.2  T
     SCC iter.                  ...        0 min,  0.505 sec
     gradient                   ...        0 min,  0.049 sec
 * total energy  :   -37.6362191 Eh     change       -0.1810863E-03 Eh
   gradient norm :     0.0027131 Eh/α   predicted    -0.1500795E-03 ( -17.12%)
   displ. norm   :     0.0613319 α      lambda       -0.5588775E-04
   maximum displ.:     0.0376513 α      in ANC's #1, #8, #7, ...

........................................................................
.............................. CYCLE   69 ..............................
........................................................................
   1    -38.2670351 -0.382670E+02  0.208E-02    1.52       0.0  T
   2    -38.2670352 -0.461776E-07  0.135E-02    1.52       1.3  T
   3    -38.2670339  0.125346E-05  0.109E-02    1.53       1.6  T
   4    -38.2670358 -0.193914E-05  0.268E-03    1.52       6.7  T
   5    -38.2670359 -0.110466E-06  0.163E-03    1.53      11.0  T
   6    -38.2670360 -0.675251E-08  0.806E-04    1.53      22.3  T
   7    -38.2670360  0.280082E-09  0.201E-04    1.53      89.3  T
     SCC iter.                  ...        0 min,  0.265 sec
     gradient                   ...        0 min,  0.030 sec
 * total energy  :   -37.6362552 Eh     change       -0.3606201E-04 Eh
   gradient norm :     0.0017200 Eh/α   predicted    -0.2815595E-04 ( -21.92%)
   displ. norm   :     0.1636247 α      lambda       -0.6034670E-04
   maximum displ.:     0.1170881 α      in ANC's #8, #1, #10, ...

........................................................................
.............................. CYCLE   70 ..............................
........................................................................
   1    -38.2684078 -0.382684E+02  0.565E-02    1.52       0.0  T
   2    -38.2684077  0.449696E-07  0.371E-02    1.52       1.0  T
   3    -38.2683928  0.149583E-04  0.270E-02    1.52       1.0  T
   4    -38.2684104 -0.176175E-04  0.576E-03    1.52       3.1  T
   5    -38.2684109 -0.459924E-06  0.367E-03    1.52       4.9  T
   6    -38.2684109 -0.616099E-07  0.171E-03    1.52      10.5  T
   7    -38.2684109 -0.304122E-08  0.348E-04    1.52      51.6  T
   8    -38.2684109 -0.190198E-08  0.195E-04    1.52      92.0  T
     SCC iter.                  ...        0 min,  0.345 sec
     gradient                   ...        0 min,  0.019 sec
 * total energy  :   -37.6363101 Eh     change       -0.5497550E-04 Eh
   gradient norm :     0.0037064 Eh/α   predicted    -0.3055661E-04 ( -44.42%)
   displ. norm   :     0.1816355 α      lambda       -0.9079962E-04
   maximum displ.:     0.1270850 α      in ANC's #8, #1, #7, ...

........................................................................
.............................. CYCLE   71 ..............................
........................................................................
   1    -38.2680331 -0.382680E+02  0.389E-02    1.51       0.0  T
   2    -38.2680333 -0.163722E-06  0.243E-02    1.52       1.0  T
   3    -38.2680263  0.700698E-05  0.180E-02    1.52       1.0  T
   4    -38.2680344 -0.812556E-05  0.348E-03    1.51       5.2  T
   5    -38.2680346 -0.191046E-06  0.149E-03    1.52      12.0  T
   6    -38.2680346  0.147148E-08  0.811E-04    1.52      22.2  T
   7    -38.2680346 -0.177764E-08  0.288E-04    1.52      62.5  T
     SCC iter.                  ...        0 min,  0.291 sec
     gradient                   ...        0 min,  0.017 sec
 * total energy  :   -37.6363972 Eh     change       -0.8701127E-04 Eh
   gradient norm :     0.0056157 Eh/α   predicted    -0.4690153E-04 ( -46.10%)
   displ. norm   :     0.2956013 α      lambda       -0.1619911E-03
   maximum displ.:     0.1979511 α      in ANC's #8, #1, #7, ...

........................................................................
.............................. CYCLE   72 ..............................
........................................................................
   1    -38.2656842 -0.382657E+02  0.631E-02    1.51       0.0  T
   2    -38.2656857 -0.150017E-05  0.374E-02    1.52       1.0  T
   3    -38.2656811  0.452906E-05  0.167E-02    1.51       1.1  T
   4    -38.2656864 -0.521468E-05  0.499E-03    1.51       3.6  T
   5    -38.2656865 -0.140414E-06  0.355E-03    1.52       5.1  T
   6    -38.2656865 -0.338803E-07  0.216E-03    1.51       8.3  T
   7    -38.2656866 -0.385591E-07  0.553E-04    1.52      32.5  T
   8    -38.2656866 -0.315430E-08  0.362E-04    1.52      49.6  T
     SCC iter.                  ...        0 min,  0.353 sec
     gradient                   ...        0 min,  0.015 sec
 * total energy  :   -37.6365094 Eh     change       -0.1122322E-03 Eh
   gradient norm :     0.0107830 Eh/α   predicted    -0.8807569E-04 ( -21.52%)
   displ. norm   :     0.1114002 α      lambda       -0.6271529E-04
   maximum displ.:     0.0803935 α      in ANC's #8, #1, #7, ...

........................................................................
.............................. CYCLE   73 ..............................
........................................................................
   1    -38.2651407 -0.382651E+02  0.265E-02    1.52       0.0  T
   2    -38.2651407 -0.502808E-07  0.171E-02    1.52       1.0  T
   3    -38.2651378  0.293398E-05  0.117E-02    1.51       1.5  T
   4    -38.2651410 -0.322165E-05  0.313E-03    1.52       5.7  T
   5    -38.2651411 -0.138849E-06  0.171E-03    1.52      10.5  T
   6    -38.2651411 -0.904203E-08  0.519E-04    1.52      34.6  T
   7    -38.2651411 -0.571589E-09  0.210E-04    1.52      85.5  T
     SCC iter.                  ...        0 min,  0.366 sec
     gradient                   ...        0 min,  0.067 sec
 * total energy  :   -37.6365603 Eh     change       -0.5087874E-04 Eh
   gradient norm :     0.0094822 Eh/α   predicted    -0.3174792E-04 ( -37.60%)
   displ. norm   :     0.1864891 α      lambda       -0.1414148E-03
   maximum displ.:     0.1366388 α      in ANC's #8, #1, #2, ...

........................................................................
.............................. CYCLE   74 ..............................
........................................................................
   1    -38.2651407 -0.382651E+02  0.544E-02    1.52       0.0  T
   2    -38.2651397  0.109409E-05  0.375E-02    1.52       1.0  T
   3    -38.2651287  0.109481E-04  0.286E-02    1.51       1.0  T
   4    -38.2651447 -0.160059E-04  0.571E-03    1.52       3.1  T
   5    -38.2651451 -0.422695E-06  0.311E-03    1.52       5.8  T
   6    -38.2651452 -0.498975E-07  0.127E-03    1.52      14.1  T
   7    -38.2651452 -0.557307E-08  0.424E-04    1.52      42.4  T
   8    -38.2651452 -0.244748E-08  0.214E-04    1.52      83.8  T
     SCC iter.                  ...        0 min,  0.389 sec
     gradient                   ...        0 min,  0.004 sec
 * total energy  :   -37.6366529 Eh     change       -0.9259250E-04 Eh
   gradient norm :     0.0040798 Eh/α   predicted    -0.7318380E-04 ( -20.96%)
   displ. norm   :     0.1850797 α      lambda       -0.7444637E-04
   maximum displ.:     0.1208298 α      in ANC's #8, #1, #7, ...

........................................................................
.............................. CYCLE   75 ..............................
........................................................................
   1    -38.2648040 -0.382648E+02  0.510E-02    1.51       0.0  T
   2    -38.2648035  0.435129E-06  0.336E-02    1.52       1.0  T
   3    -38.2647895  0.140185E-04  0.260E-02    1.51       1.0  T
   4    -38.2648062 -0.167080E-04  0.452E-03    1.52       4.0  T
   5    -38.2648065 -0.223335E-06  0.244E-03    1.51       7.4  T
   6    -38.2648065 -0.782519E-08  0.899E-04    1.51      20.0  T
   7    -38.2648065 -0.802233E-08  0.412E-04    1.51      43.6  T
     SCC iter.                  ...        0 min,  0.235 sec
     gradient                   ...        0 min,  0.050 sec
 * total energy  :   -37.6367085 Eh     change       -0.5565114E-04 Eh
   gradient norm :     0.0048405 Eh/α   predicted    -0.3850408E-04 ( -30.81%)
   displ. norm   :     0.2053172 α      lambda       -0.1294459E-03
   maximum displ.:     0.1098984 α      in ANC's #8, #2, #1, ...

........................................................................
.............................. CYCLE   76 ..............................
........................................................................
   1    -38.2668271 -0.382668E+02  0.739E-02    1.51       0.0  T
   2    -38.2668267  0.409434E-06  0.497E-02    1.51       1.0  T
   3    -38.2668005  0.261645E-04  0.375E-02    1.51       1.0  T
   4    -38.2668330 -0.324814E-04  0.845E-03    1.51       2.1  T
   5    -38.2668339 -0.921789E-06  0.375E-03    1.51       4.8  T
   6    -38.2668339  0.812248E-08  0.140E-03    1.51      12.8  T
   7    -38.2668340 -0.338316E-07  0.615E-04    1.51      29.2  T
   8    -38.2668340 -0.204122E-08  0.348E-04    1.51      51.6  T
     SCC iter.                  ...        0 min,  0.274 sec
     gradient                   ...        0 min,  0.031 sec
 * total energy  :   -37.6367767 Eh     change       -0.6820319E-04 Eh
   gradient norm :     0.0047737 Eh/α   predicted    -0.6745170E-04 (  -1.10%)
   displ. norm   :     0.2494157 α      lambda       -0.7007476E-04
   maximum displ.:     0.1433686 α      in ANC's #8, #1, #2, ...

........................................................................
.............................. CYCLE   77 ..............................
........................................................................
   1    -38.2650806 -0.382651E+02  0.672E-02    1.50       0.0  T
   2    -38.2650807 -0.684255E-07  0.414E-02    1.50       1.0  T
   3    -38.2650618  0.188339E-04  0.293E-02    1.50       1.0  T
   4    -38.2650825 -0.207035E-04  0.635E-03    1.50       2.8  T
   5    -38.2650827 -0.135066E-06  0.446E-03    1.50       4.0  T
   6    -38.2650826  0.105959E-07  0.134E-03    1.50      13.4  T
   7    -38.2650827 -0.212229E-07  0.508E-04    1.50      35.3  T
   8    -38.2650827 -0.177143E-08  0.220E-04    1.50      81.5  T
     SCC iter.                  ...        0 min,  0.220 sec
     gradient                   ...        0 min,  0.028 sec
 * total energy  :   -37.6367930 Eh     change       -0.1633134E-04 Eh
   gradient norm :     0.0056739 Eh/α   predicted    -0.3721910E-04 ( 127.90%)
   displ. norm   :     0.0828294 α      lambda       -0.5176623E-04
   maximum displ.:     0.0590958 α      in ANC's #8, #1, #7, ...

........................................................................
.............................. CYCLE   78 ..............................
........................................................................
   1    -38.2667684 -0.382668E+02  0.282E-02    1.50       0.0  T
   2    -38.2667680  0.402626E-06  0.208E-02    1.50       1.0  T
   3    -38.2667667  0.125351E-05  0.144E-02    1.50       1.2  T
   4    -38.2667702 -0.341991E-05  0.335E-03    1.50       5.4  T
   5    -38.2667703 -0.118738E-06  0.178E-03    1.50      10.1  T
   6    -38.2667703  0.120601E-08  0.869E-04    1.50      20.7  T
   7    -38.2667703 -0.336928E-08  0.331E-04    1.50      54.2  T
     SCC iter.                  ...        0 min,  0.394 sec
     gradient                   ...        0 min,  0.134 sec
 * total energy  :   -37.6368206 Eh     change       -0.2760096E-04 Eh
   gradient norm :     0.0012370 Eh/α   predicted    -0.2606066E-04 (  -5.58%)
   displ. norm   :     0.0707253 α      lambda       -0.1107685E-04
   maximum displ.:     0.0527233 α      in ANC's #2, #7, #8, ...

........................................................................
.............................. CYCLE   79 ..............................
........................................................................
   1    -38.2672551 -0.382673E+02  0.171E-02    1.50       0.0  T
   2    -38.2672552 -0.434928E-07  0.108E-02    1.50       1.7  T
   3    -38.2672539  0.125277E-05  0.964E-03    1.50       1.9  T
   4    -38.2672557 -0.173067E-05  0.238E-03    1.50       7.5  T
   5    -38.2672557 -0.407928E-07  0.164E-03    1.50      11.0  T
   6    -38.2672557 -0.132228E-07  0.719E-04    1.50      25.0  T
   7    -38.2672557 -0.215604E-08  0.231E-04    1.50      77.9  T
     SCC iter.                  ...        0 min,  0.367 sec
     gradient                   ...        0 min,  0.026 sec
 * total energy  :   -37.6368320 Eh     change       -0.1137928E-04 Eh
   gradient norm :     0.0012247 Eh/α   predicted    -0.5552529E-05 ( -51.20%)
   displ. norm   :     0.0683336 α      lambda       -0.7146916E-05
   maximum displ.:     0.0495225 α      in ANC's #2, #8, #1, ...

........................................................................
.............................. CYCLE   80 ..............................
........................................................................
   1    -38.2671070 -0.382671E+02  0.142E-02    1.50       0.0  T
   2    -38.2671072 -0.196031E-06  0.837E-03    1.50       2.1  T
   3    -38.2671069  0.245101E-06  0.505E-03    1.50       3.6  T
   4    -38.2671073 -0.400079E-06  0.863E-04    1.50      20.8  T
   5    -38.2671073 -0.103833E-07  0.598E-04    1.50      30.0  T
     SCC iter.                  ...        0 min,  0.273 sec
     gradient                   ...        0 min,  0.099 sec
 * total energy  :   -37.6368394 Eh     change       -0.7353765E-05 Eh
   gradient norm :     0.0006088 Eh/α   predicted    -0.3584317E-05 ( -51.26%)
   displ. norm   :     0.0454162 α      lambda       -0.4645631E-05
   maximum displ.:     0.0379950 α      in ANC's #2, #7, #8, ...

........................................................................
.............................. CYCLE   81 ..............................
........................................................................
   1    -38.2670553 -0.382671E+02  0.123E-02    1.50       0.0  T
   2    -38.2670553 -0.355595E-07  0.748E-03    1.50       2.4  T
   3    -38.2670548  0.535041E-06  0.706E-03    1.50       2.5  T
   4    -38.2670554 -0.618964E-06  0.201E-03    1.50       8.9  T
   5    -38.2670554 -0.222668E-07  0.125E-03    1.50      14.3  T
   6    -38.2670554 -0.596261E-08  0.370E-04    1.50      48.6  T
   7    -38.2670554 -0.250603E-08  0.149E-04    1.50     120.6  T
     SCC iter.                  ...        0 min,  0.333 sec
     gradient                   ...        0 min,  0.105 sec
 * total energy  :   -37.6368443 Eh     change       -0.4953988E-05 Eh
   gradient norm :     0.0009417 Eh/α   predicted    -0.2328452E-05 ( -53.00%)
   displ. norm   :     0.0469698 α      lambda        0.1218476E-05
   maximum displ.:     0.0393690 α      in ANC's #2, #7, #8, ...

   *** GEOMETRY OPTIMIZATION CONVERGED AFTER 81 ITERATIONS ***

------------------------------------------------------------------------
 total energy gain   :        -3.7706208 Eh    -2366.1003 kcal/mol
 total RMSD          :         1.8355439 a0        0.9713 Å
 total power (kW/mol):      -122.2193042 (step) -197.7807 (real)
------------------------------------------------------------------------

 ANCopt (total)                0 d,  0 h,  0 min, 50.054 sec
 optimizer setup                ...        0 min,  0.000 sec (  0.001%)
 model hessian                  ...        0 min,  0.157 sec (  0.313%)
 ANC generation                 ...        0 min,  0.058 sec (  0.116%)
 coordinate transformation      ...        0 min,  0.002 sec (  0.004%)
 single point calculation       ...        0 min, 49.039 sec ( 97.972%)
 optimization log               ...        0 min,  0.038 sec (  0.076%)
 hessian update                 ...        0 min,  0.469 sec (  0.937%)
 rational function              ...        0 min,  0.263 sec (  0.526%)

================
 final structure:
================
31
 xtb: 6.5.1 (b24c23e)
Zr          -1.21121368539233       -0.14785842225993        0.62112139738254
C           -1.48982691495050        1.48495009803938       -1.50103518306730
C            0.28897923618840       -2.07443568306391        0.84634306935988
C            0.50602669976851       -1.53097989780502       -0.44378463034095
C           -0.67953506615525       -1.72016310606828       -1.20054390060701
C           -1.63192634605350       -2.35687483275562       -0.37194106022817
C           -1.04273629653058       -2.55750251224952        0.90539720320792
H            1.05054061485847       -2.22738225113415        1.60237088671812
H            1.46405044148038       -1.20578031203727       -0.83868734922661
H           -0.78425645444989       -1.55293275215470       -2.26637202506077
H           -2.57152264495825       -2.77961253464180       -0.70615671523814
H           -1.46667221544935       -3.14906519427978        1.71129968301834
C           -0.45850891428374        0.10590127521596        2.92751378037456
C           -1.68544835341558        0.80440314775942        2.80107406559280
C           -1.47285728151451        1.90264395095803        1.92414209550336
C           -0.12097318717838        1.87393749443503        1.50559599238961
C            0.50638830013796        0.76381948409683        2.12160456217494
H           -0.25710267551422       -0.68772988949466        3.63921638049602
H           -2.56886346948953        0.64073743665691        3.40946406702921
H           -2.17757739799748        2.70335087691881        1.73312234662570
H            0.38645362639526        2.65770703874149        0.95308892464783
H            1.57144574912114        0.55789697186994        2.11181541268154
H           -0.50526437401961        1.06098586198024       -1.18744390526088
H           -1.59858191198544        1.41470363111563       -2.57484076176590
H           -1.60986049715712        2.51259419968113       -1.17027736629996
C           -3.52954383765775        0.03103447344386        0.33319210631575
C           -3.40032812458275        0.56912602545208       -0.96638512636755
H           -3.88147409121034        1.51819131670698       -1.18100205558409
H           -3.44693644558297       -0.12504403738659       -1.80410431389048
H           -4.02856089966449        0.69067507432629        1.04975756071609
H           -3.90151722276863       -0.99940188208454        0.38154973872570

 Bond Distances (Angstroems)
 ---------------------------
Zr1-C2=2.6921        Zr1-C3=2.4521        Zr1-C4=2.4487        Zr1-C5=2.4644        Zr1-C6=2.4582        Zr1-C7=2.4322        
Zr1-C13=2.4393       Zr1-C14=2.4257       Zr1-C15=2.4435       Zr1-C16=2.4614       Zr1-C17=2.4562       Zr1-H23=2.2870       
Zr1-C26=2.3430       Zr1-C27=2.7976       C2-Zr1=2.6921        C2-H23=1.1169        C2-H24=1.0816        C2-H25=1.0862        
C3-Zr1=2.4521        C3-C4=1.4166         C3-C7=1.4179         C3-H8=1.0839         C4-Zr1=2.4487        C4-C3=1.4166         
C4-C5=1.4192         C4-H9=1.0861         C5-Zr1=2.4644        C5-C4=1.4192         C5-C6=1.4139         C5-H10=1.0839        
C6-Zr1=2.4582        C6-C5=1.4139         C6-C7=1.4209         C6-H11=1.0832        C7-Zr1=2.4322        C7-C3=1.4179         
C7-C6=1.4209         C7-H12=1.0859        H8-C3=1.0839         H9-C4=1.0861         H10-C5=1.0839        H11-C6=1.0832        
H12-C7=1.0859        C13-Zr1=2.4393       C13-C14=1.4175       C13-C17=1.4189       C13-H18=1.0849       C14-Zr1=2.4257       
C14-C13=1.4175       C14-C15=1.4214       C14-H19=1.0851       C15-Zr1=2.4435       C15-C14=1.4214       C15-C16=1.4155       
C15-H20=1.0836       C16-Zr1=2.4614       C16-C15=1.4155       C16-C17=1.4161       C16-H21=1.0849       C17-Zr1=2.4562       
C17-C13=1.4189       C17-C16=1.4161       C17-H22=1.0848       H18-C13=1.0849       H19-C14=1.0851       H20-C15=1.0836       
H21-C16=1.0849       H22-C17=1.0848       H23-Zr1=2.2870       H23-C2=1.1169        H24-C2=1.0816        H25-C2=1.0862        
C26-Zr1=2.3430       C26-C27=1.4125       C26-H30=1.0944       C26-H31=1.0966       C27-Zr1=2.7976       C27-C26=1.4125       
C27-H28=1.0855       C27-H29=1.0890       H28-C27=1.0855       H29-C27=1.0890       H30-C26=1.0944       H31-C26=1.0966       
 C  H  Rav=1.0880 sigma=0.0081  Rmin=1.0816  Rmax=1.1169    17
 C  C  Rav=1.4173 sigma=0.0026  Rmin=1.4125  Rmax=1.4214    11
 Zr H  Rav=2.2870 sigma=0.0000  Rmin=2.2870  Rmax=2.2870     1
 Zr C  Rav=2.4857 sigma=0.1163  Rmin=2.3430  Rmax=2.7976    13

 selected bond angles (degree)
 --------------------
C3-Zr1-C2=127.75               C4-Zr1-C2= 94.15               C4-Zr1-C3= 33.60               C5-Zr1-C2= 80.01               
C5-Zr1-C3= 55.57               C5-Zr1-C4= 33.58               C6-Zr1-C2=102.06               C6-Zr1-C3= 55.65               
C6-Zr1-C4= 55.72               C6-Zr1-C5= 33.38               C7-Zr1-C2=134.44               C7-Zr1-C3= 33.75               
C7-Zr1-C4= 56.13               C7-Zr1-C5= 55.90               C7-Zr1-C6= 33.78               C13-Zr1-C2=135.58              
C13-Zr1-C3= 78.82              C13-Zr1-C4=104.69              C13-Zr1-C5=134.32              C13-Zr1-C6=121.89              
C13-Zr1-C7= 88.35              C14-Zr1-C2=116.75              C14-Zr1-C3=110.21              C14-Zr1-C4=138.56              
C14-Zr1-C5=163.13              C14-Zr1-C6=133.03              C14-Zr1-C7=107.30              C14-Zr1-C13= 33.88             
C15-Zr1-C2= 84.28              C15-Zr1-C3=132.52              C15-Zr1-C4=141.35              C15-Zr1-C5=162.30              
C15-Zr1-C6=162.02              C15-Zr1-C7=140.94              C15-Zr1-C13= 56.05             C15-Zr1-C14= 33.94             
C16-Zr1-C2= 80.26              C16-Zr1-C3=109.96              C16-Zr1-C4=108.04              C16-Zr1-C5=133.96              
C16-Zr1-C6=163.55              C16-Zr1-C7=137.82              C16-Zr1-C13= 55.81             C16-Zr1-C14= 56.03             
C16-Zr1-C15= 33.54             C17-Zr1-C2=109.20              C17-Zr1-C3= 78.91              C17-Zr1-C4= 89.14              
C17-Zr1-C5=122.51              C17-Zr1-C6=134.43              C17-Zr1-C7=104.35              C17-Zr1-C13= 33.69             
C17-Zr1-C14= 56.08             C17-Zr1-C15= 55.78             C17-Zr1-C16= 33.47             H23-Zr1-C2= 24.21              
H23-Zr1-C3=107.40              H23-Zr1-C4= 74.82              H23-Zr1-C5= 71.70              H23-Zr1-C6=102.03              
H23-Zr1-C7=126.49              H23-Zr1-C13=126.69             H23-Zr1-C14=124.30             H23-Zr1-C15= 90.64             
H23-Zr1-C16= 73.34             H23-Zr1-C17= 94.07             C26-Zr1-C2= 75.78              C26-Zr1-C3=132.58              
C26-Zr1-C4=133.13              C26-Zr1-C5= 99.87              C26-Zr1-C6= 81.35              C26-Zr1-C7= 99.12              
C26-Zr1-C13=114.43             C26-Zr1-C14= 83.51             C26-Zr1-C15= 84.00             C26-Zr1-C16=114.82             
C26-Zr1-C17=137.62             C26-Zr1-H23= 99.67             C27-Zr1-C2= 46.86              C27-Zr1-C3=137.07              
C27-Zr1-C4=116.54              C27-Zr1-C5= 85.00              C27-Zr1-C6= 82.37              C27-Zr1-C7=111.99              
C27-Zr1-C13=138.71             C27-Zr1-C14=104.86             C27-Zr1-C15= 90.21             C27-Zr1-C16=109.88             
C27-Zr1-C17=143.01             C27-Zr1-H23= 69.96             C27-Zr1-C26= 30.28             H23-C2-Zr1= 57.13              
H24-C2-Zr1=138.91              H24-C2-H23=110.04              H25-C2-Zr1=110.20              H25-C2-H23=111.78              
H25-C2-H24=110.65              C4-C3-Zr1= 73.06               C7-C3-Zr1= 72.36               C7-C3-C4=108.21                
H8-C3-Zr1=127.21               H8-C3-C4=125.57                H8-C3-C7=125.65                C3-C4-Zr1= 73.33               
C5-C4-Zr1= 73.82               C5-C4-C3=107.85                H9-C4-Zr1=127.42               H9-C4-C3=125.53                
H9-C4-C5=125.66                C4-C5-Zr1= 72.60               C6-C5-Zr1= 73.07               C6-C5-C4=108.07                
H10-C5-Zr1=127.41              H10-C5-C4=125.77               H10-C5-C6=125.50               C5-C6-Zr1= 73.55               
C7-C6-Zr1= 72.11               C7-C6-C5=108.13                H11-C6-Zr1=128.60              H11-C6-C5=125.40               
H11-C6-C7=125.59               C3-C7-Zr1= 73.90               C6-C7-Zr1= 74.12               C6-C7-C3=107.69                
H12-C7-Zr1=126.83              H12-C7-C3=125.68               H12-C7-C6=125.61               

 selected dihedral angles (degree)
 ---------------------------------
H23-C2-Zr1-C3=323.10          H23-C2-Zr1-C4=323.26          H23-C2-Zr1-C5=292.68          H23-C2-Zr1-C6=267.45          
H23-C2-Zr1-C7=278.62          H23-C2-Zr1-C13= 79.18         H23-C2-Zr1-C14=114.70         H23-C2-Zr1-C15=104.49         
H23-C2-Zr1-C16= 70.87         H23-C2-Zr1-C17= 53.79         H23-C2-Zr1-C26=189.73         H23-C2-Zr1-C27=200.17         
H24-C2-Zr1-C3= 46.19          H24-C2-Zr1-C4= 46.35          H24-C2-Zr1-C5= 15.78          H24-C2-Zr1-C6=350.55          
H24-C2-Zr1-C7=  1.72          H24-C2-Zr1-C13=162.28         H24-C2-Zr1-C14=197.79         H24-C2-Zr1-C15=187.59         
H24-C2-Zr1-C16=153.96         H24-C2-Zr1-C17=136.88         H24-C2-Zr1-H23= 83.10         H24-C2-Zr1-C26=272.83         
H24-C2-Zr1-C27=283.27         H25-C2-Zr1-C3=219.62          H25-C2-Zr1-C4=219.78          H25-C2-Zr1-C5=189.21          
H25-C2-Zr1-C6=163.98          H25-C2-Zr1-C7=175.15          H25-C2-Zr1-C13=335.71         H25-C2-Zr1-C14= 11.22         
H25-C2-Zr1-C15=  1.02         H25-C2-Zr1-C16=327.39         H25-C2-Zr1-C17=310.31         H25-C2-Zr1-H23=256.53         
H25-C2-Zr1-C26= 86.26         H25-C2-Zr1-C27= 96.70         C4-C3-Zr1-C2=  0.29           C4-C3-Zr1-C5= 37.48           
C4-C3-Zr1-C6= 78.22           C4-C3-Zr1-C7=116.08           C4-C3-Zr1-C13=220.14          C4-C3-Zr1-C14=207.20          
C4-C3-Zr1-C15=237.68          C4-C3-Zr1-C16=267.21          C4-C3-Zr1-C17=254.51          C4-C3-Zr1-H23=345.33          
C4-C3-Zr1-C26=107.13          C4-C3-Zr1-C27= 64.36          C7-C3-Zr1-C2=244.21           C7-C3-Zr1-C4=243.92           
C7-C3-Zr1-C5=281.40           C7-C3-Zr1-C6=322.13           C7-C3-Zr1-C13=104.06          C7-C3-Zr1-C14= 91.12          
C7-C3-Zr1-C15=121.59          C7-C3-Zr1-C16=151.13          C7-C3-Zr1-C17=138.42          C7-C3-Zr1-H23=229.25          
C7-C3-Zr1-C26=351.05          C7-C3-Zr1-C27=308.28          H8-C3-Zr1-C2=122.45           H8-C3-Zr1-C4=122.16           
H8-C3-Zr1-C5=159.64           H8-C3-Zr1-C6=200.37           H8-C3-Zr1-C7=238.24           H8-C3-Zr1-C13=342.30          
H8-C3-Zr1-C14=329.36          H8-C3-Zr1-C15=359.84          H8-C3-Zr1-C16= 29.37          H8-C3-Zr1-C17= 16.66          
H8-C3-Zr1-H23=107.49          H8-C3-Zr1-C26=229.29          H8-C3-Zr1-C27=186.52          C3-C4-Zr1-C2=180.23           
C3-C4-Zr1-C5=245.17           C3-C4-Zr1-C6=282.00           C3-C4-Zr1-C7=323.06           C3-C4-Zr1-C13= 40.83          
C3-C4-Zr1-C14= 40.40          C3-C4-Zr1-C15= 94.21          C3-C4-Zr1-C16= 99.13          C3-C4-Zr1-C17= 71.05          
C3-C4-Zr1-H23=165.50          C3-C4-Zr1-C26=254.60          C3-C4-Zr1-C27=223.34          C5-C4-Zr1-C2=295.06           
C5-C4-Zr1-C3=114.83           C5-C4-Zr1-C6= 36.84           C5-C4-Zr1-C7= 77.90           C5-C4-Zr1-C13=155.67          
C5-C4-Zr1-C14=155.24          C5-C4-Zr1-C15=209.04          C5-C4-Zr1-C16=213.96          C5-C4-Zr1-C17=185.88          
C5-C4-Zr1-H23=280.34          C5-C4-Zr1-C26=  9.43          C5-C4-Zr1-C27=338.17          H9-C4-Zr1-C2= 57.90           
H9-C4-Zr1-C3=237.67           H9-C4-Zr1-C5=122.84           H9-C4-Zr1-C6=159.67           H9-C4-Zr1-C7=200.73           
H9-C4-Zr1-C13=278.50          H9-C4-Zr1-C14=278.08          H9-C4-Zr1-C15=331.88          H9-C4-Zr1-C16=336.80          
H9-C4-Zr1-C17=308.72          H9-C4-Zr1-H23= 43.17          H9-C4-Zr1-C26=132.27          H9-C4-Zr1-C27=101.01          
Zr1-C4-C3-C7= 64.29           Zr1-C4-C3-H8=235.98           C5-C4-C3-Zr1=293.70           C5-C4-C3-C7=358.00            
C5-C4-C3-H8=169.69            H9-C4-C3-Zr1=124.44           H9-C4-C3-C7=188.74            H9-C4-C3-H8=  0.43            
C4-C5-Zr1-C2=113.46           C4-C5-Zr1-C3=322.49           C4-C5-Zr1-C6=244.20           C4-C5-Zr1-C7=281.37           
C4-C5-Zr1-C13=326.14          C4-C5-Zr1-C14=287.25          C4-C5-Zr1-C15= 85.66          C4-C5-Zr1-C16= 47.56          
C4-C5-Zr1-C17=  6.98          C4-C5-Zr1-H23= 89.97          C4-C5-Zr1-C26=186.97          C4-C5-Zr1-C27=160.50          
C6-C5-Zr1-C2=229.26           C6-C5-Zr1-C3= 78.29           C6-C5-Zr1-C4=115.80           C6-C5-Zr1-C7= 37.17           
C6-C5-Zr1-C13= 81.94          C6-C5-Zr1-C14= 43.05          C6-C5-Zr1-C15=201.46          C6-C5-Zr1-C16=163.35          
C6-C5-Zr1-C17=122.78          C6-C5-Zr1-H23=205.77          C6-C5-Zr1-C26=302.77          C6-C5-Zr1-C27=276.30          
H10-C5-Zr1-C2=351.35          H10-C5-Zr1-C3=200.38          H10-C5-Zr1-C4=237.90          H10-C5-Zr1-C6=122.10          
H10-C5-Zr1-C7=159.26          H10-C5-Zr1-C13=204.04         H10-C5-Zr1-C14=165.14         H10-C5-Zr1-C15=323.56         
H10-C5-Zr1-C16=285.45         H10-C5-Zr1-C17=244.87         H10-C5-Zr1-H23=327.86         H10-C5-Zr1-C26= 64.87         
H10-C5-Zr1-C27= 38.39         Zr1-C5-C4-C3= 65.97           Zr1-C5-C4-H9=235.21           C6-C5-C4-Zr1=295.04           
C6-C5-C4-C3=  1.01            C6-C5-C4-H9=170.26            H10-C5-C4-Zr1=123.99          H10-C5-C4-C3=189.96           
H10-C5-C4-H9=359.20           C5-C6-Zr1-C2= 49.73           C5-C6-Zr1-C3=281.97           C5-C6-Zr1-C4=322.94           
C5-C6-Zr1-C7=244.14           C5-C6-Zr1-C13=236.54          C5-C6-Zr1-C14=195.72          C5-C6-Zr1-C15=158.87          
C5-C6-Zr1-C16=313.25          C5-C6-Zr1-C17=276.87          C5-C6-Zr1-H23= 24.96          C5-C6-Zr1-C26=123.08          
C5-C6-Zr1-C27= 92.50          C7-C6-Zr1-C2=165.59           C7-C6-Zr1-C3= 37.83           C7-C6-Zr1-C4= 78.81           
C7-C6-Zr1-C5=115.86           C7-C6-Zr1-C13=352.40          C7-C6-Zr1-C14=311.59          C7-C6-Zr1-C15=274.74          
C7-C6-Zr1-C16= 69.12          C7-C6-Zr1-C17= 32.73          C7-C6-Zr1-H23=140.82          C7-C6-Zr1-C26=238.94          
C7-C6-Zr1-C27=208.36          H11-C6-Zr1-C2=287.25          H11-C6-Zr1-C3=159.49          H11-C6-Zr1-C4=200.46          
H11-C6-Zr1-C5=237.52          H11-C6-Zr1-C7=121.65          H11-C6-Zr1-C13=114.05         H11-C6-Zr1-C14= 73.24         
H11-C6-Zr1-C15= 36.39         H11-C6-Zr1-C16=190.77         H11-C6-Zr1-C17=154.39         H11-C6-Zr1-H23=262.48         
H11-C6-Zr1-C26=  0.60         H11-C6-Zr1-C27=330.02         Zr1-C6-C5-C4= 64.65           Zr1-C6-C5-H10=235.74          
C7-C6-C5-Zr1=295.71           C7-C6-C5-C4=  0.36            C7-C6-C5-H10=171.44           H11-C6-C5-Zr1=126.02          
H11-C6-C5-C4=190.68           H11-C6-C5-H10=  1.76          C3-C7-Zr1-C2= 94.34           C3-C7-Zr1-C4= 36.78           
C3-C7-Zr1-C5= 77.55           C3-C7-Zr1-C6=114.27           C3-C7-Zr1-C13=287.82          C3-C7-Zr1-C14=259.33          
C3-C7-Zr1-C15=265.05          C3-C7-Zr1-C16=317.47          C3-C7-Zr1-C17=317.76          C3-C7-Zr1-H23= 64.05          
C3-C7-Zr1-C26=173.34          C3-C7-Zr1-C27=144.79          C6-C7-Zr1-C2=340.07           C6-C7-Zr1-C3=245.73           
C6-C7-Zr1-C4=282.51           C6-C7-Zr1-C5=323.28           C6-C7-Zr1-C13=173.55          C6-C7-Zr1-C14=145.06          
C6-C7-Zr1-C15=150.78          C6-C7-Zr1-C16=203.20          C6-C7-Zr1-C17=203.49          C6-C7-Zr1-H23=309.78          
C6-C7-Zr1-C26= 59.07          C6-C7-Zr1-C27= 30.52          H12-C7-Zr1-C2=217.17          H12-C7-Zr1-C3=122.83          
H12-C7-Zr1-C4=159.61          H12-C7-Zr1-C5=200.38          H12-C7-Zr1-C6=237.10          H12-C7-Zr1-C13= 50.65         
H12-C7-Zr1-C14= 22.16         H12-C7-Zr1-C15= 27.88         H12-C7-Zr1-C16= 80.30         H12-C7-Zr1-C17= 80.59         
H12-C7-Zr1-H23=186.88         H12-C7-Zr1-C26=296.17         H12-C7-Zr1-C27=267.62         Zr1-C7-C3-C4=295.24           
Zr1-C7-C3-H8=123.56           C6-C7-C3-Zr1= 66.98           C6-C7-C3-C4=  2.22            C6-C7-C3-H8=190.54            
H12-C7-C3-Zr1=235.89          H12-C7-C3-C4=171.13           H12-C7-C3-H8=359.45           Zr1-C7-C6-C5= 65.24           
Zr1-C7-C6-H11=234.90          C3-C7-C6-Zr1=293.17           C3-C7-C6-C5=358.41            C3-C7-C6-H11=168.07           
H12-C7-C6-Zr1=124.25          H12-C7-C6-C5=189.49           H12-C7-C6-H11=359.14          

 CMA Distance (Angstroems)
 ---------------------------
R(CMA):  2.8980
           -------------------------------------------------
          |                Final Singlepoint                |
           -------------------------------------------------

          ...................................................
          :                      SETUP                      :
          :.................................................:
          :  # basis functions                  79          :
          :  # atomic orbitals                  78          :
          :  # shells                           46          :
          :  # electrons                        72          :
          :  max. iterations                   250          :
          :  Hamiltonian                  GFN2-xTB          :
          :  restarted?                      false          :
          :  GBSA solvation                  false          :
          :  PC potential                    false          :
          :  electronic temp.          300.0000000     K    :
          :  accuracy                    1.0000000          :
          :  -> integral cutoff          0.2500000E+02      :
          :  -> integral neglect         0.1000000E-07      :
          :  -> SCF convergence          0.1000000E-05 Eh   :
          :  -> wf. convergence          0.1000000E-03 e    :
          :  Broyden damping             0.4000000          :
          ...................................................

 iter      E             dE          RMSdq      gap      omega  full diag
   1    -38.2670554 -0.382671E+02  0.113E-04    1.50       0.0  T
   2    -38.2670554 -0.697753E-11  0.793E-05    1.50     226.4  T
   3    -38.2670554  0.272209E-10  0.440E-05    1.50     408.6  T

   *** convergence criteria satisfied after 3 iterations ***

         #    Occupation            Energy/Eh            Energy/eV
      -------------------------------------------------------------
         1        2.0000           -0.8724840             -23.7415
       ...           ...                  ...                  ...
        30        2.0000           -0.5824117             -15.8482
        31        2.0000           -0.5682338             -15.4624
        32        2.0000           -0.5240143             -14.2592
        33        2.0000           -0.5234842             -14.2447
        34        2.0000           -0.5139420             -13.9851
        35        2.0000           -0.5089322             -13.8488
        36        2.0000           -0.4818187             -13.1110 (HOMO)
        37                         -0.4267033             -11.6112 (LUMO)
        38                         -0.4128471             -11.2341
        39                         -0.4106025             -11.1731
        40                         -0.4044891             -11.0067
        41                         -0.4038763             -10.9900
       ...                                ...                  ...
        78                          2.4809390              67.5098
      -------------------------------------------------------------
                  HL-Gap            0.0551154 Eh            1.4998 eV
             Fermi-level           -0.4542610 Eh          -12.3611 eV

 SCC (total)                   0 d,  0 h,  0 min,  0.300 sec
 SCC setup                      ...        0 min,  0.011 sec (  3.607%)
 Dispersion                     ...        0 min,  0.000 sec (  0.094%)
 classical contributions        ...        0 min,  0.004 sec (  1.273%)
 integral evaluation            ...        0 min,  0.002 sec (  0.598%)
 iterations                     ...        0 min,  0.162 sec ( 54.121%)
 molecular gradient             ...        0 min,  0.121 sec ( 40.212%)
 printout                       ...        0 min,  0.000 sec (  0.085%)

         :::::::::::::::::::::::::::::::::::::::::::::::::::::
         ::                     SUMMARY                     ::
         :::::::::::::::::::::::::::::::::::::::::::::::::::::
         :: total energy             -37.636844329789 Eh    ::
         :: gradient norm              0.000942969819 Eh/a0 ::
         :: HOMO-LUMO gap              1.499765672597 eV    ::
         ::.................................................::
         :: SCC energy               -38.267055440220 Eh    ::
         :: -> isotropic ES            0.087045112206 Eh    ::
         :: -> anisotropic ES         -0.012455035032 Eh    ::
         :: -> anisotropic XC          0.020216293677 Eh    ::
         :: -> dispersion             -0.027698231895 Eh    ::
         :: repulsion energy           0.628641265218 Eh    ::
         :: add. restraining           0.000886588336 Eh    ::
         :: total charge               1.000000000000 e     ::
         :::::::::::::::::::::::::::::::::::::::::::::::::::::

           -------------------------------------------------
          |                Property Printout                |
           -------------------------------------------------

    * Orbital Energies and Occupations

         #    Occupation            Energy/Eh            Energy/eV
      -------------------------------------------------------------
         1        2.0000           -0.8724840             -23.7415
       ...           ...                  ...                  ...
        24        2.0000           -0.5973118             -16.2537
        25        2.0000           -0.5955047             -16.2045
        26        2.0000           -0.5934280             -16.1480
        27        2.0000           -0.5930782             -16.1385
        28        2.0000           -0.5917963             -16.1036
        29        2.0000           -0.5915122             -16.0959
        30        2.0000           -0.5824117             -15.8482
        31        2.0000           -0.5682338             -15.4624
        32        2.0000           -0.5240143             -14.2592
        33        2.0000           -0.5234842             -14.2447
        34        2.0000           -0.5139420             -13.9851
        35        2.0000           -0.5089322             -13.8488
        36        2.0000           -0.4818187             -13.1110 (HOMO)
        37                         -0.4267033             -11.6112 (LUMO)
        38                         -0.4128471             -11.2341
        39                         -0.4106025             -11.1731
        40                         -0.4044891             -11.0067
        41                         -0.4038763             -10.9900
        42                         -0.3597948              -9.7905
        43                         -0.3093210              -8.4171
        44                         -0.3091136              -8.4114
        45                         -0.3079453              -8.3796
        46                         -0.3072644              -8.3611
        47                         -0.0673190              -1.8318
       ...                                ...                  ...
        78                          2.4809390              67.5098
      -------------------------------------------------------------
                  HL-Gap            0.0551154 Eh            1.4998 eV
             Fermi-level           -0.4542610 Eh          -12.3611 eV

     #   Z          covCN         q      C6AA      α(0)
     1  40 Zr       9.857     0.952   138.774    17.701
     2   6 C        3.520    -0.224    26.595     7.603
     3   6 C        3.761    -0.082    22.113     6.704
     4   6 C        3.759    -0.091    22.294     6.731
     5   6 C        3.754    -0.089    22.260     6.728
     6   6 C        3.758    -0.086    22.197     6.717
     7   6 C        3.764    -0.091    22.278     6.728
     8   1 H        0.925     0.088     1.903     2.157
     9   1 H        0.925     0.077     2.009     2.217
    10   1 H        0.925     0.082     1.961     2.190
    11   1 H        0.925     0.085     1.933     2.174
    12   1 H        0.925     0.083     1.953     2.185
    13   6 C        3.763    -0.086    22.183     6.714
    14   6 C        3.766    -0.088    22.213     6.717
    15   6 C        3.763    -0.088    22.232     6.721
    16   6 C        3.754    -0.087    22.227     6.723
    17   6 C        3.757    -0.087    22.208     6.719
    18   1 H        0.925     0.086     1.916     2.165
    19   1 H        0.925     0.087     1.910     2.161
    20   1 H        0.925     0.088     1.897     2.154
    21   1 H        0.925     0.077     2.005     2.215
    22   1 H        0.925     0.084     1.941     2.179
    23   1 H        1.338     0.072     2.049     2.234
    24   1 H        0.925     0.076     2.021     2.223
    25   1 H        0.925     0.071     2.072     2.251
    26   6 C        3.616    -0.230    25.686     7.312
    27   6 C        3.462    -0.056    23.950     7.365
    28   1 H        0.925     0.102     1.765     2.077
    29   1 H        0.925     0.095     1.834     2.118
    30   1 H        0.925     0.089     1.890     2.150
    31   1 H        0.928     0.094     1.844     2.123

 Mol. C6AA /au·bohr⁶  :       9520.781649
 Mol. C8AA /au·bohr⁸  :     322906.737603
 Mol. α(0) /au        :        144.154840


Wiberg/Mayer (AO) data.
largest (>0.10) Wiberg bond orders for each atom

 ---------------------------------------------------------------------------
     #   Z sym  total        # sym  WBO       # sym  WBO       # sym  WBO
 ---------------------------------------------------------------------------
     1  40 Zr   4.316 --    26 C    0.606     2 C    0.397     7 C    0.261
                            14 C    0.260    13 C    0.248    15 C    0.243
                            17 C    0.240     4 C    0.240     6 C    0.239
                             3 C    0.234    16 C    0.233     5 C    0.232
                            27 C    0.172    23 H    0.135
     2   6 C    3.922 --    24 H    0.975    25 H    0.958    23 H    0.817
                            27 C    0.546     1 Zr   0.397    26 C    0.132
     3   6 C    3.981 --     4 C    1.307     7 C    1.301     8 H    0.924
                             1 Zr   0.234
     4   6 C    3.979 --     3 C    1.307     5 C    1.295     9 H    0.921
                             1 Zr   0.240
     5   6 C    3.979 --     6 C    1.314     4 C    1.295    10 H    0.926
                             1 Zr   0.232
     6   6 C    3.980 --     5 C    1.314     7 C    1.283    11 H    0.926
                             1 Zr   0.239
     7   6 C    3.978 --     3 C    1.301     6 C    1.283    12 H    0.918
                             1 Zr   0.261
     8   1 H    0.990 --     3 C    0.924
     9   1 H    0.993 --     4 C    0.921
    10   1 H    0.991 --     5 C    0.926
    11   1 H    0.990 --     6 C    0.926
    12   1 H    0.991 --     7 C    0.918
    13   6 C    3.980 --    17 C    1.299    14 C    1.298    18 H    0.921
                             1 Zr   0.248
    14   6 C    3.980 --    13 C    1.298    15 C    1.286    19 H    0.919
                             1 Zr   0.260
    15   6 C    3.979 --    16 C    1.310    14 C    1.286    20 H    0.924
                             1 Zr   0.243
    16   6 C    3.980 --    15 C    1.310    17 C    1.304    21 H    0.924
                             1 Zr   0.233
    17   6 C    3.980 --    16 C    1.304    13 C    1.299    22 H    0.923
                             1 Zr   0.240
    18   1 H    0.990 --    13 C    0.921
    19   1 H    0.990 --    14 C    0.919
    20   1 H    0.989 --    15 C    0.924
    21   1 H    0.992 --    16 C    0.924
    22   1 H    0.990 --    17 C    0.923
    23   1 H    0.995 --     2 C    0.817     1 Zr   0.135
    24   1 H    0.992 --     2 C    0.975
    25   1 H    0.993 --     2 C    0.958
    26   6 C    3.897 --    27 C    1.265    30 H    0.910    31 H    0.878
                             1 Zr   0.606     2 C    0.132
    27   6 C    3.976 --    26 C    1.265    28 H    0.952    29 H    0.942
                             2 C    0.546     1 Zr   0.172
    28   1 H    0.988 --    27 C    0.952
    29   1 H    0.990 --    27 C    0.942
    30   1 H    0.991 --    26 C    0.910
    31   1 H    0.990 --    26 C    0.878
 ---------------------------------------------------------------------------

Topologies differ in total number of bonds
Writing topology from bond orders to xtbtopo.mol

molecular dipole:
                 x           y           z       tot (Debye)
 q only:       -2.829      -0.077       0.772
   full:       -2.432      -0.061       0.731       6.456
molecular quadrupole (traceless):
                xx          xy          yy          xz          yz          zz
 q only:       10.155      -0.492      -7.290      -0.856      -3.834      -2.865
  q+dip:       10.230       0.193      -8.099      -0.997      -7.570      -2.131
   full:        8.868       1.156      -6.978      -2.313      -6.517      -1.890

           -------------------------------------------------
          |                Geometry Summary                 |
           -------------------------------------------------

      molecular mass/u    :      264.4982010
   center of mass at/Å    :       -1.1557215      -0.1698644       0.6360414
  moments of inertia/u·Å² :        0.6148292E+03   0.7197454E+03   0.9465423E+03
rotational constants/cm⁻¹ :        0.2741840E-01   0.2342166E-01   0.1780970E-01

 * 39 selected distances

     #   Z          #   Z                                           value/Å
     1  40 Zr       3   6 C                                       2.4521429
     1  40 Zr       4   6 C                                       2.4486661
     3   6 C        4   6 C                                       1.4166452
     1  40 Zr       5   6 C                                       2.4644045 (max)
     4   6 C        5   6 C                                       1.4191659
     1  40 Zr       6   6 C                                       2.4582365
     5   6 C        6   6 C                                       1.4138720
     1  40 Zr       7   6 C                                       2.4321972
     3   6 C        7   6 C                                       1.4178532
     6   6 C        7   6 C                                       1.4209116
     3   6 C        8   1 H                                       1.0839496
     4   6 C        9   1 H                                       1.0860537
     5   6 C       10   1 H                                       1.0839384
     6   6 C       11   1 H                                       1.0831660
     7   6 C       12   1 H                                       1.0858854
     1  40 Zr      13   6 C                                       2.4393453
     1  40 Zr      14   6 C                                       2.4256742
    13   6 C       14   6 C                                       1.4174881
     1  40 Zr      15   6 C                                       2.4435387
    14   6 C       15   6 C                                       1.4213859
     1  40 Zr      16   6 C                                       2.4614182
    15   6 C       16   6 C                                       1.4154843
     1  40 Zr      17   6 C                                       2.4561686
    13   6 C       17   6 C                                       1.4189338
    16   6 C       17   6 C                                       1.4161255
    13   6 C       18   1 H                                       1.0848667
    14   6 C       19   1 H                                       1.0850564
    15   6 C       20   1 H                                       1.0836285
    16   6 C       21   1 H                                       1.0849152
    17   6 C       22   1 H                                       1.0848260
     2   6 C       23   1 H                                       1.1168925
     2   6 C       24   1 H                                       1.0815826 (min)
     2   6 C       25   1 H                                       1.0862143
     1  40 Zr      26   6 C                                       2.3429814
    26   6 C       27   6 C                                       1.4124945
    27   6 C       28   1 H                                       1.0854893
    27   6 C       29   1 H                                       1.0889527
    26   6 C       30   1 H                                       1.0943537
    26   6 C       31   1 H                                       1.0965865

 * 3 distinct bonds (by element types)

   Z      Z             #   av. dist./Å        max./Å        min./Å
   1 H    6 C          17     1.0880210     1.1168925     1.0815826
   6 C    6 C          11     1.4173055     1.4213859     1.4124945
   6 C   40 Zr         11     2.4386158     2.4644045     2.3429814


optimized geometry written to: xtbopt.xyz


           -------------------------------------------------
          | TOTAL ENERGY              -37.636844329789 Eh   |
          | GRADIENT NORM               0.000942969819 Eh/α |
          | HOMO-LUMO GAP               1.499765672597 eV   |
           -------------------------------------------------

------------------------------------------------------------------------
 * finished run on 2026/08/16 at 16:00:58.115     
------------------------------------------------------------------------
 total:
 * wall-time:     0 d,  0 h,  0 min, 51.053 sec
 *  cpu-time:     0 d,  0 h,  2 min, 42.976 sec
 * ratio c/w:     3.192 speedup
 SCF:
 * wall-time:     0 d,  0 h,  0 min,  0.542 sec
 *  cpu-time:     0 d,  0 h,  0 min,  4.188 sec
 * ratio c/w:     7.720 speedup
 ANC optimizer:
 * wall-time:     0 d,  0 h,  0 min, 50.363 sec
 *  cpu-time:     0 d,  0 h,  2 min, 37.875 sec
 * ratio c/w:     3.135 speedup

