31
 energy: -37.636844329789 gnorm: 0.000942969819 xtb: 6.5.1 (b24c23e)
Zr          -1.21121368539233       -0.14785842225993        0.62112139738254
C           -1.48982691495050        1.48495009803938       -1.50103518306730
C            0.28897923618840       -2.07443568306391        0.84634306935988
C            0.50602669976851       -1.53097989780502       -0.44378463034095
C           -0.67953506615525       -1.72016310606828       -1.20054390060701
C           -1.63192634605350       -2.35687483275562       -0.37194106022817
C           -1.04273629653058       -2.55750251224952        0.90539720320792
H            1.05054061485847       -2.22738225113415        1.60237088671812
H            1.46405044148038       -1.20578031203727       -0.83868734922661
H           -0.78425645444989       -1.55293275215470       -2.26637202506077
H           -2.57152264495825       -2.77961253464180       -0.70615671523814
H           -1.46667221544935       -3.14906519427978        1.71129968301834
C           -0.45850891428374        0.10590127521596        2.92751378037456
C           -1.68544835341558        0.80440314775942        2.80107406559280
C           -1.47285728151451        1.90264395095803        1.92414209550336
C           -0.12097318717838        1.87393749443503        1.50559599238961
C            0.50638830013796        0.76381948409683        2.12160456217494
H           -0.25710267551422       -0.68772988949466        3.63921638049602
H           -2.56886346948953        0.64073743665691        3.40946406702921
H           -2.17757739799748        2.70335087691881        1.73312234662570
H            0.38645362639526        2.65770703874149        0.95308892464783
H            1.57144574912114        0.55789697186994        2.11181541268154
H           -0.50526437401961        1.06098586198024       -1.18744390526088
H           -1.59858191198544        1.41470363111563       -2.57484076176590
H           -1.60986049715712        2.51259419968113       -1.17027736629996
C           -3.52954383765775        0.03103447344386        0.33319210631575
C           -3.40032812458275        0.56912602545208       -0.96638512636755
H           -3.88147409121034        1.51819131670698       -1.18100205558409
H           -3.44693644558297       -0.12504403738659       -1.80410431389048
H           -4.02856089966449        0.69067507432629        1.04975756071609
H           -3.90151722276863       -0.99940188208454        0.38154973872570
