31
Initial TS guess for ethylene insertion into Zr-CH3
Zr      -1.51900000       0.14080000       0.14070000
C       -3.56900000       0.86583219      -1.11501825
C       -0.10488398      -1.98439677       1.22326159
C        0.45868400      -1.78517252      -0.11909603
C       -0.57089337      -2.14913354      -1.10245525
C       -1.77070466      -2.57327314      -0.36781600
C       -1.48270112      -2.47146238       1.06960569
H        0.40608400      -1.80376690       2.16205899
H        1.45843775      -1.43175430      -0.34442690
H       -0.46399338      -2.11134383      -2.18055412
H       -2.70439232      -2.90333665      -0.80876754
H       -2.16663518      -2.71323667       1.87518958
C       -0.10489729       0.26594184       2.52245944
C       -1.48271955       0.64254055       2.86742666
C       -1.77073135       1.93827205       2.23685418
C       -0.57092006       2.36241165       1.50221492
C        0.45866558       1.32883041       1.67872494
H        0.40607710      -0.63738351       2.83545223
H       -2.16665162       0.06578010       3.47961152
H       -2.70442420       2.48517232       2.30220397
H       -0.46402526       3.27716513       0.93041739
H        1.45842131       1.34726246       1.25999504
H       -3.10693418       0.31421003      -1.90698676
H       -4.61098228       0.98763772      -1.32583166
H       -3.10685275       1.82740814      -1.03321595
C       -3.76900000      -0.28421887       0.87681070
C       -4.96900000       0.09079778       0.22730126
H       -5.44816942       1.04456106       0.42094091
H       -5.45691329      -0.56073874      -0.48977951
H       -3.28108671       0.36731765       1.59389147
H       -3.28983058      -1.23798215       0.68317105
